
     Program PWSCF v.7.4 starts on 12Nov2025 at 12:18:58 

     This program is part of the open-source Quantum ESPRESSO suite
     for quantum simulation of materials; please cite
         "P. Giannozzi et al., J. Phys.:Condens. Matter 21 395502 (2009);
         "P. Giannozzi et al., J. Phys.:Condens. Matter 29 465901 (2017);
         "P. Giannozzi et al., J. Chem. Phys. 152 154105 (2020);
          URL http://www.quantum-espresso.org", 
     in publications or presentations arising from this work. More details at
     http://www.quantum-espresso.org/quote

     Parallel version (MPI & OpenMP), running on      16 processor cores
     Number of MPI processes:                16
     Threads/MPI process:                     1

     MPI processes distributed on     1 nodes
     187632 MiB available memory on the printing compute node when the environment starts

     Reading input from Ti_full.in

     Current dimensions of program PWSCF are:
     Max number of different atomic species (ntypx) = 10
     Max number of k-points (npk) =  40000
     Max angular momentum in pseudopotentials (lmaxx) =  4

     IMPORTANT: XC functional enforced from input :
     Exchange-correlation= PBE
                           (   1   4   3   4   0   0   0)
     Any further DFT definition will be discarded
     Please, verify this is what you really want

     Message from routine setup:
     using ibrav=0 with symmetry is DISCOURAGED, use correct ibrav instead

     R & G space division:  proc/nbgrp/npool/nimage =      16
     Subspace diagonalization in iterative solution of the eigenvalue problem:
     a serial algorithm will be used


     Parallelization info
     --------------------
     sticks:   dense  smooth     PW     G-vecs:    dense   smooth      PW
     Min         557     158     45                26297     4014     607
     Max         558     159     47                26300     4017     608
     Sum        8923    2539    733               420773    64255    9717

     Using Slab Decomposition



     bravais-lattice index     =            0
     lattice parameter (alat)  =       8.6311  a.u.
     unit-cell volume          =     344.5632 (a.u.)^3
     number of atoms/cell      =            3
     number of atomic types    =            1
     number of electrons       =        36.00
     number of Kohn-Sham states=           22
     kinetic-energy cutoff     =     124.0000  Ry
     charge density cutoff     =    1736.0000  Ry
     scf convergence threshold =      1.0E-08
     mixing beta               =       0.7000
     number of iterations used =            8  plain     mixing
     energy convergence thresh.=      1.0E-04
     force convergence thresh. =      1.0E-03
     press convergence thresh. =      1.0E-01
     Exchange-correlation= PBE
                           (   1   4   3   4   0   0   0)
     nstep                     =           50


     celldm(1)=   8.631078  celldm(2)=   0.000000  celldm(3)=   0.000000
     celldm(4)=   0.000000  celldm(5)=   0.000000  celldm(6)=   0.000000

     crystal axes: (cart. coord. in units of alat)
               a(1) = (   1.000000   0.000000   0.000000 )  
               a(2) = (  -0.500000   0.866025   0.000000 )  
               a(3) = (   0.000000   0.000000   0.618790 )  

     reciprocal axes: (cart. coord. in units 2 pi/alat)
               b(1) = (  1.000000  0.577350 -0.000000 )  
               b(2) = (  0.000000  1.154701  0.000000 )  
               b(3) = (  0.000000 -0.000000  1.616058 )  


     PseudoPot. # 1 for Ti read from file:
     ../../pseudos/ti_pbe_v1.4.uspp.F.UPF
     MD5 check sum: 88a00a6731bd790ddea75d31a80cb452
     Pseudo is Ultrasoft + core correction, Zval = 12.0
     Generated by new atomic code, or converted to UPF format
     Using radial grid of  851 points,  6 beta functions with: 
                l(1) =   0
                l(2) =   0
                l(3) =   1
                l(4) =   1
                l(5) =   2
                l(6) =   2
     Q(r) pseudized with  6 coefficients,  rinner =    1.000   1.000   1.000
                                                       1.000   1.000

     atomic species   valence    mass     pseudopotential
     Ti               12.00    47.86700     Ti( 1.00)

     24 Sym. Ops., with inversion, found



   Cartesian axes

     site n.     atom                  positions (alat units)
         1        Ti     tau(   1) = (   0.0000000   0.0000000   0.0000000  )
         2        Ti     tau(   2) = (  -0.0000000   0.5773503   0.3093948  )
         3        Ti     tau(   3) = (   0.5000000   0.2886751   0.3093948  )

     number of k points=   528  Marzari-Vanderbilt smearing, width (Ry)=  0.0050

     Number of k-points >= 100: set verbosity='high' to print them.

     Dense  grid:   420773 G-vectors     FFT dimensions: ( 120, 120,  72)

     Smooth grid:    64255 G-vectors     FFT dimensions: (  64,  64,  40)

     Estimated max dynamical RAM per process >     192.61 MB

     Estimated total dynamical RAM >       3.01 GB

     Initial potential from superposition of free atoms

     starting charge      32.9999, renormalised to      36.0000

     negative rho (up, down):  4.406E-03 0.000E+00
     Starting wfcs are   30 randomized atomic wfcs

     total cpu time spent up to now is        7.2 secs

     per-process dynamical memory:   218.8 Mb

     Self-consistent Calculation

     iteration #  1     ecut=   124.00 Ry     beta= 0.70
     Davidson diagonalization with overlap
     ethr =  1.00E-02,  avg # of iterations =  4.4

     negative rho (up, down):  5.346E-03 0.000E+00

     total cpu time spent up to now is       23.0 secs

     total energy              =    -357.07479409 Ry
     estimated scf accuracy    <       1.78719599 Ry

     iteration #  2     ecut=   124.00 Ry     beta= 0.70
     Davidson diagonalization with overlap
     ethr =  4.96E-03,  avg # of iterations =  3.3

     negative rho (up, down):  2.740E-03 0.000E+00

     total cpu time spent up to now is       38.3 secs

     total energy              =    -357.57948060 Ry
     estimated scf accuracy    <       0.67854462 Ry

     iteration #  3     ecut=   124.00 Ry     beta= 0.70
     Davidson diagonalization with overlap
     ethr =  1.88E-03,  avg # of iterations =  3.7

     negative rho (up, down):  2.646E-03 0.000E+00

     total cpu time spent up to now is       51.3 secs

     total energy              =    -357.70210866 Ry
     estimated scf accuracy    <       0.78377313 Ry

     iteration #  4     ecut=   124.00 Ry     beta= 0.70
     Davidson diagonalization with overlap
     ethr =  1.88E-03,  avg # of iterations =  1.1

     negative rho (up, down):  2.479E-03 0.000E+00

     total cpu time spent up to now is       61.0 secs

     total energy              =    -357.74611624 Ry
     estimated scf accuracy    <       0.01532959 Ry

     iteration #  5     ecut=   124.00 Ry     beta= 0.70
     Davidson diagonalization with overlap
     ethr =  4.26E-05,  avg # of iterations =  5.7

     negative rho (up, down):  2.396E-03 0.000E+00

     total cpu time spent up to now is       76.3 secs

     total energy              =    -357.75416557 Ry
     estimated scf accuracy    <       0.01363829 Ry

     iteration #  6     ecut=   124.00 Ry     beta= 0.70
     Davidson diagonalization with overlap
     ethr =  3.79E-05,  avg # of iterations =  1.0

     negative rho (up, down):  2.357E-03 0.000E+00

     total cpu time spent up to now is       85.9 secs

     total energy              =    -357.75440241 Ry
     estimated scf accuracy    <       0.00225231 Ry

     iteration #  7     ecut=   124.00 Ry     beta= 0.70
     Davidson diagonalization with overlap
     ethr =  6.26E-06,  avg # of iterations =  4.7

     negative rho (up, down):  2.352E-03 0.000E+00

     total cpu time spent up to now is       98.4 secs

     total energy              =    -357.75460782 Ry
     estimated scf accuracy    <       0.00007078 Ry

     iteration #  8     ecut=   124.00 Ry     beta= 0.70
     Davidson diagonalization with overlap
     c_bands:  1 eigenvalues not converged
     c_bands:  1 eigenvalues not converged
     c_bands:  1 eigenvalues not converged
     c_bands:  1 eigenvalues not converged
     ethr =  1.97E-07,  avg # of iterations =  5.4

     negative rho (up, down):  2.353E-03 0.000E+00

     total cpu time spent up to now is      113.4 secs

     total energy              =    -357.75465896 Ry
     estimated scf accuracy    <       0.00003011 Ry

     iteration #  9     ecut=   124.00 Ry     beta= 0.70
     Davidson diagonalization with overlap
     ethr =  8.36E-08,  avg # of iterations =  1.1

     negative rho (up, down):  2.354E-03 0.000E+00

     total cpu time spent up to now is      123.0 secs

     total energy              =    -357.75465753 Ry
     estimated scf accuracy    <       0.00001852 Ry

     iteration # 10     ecut=   124.00 Ry     beta= 0.70
     Davidson diagonalization with overlap
     ethr =  5.14E-08,  avg # of iterations =  1.1

     negative rho (up, down):  2.354E-03 0.000E+00

     total cpu time spent up to now is      132.5 secs

     total energy              =    -357.75465770 Ry
     estimated scf accuracy    <       0.00000366 Ry

     iteration # 11     ecut=   124.00 Ry     beta= 0.70
     Davidson diagonalization with overlap
     ethr =  1.02E-08,  avg # of iterations =  3.3

     negative rho (up, down):  2.354E-03 0.000E+00

     total cpu time spent up to now is      143.9 secs

     total energy              =    -357.75465806 Ry
     estimated scf accuracy    <       0.00000006 Ry

     iteration # 12     ecut=   124.00 Ry     beta= 0.70
     Davidson diagonalization with overlap
     c_bands:  1 eigenvalues not converged
     c_bands:  1 eigenvalues not converged
     ethr =  1.74E-10,  avg # of iterations =  5.4

     negative rho (up, down):  2.354E-03 0.000E+00

     total cpu time spent up to now is      158.8 secs

     total energy              =    -357.75465815 Ry
     estimated scf accuracy    <       0.00000011 Ry

     iteration # 13     ecut=   124.00 Ry     beta= 0.70
     Davidson diagonalization with overlap
     ethr =  1.74E-10,  avg # of iterations =  1.1

     negative rho (up, down):  2.354E-03 0.000E+00

     total cpu time spent up to now is      168.3 secs

     total energy              =    -357.75465815 Ry
     estimated scf accuracy    <       0.00000002 Ry

     iteration # 14     ecut=   124.00 Ry     beta= 0.70
     Davidson diagonalization with overlap
     ethr =  4.74E-11,  avg # of iterations =  4.5

     negative rho (up, down):  2.354E-03 0.000E+00

     total cpu time spent up to now is      181.2 secs

     total energy              =    -357.75465816 Ry
     estimated scf accuracy    <       0.00000001 Ry

     iteration # 15     ecut=   124.00 Ry     beta= 0.70
     Davidson diagonalization with overlap
     ethr =  2.80E-11,  avg # of iterations =  1.0

     negative rho (up, down):  2.354E-03 0.000E+00

     total cpu time spent up to now is      190.7 secs

     End of self-consistent calculation

     Number of k-points >= 100: set verbosity='high' to print the bands.

     the Fermi energy is    13.6131 ev

!    total energy              =    -357.75465815 Ry
     estimated scf accuracy    <          3.7E-09 Ry
     smearing contrib. (-TS)   =      -0.00002335 Ry
     internal energy E=F+TS    =    -357.75463481 Ry

     The total energy is F=E-TS. E is the sum of the following terms:
     one-electron contribution =    -119.57427825 Ry
     hartree contribution      =      72.21536451 Ry
     xc contribution           =     -54.17094062 Ry
     ewald contribution        =    -256.22478045 Ry

     convergence has been achieved in  15 iterations

     negative rho (up, down):  2.354E-03 0.000E+00

     Forces acting on atoms (cartesian axes, Ry/au):

     atom    1 type  1   force =    -0.00000000   -0.00000000   -0.00000000
     atom    2 type  1   force =    -0.00000000   -0.00000000    0.00000000
     atom    3 type  1   force =     0.00000000    0.00000000    0.00000000

     Total force =     0.000000     Total SCF correction =     0.000000


     Computing stress (Cartesian axis) and pressure


     negative rho (up, down):  2.354E-03 0.000E+00
          total   stress  (Ry/bohr**3)                   (kbar)     P=        7.73
   0.00005661   0.00000000   0.00000000            8.33        0.00        0.00
   0.00000000   0.00005661   0.00000000            0.00        8.33        0.00
   0.00000000   0.00000000   0.00004444            0.00        0.00        6.54


     BFGS Geometry Optimization
     Energy error            =      7.2E-05 Ry
     Gradient error          =      4.2E-30 Ry/Bohr
     Cell gradient error     =      8.3E+00 kbar

     number of scf cycles    =   1
     number of bfgs steps    =   0

     enthalpy           new  =    -357.7546581519 Ry

     new trust radius        =       0.0052543339 bohr
     new conv_thr            =       0.0000000100 Ry

     new unit-cell volume =    345.92306 a.u.^3 (    51.26051 Ang^3 )
     density =      4.65183 g/cm^3

CELL_PARAMETERS (alat=  8.63107841)
   1.001415315   0.000000000   0.000000000
  -0.500707658   0.867251103   0.000000000
   0.000000000   0.000000000   0.619477070

ATOMIC_POSITIONS (crystal)
Ti              -0.0000000000       -0.0000000000       -0.0000000000
Ti               0.3333333333        0.6666666667        0.5000000000
Ti               0.6666666667        0.3333333333        0.5000000000



     Writing config-only to output data dir ./Ti.save/ :
     XML data file     NEW-OLD atomic charge density approx. for the potential
     New effective cutoffs (rho, wfc): 1731.83  123.72

     negative rho (up, down):  2.363E-03 0.000E+00

     total cpu time spent up to now is      195.4 secs

     per-process dynamical memory:   230.0 Mb

     Self-consistent Calculation

     iteration #  1     ecut=   124.00 Ry     beta= 0.70
     Davidson diagonalization with overlap
     ethr =  1.00E-06,  avg # of iterations =  2.0

     Threshold (ethr) on eigenvalues was too large:
     Diagonalizing with lowered threshold

     Davidson diagonalization with overlap
     ethr =  2.59E-09,  avg # of iterations =  5.0

     negative rho (up, down):  2.356E-03 0.000E+00

     total cpu time spent up to now is      225.3 secs

     total energy              =    -357.75467964 Ry
     estimated scf accuracy    <       0.00000278 Ry

     iteration #  2     ecut=   124.00 Ry     beta= 0.70
     Davidson diagonalization with overlap
     ethr =  7.72E-09,  avg # of iterations =  4.7

     negative rho (up, down):  2.357E-03 0.000E+00

     total cpu time spent up to now is      242.0 secs

     total energy              =    -357.75470494 Ry
     estimated scf accuracy    <       0.00000971 Ry

     iteration #  3     ecut=   124.00 Ry     beta= 0.70
     Davidson diagonalization with overlap
     ethr =  7.72E-09,  avg # of iterations =  5.1

     negative rho (up, down):  2.357E-03 0.000E+00

     total cpu time spent up to now is      256.5 secs

     total energy              =    -357.75470725 Ry
     estimated scf accuracy    <       0.00003342 Ry

     iteration #  4     ecut=   124.00 Ry     beta= 0.70
     Davidson diagonalization with overlap
     ethr =  7.72E-09,  avg # of iterations =  4.9

     negative rho (up, down):  2.357E-03 0.000E+00

     total cpu time spent up to now is      270.4 secs

     total energy              =    -357.75470966 Ry
     estimated scf accuracy    <       0.00000005 Ry

     iteration #  5     ecut=   124.00 Ry     beta= 0.70
     Davidson diagonalization with overlap
     ethr =  1.42E-10,  avg # of iterations =  4.0

     negative rho (up, down):  2.357E-03 0.000E+00

     total cpu time spent up to now is      283.3 secs

     End of self-consistent calculation

     Number of k-points >= 100: set verbosity='high' to print the bands.

     the Fermi energy is    13.5494 ev

!    total energy              =    -357.75470970 Ry
     estimated scf accuracy    <          3.0E-09 Ry
     smearing contrib. (-TS)   =      -0.00002176 Ry
     internal energy E=F+TS    =    -357.75468793 Ry

     The total energy is F=E-TS. E is the sum of the following terms:
     one-electron contribution =    -120.07476273 Ry
     hartree contribution      =      72.37128751 Ry
     xc contribution           =     -54.16157666 Ry
     ewald contribution        =    -255.88963605 Ry

     convergence has been achieved in   5 iterations

     negative rho (up, down):  2.357E-03 0.000E+00

     Forces acting on atoms (cartesian axes, Ry/au):

     atom    1 type  1   force =    -0.00000000    0.00000000   -0.00000000
     atom    2 type  1   force =     0.00000000    0.00000000   -0.00000000
     atom    3 type  1   force =    -0.00000000   -0.00000000    0.00000000

     Total force =     0.000000     Total SCF correction =     0.000000


     Computing stress (Cartesian axis) and pressure


     negative rho (up, down):  2.357E-03 0.000E+00
          total   stress  (Ry/bohr**3)                   (kbar)     P=        3.56
   0.00002764  -0.00000000  -0.00000000            4.07       -0.00       -0.00
   0.00000000   0.00002764  -0.00000000            0.00        4.07       -0.00
   0.00000000   0.00000000   0.00001734            0.00        0.00        2.55

     Energy error            =      5.2E-05 Ry
     Gradient error          =      1.1E-29 Ry/Bohr
     Cell gradient error     =      4.1E+00 kbar

     number of scf cycles    =   2
     number of bfgs steps    =   1

     enthalpy           old  =    -357.7546581519 Ry
     enthalpy           new  =    -357.7547096978 Ry

     CASE: enthalpy          _new < enthalpy          _old

     new trust radius        =       0.0048535572 bohr
     new conv_thr            =            1.0E-10 Ry

     new unit-cell volume =    347.11084 a.u.^3 (    51.43652 Ang^3 )
     density =      4.63591 g/cm^3

CELL_PARAMETERS (alat=  8.63107841)
   1.002721951   0.000000000   0.000000000
  -0.501360976   0.868382683   0.000000000
  -0.000000000  -0.000000000   0.619985185

ATOMIC_POSITIONS (crystal)
Ti              -0.0000000000       -0.0000000000       -0.0000000000
Ti               0.3333333333        0.6666666667        0.5000000000
Ti               0.6666666667        0.3333333333        0.5000000000



     Writing config-only to output data dir ./Ti.save/ :
     XML data file     NEW-OLD atomic charge density approx. for the potential
     New effective cutoffs (rho, wfc): 1728.95  123.52

     negative rho (up, down):  2.365E-03 0.000E+00

     total cpu time spent up to now is      287.9 secs

     per-process dynamical memory:   230.0 Mb

     Self-consistent Calculation

     iteration #  1     ecut=   124.00 Ry     beta= 0.70
     Davidson diagonalization with overlap
     ethr =  1.00E-06,  avg # of iterations =  2.0

     Threshold (ethr) on eigenvalues was too large:
     Diagonalizing with lowered threshold

     Davidson diagonalization with overlap
     ethr =  1.72E-09,  avg # of iterations =  5.5

     negative rho (up, down):  2.359E-03 0.000E+00

     total cpu time spent up to now is      318.0 secs

     total energy              =    -357.75469873 Ry
     estimated scf accuracy    <       0.00000206 Ry

     iteration #  2     ecut=   124.00 Ry     beta= 0.70
     Davidson diagonalization with overlap
     ethr =  5.73E-09,  avg # of iterations =  5.1

     negative rho (up, down):  2.359E-03 0.000E+00

     total cpu time spent up to now is      334.2 secs

     total energy              =    -357.75471648 Ry
     estimated scf accuracy    <       0.00001862 Ry

     iteration #  3     ecut=   124.00 Ry     beta= 0.70
     Davidson diagonalization with overlap
     ethr =  5.73E-09,  avg # of iterations =  5.1

     negative rho (up, down):  2.360E-03 0.000E+00

     total cpu time spent up to now is      349.1 secs

     total energy              =    -357.75471994 Ry
     estimated scf accuracy    <       0.00001715 Ry

     iteration #  4     ecut=   124.00 Ry     beta= 0.70
     Davidson diagonalization with overlap
     ethr =  5.73E-09,  avg # of iterations =  4.5

     negative rho (up, down):  2.359E-03 0.000E+00

     total cpu time spent up to now is      362.4 secs

     total energy              =    -357.75472120 Ry
     estimated scf accuracy    <       0.00000002 Ry

     iteration #  5     ecut=   124.00 Ry     beta= 0.70
     Davidson diagonalization with overlap
     ethr =  4.57E-11,  avg # of iterations =  5.1

     negative rho (up, down):  2.359E-03 0.000E+00

     total cpu time spent up to now is      378.2 secs

     total energy              =    -357.75472124 Ry
     estimated scf accuracy    <       0.00000001 Ry

     iteration #  6     ecut=   124.00 Ry     beta= 0.70
     Davidson diagonalization with overlap
     ethr =  3.20E-11,  avg # of iterations =  1.3

     negative rho (up, down):  2.359E-03 0.000E+00

     total cpu time spent up to now is      388.0 secs

     total energy              =    -357.75472124 Ry
     estimated scf accuracy    <          1.2E-09 Ry

     iteration #  7     ecut=   124.00 Ry     beta= 0.70
     Davidson diagonalization with overlap
     ethr =  3.38E-12,  avg # of iterations =  4.5

     negative rho (up, down):  2.359E-03 0.000E+00

     total cpu time spent up to now is      401.3 secs

     total energy              =    -357.75472124 Ry
     estimated scf accuracy    <          5.4E-10 Ry

     iteration #  8     ecut=   124.00 Ry     beta= 0.70
     Davidson diagonalization with overlap
     ethr =  1.50E-12,  avg # of iterations =  1.1

     negative rho (up, down):  2.359E-03 0.000E+00

     total cpu time spent up to now is      411.1 secs

     total energy              =    -357.75472124 Ry
     estimated scf accuracy    <          1.3E-10 Ry

     iteration #  9     ecut=   124.00 Ry     beta= 0.70
     Davidson diagonalization with overlap
     ethr =  3.48E-13,  avg # of iterations =  3.5

     negative rho (up, down):  2.359E-03 0.000E+00

     total cpu time spent up to now is      422.6 secs

     End of self-consistent calculation

     Number of k-points >= 100: set verbosity='high' to print the bands.

     the Fermi energy is    13.4941 ev

!    total energy              =    -357.75472124 Ry
     estimated scf accuracy    <          8.3E-13 Ry
     smearing contrib. (-TS)   =      -0.00002041 Ry
     internal energy E=F+TS    =    -357.75470083 Ry

     The total energy is F=E-TS. E is the sum of the following terms:
     one-electron contribution =    -120.50774610 Ry
     hartree contribution      =      72.50539231 Ry
     xc contribution           =     -54.15326422 Ry
     ewald contribution        =    -255.59908282 Ry

     convergence has been achieved in   9 iterations

     negative rho (up, down):  2.359E-03 0.000E+00

     Forces acting on atoms (cartesian axes, Ry/au):

     atom    1 type  1   force =    -0.00000000   -0.00000000   -0.00000000
     atom    2 type  1   force =    -0.00000000    0.00000000    0.00000000
     atom    3 type  1   force =     0.00000000   -0.00000000   -0.00000000

     Total force =     0.000000     Total SCF correction =     0.000000


     Computing stress (Cartesian axis) and pressure


     negative rho (up, down):  2.359E-03 0.000E+00
          total   stress  (Ry/bohr**3)                   (kbar)     P=       -0.61
  -0.00000215   0.00000000  -0.00000000           -0.32        0.00       -0.00
   0.00000000  -0.00000215  -0.00000000            0.00       -0.32       -0.00
   0.00000000   0.00000000  -0.00000815            0.00        0.00       -1.20

     Energy error            =      1.2E-05 Ry
     Gradient error          =      7.3E-30 Ry/Bohr
     Cell gradient error     =      1.2E+00 kbar

     number of scf cycles    =   3
     number of bfgs steps    =   2

     enthalpy           old  =    -357.7547096978 Ry
     enthalpy           new  =    -357.7547212376 Ry

     CASE: enthalpy          _new < enthalpy          _old

     new trust radius        =       0.0008167902 bohr
     new conv_thr            =            1.0E-10 Ry

     new unit-cell volume =    346.95647 a.u.^3 (    51.41364 Ang^3 )
     density =      4.63797 g/cm^3

CELL_PARAMETERS (alat=  8.63107841)
   1.002608857   0.000000000   0.000000000
  -0.501304429   0.868284741   0.000000000
  -0.000000000  -0.000000000   0.619849282

ATOMIC_POSITIONS (crystal)
Ti              -0.0000000000       -0.0000000000       -0.0000000000
Ti               0.3333333333        0.6666666667        0.5000000000
Ti               0.6666666667        0.3333333333        0.5000000000



     Writing config-only to output data dir ./Ti.save/ :
     XML data file     NEW-OLD atomic charge density approx. for the potential
     New effective cutoffs (rho, wfc): 1729.70  123.57

     negative rho (up, down):  2.358E-03 0.000E+00

     total cpu time spent up to now is      427.3 secs

     per-process dynamical memory:   230.0 Mb

     Self-consistent Calculation

     iteration #  1     ecut=   124.00 Ry     beta= 0.70
     Davidson diagonalization with overlap
     ethr =  1.00E-06,  avg # of iterations =  2.0

     Threshold (ethr) on eigenvalues was too large:
     Diagonalizing with lowered threshold

     Davidson diagonalization with overlap
     ethr =  2.81E-11,  avg # of iterations =  5.6

     negative rho (up, down):  2.359E-03 0.000E+00

     total cpu time spent up to now is      458.6 secs

     total energy              =    -357.75472135 Ry
     estimated scf accuracy    <       0.00000003 Ry

     iteration #  2     ecut=   124.00 Ry     beta= 0.70
     Davidson diagonalization with overlap
     ethr =  9.62E-11,  avg # of iterations =  4.2

     negative rho (up, down):  2.359E-03 0.000E+00

     total cpu time spent up to now is      473.9 secs

     total energy              =    -357.75472169 Ry
     estimated scf accuracy    <       0.00000003 Ry

     iteration #  3     ecut=   124.00 Ry     beta= 0.70
     Davidson diagonalization with overlap
     ethr =  8.51E-11,  avg # of iterations =  4.6

     negative rho (up, down):  2.359E-03 0.000E+00

     total cpu time spent up to now is      487.7 secs

     total energy              =    -357.75472172 Ry
     estimated scf accuracy    <       0.00000021 Ry

     iteration #  4     ecut=   124.00 Ry     beta= 0.70
     Davidson diagonalization with overlap
     ethr =  8.51E-11,  avg # of iterations =  4.4

     negative rho (up, down):  2.359E-03 0.000E+00

     total cpu time spent up to now is      500.7 secs

     total energy              =    -357.75472174 Ry
     estimated scf accuracy    <          3.5E-10 Ry

     iteration #  5     ecut=   124.00 Ry     beta= 0.70
     Davidson diagonalization with overlap
     ethr =  9.60E-13,  avg # of iterations =  4.8

     negative rho (up, down):  2.359E-03 0.000E+00

     total cpu time spent up to now is      514.5 secs

     total energy              =    -357.75472174 Ry
     estimated scf accuracy    <          4.1E-10 Ry

     iteration #  6     ecut=   124.00 Ry     beta= 0.70
     Davidson diagonalization with overlap
     ethr =  9.60E-13,  avg # of iterations =  2.4

     negative rho (up, down):  2.359E-03 0.000E+00

     total cpu time spent up to now is      525.1 secs

     End of self-consistent calculation

     Number of k-points >= 100: set verbosity='high' to print the bands.

     the Fermi energy is    13.5011 ev

!    total energy              =    -357.75472174 Ry
     estimated scf accuracy    <          6.5E-13 Ry
     smearing contrib. (-TS)   =      -0.00002055 Ry
     internal energy E=F+TS    =    -357.75470118 Ry

     The total energy is F=E-TS. E is the sum of the following terms:
     one-electron contribution =    -120.45039690 Ry
     hartree contribution      =      72.48734829 Ry
     xc contribution           =     -54.15430710 Ry
     ewald contribution        =    -255.63734548 Ry

     convergence has been achieved in   6 iterations

     negative rho (up, down):  2.359E-03 0.000E+00

     Forces acting on atoms (cartesian axes, Ry/au):

     atom    1 type  1   force =    -0.00000000    0.00000000   -0.00000000
     atom    2 type  1   force =     0.00000000   -0.00000000   -0.00000000
     atom    3 type  1   force =     0.00000000    0.00000000    0.00000000

     Total force =     0.000000     Total SCF correction =     0.000000


     Computing stress (Cartesian axis) and pressure


     negative rho (up, down):  2.359E-03 0.000E+00
          total   stress  (Ry/bohr**3)                   (kbar)     P=       -0.10
   0.00000078   0.00000000   0.00000000            0.12        0.00        0.00
   0.00000000   0.00000078  -0.00000000            0.00        0.12       -0.00
   0.00000000   0.00000000  -0.00000361            0.00        0.00       -0.53

     Energy error            =      5.0E-07 Ry
     Gradient error          =      8.5E-30 Ry/Bohr
     Cell gradient error     =      5.3E-01 kbar

     number of scf cycles    =   4
     number of bfgs steps    =   3

     enthalpy           old  =    -357.7547212376 Ry
     enthalpy           new  =    -357.7547217360 Ry

     CASE: enthalpy          _new < enthalpy          _old

     new trust radius        =       0.0005663639 bohr
     new conv_thr            =            1.0E-10 Ry

     new unit-cell volume =    346.91272 a.u.^3 (    51.40716 Ang^3 )
     density =      4.63856 g/cm^3

CELL_PARAMETERS (alat=  8.63107841)
   1.002621851   0.000000000   0.000000000
  -0.501310926   0.868295994   0.000000000
  -0.000000000  -0.000000000   0.619755047

ATOMIC_POSITIONS (crystal)
Ti              -0.0000000000       -0.0000000000       -0.0000000000
Ti               0.3333333333        0.6666666667        0.5000000000
Ti               0.6666666667        0.3333333333        0.5000000000



     Writing config-only to output data dir ./Ti.save/ :
     XML data file     NEW-OLD atomic charge density approx. for the potential
     New effective cutoffs (rho, wfc): 1730.22  123.61

     negative rho (up, down):  2.359E-03 0.000E+00

     total cpu time spent up to now is      529.7 secs

     per-process dynamical memory:   230.4 Mb

     Self-consistent Calculation

     iteration #  1     ecut=   124.00 Ry     beta= 0.70
     Davidson diagonalization with overlap
     ethr =  1.00E-06,  avg # of iterations =  2.0

     Threshold (ethr) on eigenvalues was too large:
     Diagonalizing with lowered threshold

     Davidson diagonalization with overlap
     ethr =  2.76E-11,  avg # of iterations =  5.7

     negative rho (up, down):  2.359E-03 0.000E+00

     total cpu time spent up to now is      561.4 secs

     total energy              =    -357.75472179 Ry
     estimated scf accuracy    <       0.00000002 Ry

     iteration #  2     ecut=   124.00 Ry     beta= 0.70
     Davidson diagonalization with overlap
     ethr =  6.34E-11,  avg # of iterations =  5.8

     negative rho (up, down):  2.359E-03 0.000E+00

     total cpu time spent up to now is      577.8 secs

     total energy              =    -357.75472180 Ry
     estimated scf accuracy    <       0.00000078 Ry

     iteration #  3     ecut=   124.00 Ry     beta= 0.70
     Davidson diagonalization with overlap
     ethr =  6.34E-11,  avg # of iterations =  5.1

     negative rho (up, down):  2.359E-03 0.000E+00

     total cpu time spent up to now is      592.8 secs

     total energy              =    -357.75472187 Ry
     estimated scf accuracy    <       0.00000002 Ry

     iteration #  4     ecut=   124.00 Ry     beta= 0.70
     Davidson diagonalization with overlap
     ethr =  4.88E-11,  avg # of iterations =  1.9

     negative rho (up, down):  2.359E-03 0.000E+00

     total cpu time spent up to now is      603.2 secs

     total energy              =    -357.75472187 Ry
     estimated scf accuracy    <          1.1E-09 Ry

     iteration #  5     ecut=   124.00 Ry     beta= 0.70
     Davidson diagonalization with overlap
     ethr =  3.13E-12,  avg # of iterations =  4.6

     negative rho (up, down):  2.359E-03 0.000E+00

     total cpu time spent up to now is      616.8 secs

     total energy              =    -357.75472187 Ry
     estimated scf accuracy    <          7.4E-10 Ry

     iteration #  6     ecut=   124.00 Ry     beta= 0.70
     Davidson diagonalization with overlap
     ethr =  2.07E-12,  avg # of iterations =  1.6

     negative rho (up, down):  2.359E-03 0.000E+00

     total cpu time spent up to now is      626.7 secs

     End of self-consistent calculation

     Number of k-points >= 100: set verbosity='high' to print the bands.

     the Fermi energy is    13.5029 ev

!    total energy              =    -357.75472187 Ry
     estimated scf accuracy    <          2.8E-11 Ry
     smearing contrib. (-TS)   =      -0.00002057 Ry
     internal energy E=F+TS    =    -357.75470130 Ry

     The total energy is F=E-TS. E is the sum of the following terms:
     one-electron contribution =    -120.43324144 Ry
     hartree contribution      =      72.48177766 Ry
     xc contribution           =     -54.15458555 Ry
     ewald contribution        =    -255.64865197 Ry

     convergence has been achieved in   6 iterations

     negative rho (up, down):  2.359E-03 0.000E+00

     Forces acting on atoms (cartesian axes, Ry/au):

     atom    1 type  1   force =    -0.00000000    0.00000000    0.00000000
     atom    2 type  1   force =     0.00000000    0.00000000    0.00000000
     atom    3 type  1   force =     0.00000000    0.00000000    0.00000000

     Total force =     0.000000     Total SCF correction =     0.000000


     Computing stress (Cartesian axis) and pressure


     negative rho (up, down):  2.359E-03 0.000E+00
          total   stress  (Ry/bohr**3)                   (kbar)     P=        0.06
   0.00000112   0.00000000  -0.00000000            0.17        0.00       -0.00
  -0.00000000   0.00000112   0.00000000           -0.00        0.17        0.00
   0.00000000   0.00000000  -0.00000108            0.00        0.00       -0.16

     Energy error            =      1.3E-07 Ry
     Gradient error          =      5.2E-31 Ry/Bohr
     Cell gradient error     =      1.7E-01 kbar

     number of scf cycles    =   5
     number of bfgs steps    =   4

     enthalpy           old  =    -357.7547217360 Ry
     enthalpy           new  =    -357.7547218693 Ry

     CASE: enthalpy          _new < enthalpy          _old

     new trust radius        =       0.0003383967 bohr
     new conv_thr            =            1.0E-10 Ry

     new unit-cell volume =    346.91786 a.u.^3 (    51.40792 Ang^3 )
     density =      4.63849 g/cm^3

CELL_PARAMETERS (alat=  8.63107841)
   1.002674828   0.000000000   0.000000000
  -0.501337414   0.868341873   0.000000000
  -0.000000000  -0.000000000   0.619698747

ATOMIC_POSITIONS (crystal)
Ti              -0.0000000000       -0.0000000000       -0.0000000000
Ti               0.3333333333        0.6666666667        0.5000000000
Ti               0.6666666667        0.3333333333        0.5000000000



     Writing config-only to output data dir ./Ti.save/ :
     XML data file     NEW-OLD atomic charge density approx. for the potential
     New effective cutoffs (rho, wfc): 1730.52  123.63

     negative rho (up, down):  2.359E-03 0.000E+00

     total cpu time spent up to now is      631.4 secs

     per-process dynamical memory:   230.2 Mb

     Self-consistent Calculation

     iteration #  1     ecut=   124.00 Ry     beta= 0.70
     Davidson diagonalization with overlap
     ethr =  1.00E-06,  avg # of iterations =  2.0

     Threshold (ethr) on eigenvalues was too large:
     Diagonalizing with lowered threshold

     Davidson diagonalization with overlap
     ethr =  5.29E-11,  avg # of iterations =  5.2

     negative rho (up, down):  2.359E-03 0.000E+00

     total cpu time spent up to now is      660.5 secs

     total energy              =    -357.75472186 Ry
     estimated scf accuracy    <       0.00000004 Ry

     iteration #  2     ecut=   124.00 Ry     beta= 0.70
     Davidson diagonalization with overlap
     ethr =  1.05E-10,  avg # of iterations =  6.3

     negative rho (up, down):  2.359E-03 0.000E+00

     total cpu time spent up to now is      677.3 secs

     total energy              =    -357.75472175 Ry
     estimated scf accuracy    <       0.00000254 Ry

     iteration #  3     ecut=   124.00 Ry     beta= 0.70
     Davidson diagonalization with overlap
     ethr =  1.05E-10,  avg # of iterations =  5.4

     negative rho (up, down):  2.359E-03 0.000E+00

     total cpu time spent up to now is      693.3 secs

     total energy              =    -357.75472191 Ry
     estimated scf accuracy    <          1.1E-09 Ry

     iteration #  4     ecut=   124.00 Ry     beta= 0.70
     Davidson diagonalization with overlap
     ethr =  3.04E-12,  avg # of iterations =  3.7

     negative rho (up, down):  2.359E-03 0.000E+00

     total cpu time spent up to now is      705.1 secs

     total energy              =    -357.75472191 Ry
     estimated scf accuracy    <          1.4E-10 Ry

     iteration #  5     ecut=   124.00 Ry     beta= 0.70
     Davidson diagonalization with overlap
     ethr =  3.75E-13,  avg # of iterations =  4.0

     negative rho (up, down):  2.359E-03 0.000E+00

     total cpu time spent up to now is      717.5 secs

     End of self-consistent calculation

     Number of k-points >= 100: set verbosity='high' to print the bands.

     the Fermi energy is    13.5025 ev

!    total energy              =    -357.75472191 Ry
     estimated scf accuracy    <          6.7E-12 Ry
     smearing contrib. (-TS)   =      -0.00002054 Ry
     internal energy E=F+TS    =    -357.75470138 Ry

     The total energy is F=E-TS. E is the sum of the following terms:
     one-electron contribution =    -120.43418146 Ry
     hartree contribution      =      72.48188600 Ry
     xc contribution           =     -54.15453233 Ry
     ewald contribution        =    -255.64787359 Ry

     convergence has been achieved in   5 iterations

     negative rho (up, down):  2.359E-03 0.000E+00

     Forces acting on atoms (cartesian axes, Ry/au):

     atom    1 type  1   force =    -0.00000000   -0.00000000   -0.00000000
     atom    2 type  1   force =    -0.00000000    0.00000000   -0.00000000
     atom    3 type  1   force =     0.00000000   -0.00000000    0.00000000

     Total force =     0.000000     Total SCF correction =     0.000000


     Computing stress (Cartesian axis) and pressure


     negative rho (up, down):  2.359E-03 0.000E+00
          total   stress  (Ry/bohr**3)                   (kbar)     P=        0.05
   0.00000049   0.00000000  -0.00000000            0.07        0.00       -0.00
  -0.00000000   0.00000049  -0.00000000           -0.00        0.07       -0.00
   0.00000000   0.00000000   0.00000011            0.00        0.00        0.02

     Energy error            =      4.5E-08 Ry
     Gradient error          =      4.8E-30 Ry/Bohr
     Cell gradient error     =      7.1E-02 kbar

     bfgs converged in   6 scf cycles and   5 bfgs steps
     (criteria: energy <  1.0E-04 Ry, force <  1.0E-03 Ry/Bohr, cell <  1.0E-01 kbar)

     End of BFGS Geometry Optimization

     Final enthalpy           =    -357.7547219141 Ry

     File ./Ti.bfgs deleted, as requested
Begin final coordinates
     new unit-cell volume =    346.91786 a.u.^3 (    51.40792 Ang^3 )
     density =      4.63849 g/cm^3

CELL_PARAMETERS (alat=  8.63107841)
   1.002674828   0.000000000   0.000000000
  -0.501337414   0.868341873   0.000000000
  -0.000000000  -0.000000000   0.619698747

ATOMIC_POSITIONS (crystal)
Ti              -0.0000000000       -0.0000000000       -0.0000000000
Ti               0.3333333333        0.6666666667        0.5000000000
Ti               0.6666666667        0.3333333333        0.5000000000
End final coordinates



     Writing config-only to output data dir ./Ti.save/ :
     XML data file
     Final scf calculation at the relaxed structure.
     The G-vectors are recalculated for the final unit cell
     Results may differ from those at the preceding step.

     Parallelization info
     --------------------
     sticks:   dense  smooth     PW     G-vecs:    dense   smooth      PW
     Min         560     160     45                26494     4042     612
     Max         562     161     47                26496     4043     614
     Sum        8971    2563    733               423917    64675    9801

     Using Slab Decomposition



     bravais-lattice index     =            0
     lattice parameter (alat)  =       8.6311  a.u.
     unit-cell volume          =     346.9179 (a.u.)^3
     number of atoms/cell      =            3
     number of atomic types    =            1
     number of electrons       =        36.00
     number of Kohn-Sham states=           22
     kinetic-energy cutoff     =     124.0000  Ry
     charge density cutoff     =    1736.0000  Ry
     scf convergence threshold =      1.0E-10
     mixing beta               =       0.7000
     number of iterations used =            8  plain     mixing
     press convergence thresh. =      1.0E-01
     Exchange-correlation= PBE
                           (   1   4   3   4   0   0   0)

     celldm(1)=   8.631078  celldm(2)=   0.000000  celldm(3)=   0.000000
     celldm(4)=   0.000000  celldm(5)=   0.000000  celldm(6)=   0.000000

     crystal axes: (cart. coord. in units of alat)
               a(1) = (   1.002675   0.000000   0.000000 )  
               a(2) = (  -0.501337   0.868342   0.000000 )  
               a(3) = (  -0.000000  -0.000000   0.619699 )  

     reciprocal axes: (cart. coord. in units 2 pi/alat)
               b(1) = (  0.997332  0.575810  0.000000 )  
               b(2) = ( -0.000000  1.151620  0.000000 )  
               b(3) = ( -0.000000 -0.000000  1.613687 )  


     PseudoPot. # 1 for Ti read from file:
     ../../pseudos/ti_pbe_v1.4.uspp.F.UPF
     MD5 check sum: 88a00a6731bd790ddea75d31a80cb452
     Pseudo is Ultrasoft + core correction, Zval = 12.0
     Generated by new atomic code, or converted to UPF format
     Using radial grid of  851 points,  6 beta functions with: 
                l(1) =   0
                l(2) =   0
                l(3) =   1
                l(4) =   1
                l(5) =   2
                l(6) =   2
     Q(r) pseudized with  6 coefficients,  rinner =    1.000   1.000   1.000
                                                       1.000   1.000

     atomic species   valence    mass     pseudopotential
     Ti               12.00    47.86700     Ti( 1.00)

     24 Sym. Ops., with inversion, found



   Cartesian axes

     site n.     atom                  positions (alat units)
         1        Ti     tau(   1) = (  -0.0000000  -0.0000000  -0.0000000  )
         2        Ti     tau(   2) = (  -0.0000000   0.5788946   0.3098494  )
         3        Ti     tau(   3) = (   0.5013374   0.2894473   0.3098494  )

     number of k points=   528  Marzari-Vanderbilt smearing, width (Ry)=  0.0050

     Number of k-points >= 100: set verbosity='high' to print them.

     Dense  grid:   423917 G-vectors     FFT dimensions: ( 120, 120,  72)

     Smooth grid:    64675 G-vectors     FFT dimensions: (  64,  64,  40)

     Estimated max dynamical RAM per process >     194.03 MB

     Estimated total dynamical RAM >       3.03 GB

     Initial potential from superposition of free atoms

     starting charge      32.9999, renormalised to      36.0000

     negative rho (up, down):  4.406E-03 0.000E+00
     Starting wfcs are   30 randomized atomic wfcs

     total cpu time spent up to now is      727.5 secs

     per-process dynamical memory:   220.3 Mb

     Self-consistent Calculation

     iteration #  1     ecut=   124.00 Ry     beta= 0.70
     Davidson diagonalization with overlap
     c_bands:  1 eigenvalues not converged
     c_bands:  2 eigenvalues not converged
     c_bands:  2 eigenvalues not converged
     c_bands:  1 eigenvalues not converged
     c_bands:  3 eigenvalues not converged
     c_bands:  2 eigenvalues not converged
     c_bands:  3 eigenvalues not converged
     c_bands:  2 eigenvalues not converged
     c_bands:  3 eigenvalues not converged
     c_bands:  2 eigenvalues not converged
     c_bands:  1 eigenvalues not converged
     c_bands:  2 eigenvalues not converged
     c_bands:  2 eigenvalues not converged
     c_bands:  2 eigenvalues not converged
     c_bands:  3 eigenvalues not converged
     c_bands:  1 eigenvalues not converged
     c_bands:  2 eigenvalues not converged
     c_bands:  2 eigenvalues not converged
     c_bands:  3 eigenvalues not converged
     c_bands:  1 eigenvalues not converged
     c_bands:  4 eigenvalues not converged
     c_bands:  2 eigenvalues not converged
     c_bands:  2 eigenvalues not converged
     c_bands:  2 eigenvalues not converged
     c_bands:  3 eigenvalues not converged
     c_bands:  3 eigenvalues not converged
     c_bands:  1 eigenvalues not converged
     c_bands:  2 eigenvalues not converged
     c_bands:  2 eigenvalues not converged
     c_bands:  2 eigenvalues not converged
     c_bands:  1 eigenvalues not converged
     c_bands:  1 eigenvalues not converged
     c_bands:  1 eigenvalues not converged
     c_bands:  2 eigenvalues not converged
     c_bands:  2 eigenvalues not converged
     c_bands:  1 eigenvalues not converged
     c_bands:  1 eigenvalues not converged
     c_bands:  1 eigenvalues not converged
     c_bands:  1 eigenvalues not converged
     c_bands:  1 eigenvalues not converged
     c_bands:  1 eigenvalues not converged
     c_bands:  1 eigenvalues not converged
     c_bands:  1 eigenvalues not converged
     c_bands:  1 eigenvalues not converged
     c_bands:  1 eigenvalues not converged
     c_bands:  1 eigenvalues not converged
     c_bands:  1 eigenvalues not converged
     c_bands:  3 eigenvalues not converged
     c_bands:  3 eigenvalues not converged
     c_bands:  2 eigenvalues not converged
     c_bands:  3 eigenvalues not converged
     c_bands:  2 eigenvalues not converged
     c_bands:  1 eigenvalues not converged
     c_bands:  1 eigenvalues not converged
     c_bands:  2 eigenvalues not converged
     c_bands:  3 eigenvalues not converged
     c_bands:  4 eigenvalues not converged
     c_bands:  1 eigenvalues not converged
     c_bands:  2 eigenvalues not converged
     c_bands:  2 eigenvalues not converged
     c_bands:  1 eigenvalues not converged
     c_bands:  2 eigenvalues not converged
     c_bands:  4 eigenvalues not converged
     c_bands:  2 eigenvalues not converged
     c_bands:  2 eigenvalues not converged
     c_bands:  3 eigenvalues not converged
     c_bands:  4 eigenvalues not converged
     c_bands:  1 eigenvalues not converged
     c_bands:  2 eigenvalues not converged
     c_bands:  2 eigenvalues not converged
     c_bands:  2 eigenvalues not converged
     c_bands:  2 eigenvalues not converged
     c_bands:  1 eigenvalues not converged
     c_bands:  1 eigenvalues not converged
     c_bands:  2 eigenvalues not converged
     c_bands:  2 eigenvalues not converged
     c_bands:  1 eigenvalues not converged
     c_bands:  1 eigenvalues not converged
     c_bands:  1 eigenvalues not converged
     c_bands:  2 eigenvalues not converged
     c_bands:  1 eigenvalues not converged
     c_bands:  1 eigenvalues not converged
     c_bands:  1 eigenvalues not converged
     c_bands:  1 eigenvalues not converged
     c_bands:  1 eigenvalues not converged
     c_bands:  1 eigenvalues not converged
     c_bands:  1 eigenvalues not converged
     c_bands:  1 eigenvalues not converged
     c_bands:  1 eigenvalues not converged
     c_bands:  1 eigenvalues not converged
     c_bands:  1 eigenvalues not converged
     c_bands:  1 eigenvalues not converged
     c_bands:  1 eigenvalues not converged
     c_bands:  2 eigenvalues not converged
     c_bands:  2 eigenvalues not converged
     c_bands:  2 eigenvalues not converged
     c_bands:  3 eigenvalues not converged
     c_bands:  1 eigenvalues not converged
     c_bands:  2 eigenvalues not converged
     c_bands:  3 eigenvalues not converged
     c_bands:  2 eigenvalues not converged
     c_bands:  3 eigenvalues not converged
     c_bands:  1 eigenvalues not converged
     c_bands:  1 eigenvalues not converged
     c_bands:  3 eigenvalues not converged
     c_bands:  3 eigenvalues not converged
     c_bands:  2 eigenvalues not converged
     c_bands:  2 eigenvalues not converged
     c_bands:  1 eigenvalues not converged
     c_bands:  1 eigenvalues not converged
     c_bands:  2 eigenvalues not converged
     c_bands:  2 eigenvalues not converged
     c_bands:  2 eigenvalues not converged
     c_bands:  1 eigenvalues not converged
     c_bands:  1 eigenvalues not converged
     c_bands:  2 eigenvalues not converged
     c_bands:  2 eigenvalues not converged
     c_bands:  1 eigenvalues not converged
     c_bands:  1 eigenvalues not converged
     c_bands:  1 eigenvalues not converged
     c_bands:  1 eigenvalues not converged
     c_bands:  2 eigenvalues not converged
     c_bands:  2 eigenvalues not converged
     c_bands:  1 eigenvalues not converged
     c_bands:  1 eigenvalues not converged
     c_bands:  1 eigenvalues not converged
     c_bands:  1 eigenvalues not converged
     c_bands:  1 eigenvalues not converged
     c_bands:  1 eigenvalues not converged
     c_bands:  1 eigenvalues not converged
     c_bands:  1 eigenvalues not converged
     c_bands:  2 eigenvalues not converged
     c_bands:  1 eigenvalues not converged
     c_bands:  1 eigenvalues not converged
     c_bands:  1 eigenvalues not converged
     c_bands:  1 eigenvalues not converged
     c_bands:  1 eigenvalues not converged
     c_bands:  2 eigenvalues not converged
     c_bands:  1 eigenvalues not converged
     c_bands:  2 eigenvalues not converged
     c_bands:  1 eigenvalues not converged
     c_bands:  1 eigenvalues not converged
     c_bands:  2 eigenvalues not converged
     c_bands:  1 eigenvalues not converged
     c_bands:  1 eigenvalues not converged
     c_bands:  1 eigenvalues not converged
     c_bands:  1 eigenvalues not converged
     c_bands:  2 eigenvalues not converged
     c_bands:  1 eigenvalues not converged
     c_bands:  1 eigenvalues not converged
     c_bands:  2 eigenvalues not converged
     c_bands:  2 eigenvalues not converged
     c_bands:  3 eigenvalues not converged
     c_bands:  1 eigenvalues not converged
     c_bands:  1 eigenvalues not converged
     c_bands:  1 eigenvalues not converged
     c_bands:  1 eigenvalues not converged
     c_bands:  1 eigenvalues not converged
     c_bands:  2 eigenvalues not converged
     c_bands:  1 eigenvalues not converged
     c_bands:  1 eigenvalues not converged
     c_bands:  1 eigenvalues not converged
     c_bands:  2 eigenvalues not converged
     c_bands:  1 eigenvalues not converged
     c_bands:  2 eigenvalues not converged
     c_bands:  1 eigenvalues not converged
     c_bands:  1 eigenvalues not converged
     c_bands:  1 eigenvalues not converged
     c_bands:  1 eigenvalues not converged
     c_bands:  1 eigenvalues not converged
     c_bands:  1 eigenvalues not converged
     c_bands:  1 eigenvalues not converged
     c_bands:  1 eigenvalues not converged
     c_bands:  1 eigenvalues not converged
     c_bands:  2 eigenvalues not converged
     c_bands:  1 eigenvalues not converged
     c_bands:  2 eigenvalues not converged
     c_bands:  1 eigenvalues not converged
     c_bands:  1 eigenvalues not converged
     c_bands:  1 eigenvalues not converged
     c_bands:  1 eigenvalues not converged
     c_bands:  2 eigenvalues not converged
     c_bands:  2 eigenvalues not converged
     c_bands:  2 eigenvalues not converged
     c_bands:  1 eigenvalues not converged
     c_bands:  1 eigenvalues not converged
     c_bands:  1 eigenvalues not converged
     c_bands:  1 eigenvalues not converged
     c_bands:  2 eigenvalues not converged
     c_bands:  1 eigenvalues not converged
     c_bands:  1 eigenvalues not converged
     c_bands:  1 eigenvalues not converged
     c_bands:  2 eigenvalues not converged
     c_bands:  2 eigenvalues not converged
     c_bands:  1 eigenvalues not converged
     c_bands:  1 eigenvalues not converged
     c_bands:  1 eigenvalues not converged
     c_bands:  1 eigenvalues not converged
     c_bands:  1 eigenvalues not converged
     c_bands:  1 eigenvalues not converged
     c_bands:  2 eigenvalues not converged
     c_bands:  1 eigenvalues not converged
     c_bands:  1 eigenvalues not converged
     c_bands:  1 eigenvalues not converged
     c_bands:  1 eigenvalues not converged
     c_bands:  1 eigenvalues not converged
     c_bands:  1 eigenvalues not converged
     c_bands:  1 eigenvalues not converged
     c_bands:  2 eigenvalues not converged
     c_bands:  1 eigenvalues not converged
     c_bands:  2 eigenvalues not converged
     c_bands:  2 eigenvalues not converged
     c_bands:  1 eigenvalues not converged
     c_bands:  1 eigenvalues not converged
     c_bands:  1 eigenvalues not converged
     c_bands:  2 eigenvalues not converged
     c_bands:  1 eigenvalues not converged
     c_bands:  1 eigenvalues not converged
     c_bands:  1 eigenvalues not converged
     c_bands:  1 eigenvalues not converged
     c_bands:  1 eigenvalues not converged
     c_bands:  1 eigenvalues not converged
     c_bands:  1 eigenvalues not converged
     c_bands:  1 eigenvalues not converged
     c_bands:  1 eigenvalues not converged
     c_bands:  1 eigenvalues not converged
     c_bands:  1 eigenvalues not converged
     c_bands:  1 eigenvalues not converged
     c_bands:  1 eigenvalues not converged
     c_bands:  1 eigenvalues not converged
     c_bands:  1 eigenvalues not converged
     c_bands:  1 eigenvalues not converged
     c_bands:  1 eigenvalues not converged
     c_bands:  1 eigenvalues not converged
     c_bands:  1 eigenvalues not converged
     c_bands:  1 eigenvalues not converged
     c_bands:  1 eigenvalues not converged
     c_bands:  1 eigenvalues not converged
     c_bands:  1 eigenvalues not converged
     c_bands:  1 eigenvalues not converged
     c_bands:  1 eigenvalues not converged
     c_bands:  1 eigenvalues not converged
     c_bands:  2 eigenvalues not converged
     c_bands:  2 eigenvalues not converged
     c_bands:  2 eigenvalues not converged
     c_bands:  1 eigenvalues not converged
     c_bands:  1 eigenvalues not converged
     c_bands:  1 eigenvalues not converged
     c_bands:  2 eigenvalues not converged
     c_bands:  2 eigenvalues not converged
     c_bands:  1 eigenvalues not converged
     c_bands:  2 eigenvalues not converged
     c_bands:  1 eigenvalues not converged
     c_bands:  1 eigenvalues not converged
     c_bands:  1 eigenvalues not converged
     c_bands:  1 eigenvalues not converged
     c_bands:  2 eigenvalues not converged
     c_bands:  1 eigenvalues not converged
     c_bands:  1 eigenvalues not converged
     c_bands:  1 eigenvalues not converged
     c_bands:  1 eigenvalues not converged
     c_bands:  1 eigenvalues not converged
     c_bands:  1 eigenvalues not converged
     c_bands:  1 eigenvalues not converged
     c_bands:  2 eigenvalues not converged
     c_bands:  2 eigenvalues not converged
     c_bands:  2 eigenvalues not converged
     c_bands:  1 eigenvalues not converged
     c_bands:  1 eigenvalues not converged
     c_bands:  1 eigenvalues not converged
     c_bands:  1 eigenvalues not converged
     ethr =  1.00E-06,  avg # of iterations = 18.3

     negative rho (up, down):  5.636E-03 0.000E+00

     total cpu time spent up to now is      772.6 secs

     total energy              =    -356.96908865 Ry
     estimated scf accuracy    <       1.99038982 Ry

     iteration #  2     ecut=   124.00 Ry     beta= 0.70
     Davidson diagonalization with overlap
     ethr =  5.53E-03,  avg # of iterations =  3.4

     negative rho (up, down):  2.961E-03 0.000E+00

     total cpu time spent up to now is      787.8 secs

     total energy              =    -357.32678741 Ry
     estimated scf accuracy    <       1.39318558 Ry

     iteration #  3     ecut=   124.00 Ry     beta= 0.70
     Davidson diagonalization with overlap
     ethr =  3.87E-03,  avg # of iterations =  5.2

     negative rho (up, down):  2.546E-03 0.000E+00

     total cpu time spent up to now is      802.6 secs

     total energy              =    -357.05081782 Ry
     estimated scf accuracy    <      12.44554546 Ry

     iteration #  4     ecut=   124.00 Ry     beta= 0.70
     Davidson diagonalization with overlap
     ethr =  3.87E-03,  avg # of iterations =  4.5

     negative rho (up, down):  2.431E-03 0.000E+00

     total cpu time spent up to now is      814.6 secs

     total energy              =    -357.73067348 Ry
     estimated scf accuracy    <       0.01788007 Ry

     iteration #  5     ecut=   124.00 Ry     beta= 0.70
     Davidson diagonalization with overlap
     c_bands:  1 eigenvalues not converged
     c_bands:  2 eigenvalues not converged
     c_bands:  1 eigenvalues not converged
     c_bands:  1 eigenvalues not converged
     c_bands:  2 eigenvalues not converged
     c_bands:  1 eigenvalues not converged
     c_bands:  1 eigenvalues not converged
     c_bands:  1 eigenvalues not converged
     c_bands:  2 eigenvalues not converged
     c_bands:  1 eigenvalues not converged
     c_bands:  1 eigenvalues not converged
     c_bands:  1 eigenvalues not converged
     ethr =  4.97E-05,  avg # of iterations = 10.0

     negative rho (up, down):  2.365E-03 0.000E+00

     total cpu time spent up to now is      836.0 secs

     total energy              =    -357.75452730 Ry
     estimated scf accuracy    <       0.01233781 Ry

     iteration #  6     ecut=   124.00 Ry     beta= 0.70
     Davidson diagonalization with overlap
     ethr =  3.43E-05,  avg # of iterations =  1.1

     negative rho (up, down):  2.357E-03 0.000E+00

     total cpu time spent up to now is      845.5 secs

     total energy              =    -357.75449104 Ry
     estimated scf accuracy    <       0.00357202 Ry

     iteration #  7     ecut=   124.00 Ry     beta= 0.70
     Davidson diagonalization with overlap
     ethr =  9.92E-06,  avg # of iterations =  2.7

     negative rho (up, down):  2.359E-03 0.000E+00

     total cpu time spent up to now is      856.2 secs

     total energy              =    -357.75462095 Ry
     estimated scf accuracy    <       0.00049011 Ry

     iteration #  8     ecut=   124.00 Ry     beta= 0.70
     Davidson diagonalization with overlap
     c_bands:  1 eigenvalues not converged
     c_bands:  1 eigenvalues not converged
     ethr =  1.36E-06,  avg # of iterations =  5.5

     negative rho (up, down):  2.363E-03 0.000E+00

     total cpu time spent up to now is      870.7 secs

     total energy              =    -357.75471100 Ry
     estimated scf accuracy    <       0.00011819 Ry

     iteration #  9     ecut=   124.00 Ry     beta= 0.70
     Davidson diagonalization with overlap
     ethr =  3.28E-07,  avg # of iterations =  2.3

     negative rho (up, down):  2.361E-03 0.000E+00

     total cpu time spent up to now is      881.7 secs

     total energy              =    -357.75472604 Ry
     estimated scf accuracy    <       0.00000834 Ry

     iteration # 10     ecut=   124.00 Ry     beta= 0.70
     Davidson diagonalization with overlap
     ethr =  2.32E-08,  avg # of iterations =  4.1

     negative rho (up, down):  2.360E-03 0.000E+00

     total cpu time spent up to now is      894.1 secs

     total energy              =    -357.75472663 Ry
     estimated scf accuracy    <       0.00000610 Ry

     iteration # 11     ecut=   124.00 Ry     beta= 0.70
     Davidson diagonalization with overlap
     ethr =  1.69E-08,  avg # of iterations =  2.6

     negative rho (up, down):  2.359E-03 0.000E+00

     total cpu time spent up to now is      904.7 secs

     total energy              =    -357.75472703 Ry
     estimated scf accuracy    <       0.00000063 Ry

     iteration # 12     ecut=   124.00 Ry     beta= 0.70
     Davidson diagonalization with overlap
     ethr =  1.76E-09,  avg # of iterations =  4.6

     negative rho (up, down):  2.359E-03 0.000E+00

     total cpu time spent up to now is      917.8 secs

     total energy              =    -357.75472722 Ry
     estimated scf accuracy    <       0.00000015 Ry

     iteration # 13     ecut=   124.00 Ry     beta= 0.70
     Davidson diagonalization with overlap
     ethr =  4.26E-10,  avg # of iterations =  2.1

     negative rho (up, down):  2.359E-03 0.000E+00

     total cpu time spent up to now is      928.0 secs

     total energy              =    -357.75472722 Ry
     estimated scf accuracy    <       0.00000006 Ry

     iteration # 14     ecut=   124.00 Ry     beta= 0.70
     Davidson diagonalization with overlap
     ethr =  1.58E-10,  avg # of iterations =  2.9

     negative rho (up, down):  2.359E-03 0.000E+00

     total cpu time spent up to now is      938.7 secs

     total energy              =    -357.75472723 Ry
     estimated scf accuracy    <          2.2E-10 Ry

     iteration # 15     ecut=   124.00 Ry     beta= 0.70
     Davidson diagonalization with overlap
     c_bands:  1 eigenvalues not converged
     ethr =  6.17E-13,  avg # of iterations =  6.6

     negative rho (up, down):  2.359E-03 0.000E+00

     total cpu time spent up to now is      954.9 secs

     total energy              =    -357.75472723 Ry
     estimated scf accuracy    <          3.9E-09 Ry

     iteration # 16     ecut=   124.00 Ry     beta= 0.70
     Davidson diagonalization with overlap
     ethr =  6.17E-13,  avg # of iterations =  3.4

     negative rho (up, down):  2.359E-03 0.000E+00

     total cpu time spent up to now is      966.4 secs

     total energy              =    -357.75472723 Ry
     estimated scf accuracy    <          1.4E-09 Ry

     iteration # 17     ecut=   124.00 Ry     beta= 0.70
     Davidson diagonalization with overlap
     ethr =  6.17E-13,  avg # of iterations =  4.5

     negative rho (up, down):  2.359E-03 0.000E+00

     total cpu time spent up to now is      979.5 secs

     End of self-consistent calculation

     Number of k-points >= 100: set verbosity='high' to print the bands.

     the Fermi energy is    13.5025 ev

!    total energy              =    -357.75472723 Ry
     estimated scf accuracy    <          1.5E-11 Ry
     smearing contrib. (-TS)   =      -0.00002054 Ry
     internal energy E=F+TS    =    -357.75470670 Ry

     The total energy is F=E-TS. E is the sum of the following terms:
     one-electron contribution =    -120.43419401 Ry
     hartree contribution      =      72.48189655 Ry
     xc contribution           =     -54.15453565 Ry
     ewald contribution        =    -255.64787359 Ry

     convergence has been achieved in  17 iterations

     negative rho (up, down):  2.359E-03 0.000E+00

     Forces acting on atoms (cartesian axes, Ry/au):

     atom    1 type  1   force =     0.00000000   -0.00000000   -0.00000000
     atom    2 type  1   force =    -0.00000000    0.00000000    0.00000000
     atom    3 type  1   force =     0.00000000   -0.00000000   -0.00000000

     Total force =     0.000000     Total SCF correction =     0.000000


     Computing stress (Cartesian axis) and pressure


     negative rho (up, down):  2.359E-03 0.000E+00
          total   stress  (Ry/bohr**3)                   (kbar)     P=        0.06
   0.00000057  -0.00000000   0.00000000            0.08       -0.00        0.00
  -0.00000000   0.00000057   0.00000000           -0.00        0.08        0.00
   0.00000000   0.00000000   0.00000017            0.00        0.00        0.03


     Writing all to output data dir ./Ti.save/ :
     XML data file
     init_run     :     11.88s CPU     12.32s WALL (       2 calls)
     electrons    :    915.32s CPU    939.02s WALL (       7 calls)
     update_pot   :      0.25s CPU      0.30s WALL (       5 calls)
     forces       :      5.63s CPU      5.93s WALL (       7 calls)
     stress       :     23.90s CPU     24.73s WALL (       7 calls)

     Called by init_run:
     wfcinit      :     10.32s CPU     10.63s WALL (       2 calls)
     potinit      :      0.35s CPU      0.37s WALL (       2 calls)
     hinit0       :      0.79s CPU      0.87s WALL (       2 calls)

     Called by electrons:
     c_bands      :    810.73s CPU    827.95s WALL (      68 calls)
     sum_band     :     97.15s CPU    101.36s WALL (      68 calls)
     v_of_rho     :      2.54s CPU      2.92s WALL (      70 calls)
     newd         :      5.21s CPU      7.20s WALL (      70 calls)
     mix_rho      :      0.22s CPU      0.27s WALL (      68 calls)

     Called by c_bands:
     init_us_2    :     13.21s CPU     13.65s WALL (   80256 calls)
     cegterg      :    780.45s CPU    796.36s WALL (   35904 calls)

     Called by *egterg:
     cdiaghg      :     94.66s CPU     96.30s WALL (  175990 calls)
     h_psi        :    582.10s CPU    595.04s WALL (  182326 calls)
     s_psi        :     17.17s CPU     17.54s WALL (  182326 calls)
     g_psi        :      2.84s CPU      2.88s WALL (  145366 calls)

     Called by h_psi:
     h_psi:calbec :     34.78s CPU     35.57s WALL (  182326 calls)
     vloc_psi     :    526.46s CPU    538.18s WALL (  182326 calls)
     add_vuspsi   :     18.24s CPU     18.66s WALL (  182326 calls)

     General routines
     calbec       :     54.58s CPU     55.77s WALL (  281062 calls)
     fft          :      2.34s CPU      2.84s WALL (    1081 calls)
     ffts         :      0.29s CPU      0.30s WALL (     138 calls)
     fftw         :    453.64s CPU    463.00s WALL ( 5297550 calls)
     interpolate  :      0.42s CPU      0.46s WALL (      70 calls)

     Parallel routines

     PWSCF        :    957.84s CPU    984.12s WALL


   This run was terminated on:  12:35:22  12Nov2025            

=------------------------------------------------------------------------------=
   JOB DONE.
=------------------------------------------------------------------------------=
