
     Program PWSCF v.7.4 starts on  2Nov2025 at 17:54:52 

     This program is part of the open-source Quantum ESPRESSO suite
     for quantum simulation of materials; please cite
         "P. Giannozzi et al., J. Phys.:Condens. Matter 21 395502 (2009);
         "P. Giannozzi et al., J. Phys.:Condens. Matter 29 465901 (2017);
         "P. Giannozzi et al., J. Chem. Phys. 152 154105 (2020);
          URL http://www.quantum-espresso.org", 
     in publications or presentations arising from this work. More details at
     http://www.quantum-espresso.org/quote

     Parallel version (MPI & OpenMP), running on      16 processor cores
     Number of MPI processes:                16
     Threads/MPI process:                     1

     MPI processes distributed on     1 nodes
     215894 MiB available memory on the printing compute node when the environment starts

     Reading input from HfFe2.in
Warning: card / ignored

     Current dimensions of program PWSCF are:
     Max number of different atomic species (ntypx) = 10
     Max number of k-points (npk) =  40000
     Max angular momentum in pseudopotentials (lmaxx) =  4
     file Fe.pbe-spn-kjpaw_psl.0.2.1.UPF: wavefunction(s)  3D renormalized

     IMPORTANT: XC functional enforced from input :
     Exchange-correlation= PBE
                           (   1   4   3   4   0   0   0)
     Any further DFT definition will be discarded
     Please, verify this is what you really want

     Found identity + (  0.0000 -0.5000  0.5000) symmetry
     This is a supercell, fractional translations are disabled
     Message from routine setup:
     using ibrav=0 with symmetry is DISCOURAGED, use correct ibrav instead

     R & G space division:  proc/nbgrp/npool/nimage =      16
     Subspace diagonalization in iterative solution of the eigenvalue problem:
     one sub-group per band group will be used
     ELPA distributed-memory algorithm (size of sub-group:  2*  2 procs)


     Parallelization info
     --------------------
     sticks:   dense  smooth     PW     G-vecs:    dense   smooth      PW
     Min        1517     434    115               178119    27201    3710
     Max        1518     435    117               178122    27202    3711
     Sum       24285    6953   1853              2849939   435223   59373

     Using Slab Decomposition



     bravais-lattice index     =            0
     lattice parameter (alat)  =      13.2636  a.u.
     unit-cell volume          =    2333.3985 (a.u.)^3
     number of atoms/cell      =           24
     number of atomic types    =            2
     number of electrons       =       352.00
     number of Kohn-Sham states=          211
     kinetic-energy cutoff     =     124.0000  Ry
     charge density cutoff     =    1736.0000  Ry
     scf convergence threshold =      1.0E-08
     mixing beta               =       0.7000
     number of iterations used =            8  plain     mixing
     Exchange-correlation= PBE
                           (   1   4   3   4   0   0   0)

     celldm(1)=  13.263648  celldm(2)=   0.000000  celldm(3)=   0.000000
     celldm(4)=   0.000000  celldm(5)=   0.000000  celldm(6)=   0.000000

     crystal axes: (cart. coord. in units of alat)
               a(1) = (   1.000000   0.000000   0.000000 )  
               a(2) = (   0.000000   1.000000   0.000000 )  
               a(3) = (   0.000000   0.000000   1.000000 )  

     reciprocal axes: (cart. coord. in units 2 pi/alat)
               b(1) = (  1.000000  0.000000  0.000000 )  
               b(2) = (  0.000000  1.000000  0.000000 )  
               b(3) = (  0.000000  0.000000  1.000000 )  


     PseudoPot. # 1 for Fe read from file:
     ../../pseudos/Fe.pbe-spn-kjpaw_psl.0.2.1.UPF
     MD5 check sum: e86618425769142926afa95317d90200
     Pseudo is Projector augmented-wave + core cor, Zval = 16.0
     Generated using "atomic" code by A. Dal Corso  v.5.0.99 svn rev. 10869
     Shape of augmentation charge: PSQ
     Using radial grid of 1191 points,  6 beta functions with: 
                l(1) =   0
                l(2) =   0
                l(3) =   1
                l(4) =   1
                l(5) =   2
                l(6) =   2
     Q(r) pseudized with 0 coefficients 


     PseudoPot. # 2 for Hf read from file:
     ../../pseudos/Hf-sp.oncvpsp.upf
     MD5 check sum: 417ed15784afe83d2e06dacf143de3f8
     Pseudo is Norm-conserving + core correction, Zval = 12.0
     Generated using ONCVPSP code by D. R. Hamann
     Using radial grid of 1656 points,  8 beta functions with: 
                l(1) =   0
                l(2) =   0
                l(3) =   1
                l(4) =   1
                l(5) =   2
                l(6) =   2
                l(7) =   3
                l(8) =   3

     atomic species   valence    mass     pseudopotential
     Fe               16.00    55.84500     Fe( 1.00)
     Hf               12.00   178.49000     Hf( 1.00)

     Starting magnetic structure 
     atomic species   magnetization
     Fe              0.062
     Hf             -0.026

     24 Sym. Ops. (no inversion) found



   Cartesian axes

     site n.     atom                  positions (alat units)
         1        Hf     tau(   1) = (   0.5000000   0.0000000   0.5000000  )
         2        Hf     tau(   2) = (   0.7500000   0.2500000   0.7500000  )
         3        Hf     tau(   3) = (   0.5000000   0.5000000   0.0000000  )
         4        Hf     tau(   4) = (   0.7500000   0.7500000   0.2500000  )
         5        Hf     tau(   5) = (   0.0000000   0.0000000   0.0000000  )
         6        Hf     tau(   6) = (   0.2500000   0.2500000   0.2500000  )
         7        Hf     tau(   7) = (   0.0000000   0.5000000   0.5000000  )
         8        Hf     tau(   8) = (   0.2500000   0.7500000   0.7500000  )
         9        Fe     tau(   9) = (   0.1250000   0.1250000   0.6250000  )
        10        Fe     tau(  10) = (   0.1250000   0.8750000   0.3750000  )
        11        Fe     tau(  11) = (   0.8750000   0.6250000   0.8750000  )
        12        Fe     tau(  12) = (   0.8750000   0.8750000   0.6250000  )
        13        Fe     tau(  13) = (   0.1250000   0.6250000   0.1250000  )
        14        Fe     tau(  14) = (   0.1250000   0.3750000   0.8750000  )
        15        Fe     tau(  15) = (   0.8750000   0.1250000   0.3750000  )
        16        Fe     tau(  16) = (   0.8750000   0.3750000   0.1250000  )
        17        Fe     tau(  17) = (   0.6250000   0.1250000   0.1250000  )
        18        Fe     tau(  18) = (   0.6250000   0.8750000   0.8750000  )
        19        Fe     tau(  19) = (   0.3750000   0.6250000   0.3750000  )
        20        Fe     tau(  20) = (   0.3750000   0.8750000   0.1250000  )
        21        Fe     tau(  21) = (   0.6250000   0.6250000   0.6250000  )
        22        Fe     tau(  22) = (   0.6250000   0.3750000   0.3750000  )
        23        Fe     tau(  23) = (   0.3750000   0.1250000   0.8750000  )
        24        Fe     tau(  24) = (   0.3750000   0.3750000   0.6250000  )

     number of k points=    10  Marzari-Vanderbilt smearing, width (Ry)=  0.0050
                       cart. coord. in units 2pi/alat
        k(    1) = (   0.0000000   0.0000000   0.0000000), wk =   0.0080000
        k(    2) = (   0.0000000   0.0000000   0.2000000), wk =   0.0480000
        k(    3) = (   0.0000000   0.0000000   0.4000000), wk =   0.0480000
        k(    4) = (   0.0000000   0.2000000   0.2000000), wk =   0.0960000
        k(    5) = (   0.0000000   0.2000000   0.4000000), wk =   0.1920000
        k(    6) = (   0.0000000   0.4000000   0.4000000), wk =   0.0960000
        k(    7) = (   0.2000000   0.2000000   0.2000000), wk =   0.0640000
        k(    8) = (   0.2000000   0.2000000   0.4000000), wk =   0.1920000
        k(    9) = (   0.2000000   0.4000000   0.4000000), wk =   0.1920000
        k(   10) = (   0.4000000   0.4000000   0.4000000), wk =   0.0640000

     Dense  grid:  2849939 G-vectors     FFT dimensions: ( 180, 180, 180)

     Smooth grid:   435223 G-vectors     FFT dimensions: (  96,  96,  96)

     Estimated max dynamical RAM per process >       1.09 GB

     Estimated total dynamical RAM >      17.41 GB

     Check: negative core charge=   -0.000001
     Generating pointlists ...
     new r_m :   0.1458 (alat units)  1.9344 (a.u.) for type    1
     new r_m :   0.1710 (alat units)  2.2683 (a.u.) for type    2

     Initial potential from superposition of free atoms

     starting charge     351.9782, renormalised to     352.0000
     Starting wfcs are  288 randomized atomic wfcs
     Checking if some PAW data can be deallocated... 

     total cpu time spent up to now is       46.3 secs

     per-process dynamical memory:   513.6 Mb

     Self-consistent Calculation

     iteration #  1     ecut=   124.00 Ry     beta= 0.70
     Davidson diagonalization with overlap
     ethr =  1.00E-02,  avg # of iterations =  2.0

     total cpu time spent up to now is      133.2 secs

     total energy              =   -6167.91760592 Ry
     estimated scf accuracy    <       4.95083982 Ry

     total magnetization       =    14.13 Bohr mag/cell
     absolute magnetization    =    17.25 Bohr mag/cell

     iteration #  2     ecut=   124.00 Ry     beta= 0.70
     Davidson diagonalization with overlap
     ethr =  1.41E-03,  avg # of iterations =  8.9

     total cpu time spent up to now is      290.1 secs

     total energy              =   -6156.64115994 Ry
     estimated scf accuracy    <     190.25376403 Ry

     total magnetization       =     4.82 Bohr mag/cell
     absolute magnetization    =     7.22 Bohr mag/cell

     iteration #  3     ecut=   124.00 Ry     beta= 0.70
     Davidson diagonalization with overlap
     ethr =  1.41E-03,  avg # of iterations =  7.6

     total cpu time spent up to now is      425.5 secs

     total energy              =   -6171.41038746 Ry
     estimated scf accuracy    <       0.60382633 Ry

     total magnetization       =    14.95 Bohr mag/cell
     absolute magnetization    =    19.46 Bohr mag/cell

     iteration #  4     ecut=   124.00 Ry     beta= 0.70
     Davidson diagonalization with overlap
     ethr =  1.72E-04,  avg # of iterations =  5.9

     total cpu time spent up to now is      512.4 secs

     total energy              =   -6171.47164129 Ry
     estimated scf accuracy    <       0.51718523 Ry

     total magnetization       =    17.14 Bohr mag/cell
     absolute magnetization    =    22.04 Bohr mag/cell

     iteration #  5     ecut=   124.00 Ry     beta= 0.70
     Davidson diagonalization with overlap
     ethr =  1.47E-04,  avg # of iterations =  2.0

     total cpu time spent up to now is      586.2 secs

     total energy              =   -6171.48278767 Ry
     estimated scf accuracy    <       0.06815527 Ry

     total magnetization       =    17.39 Bohr mag/cell
     absolute magnetization    =    22.33 Bohr mag/cell

     iteration #  6     ecut=   124.00 Ry     beta= 0.70
     Davidson diagonalization with overlap
     ethr =  1.94E-05,  avg # of iterations =  7.8

     total cpu time spent up to now is      678.5 secs

     total energy              =   -6171.50773363 Ry
     estimated scf accuracy    <       0.06588468 Ry

     total magnetization       =    16.78 Bohr mag/cell
     absolute magnetization    =    21.68 Bohr mag/cell

     iteration #  7     ecut=   124.00 Ry     beta= 0.70
     Davidson diagonalization with overlap
     ethr =  1.87E-05,  avg # of iterations =  1.4

     total cpu time spent up to now is      752.5 secs

     total energy              =   -6171.49226579 Ry
     estimated scf accuracy    <       0.08348520 Ry

     total magnetization       =    19.32 Bohr mag/cell
     absolute magnetization    =    24.25 Bohr mag/cell

     iteration #  8     ecut=   124.00 Ry     beta= 0.70
     Davidson diagonalization with overlap
     ethr =  1.87E-05,  avg # of iterations =  1.3

     total cpu time spent up to now is      825.4 secs

     total energy              =   -6171.32348753 Ry
     estimated scf accuracy    <       0.08628337 Ry

     total magnetization       =    17.14 Bohr mag/cell
     absolute magnetization    =    22.19 Bohr mag/cell

     iteration #  9     ecut=   124.00 Ry     beta= 0.70
     Davidson diagonalization with overlap
     ethr =  1.87E-05,  avg # of iterations =  4.4

     total cpu time spent up to now is      918.2 secs

     total energy              =   -6171.26826794 Ry
     estimated scf accuracy    <       0.03596172 Ry

     total magnetization       =     9.66 Bohr mag/cell
     absolute magnetization    =    13.62 Bohr mag/cell

     iteration # 10     ecut=   124.00 Ry     beta= 0.70
     Davidson diagonalization with overlap
     ethr =  1.02E-05,  avg # of iterations =  5.4

     total cpu time spent up to now is     1022.3 secs

     total energy              =   -6171.01405692 Ry
     estimated scf accuracy    <       0.03020671 Ry

     total magnetization       =     2.38 Bohr mag/cell
     absolute magnetization    =     5.36 Bohr mag/cell

     iteration # 11     ecut=   124.00 Ry     beta= 0.70
     Davidson diagonalization with overlap
     ethr =  8.58E-06,  avg # of iterations =  7.0

     total cpu time spent up to now is     1155.3 secs

     total energy              =   -6171.24726955 Ry
     estimated scf accuracy    <       0.11492072 Ry

     total magnetization       =   -14.36 Bohr mag/cell
     absolute magnetization    =    16.83 Bohr mag/cell

     iteration # 12     ecut=   124.00 Ry     beta= 0.70
     Davidson diagonalization with overlap
     ethr =  8.58E-06,  avg # of iterations =  4.9

     total cpu time spent up to now is     1253.7 secs

     total energy              =   -6171.34625026 Ry
     estimated scf accuracy    <       0.01551903 Ry

     total magnetization       =    -5.02 Bohr mag/cell
     absolute magnetization    =     6.30 Bohr mag/cell

     iteration # 13     ecut=   124.00 Ry     beta= 0.70
     Davidson diagonalization with overlap
     ethr =  4.41E-06,  avg # of iterations =  1.7

     total cpu time spent up to now is     1327.7 secs

     total energy              =   -6171.34493791 Ry
     estimated scf accuracy    <       0.01629070 Ry

     total magnetization       =    -5.26 Bohr mag/cell
     absolute magnetization    =     6.61 Bohr mag/cell

     iteration # 14     ecut=   124.00 Ry     beta= 0.70
     Davidson diagonalization with overlap
     ethr =  4.41E-06,  avg # of iterations =  5.0

     total cpu time spent up to now is     1415.1 secs

     total energy              =   -6171.33832746 Ry
     estimated scf accuracy    <       0.00355117 Ry

     total magnetization       =    -2.78 Bohr mag/cell
     absolute magnetization    =     3.77 Bohr mag/cell

     iteration # 15     ecut=   124.00 Ry     beta= 0.70
     Davidson diagonalization with overlap
     ethr =  1.01E-06,  avg # of iterations =  5.8

     total cpu time spent up to now is     1538.6 secs

     total energy              =   -6171.36260325 Ry
     estimated scf accuracy    <       0.01001763 Ry

     total magnetization       =     1.95 Bohr mag/cell
     absolute magnetization    =     2.75 Bohr mag/cell

     iteration # 16     ecut=   124.00 Ry     beta= 0.70
     Davidson diagonalization with overlap
     ethr =  1.01E-06,  avg # of iterations =  2.5

     total cpu time spent up to now is     1618.7 secs

     total energy              =   -6171.35694665 Ry
     estimated scf accuracy    <       0.03359485 Ry

     total magnetization       =     1.84 Bohr mag/cell
     absolute magnetization    =     2.18 Bohr mag/cell

     iteration # 17     ecut=   124.00 Ry     beta= 0.70
     Davidson diagonalization with overlap
     ethr =  1.01E-06,  avg # of iterations =  4.0

     total cpu time spent up to now is     1709.2 secs

     total energy              =   -6171.36205954 Ry
     estimated scf accuracy    <       0.00083444 Ry

     total magnetization       =    -0.30 Bohr mag/cell
     absolute magnetization    =     1.46 Bohr mag/cell

     iteration # 18     ecut=   124.00 Ry     beta= 0.70
     Davidson diagonalization with overlap
     ethr =  2.37E-07,  avg # of iterations =  4.4

     total cpu time spent up to now is     1800.1 secs

     total energy              =   -6171.36195822 Ry
     estimated scf accuracy    <       0.00045484 Ry

     total magnetization       =    -0.88 Bohr mag/cell
     absolute magnetization    =     1.75 Bohr mag/cell

     iteration # 19     ecut=   124.00 Ry     beta= 0.70
     Davidson diagonalization with overlap
     ethr =  1.29E-07,  avg # of iterations =  3.9

     total cpu time spent up to now is     1891.3 secs

     total energy              =   -6171.36266812 Ry
     estimated scf accuracy    <       0.00028341 Ry

     total magnetization       =    -0.12 Bohr mag/cell
     absolute magnetization    =     1.34 Bohr mag/cell

     iteration # 20     ecut=   124.00 Ry     beta= 0.70
     Davidson diagonalization with overlap
     ethr =  8.05E-08,  avg # of iterations =  1.0

     total cpu time spent up to now is     1962.4 secs

     total energy              =   -6171.36256503 Ry
     estimated scf accuracy    <       0.00027513 Ry

     total magnetization       =    -0.22 Bohr mag/cell
     absolute magnetization    =     1.36 Bohr mag/cell

     iteration # 21     ecut=   124.00 Ry     beta= 0.70
     Davidson diagonalization with overlap
     ethr =  7.82E-08,  avg # of iterations =  1.9

     total cpu time spent up to now is     2041.4 secs

     total energy              =   -6171.36246143 Ry
     estimated scf accuracy    <       0.00058129 Ry

     total magnetization       =    -0.06 Bohr mag/cell
     absolute magnetization    =     1.26 Bohr mag/cell

     iteration # 22     ecut=   124.00 Ry     beta= 0.70
     Davidson diagonalization with overlap
     ethr =  7.82E-08,  avg # of iterations =  2.2

     total cpu time spent up to now is     2123.8 secs

     total energy              =   -6171.36253074 Ry
     estimated scf accuracy    <       0.00026697 Ry

     total magnetization       =     0.19 Bohr mag/cell
     absolute magnetization    =     1.17 Bohr mag/cell

     iteration # 23     ecut=   124.00 Ry     beta= 0.70
     Davidson diagonalization with overlap
     ethr =  7.58E-08,  avg # of iterations =  2.1

     total cpu time spent up to now is     2204.1 secs

     total energy              =   -6171.36233029 Ry
     estimated scf accuracy    <       0.00025342 Ry

     total magnetization       =    -0.04 Bohr mag/cell
     absolute magnetization    =     1.14 Bohr mag/cell

     iteration # 24     ecut=   124.00 Ry     beta= 0.70
     Davidson diagonalization with overlap
     ethr =  7.20E-08,  avg # of iterations =  4.5

     total cpu time spent up to now is     2295.9 secs

     total energy              =   -6171.36265333 Ry
     estimated scf accuracy    <       0.00007653 Ry

     total magnetization       =    -0.04 Bohr mag/cell
     absolute magnetization    =     0.83 Bohr mag/cell

     iteration # 25     ecut=   124.00 Ry     beta= 0.70
     Davidson diagonalization with overlap
     ethr =  2.17E-08,  avg # of iterations =  4.3

     total cpu time spent up to now is     2391.7 secs

     total energy              =   -6171.36273202 Ry
     estimated scf accuracy    <       0.00002644 Ry

     total magnetization       =    -0.05 Bohr mag/cell
     absolute magnetization    =     0.67 Bohr mag/cell

     iteration # 26     ecut=   124.00 Ry     beta= 0.70
     Davidson diagonalization with overlap
     ethr =  7.51E-09,  avg # of iterations =  4.5

     total cpu time spent up to now is     2501.3 secs

     total energy              =   -6171.36278893 Ry
     estimated scf accuracy    <       0.00008805 Ry

     total magnetization       =    -0.07 Bohr mag/cell
     absolute magnetization    =     0.52 Bohr mag/cell

     iteration # 27     ecut=   124.00 Ry     beta= 0.70
     Davidson diagonalization with overlap
     ethr =  7.51E-09,  avg # of iterations =  2.5

     total cpu time spent up to now is     2583.4 secs

     total energy              =   -6171.36277109 Ry
     estimated scf accuracy    <       0.00020586 Ry

     total magnetization       =    -0.07 Bohr mag/cell
     absolute magnetization    =     0.46 Bohr mag/cell

     iteration # 28     ecut=   124.00 Ry     beta= 0.70
     Davidson diagonalization with overlap
     ethr =  7.51E-09,  avg # of iterations =  4.6

     total cpu time spent up to now is     2692.4 secs

     total energy              =   -6171.36281199 Ry
     estimated scf accuracy    <       0.00000488 Ry

     total magnetization       =    -0.08 Bohr mag/cell
     absolute magnetization    =     0.28 Bohr mag/cell

     iteration # 29     ecut=   124.00 Ry     beta= 0.70
     Davidson diagonalization with overlap
     ethr =  1.39E-09,  avg # of iterations =  6.0

     total cpu time spent up to now is     2825.2 secs

     total energy              =   -6171.36285619 Ry
     estimated scf accuracy    <       0.00000201 Ry

     total magnetization       =    -0.04 Bohr mag/cell
     absolute magnetization    =     0.13 Bohr mag/cell

     iteration # 30     ecut=   124.00 Ry     beta= 0.70
     Davidson diagonalization with overlap
     ethr =  5.71E-10,  avg # of iterations =  4.4

     total cpu time spent up to now is     2928.6 secs

     total energy              =   -6171.36285621 Ry
     estimated scf accuracy    <       0.00000359 Ry

     total magnetization       =    -0.06 Bohr mag/cell
     absolute magnetization    =     0.11 Bohr mag/cell

     iteration # 31     ecut=   124.00 Ry     beta= 0.70
     Davidson diagonalization with overlap
     ethr =  5.71E-10,  avg # of iterations =  4.3

     total cpu time spent up to now is     3034.9 secs

     total energy              =   -6171.36286080 Ry
     estimated scf accuracy    <       0.00000098 Ry

     total magnetization       =    -0.04 Bohr mag/cell
     absolute magnetization    =     0.07 Bohr mag/cell

     iteration # 32     ecut=   124.00 Ry     beta= 0.70
     Davidson diagonalization with overlap
     ethr =  2.79E-10,  avg # of iterations =  2.3

     total cpu time spent up to now is     3114.4 secs

     total energy              =   -6171.36286137 Ry
     estimated scf accuracy    <       0.00000042 Ry

     total magnetization       =    -0.03 Bohr mag/cell
     absolute magnetization    =     0.06 Bohr mag/cell

     iteration # 33     ecut=   124.00 Ry     beta= 0.70
     Davidson diagonalization with overlap
     ethr =  1.21E-10,  avg # of iterations =  4.5

     total cpu time spent up to now is     3206.9 secs

     total energy              =   -6171.36286182 Ry
     estimated scf accuracy    <       0.00000061 Ry

     total magnetization       =    -0.03 Bohr mag/cell
     absolute magnetization    =     0.05 Bohr mag/cell

     iteration # 34     ecut=   124.00 Ry     beta= 0.70
     Davidson diagonalization with overlap
     ethr =  1.21E-10,  avg # of iterations =  3.5

     total cpu time spent up to now is     3292.0 secs

     total energy              =   -6171.36286214 Ry
     estimated scf accuracy    <       0.00000051 Ry

     total magnetization       =    -0.03 Bohr mag/cell
     absolute magnetization    =     0.05 Bohr mag/cell

     iteration # 35     ecut=   124.00 Ry     beta= 0.70
     Davidson diagonalization with overlap
     ethr =  1.21E-10,  avg # of iterations =  1.1

     total cpu time spent up to now is     3364.1 secs

     total energy              =   -6171.36286194 Ry
     estimated scf accuracy    <       0.00000060 Ry

     total magnetization       =    -0.03 Bohr mag/cell
     absolute magnetization    =     0.05 Bohr mag/cell

     iteration # 36     ecut=   124.00 Ry     beta= 0.70
     Davidson diagonalization with overlap
     ethr =  1.21E-10,  avg # of iterations =  1.8

     total cpu time spent up to now is     3440.2 secs

     total energy              =   -6171.36286172 Ry
     estimated scf accuracy    <       0.00000069 Ry

     total magnetization       =    -0.03 Bohr mag/cell
     absolute magnetization    =     0.04 Bohr mag/cell

     iteration # 37     ecut=   124.00 Ry     beta= 0.70
     Davidson diagonalization with overlap
     ethr =  1.21E-10,  avg # of iterations =  2.5

     total cpu time spent up to now is     3522.1 secs

     total energy              =   -6171.36286193 Ry
     estimated scf accuracy    <       0.00000346 Ry

     total magnetization       =    -0.03 Bohr mag/cell
     absolute magnetization    =     0.04 Bohr mag/cell

     iteration # 38     ecut=   124.00 Ry     beta= 0.70
     Davidson diagonalization with overlap
     ethr =  1.21E-10,  avg # of iterations =  1.2

     total cpu time spent up to now is     3594.9 secs

     total energy              =   -6171.36286198 Ry
     estimated scf accuracy    <       0.00000043 Ry

     total magnetization       =    -0.03 Bohr mag/cell
     absolute magnetization    =     0.04 Bohr mag/cell

     iteration # 39     ecut=   124.00 Ry     beta= 0.70
     Davidson diagonalization with overlap
     ethr =  1.21E-10,  avg # of iterations =  1.1

     total cpu time spent up to now is     3666.7 secs

     total energy              =   -6171.36286171 Ry
     estimated scf accuracy    <       0.00000037 Ry

     total magnetization       =    -0.03 Bohr mag/cell
     absolute magnetization    =     0.04 Bohr mag/cell

     iteration # 40     ecut=   124.00 Ry     beta= 0.70
     Davidson diagonalization with overlap
     ethr =  1.04E-10,  avg # of iterations =  2.1

     total cpu time spent up to now is     3745.5 secs

     total energy              =   -6171.36286190 Ry
     estimated scf accuracy    <       0.00000036 Ry

     total magnetization       =    -0.03 Bohr mag/cell
     absolute magnetization    =     0.04 Bohr mag/cell

     iteration # 41     ecut=   124.00 Ry     beta= 0.70
     Davidson diagonalization with overlap
     ethr =  1.02E-10,  avg # of iterations =  1.0

     total cpu time spent up to now is     3816.6 secs

     total energy              =   -6171.36286180 Ry
     estimated scf accuracy    <       0.00000035 Ry

     total magnetization       =    -0.03 Bohr mag/cell
     absolute magnetization    =     0.04 Bohr mag/cell

     iteration # 42     ecut=   124.00 Ry     beta= 0.70
     Davidson diagonalization with overlap
     ethr =  1.01E-10,  avg # of iterations =  2.0

     total cpu time spent up to now is     3893.6 secs

     total energy              =   -6171.36286149 Ry
     estimated scf accuracy    <       0.00000025 Ry

     total magnetization       =    -0.02 Bohr mag/cell
     absolute magnetization    =     0.03 Bohr mag/cell

     iteration # 43     ecut=   124.00 Ry     beta= 0.70
     Davidson diagonalization with overlap
     ethr =  7.14E-11,  avg # of iterations =  4.5

     total cpu time spent up to now is     3986.9 secs

     total energy              =   -6171.36286177 Ry
     estimated scf accuracy    <       0.00000028 Ry

     total magnetization       =    -0.01 Bohr mag/cell
     absolute magnetization    =     0.02 Bohr mag/cell

     iteration # 44     ecut=   124.00 Ry     beta= 0.70
     Davidson diagonalization with overlap
     ethr =  7.14E-11,  avg # of iterations =  2.4

     total cpu time spent up to now is     4066.6 secs

     total energy              =   -6171.36286171 Ry
     estimated scf accuracy    <       0.00000003 Ry

     total magnetization       =    -0.00 Bohr mag/cell
     absolute magnetization    =     0.02 Bohr mag/cell

     iteration # 45     ecut=   124.00 Ry     beta= 0.70
     Davidson diagonalization with overlap
     ethr =  9.05E-12,  avg # of iterations =  6.2

     total cpu time spent up to now is     4196.4 secs

     total energy              =   -6171.36286191 Ry
     estimated scf accuracy    <       0.00000003 Ry

     total magnetization       =    -0.00 Bohr mag/cell
     absolute magnetization    =     0.01 Bohr mag/cell

     iteration # 46     ecut=   124.00 Ry     beta= 0.70
     Davidson diagonalization with overlap
     ethr =  7.64E-12,  avg # of iterations =  4.3

     Magnetic moment per site  (integrated on atomic sphere of radius R)
     atom   1 (R=0.171)  charge=  9.7046  magn=  0.0000
     atom   2 (R=0.171)  charge=  9.7046  magn=  0.0000
     atom   3 (R=0.171)  charge=  9.7046  magn=  0.0000
     atom   4 (R=0.171)  charge=  9.7046  magn=  0.0000
     atom   5 (R=0.171)  charge=  9.7046  magn=  0.0000
     atom   6 (R=0.171)  charge=  9.7046  magn=  0.0000
     atom   7 (R=0.171)  charge=  9.7046  magn=  0.0000
     atom   8 (R=0.171)  charge=  9.7046  magn=  0.0000
     atom   9 (R=0.146)  charge= 14.4665  magn= -0.0001
     atom  10 (R=0.146)  charge= 14.4665  magn= -0.0001
     atom  11 (R=0.146)  charge= 14.4665  magn= -0.0001
     atom  12 (R=0.146)  charge= 14.4665  magn= -0.0001
     atom  13 (R=0.146)  charge= 14.4665  magn= -0.0001
     atom  14 (R=0.146)  charge= 14.4665  magn= -0.0001
     atom  15 (R=0.146)  charge= 14.4665  magn= -0.0001
     atom  16 (R=0.146)  charge= 14.4665  magn= -0.0001
     atom  17 (R=0.146)  charge= 14.4665  magn= -0.0001
     atom  18 (R=0.146)  charge= 14.4665  magn= -0.0001
     atom  19 (R=0.146)  charge= 14.4665  magn=  0.0003
     atom  20 (R=0.146)  charge= 14.4665  magn= -0.0001
     atom  21 (R=0.146)  charge= 14.4665  magn=  0.0003
     atom  22 (R=0.146)  charge= 14.4665  magn=  0.0003
     atom  23 (R=0.146)  charge= 14.4665  magn= -0.0001
     atom  24 (R=0.146)  charge= 14.4665  magn=  0.0003

     total cpu time spent up to now is     4290.9 secs

     End of self-consistent calculation

 ------ SPIN UP ------------


          k = 0.0000 0.0000 0.0000 ( 54435 PWs)   bands (ev):

   -69.7663 -69.7356 -69.7355 -69.7355 -69.7355 -69.7355 -69.7355 -69.7047
   -69.7047 -69.7047 -69.7046 -69.7046 -69.7046 -69.7046 -69.7046 -69.7046
   -44.6292 -44.5948 -44.5948 -44.5948 -44.5948 -44.5947 -44.5947 -44.5597
   -36.1503 -35.9840 -35.9840 -35.9840 -35.9840 -35.9839 -35.9839 -35.8942
   -35.8942 -35.8942 -35.8091 -35.8091 -35.8091 -35.8091 -35.8091 -35.8091
   -35.7951 -35.7951 -35.7737 -35.7737 -35.7737 -35.7737 -35.7737 -35.7737
   -35.7511 -35.7511 -35.7511 -35.7511 -35.7511 -35.7511 -35.7233 -35.7233
   -35.7233 -35.7233 -35.7233 -35.7232 -35.6733 -35.6733 -35.6733 -35.6596
   -35.6596 -35.6596 -35.6595 -35.6595 -35.6595 -35.6511 -35.6511 -35.6511
   -13.4865 -13.4865 -13.4865 -13.4864 -13.4864 -13.4864 -13.4195 -13.4195
   -13.4195 -13.2614 -13.2614 -13.2614 -13.2613 -13.2613 -13.2613 -13.0929
   -13.0929 -13.0929 -13.0243 -13.0243 -13.0243 -13.0243 -13.0243 -13.0243
     9.1191  12.3027  12.3028  12.3028  12.3028  12.3028  12.3028  13.0061
    13.3894  13.3894  13.3894  13.3894  13.3894  13.3894  13.6444  13.6444
    13.6444  14.6267  14.6268  14.6268  14.6268  14.6268  14.6268  14.6408
    14.6408  14.6408  14.7512  14.7512  14.7512  14.7512  14.7512  14.7512
    14.9278  14.9278  14.9821  14.9821  14.9821  14.9821  14.9821  14.9821
    15.3596  15.3596  15.3596  15.3596  15.3596  15.3596  15.3685  15.3685
    15.3685  15.3685  15.3685  15.3686  15.5454  15.5454  15.5454  15.5454
    15.5454  15.5454  15.8003  15.8003  15.9101  15.9101  15.9101  15.9101
    15.9101  15.9101  16.6838  16.6838  16.6838  16.7587  16.7587  16.7587
    16.9515  16.9515  17.0011  17.0011  17.0011  17.0405  17.0405  17.0405
    17.0406  17.0406  17.0406  17.0618  17.0618  17.0618  17.0618  17.0618
    17.0618  17.3598  17.3598  17.3598  17.3598  17.3598  17.3599  18.2649
    18.2969  18.2969  18.2969  18.8016  18.8016  18.8016  18.8016  18.8016
    18.8016  18.9585  18.9585  18.9585  19.5195  19.5195  19.5195  19.5195
    19.5195  19.5195  19.7834

          k = 0.0000 0.0000 0.2000 ( 54435 PWs)   bands (ev):

   -69.7648 -69.7450 -69.7356 -69.7355 -69.7355 -69.7355 -69.7260 -69.7062
   -69.7047 -69.7047 -69.7047 -69.7046 -69.7046 -69.7046 -69.7046 -69.7046
   -44.6275 -44.6055 -44.5948 -44.5948 -44.5947 -44.5947 -44.5839 -44.5614
   -36.1414 -36.0310 -35.9830 -35.9830 -35.9830 -35.9830 -35.9446 -35.8962
   -35.8890 -35.8890 -35.8249 -35.8249 -35.8161 -35.8161 -35.8161 -35.8161
   -35.7948 -35.7915 -35.7852 -35.7729 -35.7729 -35.7729 -35.7729 -35.7543
   -35.7485 -35.7485 -35.7485 -35.7485 -35.7455 -35.7354 -35.7354 -35.7160
   -35.7160 -35.7160 -35.7160 -35.7010 -35.6806 -35.6765 -35.6765 -35.6643
   -35.6642 -35.6642 -35.6642 -35.6594 -35.6594 -35.6547 -35.6532 -35.6532
   -13.4874 -13.4874 -13.4874 -13.4874 -13.4808 -13.4808 -13.4269 -13.4269
   -13.4112 -13.3087 -13.2605 -13.2605 -13.2604 -13.2604 -13.2132 -13.1023
   -13.0854 -13.0854 -13.0301 -13.0301 -13.0242 -13.0242 -13.0242 -13.0242
     9.2804  11.3951  12.3757  12.3757  12.3757  12.3757  12.8042  13.0508
    13.2753  13.2753  13.2753  13.2753  13.4297  13.5348  13.6574  13.7151
    13.7151  14.4915  14.4915  14.4969  14.5168  14.5946  14.5946  14.5946
    14.5946  14.6583  14.6583  14.7706  14.7706  14.7706  14.7706  14.8626
    14.8626  14.8626  14.8626  14.9491  14.9589  15.0228  15.2118  15.2118
    15.2732  15.2745  15.2761  15.2761  15.2761  15.2762  15.3377  15.3377
    15.4263  15.4723  15.4723  15.4723  15.4723  15.6080  15.6740  15.6740
    15.6740  15.6740  15.7357  15.8687  15.9900  15.9900  15.9900  15.9900
    16.1778  16.1778  16.3198  16.4326  16.4326  16.7934  16.7934  16.8229
    16.8341  16.8341  16.8341  16.8341  16.9415  16.9508  17.0459  17.0994
    17.0994  17.1138  17.1302  17.1302  17.1752  17.1752  17.1752  17.1752
    17.2218  17.2670  17.3829  17.5059  17.5059  17.5059  17.5059  17.6736
    18.2922  18.3486  18.3486  18.6941  18.6941  18.7588  18.7588  18.7588
    18.7588  18.9231  18.9231  19.1587  19.3222  19.3222  19.3222  19.3222
    19.4257  19.4257  19.5619

          k = 0.0000 0.0000 0.4000 ( 54451 PWs)   bands (ev):

   -69.7604 -69.7536 -69.7356 -69.7355 -69.7355 -69.7355 -69.7174 -69.7105
   -69.7047 -69.7047 -69.7047 -69.7046 -69.7046 -69.7046 -69.7046 -69.7046
   -44.6227 -44.6151 -44.5948 -44.5948 -44.5947 -44.5947 -44.5741 -44.5664
   -36.1161 -36.0775 -35.9814 -35.9814 -35.9814 -35.9813 -35.9180 -35.9032
   -35.8740 -35.8740 -35.8512 -35.8512 -35.8253 -35.8253 -35.8253 -35.8253
   -35.7938 -35.7911 -35.7814 -35.7722 -35.7722 -35.7722 -35.7722 -35.7655
   -35.7463 -35.7463 -35.7463 -35.7463 -35.7279 -35.7096 -35.7096 -35.7006
   -35.6985 -35.6985 -35.6985 -35.6985 -35.6883 -35.6883 -35.6809 -35.6770
   -35.6770 -35.6770 -35.6769 -35.6649 -35.6586 -35.6586 -35.6567 -35.6567
   -13.4890 -13.4890 -13.4890 -13.4890 -13.4654 -13.4654 -13.4449 -13.4449
   -13.3875 -13.3519 -13.2591 -13.2590 -13.2590 -13.2590 -13.1675 -13.1287
   -13.0669 -13.0669 -13.0460 -13.0460 -13.0241 -13.0241 -13.0241 -13.0241
     9.7503  10.4840  12.5492  12.5492  12.5492  12.5492  13.0047  13.0447
    13.0447  13.0447  13.0447  13.1761  13.2666  13.3428  13.9106  13.9106
    14.0800  14.1843  14.1843  14.3276  14.4809  14.4809  14.4809  14.4809
    14.6779  14.6779  14.6779  14.6780  14.7336  14.7336  14.7934  14.9207
    14.9207  14.9552  14.9552  14.9552  14.9552  14.9801  15.0441  15.1601
    15.1722  15.1722  15.1722  15.1722  15.2721  15.4490  15.5029  15.6109
    15.6644  15.6644  15.6644  15.6644  15.6757  15.7211  15.7211  15.7524
    15.7524  15.7524  15.7524  15.7755  16.0984  16.0984  16.0984  16.0984
    16.1037  16.1037  16.1212  16.4619  16.4619  16.6278  16.6278  16.6278
    16.6278  16.6604  16.6604  16.7620  16.9110  16.9197  17.1046  17.1674
    17.1831  17.2354  17.2354  17.2769  17.2769  17.3091  17.3091  17.3091
    17.3091  17.3117  17.3118  17.3498  17.6736  17.6736  17.6736  17.6736
    18.3503  18.4253  18.4253  18.5123  18.5123  18.6419  18.7064  18.7064
    18.7064  18.7064  18.9632  18.9632  19.0162  19.0162  19.0162  19.0163
    19.1943  19.1943  20.2741

          k = 0.0000 0.2000 0.2000 ( 54403 PWs)   bands (ev):

   -69.7634 -69.7446 -69.7446 -69.7385 -69.7326 -69.7265 -69.7264 -69.7076
   -69.7047 -69.7047 -69.7047 -69.7046 -69.7046 -69.7046 -69.7046 -69.7046
   -44.6260 -44.6050 -44.6050 -44.5981 -44.5914 -44.5845 -44.5844 -44.5630
   -36.1332 -36.0288 -36.0288 -35.9995 -35.9647 -35.9434 -35.9434 -35.8942
   -35.8881 -35.8843 -35.8294 -35.8294 -35.8276 -35.8275 -35.8224 -35.8213
   -35.7929 -35.7892 -35.7842 -35.7796 -35.7796 -35.7662 -35.7662 -35.7615
   -35.7543 -35.7423 -35.7423 -35.7332 -35.7332 -35.7322 -35.7287 -35.7287
   -35.7139 -35.7102 -35.6940 -35.6939 -35.6927 -35.6791 -35.6778 -35.6753
   -35.6641 -35.6641 -35.6638 -35.6638 -35.6596 -35.6593 -35.6560 -35.6527
   -13.4943 -13.4842 -13.4842 -13.4795 -13.4794 -13.4794 -13.4341 -13.4253
   -13.4118 -13.3096 -13.3096 -13.2870 -13.2328 -13.2106 -13.2106 -13.1027
   -13.0865 -13.0783 -13.0319 -13.0319 -13.0310 -13.0280 -13.0280 -13.0196
     9.4388  11.5043  11.5043  12.3747  12.4985  12.8460  12.8460  12.9292
    13.0763  13.2731  13.2731  13.3965  13.5519  13.5519  13.5894  13.6263
    13.7836  14.3677  14.4160  14.4160  14.4542  14.4667  14.4668  14.5071
    14.6435  14.6435  14.6755  14.6933  14.7426  14.8436  14.8994  14.9288
    14.9288  14.9514  14.9770  14.9835  14.9844  14.9844  15.1353  15.1353
    15.2087  15.2087  15.2626  15.3533  15.3533  15.3674  15.3712  15.3967
    15.4474  15.4474  15.5004  15.5004  15.5277  15.5277  15.6337  15.6337
    15.6975  15.7188  15.8576  15.9140  15.9893  16.1377  16.1546  16.1546
    16.1581  16.2247  16.2992  16.3089  16.3089  16.7445  16.7490  16.7620
    16.8406  16.8454  16.8594  16.8594  16.9060  16.9060  17.0064  17.0171
    17.0912  17.0912  17.1209  17.1425  17.1454  17.2717  17.3238  17.3391
    17.3391  17.4254  17.4254  17.4955  17.5495  17.5495  17.5539  17.6081
    18.2995  18.3657  18.4056  18.5747  18.6298  18.6298  18.6777  18.6777
    18.8069  18.8258  18.8573  19.1129  19.1129  19.2947  19.2947  19.3357
    19.3948  19.4348  19.4539

          k = 0.0000 0.2000 0.4000 ( 54450 PWs)   bands (ev):

   -69.7592 -69.7527 -69.7432 -69.7411 -69.7299 -69.7278 -69.7183 -69.7118
   -69.7047 -69.7047 -69.7047 -69.7046 -69.7046 -69.7046 -69.7046 -69.7046
   -44.6214 -44.6142 -44.6035 -44.6011 -44.5884 -44.5860 -44.5751 -44.5678
   -36.1095 -36.0731 -36.0225 -36.0127 -35.9494 -35.9427 -35.9158 -35.9002
   -35.8747 -35.8708 -35.8524 -35.8509 -35.8338 -35.8328 -35.8315 -35.8309
   -35.7910 -35.7873 -35.7846 -35.7788 -35.7786 -35.7725 -35.7678 -35.7615
   -35.7437 -35.7436 -35.7404 -35.7254 -35.7251 -35.7196 -35.7163 -35.7099
   -35.7036 -35.6998 -35.6987 -35.6935 -35.6895 -35.6837 -35.6836 -35.6772
   -35.6764 -35.6719 -35.6668 -35.6634 -35.6632 -35.6620 -35.6607 -35.6568
   -13.4957 -13.4912 -13.4765 -13.4754 -13.4708 -13.4622 -13.4516 -13.4409
   -13.3906 -13.3544 -13.3102 -13.3043 -13.2136 -13.2077 -13.1641 -13.1256
   -13.0706 -13.0610 -13.0490 -13.0418 -13.0356 -13.0352 -13.0232 -13.0194
     9.8996  10.6175  11.8126  12.2295  12.7226  12.7369  12.8848  12.9699
    13.0579  13.1471  13.2350  13.3351  13.3838  13.3930  13.8101  13.9124
    13.9678  14.0999  14.1443  14.1798  14.1889  14.2183  14.4880  14.4981
    14.7269  14.7474  14.7934  14.7951  14.8537  14.8541  14.9106  14.9167
    14.9403  14.9476  14.9717  14.9994  15.0167  15.0216  15.0680  15.1205
    15.1221  15.1912  15.3245  15.3303  15.3514  15.3853  15.4673  15.5107
    15.5197  15.5204  15.5274  15.5283  15.6384  15.6398  15.7411  15.7852
    15.7855  15.8480  15.8795  15.9391  15.9412  16.0212  16.0442  16.0929
    16.0979  16.3477  16.4366  16.4660  16.4729  16.5437  16.6161  16.6462
    16.6743  16.6830  16.7203  16.7223  16.8998  16.9334  17.0581  17.1105
    17.1308  17.1338  17.2023  17.2095  17.2304  17.3401  17.3603  17.4506
    17.4510  17.4838  17.6013  17.6022  17.6300  17.6672  17.7512  17.7561
    18.3408  18.4624  18.4731  18.4783  18.4826  18.5109  18.5486  18.6054
    18.6186  18.7667  18.7936  18.8485  18.9037  19.0269  19.0687  19.0757
    19.0816  19.0954  19.8499

          k = 0.0000 0.4000 0.4000 ( 54378 PWs)   bands (ev):

   -69.7557 -69.7502 -69.7501 -69.7462 -69.7249 -69.7209 -69.7209 -69.7153
   -69.7047 -69.7047 -69.7047 -69.7046 -69.7046 -69.7046 -69.7046 -69.7046
   -44.6175 -44.6113 -44.6113 -44.6068 -44.5826 -44.5781 -44.5780 -44.5718
   -36.0903 -36.0603 -36.0603 -36.0397 -35.9237 -35.9134 -35.9134 -35.8987
   -35.8708 -35.8616 -35.8536 -35.8536 -35.8480 -35.8480 -35.8463 -35.8405
   -35.7865 -35.7813 -35.7813 -35.7811 -35.7758 -35.7672 -35.7658 -35.7658
   -35.7479 -35.7479 -35.7420 -35.7319 -35.7141 -35.7117 -35.7116 -35.7040
   -35.7009 -35.7009 -35.6967 -35.6956 -35.6889 -35.6827 -35.6809 -35.6809
   -35.6784 -35.6754 -35.6754 -35.6695 -35.6612 -35.6611 -35.6582 -35.6560
   -13.4931 -13.4828 -13.4827 -13.4671 -13.4618 -13.4575 -13.4574 -13.4411
   -13.3854 -13.3551 -13.3551 -13.3394 -13.1780 -13.1622 -13.1622 -13.1314
   -13.0696 -13.0533 -13.0533 -13.0484 -13.0469 -13.0320 -13.0320 -13.0228
    10.3327  11.0025  11.0025  11.5855  12.8074  12.9755  13.0106  13.0106
    13.0804  13.1389  13.1389  13.4480  13.5592  13.5889  13.6716  13.6716
    13.8668  13.8668  13.8711  13.8943  14.1136  14.3045  14.3045  14.4028
    14.7934  14.8418  14.8418  14.8450  14.9331  15.0028  15.0396  15.0396
    15.0780  15.0781  15.1068  15.1345  15.1456  15.1456  15.1458  15.1472
    15.2012  15.2354  15.2354  15.2592  15.2725  15.3170  15.4131  15.4131
    15.4172  15.4172  15.4719  15.4719  15.5037  15.6218  15.6255  15.6777
    15.8002  15.8241  15.8241  16.0189  16.0189  16.0641  16.0677  16.0957
    16.3480  16.4650  16.4651  16.6169  16.6169  16.6214  16.6287  16.6388
    16.7253  16.7600  16.7600  16.7658  16.8123  16.8552  16.8552  17.0071
    17.1883  17.1883  17.1913  17.2228  17.2444  17.4519  17.4519  17.5606
    17.5614  17.5847  17.5925  17.5925  17.9261  17.9261  17.9387  17.9733
    18.3792  18.4002  18.4474  18.4474  18.4481  18.4511  18.4511  18.5963
    18.6206  18.6386  18.6606  18.7675  18.7675  18.8681  18.8681  18.9200
    19.0054  19.1832  19.1832

          k = 0.2000 0.2000 0.2000 ( 54405 PWs)   bands (ev):

   -69.7620 -69.7446 -69.7446 -69.7446 -69.7265 -69.7264 -69.7264 -69.7089
   -69.7047 -69.7047 -69.7047 -69.7046 -69.7046 -69.7046 -69.7046 -69.7046
   -44.6245 -44.6050 -44.6050 -44.6050 -44.5845 -44.5844 -44.5844 -44.5646
   -36.1257 -36.0300 -36.0299 -36.0299 -35.9391 -35.9391 -35.9391 -35.8913
   -35.8840 -35.8840 -35.8334 -35.8334 -35.8334 -35.8312 -35.8312 -35.8312
   -35.7888 -35.7888 -35.7779 -35.7779 -35.7779 -35.7652 -35.7652 -35.7651
   -35.7488 -35.7488 -35.7487 -35.7347 -35.7347 -35.7347 -35.7143 -35.7142
   -35.7142 -35.7016 -35.6903 -35.6903 -35.6903 -35.6811 -35.6811 -35.6773
   -35.6773 -35.6773 -35.6601 -35.6601 -35.6589 -35.6589 -35.6589 -35.6511
   -13.4879 -13.4879 -13.4879 -13.4747 -13.4747 -13.4747 -13.4310 -13.4310
   -13.4154 -13.3177 -13.3177 -13.3177 -13.2017 -13.2017 -13.2017 -13.1004
   -13.0807 -13.0807 -13.0359 -13.0359 -13.0359 -13.0258 -13.0258 -13.0258
     9.5943  11.6116  11.6116  11.6116  12.7427  12.7427  12.7427  13.0697
    13.2193  13.2193  13.2193  13.4785  13.4785  13.4785  13.6535  13.6535
    13.7413  14.2271  14.3099  14.3099  14.3099  14.4767  14.4768  14.4768
    14.7066  14.7066  14.7186  14.7186  14.7186  14.9178  14.9178  14.9179
    14.9188  14.9188  14.9188  15.0048  15.0048  15.2095  15.2095  15.2095
    15.2791  15.2791  15.2791  15.3277  15.3277  15.3277  15.3872  15.3872
    15.3872  15.4364  15.4364  15.4364  15.6064  15.6064  15.6064  15.6828
    15.6828  15.6828  15.7881  15.7881  15.9170  16.1764  16.1764  16.2952
    16.2952  16.2952  16.3421  16.3421  16.3421  16.6596  16.8142  16.8142
    16.8142  16.8588  16.8588  16.8588  16.8817  16.8817  16.9800  17.0530
    17.0530  17.1084  17.1084  17.1084  17.3681  17.3681  17.3787  17.4305
    17.4305  17.4305  17.4911  17.4911  17.4911  17.6397  17.6397  17.6397
    18.2969  18.3490  18.3490  18.4679  18.4679  18.4679  18.7153  18.7154
    18.7154  18.8557  18.8557  19.1462  19.1462  19.1462  19.2225  19.2225
    19.2225  19.3429  19.3429

          k = 0.2000 0.2000 0.4000 ( 54424 PWs)   bands (ev):

   -69.7581 -69.7521 -69.7446 -69.7446 -69.7265 -69.7265 -69.7189 -69.7129
   -69.7047 -69.7047 -69.7047 -69.7046 -69.7046 -69.7046 -69.7046 -69.7046
   -44.6202 -44.6134 -44.6050 -44.6050 -44.5844 -44.5844 -44.5759 -44.5690
   -36.1039 -36.0704 -36.0317 -36.0317 -35.9316 -35.9316 -35.9121 -35.8963
   -35.8723 -35.8717 -35.8543 -35.8510 -35.8401 -35.8401 -35.8362 -35.8362
   -35.7869 -35.7823 -35.7822 -35.7822 -35.7768 -35.7597 -35.7596 -35.7587
   -35.7536 -35.7536 -35.7509 -35.7245 -35.7219 -35.7217 -35.7217 -35.7075
   -35.7074 -35.6981 -35.6962 -35.6962 -35.6930 -35.6839 -35.6782 -35.6782
   -35.6745 -35.6735 -35.6661 -35.6646 -35.6624 -35.6624 -35.6574 -35.6536
   -13.4907 -13.4907 -13.4704 -13.4703 -13.4703 -13.4620 -13.4471 -13.4453
   -13.3969 -13.3609 -13.3288 -13.3288 -13.1890 -13.1890 -13.1572 -13.1198
   -13.0660 -13.0656 -13.0490 -13.0429 -13.0405 -13.0405 -13.0244 -13.0244
    10.0462  10.7488  11.9113  11.9113  12.3632  12.3632  12.9222  13.0464
    13.2682  13.2682  13.2731  13.3826  13.3826  13.4248  13.7863  13.8282
    13.9238  14.0197  14.0659  14.0835  14.0836  14.2241  14.5005  14.5006
    14.7454  14.7454  14.7626  14.8187  14.8748  14.8859  14.9734  14.9734
    14.9901  14.9901  15.0055  15.0438  15.0858  15.0904  15.0904  15.1790
    15.1790  15.2158  15.3434  15.3741  15.3741  15.3917  15.4526  15.4604
    15.4604  15.4783  15.4783  15.5543  15.5609  15.5676  15.7173  15.7173
    15.7304  15.7556  15.7556  15.8250  15.9003  15.9055  16.0346  16.2940
    16.3243  16.3243  16.5176  16.5176  16.5753  16.5807  16.7016  16.7016
    16.7579  16.7579  16.7796  16.7922  16.9066  16.9601  17.0724  17.1044
    17.1145  17.1318  17.1927  17.1928  17.3108  17.3955  17.5481  17.5481
    17.5995  17.5999  17.6226  17.6627  17.6627  17.6662  17.7923  17.7923
    18.2489  18.2857  18.3847  18.3865  18.3865  18.4670  18.4824  18.4824
    18.5963  18.7166  18.7389  18.8533  18.9644  18.9940  18.9940  19.0975
    19.0975  19.1446  19.6174

          k = 0.2000 0.4000 0.4000 ( 54428 PWs)   bands (ev):

   -69.7550 -69.7502 -69.7501 -69.7474 -69.7236 -69.7209 -69.7209 -69.7160
   -69.7047 -69.7047 -69.7047 -69.7046 -69.7046 -69.7046 -69.7046 -69.7046
   -44.6167 -44.6113 -44.6113 -44.6082 -44.5812 -44.5781 -44.5780 -44.5726
   -36.0877 -36.0622 -36.0621 -36.0483 -35.9128 -35.9062 -35.9062 -35.8926
   -35.8703 -35.8637 -35.8565 -35.8564 -35.8516 -35.8498 -35.8498 -35.8438
   -35.7803 -35.7798 -35.7743 -35.7743 -35.7672 -35.7671 -35.7666 -35.7662
   -35.7475 -35.7474 -35.7462 -35.7418 -35.7277 -35.7277 -35.7214 -35.7157
   -35.7075 -35.7002 -35.7002 -35.6955 -35.6870 -35.6820 -35.6820 -35.6752
   -35.6698 -35.6691 -35.6691 -35.6659 -35.6578 -35.6578 -35.6572 -35.6535
   -13.4858 -13.4771 -13.4771 -13.4600 -13.4597 -13.4569 -13.4569 -13.4430
   -13.3973 -13.3687 -13.3687 -13.3574 -13.1602 -13.1490 -13.1490 -13.1205
   -13.0677 -13.0537 -13.0537 -13.0532 -13.0505 -13.0374 -13.0374 -13.0296
    10.4713  11.1267  11.1267  11.6961  12.2020  12.5805  12.5805  12.8438
    13.3397  13.3712  13.3712  13.5357  13.5537  13.6050  13.6050  13.6279
    13.8100  13.8602  13.8796  13.8796  14.1133  14.3225  14.3225  14.4309
    14.8159  14.8477  14.8598  14.8598  14.9240  14.9992  14.9992  15.0459
    15.0582  15.1008  15.1008  15.1214  15.1440  15.2023  15.2023  15.2154
    15.2481  15.2580  15.2661  15.2661  15.3623  15.3723  15.3803  15.3803
    15.4147  15.4148  15.4218  15.4832  15.4832  15.5538  15.5863  15.6405
    15.7673  15.7673  15.8061  15.8234  15.8536  15.8536  15.9336  15.9977
    16.6045  16.6293  16.6293  16.6442  16.6905  16.6905  16.7065  16.7916
    16.8270  16.8270  16.8470  16.8925  16.9113  16.9963  16.9963  17.0752
    17.1751  17.1781  17.1781  17.2162  17.4038  17.5502  17.5503  17.6599
    17.6609  17.6949  17.6949  17.7032  17.9691  17.9691  17.9767  18.0090
    18.2205  18.2205  18.2261  18.2427  18.2467  18.2840  18.3252  18.3252
    18.4252  18.7247  18.7247  18.8617  18.8761  18.9077  18.9841  18.9841
    19.0115  19.1484  19.1484

          k = 0.4000 0.4000 0.4000 ( 54342 PWs)   bands (ev):

   -69.7530 -69.7502 -69.7501 -69.7501 -69.7209 -69.7209 -69.7209 -69.7180
   -69.7047 -69.7047 -69.7047 -69.7046 -69.7046 -69.7046 -69.7046 -69.7046
   -44.6145 -44.6114 -44.6113 -44.6113 -44.5780 -44.5780 -44.5780 -44.5748
   -36.0792 -36.0650 -36.0650 -36.0650 -35.8919 -35.8919 -35.8919 -35.8808
   -35.8675 -35.8675 -35.8609 -35.8609 -35.8609 -35.8549 -35.8549 -35.8549
   -35.7736 -35.7736 -35.7736 -35.7638 -35.7638 -35.7597 -35.7564 -35.7564
   -35.7564 -35.7474 -35.7474 -35.7474 -35.7370 -35.7370 -35.7370 -35.7217
   -35.7217 -35.7217 -35.7181 -35.7181 -35.6710 -35.6710 -35.6710 -35.6669
   -35.6669 -35.6669 -35.6650 -35.6650 -35.6535 -35.6535 -35.6535 -35.6511
   -13.4660 -13.4660 -13.4660 -13.4544 -13.4544 -13.4544 -13.4480 -13.4480
   -13.4151 -13.3926 -13.3926 -13.3926 -13.1263 -13.1263 -13.1263 -13.1060
   -13.0626 -13.0626 -13.0560 -13.0560 -13.0560 -13.0476 -13.0475 -13.0475
    10.8711  11.4808  11.4808  11.4808  12.0043  12.0043  12.0043  12.4289
    13.3895  13.3895  13.3895  13.4800  13.6489  13.6489  13.6489  13.7215
    13.7215  13.8129  13.8129  13.8129  14.2283  14.3886  14.3887  14.3887
    14.9259  14.9259  14.9502  14.9502  14.9502  14.9667  14.9667  14.9667
    15.1470  15.1470  15.1470  15.1827  15.1827  15.2564  15.2594  15.2594
    15.2594  15.2803  15.2803  15.2804  15.3174  15.3174  15.3174  15.3984
    15.3984  15.3984  15.4190  15.4190  15.4190  15.4250  15.4250  15.6611
    15.7051  15.7051  15.7051  15.7496  15.7496  15.7496  15.8233  15.8233
    16.8126  16.8126  16.8126  16.8346  16.8346  16.8346  16.8838  16.8838
    16.8838  16.9178  16.9178  16.9463  17.1345  17.1345  17.1345  17.1524
    17.1524  17.1744  17.1744  17.1744  17.8333  17.8333  17.8333  17.8441
    17.8931  17.8931  17.8931  17.8950  17.8950  17.9606  17.9606  17.9606
    18.0715  18.0715  18.0715  18.1378  18.1378  18.1378  18.1519  18.1519
    18.2967  18.6225  18.6225  18.6225  18.9746  18.9746  19.0117  19.0117
    19.0117  19.1775  19.1775

 ------ SPIN DOWN ----------


          k = 0.0000 0.0000 0.0000 ( 54435 PWs)   bands (ev):

   -69.7663 -69.7355 -69.7355 -69.7355 -69.7355 -69.7355 -69.7354 -69.7047
   -69.7047 -69.7047 -69.7047 -69.7047 -69.7047 -69.7046 -69.7046 -69.7046
   -44.6292 -44.5948 -44.5948 -44.5948 -44.5947 -44.5946 -44.5946 -44.5597
   -36.1502 -35.9839 -35.9839 -35.9839 -35.9839 -35.9839 -35.9838 -35.8942
   -35.8942 -35.8942 -35.8090 -35.8090 -35.8090 -35.8090 -35.8090 -35.8090
   -35.7951 -35.7951 -35.7738 -35.7737 -35.7737 -35.7737 -35.7737 -35.7737
   -35.7511 -35.7511 -35.7511 -35.7511 -35.7511 -35.7511 -35.7233 -35.7233
   -35.7233 -35.7233 -35.7233 -35.7233 -35.6733 -35.6733 -35.6733 -35.6596
   -35.6596 -35.6596 -35.6595 -35.6595 -35.6595 -35.6511 -35.6511 -35.6511
   -13.4864 -13.4864 -13.4864 -13.4864 -13.4864 -13.4864 -13.4195 -13.4195
   -13.4195 -13.2614 -13.2614 -13.2614 -13.2613 -13.2613 -13.2613 -13.0928
   -13.0928 -13.0928 -13.0243 -13.0243 -13.0243 -13.0242 -13.0242 -13.0242
     9.1191  12.3028  12.3028  12.3028  12.3028  12.3028  12.3028  13.0061
    13.3894  13.3894  13.3894  13.3894  13.3895  13.3895  13.6444  13.6444
    13.6444  14.6269  14.6269  14.6269  14.6269  14.6269  14.6269  14.6408
    14.6408  14.6408  14.7512  14.7512  14.7512  14.7512  14.7512  14.7512
    14.9278  14.9278  14.9822  14.9822  14.9822  14.9822  14.9822  14.9822
    15.3596  15.3596  15.3596  15.3596  15.3596  15.3596  15.3685  15.3686
    15.3686  15.3686  15.3686  15.3686  15.5454  15.5454  15.5454  15.5454
    15.5454  15.5454  15.8003  15.8003  15.9101  15.9101  15.9101  15.9101
    15.9101  15.9101  16.6838  16.6838  16.6838  16.7588  16.7588  16.7588
    16.9515  16.9515  17.0011  17.0011  17.0011  17.0406  17.0406  17.0406
    17.0407  17.0407  17.0407  17.0617  17.0618  17.0618  17.0618  17.0618
    17.0618  17.3598  17.3599  17.3599  17.3599  17.3599  17.3599  18.2650
    18.2969  18.2969  18.2969  18.8016  18.8016  18.8016  18.8017  18.8017
    18.8017  18.9586  18.9586  18.9586  19.5195  19.5195  19.5195  19.5195
    19.5195  19.5195  19.7834

          k = 0.0000 0.0000 0.2000 ( 54435 PWs)   bands (ev):

   -69.7648 -69.7450 -69.7355 -69.7355 -69.7355 -69.7355 -69.7260 -69.7061
   -69.7047 -69.7047 -69.7047 -69.7047 -69.7047 -69.7046 -69.7046 -69.7046
   -44.6275 -44.6055 -44.5948 -44.5948 -44.5947 -44.5946 -44.5839 -44.5614
   -36.1414 -36.0309 -35.9829 -35.9829 -35.9829 -35.9829 -35.9446 -35.8962
   -35.8890 -35.8890 -35.8249 -35.8249 -35.8161 -35.8161 -35.8161 -35.8161
   -35.7948 -35.7916 -35.7852 -35.7729 -35.7729 -35.7729 -35.7729 -35.7543
   -35.7485 -35.7485 -35.7485 -35.7485 -35.7455 -35.7354 -35.7354 -35.7160
   -35.7160 -35.7160 -35.7160 -35.7010 -35.6806 -35.6765 -35.6765 -35.6643
   -35.6642 -35.6642 -35.6642 -35.6594 -35.6594 -35.6547 -35.6533 -35.6533
   -13.4874 -13.4874 -13.4874 -13.4874 -13.4808 -13.4808 -13.4268 -13.4268
   -13.4111 -13.3086 -13.2605 -13.2605 -13.2604 -13.2604 -13.2131 -13.1022
   -13.0853 -13.0853 -13.0301 -13.0301 -13.0242 -13.0242 -13.0242 -13.0242
     9.2805  11.3951  12.3757  12.3757  12.3757  12.3757  12.8042  13.0509
    13.2753  13.2753  13.2753  13.2753  13.4298  13.5349  13.6574  13.7152
    13.7152  14.4915  14.4915  14.4970  14.5168  14.5947  14.5947  14.5947
    14.5947  14.6583  14.6583  14.7706  14.7706  14.7706  14.7706  14.8626
    14.8626  14.8626  14.8626  14.9491  14.9589  15.0229  15.2118  15.2118
    15.2732  15.2745  15.2761  15.2762  15.2762  15.2762  15.3378  15.3378
    15.4263  15.4723  15.4723  15.4723  15.4723  15.6080  15.6740  15.6740
    15.6740  15.6740  15.7358  15.8688  15.9900  15.9900  15.9900  15.9900
    16.1779  16.1779  16.3199  16.4327  16.4327  16.7934  16.7934  16.8230
    16.8341  16.8341  16.8341  16.8341  16.9415  16.9508  17.0459  17.0994
    17.0994  17.1138  17.1302  17.1302  17.1752  17.1752  17.1752  17.1753
    17.2218  17.2670  17.3830  17.5059  17.5059  17.5059  17.5059  17.6736
    18.2922  18.3486  18.3486  18.6941  18.6941  18.7589  18.7589  18.7589
    18.7589  18.9232  18.9232  19.1587  19.3222  19.3222  19.3222  19.3222
    19.4257  19.4257  19.5620

          k = 0.0000 0.0000 0.4000 ( 54451 PWs)   bands (ev):

   -69.7604 -69.7536 -69.7355 -69.7355 -69.7355 -69.7355 -69.7174 -69.7105
   -69.7047 -69.7047 -69.7047 -69.7047 -69.7047 -69.7046 -69.7046 -69.7046
   -44.6227 -44.6151 -44.5948 -44.5948 -44.5947 -44.5946 -44.5741 -44.5664
   -36.1160 -36.0774 -35.9813 -35.9813 -35.9813 -35.9813 -35.9180 -35.9032
   -35.8740 -35.8740 -35.8512 -35.8512 -35.8253 -35.8253 -35.8253 -35.8253
   -35.7938 -35.7911 -35.7814 -35.7722 -35.7722 -35.7722 -35.7722 -35.7655
   -35.7463 -35.7463 -35.7463 -35.7463 -35.7279 -35.7095 -35.7095 -35.7006
   -35.6985 -35.6985 -35.6985 -35.6985 -35.6883 -35.6883 -35.6809 -35.6770
   -35.6770 -35.6770 -35.6769 -35.6649 -35.6586 -35.6586 -35.6567 -35.6567
   -13.4889 -13.4889 -13.4889 -13.4889 -13.4653 -13.4653 -13.4449 -13.4449
   -13.3875 -13.3519 -13.2590 -13.2590 -13.2589 -13.2589 -13.1674 -13.1286
   -13.0669 -13.0669 -13.0459 -13.0459 -13.0241 -13.0240 -13.0240 -13.0240
     9.7504  10.4840  12.5492  12.5492  12.5492  12.5492  13.0047  13.0448
    13.0448  13.0448  13.0448  13.1762  13.2667  13.3429  13.9106  13.9106
    14.0800  14.1843  14.1843  14.3276  14.4809  14.4809  14.4809  14.4809
    14.6780  14.6780  14.6780  14.6781  14.7336  14.7336  14.7934  14.9207
    14.9207  14.9552  14.9552  14.9552  14.9552  14.9801  15.0441  15.1601
    15.1722  15.1722  15.1722  15.1723  15.2721  15.4491  15.5029  15.6110
    15.6644  15.6644  15.6644  15.6644  15.6758  15.7211  15.7211  15.7524
    15.7525  15.7525  15.7525  15.7755  16.0984  16.0984  16.0984  16.0984
    16.1037  16.1037  16.1212  16.4619  16.4619  16.6278  16.6278  16.6278
    16.6278  16.6605  16.6605  16.7620  16.9110  16.9196  17.1046  17.1674
    17.1832  17.2355  17.2355  17.2769  17.2769  17.3091  17.3091  17.3091
    17.3091  17.3118  17.3118  17.3498  17.6737  17.6737  17.6737  17.6737
    18.3503  18.4253  18.4253  18.5124  18.5124  18.6420  18.7064  18.7064
    18.7064  18.7064  18.9633  18.9633  19.0163  19.0163  19.0163  19.0163
    19.1943  19.1943  20.3320

          k = 0.0000 0.2000 0.2000 ( 54403 PWs)   bands (ev):

   -69.7633 -69.7446 -69.7445 -69.7384 -69.7326 -69.7264 -69.7264 -69.7076
   -69.7047 -69.7047 -69.7047 -69.7047 -69.7047 -69.7046 -69.7046 -69.7046
   -44.6259 -44.6050 -44.6050 -44.5981 -44.5914 -44.5844 -44.5844 -44.5630
   -36.1331 -36.0287 -36.0287 -35.9994 -35.9647 -35.9434 -35.9433 -35.8941
   -35.8880 -35.8843 -35.8294 -35.8294 -35.8275 -35.8275 -35.8224 -35.8213
   -35.7930 -35.7892 -35.7842 -35.7796 -35.7796 -35.7662 -35.7662 -35.7615
   -35.7543 -35.7423 -35.7423 -35.7332 -35.7332 -35.7322 -35.7287 -35.7287
   -35.7139 -35.7102 -35.6940 -35.6939 -35.6927 -35.6790 -35.6778 -35.6753
   -35.6641 -35.6641 -35.6638 -35.6638 -35.6596 -35.6593 -35.6560 -35.6528
   -13.4942 -13.4841 -13.4841 -13.4794 -13.4794 -13.4794 -13.4340 -13.4253
   -13.4117 -13.3096 -13.3096 -13.2870 -13.2327 -13.2106 -13.2106 -13.1027
   -13.0864 -13.0783 -13.0318 -13.0318 -13.0310 -13.0279 -13.0279 -13.0195
     9.4389  11.5043  11.5043  12.3747  12.4986  12.8461  12.8461  12.9292
    13.0763  13.2731  13.2731  13.3966  13.5519  13.5520  13.5894  13.6263
    13.7836  14.3677  14.4161  14.4161  14.4542  14.4668  14.4668  14.5072
    14.6435  14.6435  14.6755  14.6934  14.7427  14.8436  14.8994  14.9288
    14.9288  14.9514  14.9770  14.9835  14.9844  14.9844  15.1353  15.1353
    15.2087  15.2087  15.2626  15.3533  15.3533  15.3674  15.3712  15.3967
    15.4474  15.4474  15.5004  15.5004  15.5277  15.5277  15.6337  15.6337
    15.6975  15.7188  15.8576  15.9141  15.9893  16.1377  16.1546  16.1546
    16.1581  16.2247  16.2992  16.3089  16.3089  16.7445  16.7491  16.7621
    16.8407  16.8454  16.8594  16.8594  16.9060  16.9060  17.0063  17.0171
    17.0912  17.0912  17.1209  17.1425  17.1454  17.2717  17.3239  17.3391
    17.3391  17.4254  17.4254  17.4955  17.5495  17.5496  17.5539  17.6082
    18.2995  18.3658  18.4056  18.5747  18.6298  18.6299  18.6777  18.6777
    18.8070  18.8259  18.8574  19.1130  19.1130  19.2947  19.2947  19.3357
    19.3948  19.4349  19.4539

          k = 0.0000 0.2000 0.4000 ( 54450 PWs)   bands (ev):

   -69.7592 -69.7527 -69.7432 -69.7411 -69.7299 -69.7278 -69.7183 -69.7117
   -69.7047 -69.7047 -69.7047 -69.7047 -69.7047 -69.7046 -69.7046 -69.7046
   -44.6214 -44.6141 -44.6035 -44.6011 -44.5883 -44.5859 -44.5751 -44.5677
   -36.1094 -36.0731 -36.0224 -36.0126 -35.9493 -35.9427 -35.9157 -35.9001
   -35.8746 -35.8708 -35.8524 -35.8509 -35.8337 -35.8327 -35.8315 -35.8309
   -35.7910 -35.7873 -35.7846 -35.7788 -35.7786 -35.7725 -35.7678 -35.7616
   -35.7436 -35.7436 -35.7404 -35.7254 -35.7251 -35.7196 -35.7162 -35.7099
   -35.7036 -35.6998 -35.6987 -35.6935 -35.6895 -35.6837 -35.6836 -35.6772
   -35.6764 -35.6719 -35.6668 -35.6634 -35.6632 -35.6620 -35.6607 -35.6568
   -13.4957 -13.4911 -13.4764 -13.4753 -13.4707 -13.4622 -13.4515 -13.4409
   -13.3906 -13.3544 -13.3101 -13.3042 -13.2135 -13.2076 -13.1640 -13.1256
   -13.0706 -13.0610 -13.0490 -13.0417 -13.0356 -13.0351 -13.0231 -13.0193
     9.8996  10.6175  11.8126  12.2296  12.7227  12.7369  12.8849  12.9699
    13.0579  13.1472  13.2351  13.3351  13.3838  13.3930  13.8101  13.9124
    13.9679  14.0999  14.1443  14.1798  14.1890  14.2183  14.4881  14.4982
    14.7270  14.7474  14.7934  14.7952  14.8538  14.8541  14.9106  14.9167
    14.9403  14.9477  14.9718  14.9994  15.0167  15.0216  15.0680  15.1205
    15.1221  15.1912  15.3245  15.3303  15.3515  15.3853  15.4673  15.5107
    15.5197  15.5204  15.5274  15.5283  15.6384  15.6398  15.7411  15.7853
    15.7856  15.8481  15.8795  15.9391  15.9412  16.0212  16.0442  16.0929
    16.0979  16.3477  16.4366  16.4660  16.4730  16.5437  16.6162  16.6463
    16.6743  16.6830  16.7204  16.7223  16.8998  16.9334  17.0581  17.1105
    17.1308  17.1338  17.2023  17.2096  17.2304  17.3401  17.3603  17.4507
    17.4510  17.4838  17.6013  17.6022  17.6301  17.6673  17.7512  17.7562
    18.3408  18.4624  18.4732  18.4784  18.4827  18.5109  18.5487  18.6055
    18.6186  18.7668  18.7936  18.8486  18.9038  19.0270  19.0688  19.0758
    19.0816  19.0955  19.8500

          k = 0.0000 0.4000 0.4000 ( 54378 PWs)   bands (ev):

   -69.7556 -69.7502 -69.7501 -69.7461 -69.7248 -69.7208 -69.7208 -69.7153
   -69.7047 -69.7047 -69.7047 -69.7047 -69.7047 -69.7046 -69.7046 -69.7046
   -44.6174 -44.6113 -44.6113 -44.6068 -44.5826 -44.5780 -44.5780 -44.5718
   -36.0902 -36.0602 -36.0602 -36.0396 -35.9236 -35.9133 -35.9133 -35.8987
   -35.8708 -35.8616 -35.8536 -35.8535 -35.8480 -35.8479 -35.8462 -35.8405
   -35.7865 -35.7813 -35.7813 -35.7811 -35.7758 -35.7672 -35.7658 -35.7658
   -35.7479 -35.7479 -35.7420 -35.7319 -35.7141 -35.7117 -35.7116 -35.7040
   -35.7009 -35.7009 -35.6967 -35.6955 -35.6889 -35.6827 -35.6809 -35.6809
   -35.6784 -35.6754 -35.6754 -35.6695 -35.6612 -35.6611 -35.6582 -35.6560
   -13.4930 -13.4827 -13.4827 -13.4671 -13.4617 -13.4574 -13.4574 -13.4410
   -13.3854 -13.3551 -13.3551 -13.3393 -13.1779 -13.1622 -13.1622 -13.1314
   -13.0696 -13.0532 -13.0532 -13.0484 -13.0468 -13.0320 -13.0320 -13.0227
    10.3328  11.0025  11.0025  11.5856  12.8075  12.9756  13.0106  13.0107
    13.0805  13.1389  13.1389  13.4480  13.5593  13.5889  13.6716  13.6717
    13.8668  13.8668  13.8711  13.8943  14.1136  14.3046  14.3046  14.4028
    14.7934  14.8418  14.8418  14.8450  14.9331  15.0028  15.0396  15.0396
    15.0780  15.0781  15.1068  15.1345  15.1456  15.1457  15.1459  15.1472
    15.2012  15.2354  15.2354  15.2592  15.2725  15.3170  15.4131  15.4131
    15.4172  15.4172  15.4719  15.4719  15.5038  15.6218  15.6255  15.6777
    15.8003  15.8241  15.8241  16.0189  16.0189  16.0642  16.0677  16.0958
    16.3480  16.4651  16.4651  16.6169  16.6170  16.6215  16.6287  16.6388
    16.7253  16.7600  16.7601  16.7659  16.8123  16.8552  16.8552  17.0071
    17.1883  17.1883  17.1913  17.2229  17.2443  17.4520  17.4520  17.5606
    17.5614  17.5847  17.5925  17.5925  17.9262  17.9262  17.9387  17.9733
    18.3792  18.4003  18.4474  18.4474  18.4481  18.4511  18.4511  18.5964
    18.6206  18.6386  18.6607  18.7675  18.7676  18.8681  18.8681  18.9200
    19.0054  19.1832  19.1832

          k = 0.2000 0.2000 0.2000 ( 54405 PWs)   bands (ev):

   -69.7620 -69.7446 -69.7446 -69.7445 -69.7264 -69.7264 -69.7264 -69.7089
   -69.7047 -69.7047 -69.7047 -69.7047 -69.7047 -69.7046 -69.7046 -69.7046
   -44.6245 -44.6050 -44.6050 -44.6050 -44.5844 -44.5844 -44.5844 -44.5645
   -36.1256 -36.0299 -36.0299 -36.0298 -35.9390 -35.9390 -35.9390 -35.8912
   -35.8840 -35.8840 -35.8334 -35.8333 -35.8333 -35.8311 -35.8311 -35.8311
   -35.7888 -35.7888 -35.7779 -35.7779 -35.7779 -35.7652 -35.7652 -35.7652
   -35.7488 -35.7487 -35.7487 -35.7347 -35.7347 -35.7347 -35.7143 -35.7143
   -35.7142 -35.7015 -35.6903 -35.6903 -35.6903 -35.6811 -35.6811 -35.6773
   -35.6773 -35.6773 -35.6601 -35.6601 -35.6589 -35.6589 -35.6589 -35.6511
   -13.4879 -13.4878 -13.4878 -13.4747 -13.4747 -13.4747 -13.4310 -13.4310
   -13.4154 -13.3176 -13.3176 -13.3176 -13.2017 -13.2017 -13.2017 -13.1004
   -13.0806 -13.0806 -13.0359 -13.0359 -13.0358 -13.0258 -13.0257 -13.0257
     9.5943  11.6116  11.6116  11.6116  12.7427  12.7427  12.7427  13.0698
    13.2193  13.2193  13.2193  13.4785  13.4785  13.4785  13.6535  13.6535
    13.7413  14.2272  14.3099  14.3099  14.3099  14.4768  14.4768  14.4769
    14.7066  14.7066  14.7186  14.7186  14.7186  14.9178  14.9179  14.9179
    14.9189  14.9189  14.9189  15.0048  15.0048  15.2095  15.2095  15.2095
    15.2791  15.2791  15.2791  15.3277  15.3277  15.3277  15.3872  15.3872
    15.3872  15.4364  15.4364  15.4364  15.6064  15.6065  15.6065  15.6828
    15.6828  15.6828  15.7881  15.7881  15.9170  16.1764  16.1764  16.2952
    16.2952  16.2952  16.3421  16.3421  16.3421  16.6597  16.8142  16.8142
    16.8142  16.8588  16.8588  16.8588  16.8818  16.8818  16.9800  17.0530
    17.0530  17.1084  17.1084  17.1084  17.3681  17.3681  17.3787  17.4305
    17.4305  17.4305  17.4911  17.4911  17.4911  17.6398  17.6398  17.6398
    18.2969  18.3490  18.3490  18.4679  18.4679  18.4679  18.7154  18.7154
    18.7154  18.8558  18.8558  19.1462  19.1462  19.1462  19.2225  19.2225
    19.2225  19.3429  19.3429

          k = 0.2000 0.2000 0.4000 ( 54424 PWs)   bands (ev):

   -69.7581 -69.7520 -69.7446 -69.7445 -69.7265 -69.7264 -69.7189 -69.7128
   -69.7047 -69.7047 -69.7047 -69.7047 -69.7047 -69.7046 -69.7046 -69.7046
   -44.6201 -44.6134 -44.6050 -44.6050 -44.5844 -44.5844 -44.5759 -44.5690
   -36.1039 -36.0704 -36.0317 -36.0316 -35.9315 -35.9315 -35.9120 -35.8962
   -35.8723 -35.8717 -35.8542 -35.8510 -35.8400 -35.8400 -35.8361 -35.8361
   -35.7870 -35.7823 -35.7822 -35.7822 -35.7768 -35.7596 -35.7596 -35.7587
   -35.7536 -35.7536 -35.7509 -35.7244 -35.7219 -35.7217 -35.7217 -35.7074
   -35.7074 -35.6981 -35.6962 -35.6962 -35.6930 -35.6838 -35.6782 -35.6782
   -35.6745 -35.6735 -35.6661 -35.6646 -35.6624 -35.6624 -35.6574 -35.6536
   -13.4906 -13.4906 -13.4704 -13.4703 -13.4703 -13.4619 -13.4470 -13.4453
   -13.3969 -13.3609 -13.3287 -13.3287 -13.1889 -13.1889 -13.1572 -13.1198
   -13.0660 -13.0655 -13.0490 -13.0429 -13.0405 -13.0405 -13.0243 -13.0243
    10.0463  10.7488  11.9114  11.9114  12.3633  12.3633  12.9223  13.0465
    13.2682  13.2682  13.2731  13.3826  13.3827  13.4249  13.7863  13.8283
    13.9238  14.0197  14.0659  14.0836  14.0836  14.2241  14.5006  14.5006
    14.7454  14.7454  14.7626  14.8187  14.8749  14.8859  14.9735  14.9735
    14.9901  14.9901  15.0055  15.0438  15.0858  15.0904  15.0904  15.1790
    15.1790  15.2159  15.3434  15.3741  15.3741  15.3917  15.4527  15.4604
    15.4604  15.4783  15.4783  15.5543  15.5610  15.5677  15.7173  15.7173
    15.7304  15.7556  15.7556  15.8250  15.9003  15.9056  16.0346  16.2941
    16.3243  16.3243  16.5176  16.5176  16.5753  16.5808  16.7016  16.7016
    16.7579  16.7579  16.7796  16.7922  16.9066  16.9600  17.0724  17.1044
    17.1145  17.1318  17.1927  17.1928  17.3108  17.3956  17.5481  17.5481
    17.5995  17.6000  17.6226  17.6627  17.6627  17.6663  17.7923  17.7923
    18.2489  18.2858  18.3847  18.3866  18.3866  18.4670  18.4824  18.4825
    18.5964  18.7167  18.7389  18.8533  18.9645  18.9940  18.9940  19.0975
    19.0975  19.1447  19.6175

          k = 0.2000 0.4000 0.4000 ( 54428 PWs)   bands (ev):

   -69.7549 -69.7502 -69.7501 -69.7474 -69.7236 -69.7208 -69.7208 -69.7160
   -69.7047 -69.7047 -69.7047 -69.7047 -69.7047 -69.7046 -69.7046 -69.7046
   -44.6167 -44.6113 -44.6113 -44.6082 -44.5812 -44.5780 -44.5780 -44.5726
   -36.0876 -36.0621 -36.0621 -36.0483 -35.9127 -35.9061 -35.9061 -35.8926
   -35.8703 -35.8636 -35.8564 -35.8564 -35.8515 -35.8498 -35.8498 -35.8437
   -35.7803 -35.7798 -35.7743 -35.7743 -35.7672 -35.7671 -35.7666 -35.7662
   -35.7475 -35.7474 -35.7462 -35.7417 -35.7277 -35.7277 -35.7214 -35.7157
   -35.7074 -35.7002 -35.7002 -35.6955 -35.6870 -35.6820 -35.6820 -35.6752
   -35.6697 -35.6691 -35.6691 -35.6659 -35.6578 -35.6578 -35.6572 -35.6535
   -13.4857 -13.4770 -13.4770 -13.4599 -13.4597 -13.4569 -13.4569 -13.4429
   -13.3973 -13.3687 -13.3687 -13.3573 -13.1602 -13.1489 -13.1489 -13.1205
   -13.0676 -13.0537 -13.0537 -13.0532 -13.0505 -13.0374 -13.0374 -13.0295
    10.4713  11.1267  11.1267  11.6961  12.2021  12.5806  12.5806  12.8439
    13.3397  13.3713  13.3713  13.5357  13.5537  13.6050  13.6050  13.6279
    13.8100  13.8602  13.8796  13.8796  14.1133  14.3226  14.3226  14.4310
    14.8160  14.8478  14.8598  14.8598  14.9240  14.9992  14.9992  15.0459
    15.0582  15.1008  15.1008  15.1214  15.1440  15.2023  15.2023  15.2155
    15.2481  15.2580  15.2661  15.2661  15.3624  15.3724  15.3803  15.3803
    15.4148  15.4148  15.4218  15.4833  15.4833  15.5539  15.5863  15.6405
    15.7674  15.7674  15.8061  15.8234  15.8536  15.8536  15.9336  15.9977
    16.6045  16.6294  16.6294  16.6443  16.6905  16.6906  16.7065  16.7916
    16.8271  16.8271  16.8471  16.8925  16.9113  16.9963  16.9963  17.0752
    17.1751  17.1781  17.1781  17.2162  17.4039  17.5503  17.5503  17.6599
    17.6610  17.6949  17.6950  17.7032  17.9691  17.9691  17.9767  18.0090
    18.2206  18.2206  18.2262  18.2427  18.2467  18.2841  18.3253  18.3253
    18.4252  18.7247  18.7247  18.8618  18.8761  18.9077  18.9841  18.9841
    19.0115  19.1485  19.1485

          k = 0.4000 0.4000 0.4000 ( 54342 PWs)   bands (ev):

   -69.7530 -69.7502 -69.7502 -69.7501 -69.7208 -69.7208 -69.7208 -69.7180
   -69.7047 -69.7047 -69.7047 -69.7047 -69.7047 -69.7046 -69.7046 -69.7046
   -44.6145 -44.6113 -44.6113 -44.6113 -44.5780 -44.5780 -44.5780 -44.5748
   -36.0792 -36.0649 -36.0649 -36.0649 -35.8919 -35.8919 -35.8919 -35.8807
   -35.8675 -35.8675 -35.8609 -35.8608 -35.8608 -35.8548 -35.8548 -35.8548
   -35.7736 -35.7736 -35.7736 -35.7638 -35.7638 -35.7597 -35.7564 -35.7564
   -35.7564 -35.7474 -35.7474 -35.7474 -35.7370 -35.7370 -35.7370 -35.7217
   -35.7217 -35.7217 -35.7181 -35.7181 -35.6710 -35.6710 -35.6710 -35.6669
   -35.6669 -35.6669 -35.6649 -35.6649 -35.6536 -35.6535 -35.6535 -35.6511
   -13.4660 -13.4660 -13.4660 -13.4544 -13.4544 -13.4543 -13.4480 -13.4480
   -13.4151 -13.3925 -13.3925 -13.3925 -13.1262 -13.1262 -13.1262 -13.1060
   -13.0625 -13.0625 -13.0560 -13.0560 -13.0559 -13.0475 -13.0475 -13.0475
    10.8711  11.4809  11.4809  11.4809  12.0043  12.0043  12.0043  12.4289
    13.3896  13.3896  13.3896  13.4800  13.6489  13.6489  13.6489  13.7216
    13.7216  13.8129  13.8129  13.8129  14.2283  14.3887  14.3887  14.3888
    14.9259  14.9259  14.9502  14.9502  14.9502  14.9667  14.9667  14.9667
    15.1470  15.1470  15.1470  15.1827  15.1827  15.2565  15.2595  15.2595
    15.2595  15.2804  15.2804  15.2804  15.3174  15.3174  15.3174  15.3984
    15.3984  15.3984  15.4191  15.4191  15.4191  15.4250  15.4250  15.6612
    15.7051  15.7051  15.7051  15.7496  15.7496  15.7496  15.8233  15.8233
    16.8126  16.8126  16.8126  16.8346  16.8346  16.8346  16.8838  16.8838
    16.8838  16.9178  16.9178  16.9463  17.1345  17.1345  17.1345  17.1524
    17.1524  17.1744  17.1744  17.1744  17.8333  17.8333  17.8333  17.8442
    17.8931  17.8931  17.8931  17.8950  17.8950  17.9606  17.9606  17.9606
    18.0715  18.0715  18.0715  18.1379  18.1379  18.1379  18.1520  18.1520
    18.2967  18.6225  18.6226  18.6226  18.9747  18.9747  19.0117  19.0117
    19.0117  19.1775  19.1775

     the Fermi energy is    17.1054 ev

!    total energy              =   -6171.36286194 Ry
     estimated scf accuracy    <          5.1E-09 Ry
     smearing contrib. (-TS)   =      -0.00267381 Ry
     internal energy E=F+TS    =   -6171.36018813 Ry

     The total energy is F=E-TS. E is the sum of the following terms:
     one-electron contribution =   -2343.16135254 Ry
     hartree contribution      =    1369.51260348 Ry
     xc contribution           =    -783.27972972 Ry
     ewald contribution        =   -3195.94188331 Ry
     one-center paw contrib.   =   -1218.48982604 Ry

     total magnetization       =     0.00 Bohr mag/cell
     absolute magnetization    =     0.00 Bohr mag/cell

     convergence has been achieved in  46 iterations

     Forces acting on atoms (cartesian axes, Ry/au):

     atom    1 type  2   force =     0.00000000    0.00000000    0.00000000
     atom    2 type  2   force =     0.00000111   -0.00000111    0.00000111
     atom    3 type  2   force =     0.00000000    0.00000000    0.00000000
     atom    4 type  2   force =     0.00000111    0.00000111   -0.00000111
     atom    5 type  2   force =     0.00000000    0.00000000    0.00000000
     atom    6 type  2   force =    -0.00000111   -0.00000111   -0.00000111
     atom    7 type  2   force =     0.00000000    0.00000000    0.00000000
     atom    8 type  2   force =    -0.00000111    0.00000111    0.00000111
     atom    9 type  1   force =    -0.00001776   -0.00001776    0.00002199
     atom   10 type  1   force =    -0.00001776    0.00001776   -0.00002199
     atom   11 type  1   force =     0.00001776    0.00002199    0.00001776
     atom   12 type  1   force =     0.00001776    0.00001776    0.00002199
     atom   13 type  1   force =    -0.00001776    0.00002199   -0.00001776
     atom   14 type  1   force =    -0.00001776   -0.00002199    0.00001776
     atom   15 type  1   force =     0.00001776   -0.00001776   -0.00002199
     atom   16 type  1   force =     0.00001776   -0.00002199   -0.00001776
     atom   17 type  1   force =     0.00002199   -0.00001776   -0.00001776
     atom   18 type  1   force =     0.00002199    0.00001776    0.00001776
     atom   19 type  1   force =    -0.00000295    0.00000295   -0.00000295
     atom   20 type  1   force =    -0.00002199    0.00001776   -0.00001776
     atom   21 type  1   force =     0.00000295    0.00000295    0.00000295
     atom   22 type  1   force =     0.00000295   -0.00000295   -0.00000295
     atom   23 type  1   force =    -0.00002199   -0.00001776    0.00001776
     atom   24 type  1   force =    -0.00000295   -0.00000295    0.00000295

     Total force =     0.000116     Total SCF correction =     0.000441
     SCF correction compared to forces is large: reduce conv_thr to get better values


     Computing stress (Cartesian axis) and pressure

          total   stress  (Ry/bohr**3)                   (kbar)     P=     -109.79
  -0.00074636   0.00000000   0.00000000         -109.79        0.00        0.00
   0.00000000  -0.00074636   0.00000000            0.00     -109.79        0.00
   0.00000000   0.00000000  -0.00074636            0.00        0.00     -109.79


     Writing all to output data dir /vscmnt/antwerpen_storage_data/_data_antwerpen/211/vsc21136/save_outputs/HfFe2_cub.save/ :
     XML data file, charge density, pseudopotentials, collected wavefunctions

     init_run     :     43.59s CPU     45.83s WALL (       1 calls)
     electrons    :   4055.98s CPU   4246.23s WALL (       1 calls)
     forces       :     13.20s CPU     13.43s WALL (       1 calls)
     stress       :     47.69s CPU     48.29s WALL (       1 calls)

     Called by init_run:
     wfcinit      :     36.68s CPU     38.74s WALL (       1 calls)
     potinit      :      2.53s CPU      2.59s WALL (       1 calls)
     hinit0       :      1.32s CPU      1.34s WALL (       1 calls)

     Called by electrons:
     c_bands      :   3516.47s CPU   3680.54s WALL (      46 calls)
     sum_band     :    381.34s CPU    400.17s WALL (      46 calls)
     v_of_rho     :     38.48s CPU     40.41s WALL (      47 calls)
     newd         :     71.63s CPU     74.96s WALL (      47 calls)
     PAW_pot      :     39.67s CPU     39.86s WALL (      47 calls)
     mix_rho      :      6.83s CPU      7.12s WALL (      46 calls)

     Called by c_bands:
     init_us_2    :     14.39s CPU     14.54s WALL (    1900 calls)
     cegterg      :   3421.75s CPU   3584.59s WALL (     920 calls)

     Called by *egterg:
     cdiaghg      :    143.57s CPU    149.72s WALL (    4304 calls)
     h_psi        :   2418.44s CPU   2566.45s WALL (    4324 calls)
     s_psi        :    176.70s CPU    177.61s WALL (    4324 calls)
     g_psi        :      3.60s CPU      3.63s WALL (    3384 calls)

     Called by h_psi:
     h_psi:calbec :    215.96s CPU    217.73s WALL (    4324 calls)
     vloc_psi     :   2020.87s CPU   2163.83s WALL (    4324 calls)
     add_vuspsi   :    178.36s CPU    179.21s WALL (    4324 calls)

     General routines
     calbec       :    333.06s CPU    335.76s WALL (    5584 calls)
     fft          :     36.40s CPU     38.65s WALL (    1213 calls)
     ffts         :      1.70s CPU      1.78s WALL (     186 calls)
     fftw         :   1881.11s CPU   2019.09s WALL ( 1160574 calls)
     interpolate  :      3.75s CPU      3.93s WALL (      94 calls)

     Parallel routines

     PWSCF        :   4162.82s CPU   4393.45s WALL


   This run was terminated on:  19: 8: 5   2Nov2025            

=------------------------------------------------------------------------------=
   JOB DONE.
=------------------------------------------------------------------------------=
