
     Program PWSCF v.7.4 starts on 27Oct2025 at 17:25:54 

     This program is part of the open-source Quantum ESPRESSO suite
     for quantum simulation of materials; please cite
         "P. Giannozzi et al., J. Phys.:Condens. Matter 21 395502 (2009);
         "P. Giannozzi et al., J. Phys.:Condens. Matter 29 465901 (2017);
         "P. Giannozzi et al., J. Chem. Phys. 152 154105 (2020);
          URL http://www.quantum-espresso.org", 
     in publications or presentations arising from this work. More details at
     http://www.quantum-espresso.org/quote

     Parallel version (MPI & OpenMP), running on       8 processor cores
     Number of MPI processes:                 8
     Threads/MPI process:                     1

     MPI processes distributed on     1 nodes
     199955 MiB available memory on the printing compute node when the environment starts

     Reading input from TiFe_relaxed3.in

     Current dimensions of program PWSCF are:
     Max number of different atomic species (ntypx) = 10
     Max number of k-points (npk) =  40000
     Max angular momentum in pseudopotentials (lmaxx) =  4
     file Fe.pbe-spn-kjpaw_psl.0.2.1.UPF: wavefunction(s)  3D renormalized

     IMPORTANT: XC functional enforced from input :
     Exchange-correlation= PBE
                           (   1   4   3   4   0   0   0)
     Any further DFT definition will be discarded
     Please, verify this is what you really want

     Message from routine setup:
     using ibrav=0 with symmetry is DISCOURAGED, use correct ibrav instead

     R & G space division:  proc/nbgrp/npool/nimage =       8
     Subspace diagonalization in iterative solution of the eigenvalue problem:
     a serial algorithm will be used


     Parallelization info
     --------------------
     sticks:   dense  smooth     PW     G-vecs:    dense   smooth      PW
     Min         532     151     44                26154     3989     629
     Max         533     152     46                26155     3993     632
     Sum        4257    1209    357               209233    31919    5041

     Using Slab Decomposition



     bravais-lattice index     =            0
     lattice parameter (alat)  =       5.5533  a.u.
     unit-cell volume          =     171.2590 (a.u.)^3
     number of atoms/cell      =            2
     number of atomic types    =            2
     number of electrons       =        28.00
     number of Kohn-Sham states=           18
     kinetic-energy cutoff     =     124.0000  Ry
     charge density cutoff     =    1736.0000  Ry
     scf convergence threshold =      1.0E-08
     mixing beta               =       0.7000
     number of iterations used =            8  plain     mixing
     energy convergence thresh.=      1.0E-04
     force convergence thresh. =      1.0E-03
     press convergence thresh. =      5.0E-01
     Exchange-correlation= PBE
                           (   1   4   3   4   0   0   0)
     nstep                     =           50


     celldm(1)=   5.553300  celldm(2)=   0.000000  celldm(3)=   0.000000
     celldm(4)=   0.000000  celldm(5)=   0.000000  celldm(6)=   0.000000

     crystal axes: (cart. coord. in units of alat)
               a(1) = (   1.000000   0.000000   0.000000 )  
               a(2) = (   0.000000   1.000000   0.000000 )  
               a(3) = (   0.000000   0.000000   1.000000 )  

     reciprocal axes: (cart. coord. in units 2 pi/alat)
               b(1) = (  1.000000  0.000000  0.000000 )  
               b(2) = (  0.000000  1.000000  0.000000 )  
               b(3) = (  0.000000  0.000000  1.000000 )  


     PseudoPot. # 1 for Fe read from file:
     ../../pseudos/Fe.pbe-spn-kjpaw_psl.0.2.1.UPF
     MD5 check sum: e86618425769142926afa95317d90200
     Pseudo is Projector augmented-wave + core cor, Zval = 16.0
     Generated using "atomic" code by A. Dal Corso  v.5.0.99 svn rev. 10869
     Shape of augmentation charge: PSQ
     Using radial grid of 1191 points,  6 beta functions with: 
                l(1) =   0
                l(2) =   0
                l(3) =   1
                l(4) =   1
                l(5) =   2
                l(6) =   2
     Q(r) pseudized with 0 coefficients 


     PseudoPot. # 2 for Ti read from file:
     ../../pseudos/ti_pbe_v1.4.uspp.F.UPF
     MD5 check sum: 88a00a6731bd790ddea75d31a80cb452
     Pseudo is Ultrasoft + core correction, Zval = 12.0
     Generated by new atomic code, or converted to UPF format
     Using radial grid of  851 points,  6 beta functions with: 
                l(1) =   0
                l(2) =   0
                l(3) =   1
                l(4) =   1
                l(5) =   2
                l(6) =   2
     Q(r) pseudized with  6 coefficients,  rinner =    1.000   1.000   1.000
                                                       1.000   1.000

     atomic species   valence    mass     pseudopotential
     Fe               16.00    55.84500     Fe( 1.00)
     Ti               12.00    47.86700     Ti( 1.00)

     48 Sym. Ops., with inversion, found



   Cartesian axes

     site n.     atom                  positions (alat units)
         1        Fe     tau(   1) = (   0.5000000   0.5000000   0.5000000  )
         2        Ti     tau(   2) = (   0.0000000   0.0000000   0.0000000  )

     number of k points=   120  Marzari-Vanderbilt smearing, width (Ry)=  0.0050

     Number of k-points >= 100: set verbosity='high' to print them.

     Dense  grid:   209233 G-vectors     FFT dimensions: (  75,  75,  75)

     Smooth grid:    31919 G-vectors     FFT dimensions: (  40,  40,  40)

     Estimated max dynamical RAM per process >     125.80 MB

     Estimated total dynamical RAM >    1006.42 MB

     Check: negative core charge=   -0.000002

     Initial potential from superposition of free atoms

     starting charge      26.9995, renormalised to      28.0000

     negative rho (up, down):  1.347E-03 0.000E+00
     Starting wfcs are   23 randomized atomic wfcs
     Checking if some PAW data can be deallocated... 

     total cpu time spent up to now is        2.0 secs

     per-process dynamical memory:   151.7 Mb

     Self-consistent Calculation

     iteration #  1     ecut=   124.00 Ry     beta= 0.70
     Davidson diagonalization with overlap
     ethr =  1.00E-02,  avg # of iterations =  2.1

     negative rho (up, down):  8.075E-05 0.000E+00

     total cpu time spent up to now is        4.0 secs

     total energy              =    -434.88034974 Ry
     estimated scf accuracy    <      17.47740323 Ry

     iteration #  2     ecut=   124.00 Ry     beta= 0.70
     Davidson diagonalization with overlap
     ethr =  1.00E-02,  avg # of iterations =  6.1

     negative rho (up, down):  2.388E-05 0.000E+00

     total cpu time spent up to now is        7.2 secs

     total energy              =    -448.51195570 Ry
     estimated scf accuracy    <      66.14338935 Ry

     iteration #  3     ecut=   124.00 Ry     beta= 0.70
     Davidson diagonalization with overlap
     ethr =  1.00E-02,  avg # of iterations =  3.1

     negative rho (up, down):  2.384E-04 0.000E+00

     total cpu time spent up to now is        9.6 secs

     total energy              =    -448.59876074 Ry
     estimated scf accuracy    <      16.77187988 Ry

     iteration #  4     ecut=   124.00 Ry     beta= 0.70
     Davidson diagonalization with overlap
     ethr =  1.00E-02,  avg # of iterations =  2.1

     negative rho (up, down):  2.771E-04 0.000E+00

     total cpu time spent up to now is       11.6 secs

     total energy              =    -449.11451992 Ry
     estimated scf accuracy    <       4.73362336 Ry

     iteration #  5     ecut=   124.00 Ry     beta= 0.70
     Davidson diagonalization with overlap
     ethr =  1.00E-02,  avg # of iterations =  1.0

     negative rho (up, down):  3.233E-04 0.000E+00

     total cpu time spent up to now is       13.3 secs

     total energy              =    -449.12131532 Ry
     estimated scf accuracy    <       4.31212425 Ry

     iteration #  6     ecut=   124.00 Ry     beta= 0.70
     Davidson diagonalization with overlap
     ethr =  1.00E-02,  avg # of iterations =  1.0

     negative rho (up, down):  1.107E-03 0.000E+00

     total cpu time spent up to now is       15.0 secs

     total energy              =    -447.89389661 Ry
     estimated scf accuracy    <       4.51968901 Ry

     iteration #  7     ecut=   124.00 Ry     beta= 0.70
     Davidson diagonalization with overlap
     ethr =  1.00E-02,  avg # of iterations =  3.4

     negative rho (up, down):  1.008E-03 0.000E+00

     total cpu time spent up to now is       17.0 secs

     total energy              =    -448.58423346 Ry
     estimated scf accuracy    <       3.81978614 Ry

     iteration #  8     ecut=   124.00 Ry     beta= 0.70
     Davidson diagonalization with overlap
     ethr =  1.00E-02,  avg # of iterations =  1.0

     negative rho (up, down):  8.248E-04 0.000E+00

     total cpu time spent up to now is       18.7 secs

     total energy              =    -448.46846099 Ry
     estimated scf accuracy    <       1.21375717 Ry

     iteration #  9     ecut=   124.00 Ry     beta= 0.70
     Davidson diagonalization with overlap
     ethr =  4.33E-03,  avg # of iterations =  1.7

     negative rho (up, down):  8.317E-04 0.000E+00

     total cpu time spent up to now is       20.4 secs

     total energy              =    -448.59501092 Ry
     estimated scf accuracy    <       0.12585284 Ry

     iteration # 10     ecut=   124.00 Ry     beta= 0.70
     Davidson diagonalization with overlap
     ethr =  4.49E-04,  avg # of iterations =  2.3

     negative rho (up, down):  8.588E-04 0.000E+00

     total cpu time spent up to now is       22.2 secs

     total energy              =    -448.59602789 Ry
     estimated scf accuracy    <       0.14907511 Ry

     iteration # 11     ecut=   124.00 Ry     beta= 0.70
     Davidson diagonalization with overlap
     ethr =  4.49E-04,  avg # of iterations =  1.1

     negative rho (up, down):  1.121E-03 0.000E+00

     total cpu time spent up to now is       23.9 secs

     total energy              =    -448.56917534 Ry
     estimated scf accuracy    <       0.14868094 Ry

     iteration # 12     ecut=   124.00 Ry     beta= 0.70
     Davidson diagonalization with overlap
     ethr =  4.49E-04,  avg # of iterations =  4.3

     negative rho (up, down):  1.213E-03 0.000E+00

     total cpu time spent up to now is       26.3 secs

     total energy              =    -448.65391027 Ry
     estimated scf accuracy    <       0.18318037 Ry

     iteration # 13     ecut=   124.00 Ry     beta= 0.70
     Davidson diagonalization with overlap
     ethr =  4.49E-04,  avg # of iterations =  1.9

     negative rho (up, down):  2.114E-03 0.000E+00

     total cpu time spent up to now is       28.0 secs

     total energy              =    -449.03322660 Ry
     estimated scf accuracy    <       0.44442169 Ry

     iteration # 14     ecut=   124.00 Ry     beta= 0.70
     Davidson diagonalization with overlap
     ethr =  4.49E-04,  avg # of iterations =  6.2

     negative rho (up, down):  1.459E-03 0.000E+00

     total cpu time spent up to now is       31.0 secs

     total energy              =    -448.51932689 Ry
     estimated scf accuracy    <      26.98882251 Ry

     iteration # 15     ecut=   124.00 Ry     beta= 0.70
     Davidson diagonalization with overlap
     ethr =  4.49E-04,  avg # of iterations =  4.8

     negative rho (up, down):  1.137E-03 0.000E+00

     total cpu time spent up to now is       33.5 secs

     total energy              =    -448.49454823 Ry
     estimated scf accuracy    <       4.43870837 Ry

     iteration # 16     ecut=   124.00 Ry     beta= 0.70
     Davidson diagonalization with overlap
     ethr =  4.49E-04,  avg # of iterations =  4.3

     negative rho (up, down):  1.088E-03 0.000E+00

     total cpu time spent up to now is       35.9 secs

     total energy              =    -448.60519511 Ry
     estimated scf accuracy    <       0.36277654 Ry

     iteration # 17     ecut=   124.00 Ry     beta= 0.70
     Davidson diagonalization with overlap
     ethr =  4.49E-04,  avg # of iterations =  2.0

     negative rho (up, down):  1.022E-03 0.000E+00

     total cpu time spent up to now is       37.7 secs

     total energy              =    -448.58523807 Ry
     estimated scf accuracy    <       0.39566393 Ry

     iteration # 18     ecut=   124.00 Ry     beta= 0.70
     Davidson diagonalization with overlap
     ethr =  4.49E-04,  avg # of iterations =  1.2

     negative rho (up, down):  9.735E-04 0.000E+00

     total cpu time spent up to now is       39.4 secs

     total energy              =    -448.57914660 Ry
     estimated scf accuracy    <       0.10585198 Ry

     iteration # 19     ecut=   124.00 Ry     beta= 0.70
     Davidson diagonalization with overlap
     ethr =  3.78E-04,  avg # of iterations =  1.8

     negative rho (up, down):  9.827E-04 0.000E+00

     total cpu time spent up to now is       41.2 secs

     total energy              =    -448.58492275 Ry
     estimated scf accuracy    <       0.01167453 Ry

     iteration # 20     ecut=   124.00 Ry     beta= 0.70
     Davidson diagonalization with overlap
     ethr =  4.17E-05,  avg # of iterations =  4.3

     negative rho (up, down):  9.840E-04 0.000E+00

     total cpu time spent up to now is       43.3 secs

     total energy              =    -448.58662258 Ry
     estimated scf accuracy    <       0.00743011 Ry

     iteration # 21     ecut=   124.00 Ry     beta= 0.70
     Davidson diagonalization with overlap
     ethr =  2.65E-05,  avg # of iterations =  1.2

     negative rho (up, down):  9.783E-04 0.000E+00

     total cpu time spent up to now is       45.0 secs

     total energy              =    -448.58668664 Ry
     estimated scf accuracy    <       0.00779712 Ry

     iteration # 22     ecut=   124.00 Ry     beta= 0.70
     Davidson diagonalization with overlap
     ethr =  2.65E-05,  avg # of iterations =  1.0

     negative rho (up, down):  1.037E-03 0.000E+00

     total cpu time spent up to now is       46.7 secs

     total energy              =    -448.58737857 Ry
     estimated scf accuracy    <       0.00638001 Ry

     iteration # 23     ecut=   124.00 Ry     beta= 0.70
     Davidson diagonalization with overlap
     ethr =  2.28E-05,  avg # of iterations =  1.0

     negative rho (up, down):  1.004E-03 0.000E+00

     total cpu time spent up to now is       48.4 secs

     total energy              =    -448.58667571 Ry
     estimated scf accuracy    <       0.01401582 Ry

     iteration # 24     ecut=   124.00 Ry     beta= 0.70
     Davidson diagonalization with overlap
     ethr =  2.28E-05,  avg # of iterations =  1.0

     negative rho (up, down):  9.887E-04 0.000E+00

     total cpu time spent up to now is       50.1 secs

     total energy              =    -448.58663217 Ry
     estimated scf accuracy    <       0.00473461 Ry

     iteration # 25     ecut=   124.00 Ry     beta= 0.70
     Davidson diagonalization with overlap
     ethr =  1.69E-05,  avg # of iterations =  1.0

     negative rho (up, down):  9.662E-04 0.000E+00

     total cpu time spent up to now is       51.8 secs

     total energy              =    -448.58651421 Ry
     estimated scf accuracy    <       0.00172769 Ry

     iteration # 26     ecut=   124.00 Ry     beta= 0.70
     Davidson diagonalization with overlap
     ethr =  6.17E-06,  avg # of iterations =  1.7

     negative rho (up, down):  9.659E-04 0.000E+00

     total cpu time spent up to now is       53.5 secs

     total energy              =    -448.58655054 Ry
     estimated scf accuracy    <       0.00047004 Ry

     iteration # 27     ecut=   124.00 Ry     beta= 0.70
     Davidson diagonalization with overlap
     ethr =  1.68E-06,  avg # of iterations =  2.3

     negative rho (up, down):  9.621E-04 0.000E+00

     total cpu time spent up to now is       55.3 secs

     total energy              =    -448.58654470 Ry
     estimated scf accuracy    <       0.00023845 Ry

     iteration # 28     ecut=   124.00 Ry     beta= 0.70
     Davidson diagonalization with overlap
     ethr =  8.52E-07,  avg # of iterations =  1.7

     negative rho (up, down):  9.604E-04 0.000E+00

     total cpu time spent up to now is       57.1 secs

     total energy              =    -448.58653701 Ry
     estimated scf accuracy    <       0.00010746 Ry

     iteration # 29     ecut=   124.00 Ry     beta= 0.70
     Davidson diagonalization with overlap
     ethr =  3.84E-07,  avg # of iterations =  2.4

     negative rho (up, down):  9.615E-04 0.000E+00

     total cpu time spent up to now is       58.9 secs

     total energy              =    -448.58653629 Ry
     estimated scf accuracy    <       0.00003417 Ry

     iteration # 30     ecut=   124.00 Ry     beta= 0.70
     Davidson diagonalization with overlap
     ethr =  1.22E-07,  avg # of iterations =  3.3

     negative rho (up, down):  9.610E-04 0.000E+00

     total cpu time spent up to now is       60.9 secs

     total energy              =    -448.58654028 Ry
     estimated scf accuracy    <       0.00000540 Ry

     iteration # 31     ecut=   124.00 Ry     beta= 0.70
     Davidson diagonalization with overlap
     ethr =  1.93E-08,  avg # of iterations =  4.0

     negative rho (up, down):  9.613E-04 0.000E+00

     total cpu time spent up to now is       63.1 secs

     total energy              =    -448.58654137 Ry
     estimated scf accuracy    <       0.00000083 Ry

     iteration # 32     ecut=   124.00 Ry     beta= 0.70
     Davidson diagonalization with overlap
     ethr =  2.95E-09,  avg # of iterations =  3.0

     negative rho (up, down):  9.613E-04 0.000E+00

     total cpu time spent up to now is       65.0 secs

     total energy              =    -448.58654147 Ry
     estimated scf accuracy    <       0.00000005 Ry

     iteration # 33     ecut=   124.00 Ry     beta= 0.70
     Davidson diagonalization with overlap
     ethr =  1.74E-10,  avg # of iterations =  4.5

     negative rho (up, down):  9.615E-04 0.000E+00

     total cpu time spent up to now is       67.4 secs

     End of self-consistent calculation

     Number of k-points >= 100: set verbosity='high' to print the bands.

     the Fermi energy is    17.7222 ev

!    total energy              =    -448.58654149 Ry
     estimated scf accuracy    <          4.8E-09 Ry
     smearing contrib. (-TS)   =      -0.00001774 Ry
     internal energy E=F+TS    =    -448.58652375 Ry

     The total energy is F=E-TS. E is the sum of the following terms:
     one-electron contribution =    -151.35065372 Ry
     hartree contribution      =      91.62732609 Ry
     xc contribution           =     -52.88875636 Ry
     ewald contribution        =    -259.82070277 Ry
     one-center paw contrib.   =     -76.15373699 Ry

     convergence has been achieved in  33 iterations

     negative rho (up, down):  9.615E-04 0.000E+00

     Forces acting on atoms (cartesian axes, Ry/au):

     atom    1 type  1   force =     0.00000000    0.00000000    0.00000000
     atom    2 type  2   force =     0.00000000    0.00000000    0.00000000

     Total force =     0.000000     Total SCF correction =     0.000000


     Computing stress (Cartesian axis) and pressure


     negative rho (up, down):  9.615E-04 0.000E+00
          total   stress  (Ry/bohr**3)                   (kbar)     P=       29.45
   0.00020020   0.00000000   0.00000000           29.45        0.00        0.00
   0.00000000   0.00020020   0.00000000            0.00       29.45        0.00
   0.00000000   0.00000000   0.00020020            0.00        0.00       29.45


     BFGS Geometry Optimization
     Energy error            =      5.7E-04 Ry
     Gradient error          =      0.0E+00 Ry/Bohr
     Cell gradient error     =      3.1E+01 kbar

     number of scf cycles    =   1
     number of bfgs steps    =   0

     enthalpy           new  =    -448.5885047509 Ry

     new trust radius        =       0.0138495255 bohr
     new conv_thr            =       0.0000000100 Ry

     new unit-cell volume =    173.99209 a.u.^3 (    25.78297 Ang^3 )
     density =      6.67952 g/cm^3

CELL_PARAMETERS (alat=  5.55330037)
   1.005291492   0.000000000   0.000000000
   0.000000000   1.005291492   0.000000000
   0.000000000   0.000000000   1.005291492

ATOMIC_POSITIONS (crystal)
Fe               0.5000000000        0.5000000000        0.5000000000
Ti               0.0000000000        0.0000000000        0.0000000000



     Writing config-only to output data dir ./TiFe.save/ :
     XML data file
     NEW-OLD atomic charge density approx. for the potential
     New effective cutoffs (rho, wfc): 1717.64  122.70

     Check: negative core charge=   -0.000001

     negative rho (up, down):  9.783E-04 0.000E+00

     total cpu time spent up to now is       70.0 secs

     per-process dynamical memory:   162.1 Mb

     Self-consistent Calculation

     iteration #  1     ecut=   124.00 Ry     beta= 0.70
     Davidson diagonalization with overlap
     ethr =  1.00E-06,  avg # of iterations =  5.2

     negative rho (up, down):  9.681E-04 0.000E+00

     total cpu time spent up to now is       73.0 secs

     total energy              =    -448.58663683 Ry
     estimated scf accuracy    <       0.00006846 Ry

     iteration #  2     ecut=   124.00 Ry     beta= 0.70
     Davidson diagonalization with overlap
     ethr =  2.44E-07,  avg # of iterations =  4.4

     negative rho (up, down):  9.635E-04 0.000E+00

     total cpu time spent up to now is       75.3 secs

     total energy              =    -448.58645140 Ry
     estimated scf accuracy    <       0.00553140 Ry

     iteration #  3     ecut=   124.00 Ry     beta= 0.70
     Davidson diagonalization with overlap
     ethr =  2.44E-07,  avg # of iterations =  4.8

     negative rho (up, down):  9.654E-04 0.000E+00

     total cpu time spent up to now is       77.7 secs

     total energy              =    -448.58679365 Ry
     estimated scf accuracy    <       0.00005856 Ry

     iteration #  4     ecut=   124.00 Ry     beta= 0.70
     Davidson diagonalization with overlap
     ethr =  2.09E-07,  avg # of iterations =  1.4

     negative rho (up, down):  9.652E-04 0.000E+00

     total cpu time spent up to now is       79.4 secs

     total energy              =    -448.58679904 Ry
     estimated scf accuracy    <       0.00000650 Ry

     iteration #  5     ecut=   124.00 Ry     beta= 0.70
     Davidson diagonalization with overlap
     ethr =  2.32E-08,  avg # of iterations =  3.8

     negative rho (up, down):  9.648E-04 0.000E+00

     total cpu time spent up to now is       81.4 secs

     total energy              =    -448.58680034 Ry
     estimated scf accuracy    <       0.00000010 Ry

     iteration #  6     ecut=   124.00 Ry     beta= 0.70
     Davidson diagonalization with overlap
     ethr =  3.63E-10,  avg # of iterations =  6.0

     negative rho (up, down):  9.646E-04 0.000E+00

     total cpu time spent up to now is       84.3 secs

     total energy              =    -448.58680049 Ry
     estimated scf accuracy    <       0.00000019 Ry

     iteration #  7     ecut=   124.00 Ry     beta= 0.70
     Davidson diagonalization with overlap
     ethr =  3.63E-10,  avg # of iterations =  2.0

     negative rho (up, down):  9.647E-04 0.000E+00

     total cpu time spent up to now is       86.2 secs

     total energy              =    -448.58680048 Ry
     estimated scf accuracy    <       0.00000005 Ry

     iteration #  8     ecut=   124.00 Ry     beta= 0.70
     Davidson diagonalization with overlap
     ethr =  1.66E-10,  avg # of iterations =  2.0

     negative rho (up, down):  9.648E-04 0.000E+00

     total cpu time spent up to now is       88.0 secs

     End of self-consistent calculation

     Number of k-points >= 100: set verbosity='high' to print the bands.

     the Fermi energy is    17.3930 ev

!    total energy              =    -448.58680049 Ry
     estimated scf accuracy    <          5.9E-09 Ry
     smearing contrib. (-TS)   =      -0.00002549 Ry
     internal energy E=F+TS    =    -448.58677499 Ry

     The total energy is F=E-TS. E is the sum of the following terms:
     one-electron contribution =    -153.46161455 Ry
     hartree contribution      =      92.34256047 Ry
     xc contribution           =     -52.86121820 Ry
     ewald contribution        =    -258.45310023 Ry
     one-center paw contrib.   =     -76.15340248 Ry

     convergence has been achieved in   8 iterations

     negative rho (up, down):  9.648E-04 0.000E+00

     Forces acting on atoms (cartesian axes, Ry/au):

     atom    1 type  1   force =     0.00000000    0.00000000    0.00000000
     atom    2 type  2   force =     0.00000000    0.00000000    0.00000000

     Total force =     0.000000     Total SCF correction =     0.000000


     Computing stress (Cartesian axis) and pressure


     negative rho (up, down):  9.648E-04 0.000E+00
          total   stress  (Ry/bohr**3)                   (kbar)     P=       -1.63
  -0.00001109   0.00000000   0.00000000           -1.63        0.00        0.00
   0.00000000  -0.00001109   0.00000000            0.00       -1.63        0.00
   0.00000000   0.00000000  -0.00001109            0.00        0.00       -1.63

     Energy error            =      2.9E-04 Ry
     Gradient error          =      0.0E+00 Ry/Bohr
     Cell gradient error     =      5.5E-02 kbar

     number of scf cycles    =   2
     number of bfgs steps    =   1

     enthalpy           old  =    -448.5885047509 Ry
     enthalpy           new  =    -448.5887950750 Ry

     CASE: enthalpy          _new < enthalpy          _old

     small trust_radius: resetting bfgs history

     new trust radius        =       0.0000245166 bohr
     new conv_thr            =            1.0E-10 Ry

     new unit-cell volume =    173.99694 a.u.^3 (    25.78369 Ang^3 )
     density =      6.67933 g/cm^3

CELL_PARAMETERS (alat=  5.55330037)
   1.005300834   0.000000000   0.000000000
   0.000000000   1.005300834   0.000000000
   0.000000000   0.000000000   1.005300834

ATOMIC_POSITIONS (crystal)
Fe               0.5000000000        0.5000000000        0.5000000000
Ti               0.0000000000        0.0000000000        0.0000000000



     Writing config-only to output data dir ./TiFe.save/ :
     XML data file
     NEW-OLD atomic charge density approx. for the potential
     New effective cutoffs (rho, wfc): 1717.61  122.69

     Check: negative core charge=   -0.000001

     negative rho (up, down):  9.648E-04 0.000E+00

     total cpu time spent up to now is       90.6 secs

     per-process dynamical memory:   162.3 Mb

     Self-consistent Calculation

     iteration #  1     ecut=   124.00 Ry     beta= 0.70
     Davidson diagonalization with overlap
     ethr =  1.00E-06,  avg # of iterations =  2.0

     Threshold (ethr) on eigenvalues was too large:
     Diagonalizing with lowered threshold

     Davidson diagonalization with overlap
     ethr =  4.45E-09,  avg # of iterations =  1.0

     negative rho (up, down):  9.641E-04 0.000E+00

     total cpu time spent up to now is       94.2 secs

     total energy              =    -448.58679933 Ry
     estimated scf accuracy    <       0.00000138 Ry

     iteration #  2     ecut=   124.00 Ry     beta= 0.70
     Davidson diagonalization with overlap
     ethr =  4.93E-09,  avg # of iterations =  4.9

     negative rho (up, down):  9.647E-04 0.000E+00

     total cpu time spent up to now is       96.7 secs

     total energy              =    -448.58679183 Ry
     estimated scf accuracy    <       0.00016411 Ry

     iteration #  3     ecut=   124.00 Ry     beta= 0.70
     Davidson diagonalization with overlap
     ethr =  4.93E-09,  avg # of iterations =  4.8

     negative rho (up, down):  9.647E-04 0.000E+00

     total cpu time spent up to now is       99.0 secs

     total energy              =    -448.58680042 Ry
     estimated scf accuracy    <          2.3E-09 Ry

     iteration #  4     ecut=   124.00 Ry     beta= 0.70
     Davidson diagonalization with overlap
     ethr =  8.39E-12,  avg # of iterations =  6.5

     negative rho (up, down):  9.647E-04 0.000E+00

     total cpu time spent up to now is      102.2 secs

     total energy              =    -448.58680044 Ry
     estimated scf accuracy    <          2.1E-09 Ry

     iteration #  5     ecut=   124.00 Ry     beta= 0.70
     Davidson diagonalization with overlap
     ethr =  7.56E-12,  avg # of iterations =  1.0

     negative rho (up, down):  9.647E-04 0.000E+00

     total cpu time spent up to now is      103.9 secs

     total energy              =    -448.58680044 Ry
     estimated scf accuracy    <          3.4E-10 Ry

     iteration #  6     ecut=   124.00 Ry     beta= 0.70
     Davidson diagonalization with overlap
     ethr =  1.21E-12,  avg # of iterations =  2.5

     negative rho (up, down):  9.647E-04 0.000E+00

     total cpu time spent up to now is      105.7 secs

     End of self-consistent calculation

     Number of k-points >= 100: set verbosity='high' to print the bands.

     the Fermi energy is    17.3924 ev

!    total energy              =    -448.58680044 Ry
     estimated scf accuracy    <          8.5E-13 Ry
     smearing contrib. (-TS)   =      -0.00002550 Ry
     internal energy E=F+TS    =    -448.58677494 Ry

     The total energy is F=E-TS. E is the sum of the following terms:
     one-electron contribution =    -153.46460207 Ry
     hartree contribution      =      92.34300761 Ry
     xc contribution           =     -52.86108328 Ry
     ewald contribution        =    -258.45069839 Ry
     one-center paw contrib.   =     -76.15339882 Ry

     convergence has been achieved in   6 iterations

     negative rho (up, down):  9.647E-04 0.000E+00

     Forces acting on atoms (cartesian axes, Ry/au):

     atom    1 type  1   force =     0.00000000    0.00000000    0.00000000
     atom    2 type  2   force =     0.00000000    0.00000000    0.00000000

     Total force =     0.000000     Total SCF correction =     0.000000


     Computing stress (Cartesian axis) and pressure


     negative rho (up, down):  9.647E-04 0.000E+00
          total   stress  (Ry/bohr**3)                   (kbar)     P=       -1.66
  -0.00001126   0.00000000   0.00000000           -1.66        0.00        0.00
   0.00000000  -0.00001126   0.00000000            0.00       -1.66        0.00
   0.00000000   0.00000000  -0.00001126            0.00        0.00       -1.66

     Energy error            =      7.5E-09 Ry
     Gradient error          =      0.0E+00 Ry/Bohr
     Cell gradient error     =      3.0E-02 kbar

     bfgs converged in   3 scf cycles and   2 bfgs steps
     (criteria: energy <  1.0E-04 Ry, force <  1.0E-03 Ry/Bohr, cell <  5.0E-01 kbar)

     End of BFGS Geometry Optimization

     Final enthalpy           =    -448.5887950825 Ry

     File ./TiFe.bfgs deleted, as requested
Begin final coordinates
     new unit-cell volume =    173.99694 a.u.^3 (    25.78369 Ang^3 )
     density =      6.67933 g/cm^3

CELL_PARAMETERS (alat=  5.55330037)
   1.005300834   0.000000000   0.000000000
   0.000000000   1.005300834   0.000000000
   0.000000000   0.000000000   1.005300834

ATOMIC_POSITIONS (crystal)
Fe               0.5000000000        0.5000000000        0.5000000000
Ti               0.0000000000        0.0000000000        0.0000000000
End final coordinates



     Writing config-only to output data dir ./TiFe.save/ :
     XML data file

     Final scf calculation at the relaxed structure.
     The G-vectors are recalculated for the final unit cell
     Results may differ from those at the preceding step.

     Parallelization info
     --------------------
     sticks:   dense  smooth     PW     G-vecs:    dense   smooth      PW
     Min         538     153     44                26577     4051     640
     Max         540     154     45                26578     4054     643
     Sum        4309    1225    357               212623    32423    5137

     Using Slab Decomposition



     bravais-lattice index     =            0
     lattice parameter (alat)  =       5.5533  a.u.
     unit-cell volume          =     173.9969 (a.u.)^3
     number of atoms/cell      =            2
     number of atomic types    =            2
     number of electrons       =        28.00
     number of Kohn-Sham states=           18
     kinetic-energy cutoff     =     124.0000  Ry
     charge density cutoff     =    1736.0000  Ry
     scf convergence threshold =      1.0E-10
     mixing beta               =       0.7000
     number of iterations used =            8  plain     mixing
     press convergence thresh. =      5.0E-01
     Exchange-correlation= PBE
                           (   1   4   3   4   0   0   0)

     celldm(1)=   5.553300  celldm(2)=   0.000000  celldm(3)=   0.000000
     celldm(4)=   0.000000  celldm(5)=   0.000000  celldm(6)=   0.000000

     crystal axes: (cart. coord. in units of alat)
               a(1) = (   1.005301   0.000000   0.000000 )  
               a(2) = (   0.000000   1.005301   0.000000 )  
               a(3) = (   0.000000   0.000000   1.005301 )  

     reciprocal axes: (cart. coord. in units 2 pi/alat)
               b(1) = (  0.994727  0.000000  0.000000 )  
               b(2) = (  0.000000  0.994727  0.000000 )  
               b(3) = (  0.000000  0.000000  0.994727 )  


     PseudoPot. # 1 for Fe read from file:
     ../../pseudos/Fe.pbe-spn-kjpaw_psl.0.2.1.UPF
     MD5 check sum: e86618425769142926afa95317d90200
     Pseudo is Projector augmented-wave + core cor, Zval = 16.0
     Generated using "atomic" code by A. Dal Corso  v.5.0.99 svn rev. 10869
     Shape of augmentation charge: PSQ
     Using radial grid of 1191 points,  6 beta functions with: 
                l(1) =   0
                l(2) =   0
                l(3) =   1
                l(4) =   1
                l(5) =   2
                l(6) =   2
     Q(r) pseudized with 0 coefficients 


     PseudoPot. # 2 for Ti read from file:
     ../../pseudos/ti_pbe_v1.4.uspp.F.UPF
     MD5 check sum: 88a00a6731bd790ddea75d31a80cb452
     Pseudo is Ultrasoft + core correction, Zval = 12.0
     Generated by new atomic code, or converted to UPF format
     Using radial grid of  851 points,  6 beta functions with: 
                l(1) =   0
                l(2) =   0
                l(3) =   1
                l(4) =   1
                l(5) =   2
                l(6) =   2
     Q(r) pseudized with  6 coefficients,  rinner =    1.000   1.000   1.000
                                                       1.000   1.000

     atomic species   valence    mass     pseudopotential
     Fe               16.00    55.84500     Fe( 1.00)
     Ti               12.00    47.86700     Ti( 1.00)

     48 Sym. Ops., with inversion, found



   Cartesian axes

     site n.     atom                  positions (alat units)
         1        Fe     tau(   1) = (   0.5026504   0.5026504   0.5026504  )
         2        Ti     tau(   2) = (   0.0000000   0.0000000   0.0000000  )

     number of k points=   120  Marzari-Vanderbilt smearing, width (Ry)=  0.0050

     Number of k-points >= 100: set verbosity='high' to print them.

     Dense  grid:   212623 G-vectors     FFT dimensions: (  75,  75,  75)

     Smooth grid:    32423 G-vectors     FFT dimensions: (  40,  40,  40)

     Estimated max dynamical RAM per process >     127.96 MB

     Estimated total dynamical RAM >    1023.67 MB

     Check: negative core charge=   -0.000001

     Initial potential from superposition of free atoms

     starting charge      26.9995, renormalised to      28.0000

     negative rho (up, down):  1.355E-03 0.000E+00
     Starting wfcs are   23 randomized atomic wfcs
     Checking if some PAW data can be deallocated... 

     total cpu time spent up to now is      109.0 secs

     per-process dynamical memory:   154.8 Mb

     Self-consistent Calculation

     iteration #  1     ecut=   124.00 Ry     beta= 0.70
     Davidson diagonalization with overlap
     c_bands:  1 eigenvalues not converged
     c_bands:  1 eigenvalues not converged
     c_bands:  1 eigenvalues not converged
     c_bands:  1 eigenvalues not converged
     c_bands:  1 eigenvalues not converged
     c_bands:  1 eigenvalues not converged
     c_bands:  1 eigenvalues not converged
     c_bands:  1 eigenvalues not converged
     c_bands:  1 eigenvalues not converged
     c_bands:  1 eigenvalues not converged
     ethr =  1.00E-06,  avg # of iterations = 16.3

     negative rho (up, down):  1.027E-04 0.000E+00

     total cpu time spent up to now is      117.1 secs

     total energy              =    -434.70549985 Ry
     estimated scf accuracy    <      17.72228442 Ry

     iteration #  2     ecut=   124.00 Ry     beta= 0.70
     Davidson diagonalization with overlap
     ethr =  1.00E-02,  avg # of iterations =  6.4

     negative rho (up, down):  5.458E-05 0.000E+00

     total cpu time spent up to now is      120.5 secs

     total energy              =    -448.63575602 Ry
     estimated scf accuracy    <      66.85478281 Ry

     iteration #  3     ecut=   124.00 Ry     beta= 0.70
     Davidson diagonalization with overlap
     ethr =  1.00E-02,  avg # of iterations =  3.1

     negative rho (up, down):  2.933E-04 0.000E+00

     total cpu time spent up to now is      122.9 secs

     total energy              =    -448.65668575 Ry
     estimated scf accuracy    <      17.17005541 Ry

     iteration #  4     ecut=   124.00 Ry     beta= 0.70
     Davidson diagonalization with overlap
     ethr =  1.00E-02,  avg # of iterations =  2.2

     negative rho (up, down):  3.209E-04 0.000E+00

     total cpu time spent up to now is      124.9 secs

     total energy              =    -449.15418842 Ry
     estimated scf accuracy    <       5.23795583 Ry

     iteration #  5     ecut=   124.00 Ry     beta= 0.70
     Davidson diagonalization with overlap
     ethr =  1.00E-02,  avg # of iterations =  1.0

     negative rho (up, down):  2.993E-04 0.000E+00

     total cpu time spent up to now is      126.6 secs

     total energy              =    -449.13571524 Ry
     estimated scf accuracy    <       4.81822573 Ry

     iteration #  6     ecut=   124.00 Ry     beta= 0.70
     Davidson diagonalization with overlap
     ethr =  1.00E-02,  avg # of iterations =  1.1

     negative rho (up, down):  8.698E-04 0.000E+00

     total cpu time spent up to now is      128.3 secs

     total energy              =    -448.13019793 Ry
     estimated scf accuracy    <       4.19275060 Ry

     iteration #  7     ecut=   124.00 Ry     beta= 0.70
     Davidson diagonalization with overlap
     ethr =  1.00E-02,  avg # of iterations =  2.2

     negative rho (up, down):  9.158E-04 0.000E+00

     total cpu time spent up to now is      130.2 secs

     total energy              =    -448.58800506 Ry
     estimated scf accuracy    <       0.46029041 Ry

     iteration #  8     ecut=   124.00 Ry     beta= 0.70
     Davidson diagonalization with overlap
     ethr =  1.64E-03,  avg # of iterations =  3.1

     negative rho (up, down):  1.006E-03 0.000E+00

     total cpu time spent up to now is      132.1 secs

     total energy              =    -448.55702461 Ry
     estimated scf accuracy    <       0.60534689 Ry

     iteration #  9     ecut=   124.00 Ry     beta= 0.70
     Davidson diagonalization with overlap
     ethr =  1.64E-03,  avg # of iterations =  2.0

     negative rho (up, down):  1.047E-03 0.000E+00

     total cpu time spent up to now is      134.0 secs

     total energy              =    -448.61411513 Ry
     estimated scf accuracy    <       0.05502123 Ry

     iteration # 10     ecut=   124.00 Ry     beta= 0.70
     Davidson diagonalization with overlap
     ethr =  1.97E-04,  avg # of iterations =  5.3

     negative rho (up, down):  8.447E-04 0.000E+00

     total cpu time spent up to now is      136.4 secs

     total energy              =    -448.51018992 Ry
     estimated scf accuracy    <       1.46792043 Ry

     iteration # 11     ecut=   124.00 Ry     beta= 0.70
     Davidson diagonalization with overlap
     ethr =  1.97E-04,  avg # of iterations =  4.8

     negative rho (up, down):  7.712E-04 0.000E+00

     total cpu time spent up to now is      138.7 secs

     total energy              =    -448.58951701 Ry
     estimated scf accuracy    <       0.02850382 Ry

     iteration # 12     ecut=   124.00 Ry     beta= 0.70
     Davidson diagonalization with overlap
     ethr =  1.02E-04,  avg # of iterations =  2.4

     negative rho (up, down):  7.284E-04 0.000E+00

     total cpu time spent up to now is      140.7 secs

     total energy              =    -448.60425051 Ry
     estimated scf accuracy    <       0.03802246 Ry

     iteration # 13     ecut=   124.00 Ry     beta= 0.70
     Davidson diagonalization with overlap
     ethr =  1.02E-04,  avg # of iterations =  4.0

     negative rho (up, down):  7.267E-04 0.000E+00

     total cpu time spent up to now is      142.7 secs

     total energy              =    -448.62013500 Ry
     estimated scf accuracy    <       0.41988247 Ry

     iteration # 14     ecut=   124.00 Ry     beta= 0.70
     Davidson diagonalization with overlap
     ethr =  1.02E-04,  avg # of iterations =  1.0

     negative rho (up, down):  7.374E-04 0.000E+00

     total cpu time spent up to now is      144.4 secs

     total energy              =    -448.62955279 Ry
     estimated scf accuracy    <       0.43587622 Ry

     iteration # 15     ecut=   124.00 Ry     beta= 0.70
     Davidson diagonalization with overlap
     ethr =  1.02E-04,  avg # of iterations =  1.0

     negative rho (up, down):  8.474E-04 0.000E+00

     total cpu time spent up to now is      146.1 secs

     total energy              =    -448.58732890 Ry
     estimated scf accuracy    <       0.56342111 Ry

     iteration # 16     ecut=   124.00 Ry     beta= 0.70
     Davidson diagonalization with overlap
     ethr =  1.02E-04,  avg # of iterations =  2.9

     negative rho (up, down):  8.046E-04 0.000E+00

     total cpu time spent up to now is      148.0 secs

     total energy              =    -448.59161035 Ry
     estimated scf accuracy    <       0.14544440 Ry

     iteration # 17     ecut=   124.00 Ry     beta= 0.70
     Davidson diagonalization with overlap
     ethr =  1.02E-04,  avg # of iterations =  1.8

     negative rho (up, down):  7.855E-04 0.000E+00

     total cpu time spent up to now is      149.8 secs

     total energy              =    -448.59677834 Ry
     estimated scf accuracy    <       0.05562852 Ry

     iteration # 18     ecut=   124.00 Ry     beta= 0.70
     Davidson diagonalization with overlap
     ethr =  1.02E-04,  avg # of iterations =  1.0

     negative rho (up, down):  9.262E-04 0.000E+00

     total cpu time spent up to now is      151.5 secs

     total energy              =    -448.58316094 Ry
     estimated scf accuracy    <       0.09982147 Ry

     iteration # 19     ecut=   124.00 Ry     beta= 0.70
     Davidson diagonalization with overlap
     ethr =  1.02E-04,  avg # of iterations =  2.0

     negative rho (up, down):  9.707E-04 0.000E+00

     total cpu time spent up to now is      153.4 secs

     total energy              =    -448.58674930 Ry
     estimated scf accuracy    <       0.01706805 Ry

     iteration # 20     ecut=   124.00 Ry     beta= 0.70
     Davidson diagonalization with overlap
     ethr =  6.10E-05,  avg # of iterations =  1.2

     negative rho (up, down):  1.029E-03 0.000E+00

     total cpu time spent up to now is      155.1 secs

     total energy              =    -448.58487175 Ry
     estimated scf accuracy    <       0.01284839 Ry

     iteration # 21     ecut=   124.00 Ry     beta= 0.70
     Davidson diagonalization with overlap
     ethr =  4.59E-05,  avg # of iterations =  3.1

     negative rho (up, down):  9.544E-04 0.000E+00

     total cpu time spent up to now is      157.1 secs

     total energy              =    -448.58539235 Ry
     estimated scf accuracy    <       0.01068539 Ry

     iteration # 22     ecut=   124.00 Ry     beta= 0.70
     Davidson diagonalization with overlap
     ethr =  3.82E-05,  avg # of iterations =  1.7

     negative rho (up, down):  9.443E-04 0.000E+00

     total cpu time spent up to now is      158.9 secs

     total energy              =    -448.58685282 Ry
     estimated scf accuracy    <       0.00064179 Ry

     iteration # 23     ecut=   124.00 Ry     beta= 0.70
     Davidson diagonalization with overlap
     ethr =  2.29E-06,  avg # of iterations =  4.3

     negative rho (up, down):  9.474E-04 0.000E+00

     total cpu time spent up to now is      161.1 secs

     total energy              =    -448.58695600 Ry
     estimated scf accuracy    <       0.00191319 Ry

     iteration # 24     ecut=   124.00 Ry     beta= 0.70
     Davidson diagonalization with overlap
     ethr =  2.29E-06,  avg # of iterations =  1.0

     negative rho (up, down):  9.664E-04 0.000E+00

     total cpu time spent up to now is      162.8 secs

     total energy              =    -448.58669343 Ry
     estimated scf accuracy    <       0.00134656 Ry

     iteration # 25     ecut=   124.00 Ry     beta= 0.70
     Davidson diagonalization with overlap
     ethr =  2.29E-06,  avg # of iterations =  3.0

     negative rho (up, down):  9.684E-04 0.000E+00

     total cpu time spent up to now is      164.7 secs

     total energy              =    -448.58682659 Ry
     estimated scf accuracy    <       0.00000912 Ry

     iteration # 26     ecut=   124.00 Ry     beta= 0.70
     Davidson diagonalization with overlap
     ethr =  3.26E-08,  avg # of iterations =  4.8

     negative rho (up, down):  9.665E-04 0.000E+00

     total cpu time spent up to now is      167.2 secs

     total energy              =    -448.58682992 Ry
     estimated scf accuracy    <       0.00004708 Ry

     iteration # 27     ecut=   124.00 Ry     beta= 0.70
     Davidson diagonalization with overlap
     ethr =  3.26E-08,  avg # of iterations =  2.0

     negative rho (up, down):  9.652E-04 0.000E+00

     total cpu time spent up to now is      169.0 secs

     total energy              =    -448.58682961 Ry
     estimated scf accuracy    <       0.00001031 Ry

     iteration # 28     ecut=   124.00 Ry     beta= 0.70
     Davidson diagonalization with overlap
     ethr =  3.26E-08,  avg # of iterations =  2.4

     negative rho (up, down):  9.647E-04 0.000E+00

     total cpu time spent up to now is      170.9 secs

     total energy              =    -448.58683032 Ry
     estimated scf accuracy    <       0.00000021 Ry

     iteration # 29     ecut=   124.00 Ry     beta= 0.70
     Davidson diagonalization with overlap
     ethr =  7.37E-10,  avg # of iterations =  4.9

     negative rho (up, down):  9.648E-04 0.000E+00

     total cpu time spent up to now is      173.3 secs

     total energy              =    -448.58683052 Ry
     estimated scf accuracy    <       0.00000051 Ry

     iteration # 30     ecut=   124.00 Ry     beta= 0.70
     Davidson diagonalization with overlap
     ethr =  7.37E-10,  avg # of iterations =  1.0

     negative rho (up, down):  9.650E-04 0.000E+00

     total cpu time spent up to now is      175.0 secs

     total energy              =    -448.58683048 Ry
     estimated scf accuracy    <       0.00000025 Ry

     iteration # 31     ecut=   124.00 Ry     beta= 0.70
     Davidson diagonalization with overlap
     ethr =  7.37E-10,  avg # of iterations =  2.5

     negative rho (up, down):  9.649E-04 0.000E+00

     total cpu time spent up to now is      176.9 secs

     total energy              =    -448.58683051 Ry
     estimated scf accuracy    <       0.00000007 Ry

     iteration # 32     ecut=   124.00 Ry     beta= 0.70
     Davidson diagonalization with overlap
     ethr =  2.44E-10,  avg # of iterations =  1.1

     negative rho (up, down):  9.649E-04 0.000E+00

     total cpu time spent up to now is      178.6 secs

     total energy              =    -448.58683051 Ry
     estimated scf accuracy    <          3.7E-09 Ry

     iteration # 33     ecut=   124.00 Ry     beta= 0.70
     Davidson diagonalization with overlap
     ethr =  1.33E-11,  avg # of iterations =  3.3

     negative rho (up, down):  9.649E-04 0.000E+00

     total cpu time spent up to now is      180.6 secs

     End of self-consistent calculation

     Number of k-points >= 100: set verbosity='high' to print the bands.

     the Fermi energy is    17.3924 ev

!    total energy              =    -448.58683051 Ry
     estimated scf accuracy    <          1.4E-11 Ry
     smearing contrib. (-TS)   =      -0.00002550 Ry
     internal energy E=F+TS    =    -448.58680501 Ry

     The total energy is F=E-TS. E is the sum of the following terms:
     one-electron contribution =    -153.46457180 Ry
     hartree contribution      =      92.34297898 Ry
     xc contribution           =     -52.86111000 Ry
     ewald contribution        =    -258.45069839 Ry
     one-center paw contrib.   =     -76.15340380 Ry

     convergence has been achieved in  33 iterations

     negative rho (up, down):  9.649E-04 0.000E+00

     Forces acting on atoms (cartesian axes, Ry/au):

     atom    1 type  1   force =     0.00000000    0.00000000    0.00000000
     atom    2 type  2   force =     0.00000000    0.00000000    0.00000000

     Total force =     0.000000     Total SCF correction =     0.000000


     Computing stress (Cartesian axis) and pressure


     negative rho (up, down):  9.649E-04 0.000E+00
          total   stress  (Ry/bohr**3)                   (kbar)     P=       -1.56
  -0.00001061   0.00000000   0.00000000           -1.56        0.00        0.00
   0.00000000  -0.00001061   0.00000000            0.00       -1.56        0.00
   0.00000000   0.00000000  -0.00001061            0.00        0.00       -1.56


     Writing all to output data dir ./TiFe.save/ :
     XML data file, charge density, pseudopotentials, collected wavefunctions

     init_run     :      2.63s CPU      2.78s WALL (       2 calls)
     electrons    :    160.66s CPU    170.30s WALL (       4 calls)
     update_pot   :      0.20s CPU      0.21s WALL (       2 calls)
     forces       :      1.31s CPU      1.45s WALL (       4 calls)
     stress       :      7.03s CPU      7.32s WALL (       4 calls)

     Called by init_run:
     wfcinit      :      1.35s CPU      1.40s WALL (       2 calls)
     potinit      :      0.48s CPU      0.50s WALL (       2 calls)
     hinit0       :      0.41s CPU      0.42s WALL (       2 calls)

     Called by electrons:
     c_bands      :    114.50s CPU    117.49s WALL (      81 calls)
     sum_band     :     28.08s CPU     32.06s WALL (      81 calls)
     v_of_rho     :      2.20s CPU      2.35s WALL (      84 calls)
     newd         :     11.39s CPU     13.88s WALL (      84 calls)
     PAW_pot      :      4.96s CPU      5.03s WALL (      86 calls)
     mix_rho      :      0.25s CPU      0.27s WALL (      81 calls)

     Called by c_bands:
     init_us_2    :      3.47s CPU      3.60s WALL (   20880 calls)
     cegterg      :    108.63s CPU    111.31s WALL (    9720 calls)

     Called by *egterg:
     cdiaghg      :     13.65s CPU     13.93s WALL (   37684 calls)
     h_psi        :     81.67s CPU     83.83s WALL (   38284 calls)
     s_psi        :      2.22s CPU      2.28s WALL (   38284 calls)
     g_psi        :      0.54s CPU      0.55s WALL (   28324 calls)

     Called by h_psi:
     h_psi:calbec :      3.30s CPU      3.39s WALL (   38284 calls)
     vloc_psi     :     75.55s CPU     77.55s WALL (   38284 calls)
     add_vuspsi   :      2.31s CPU      2.38s WALL (   38284 calls)

     General routines
     calbec       :      5.07s CPU      5.20s WALL (   56404 calls)
     fft          :      1.26s CPU      1.42s WALL (    1187 calls)
     ffts         :      0.30s CPU      0.31s WALL (     165 calls)
     fftw         :     63.74s CPU     65.32s WALL ( 1100998 calls)
     interpolate  :      0.39s CPU      0.40s WALL (      84 calls)

     Parallel routines

     PWSCF        :    172.72s CPU    183.32s WALL


   This run was terminated on:  17:28:57  27Oct2025            

=------------------------------------------------------------------------------=
   JOB DONE.
=------------------------------------------------------------------------------=
