
     Program PWSCF v.7.4 starts on 27Oct2025 at 17:49:45 

     This program is part of the open-source Quantum ESPRESSO suite
     for quantum simulation of materials; please cite
         "P. Giannozzi et al., J. Phys.:Condens. Matter 21 395502 (2009);
         "P. Giannozzi et al., J. Phys.:Condens. Matter 29 465901 (2017);
         "P. Giannozzi et al., J. Chem. Phys. 152 154105 (2020);
          URL http://www.quantum-espresso.org", 
     in publications or presentations arising from this work. More details at
     http://www.quantum-espresso.org/quote

     Parallel version (MPI & OpenMP), running on       8 processor cores
     Number of MPI processes:                 8
     Threads/MPI process:                     1

     MPI processes distributed on     1 nodes
     200009 MiB available memory on the printing compute node when the environment starts

     Reading input from TiFe_relaxed10.in

     Current dimensions of program PWSCF are:
     Max number of different atomic species (ntypx) = 10
     Max number of k-points (npk) =  40000
     Max angular momentum in pseudopotentials (lmaxx) =  4
     file Fe.pbe-spn-kjpaw_psl.0.2.1.UPF: wavefunction(s)  3D renormalized

     IMPORTANT: XC functional enforced from input :
     Exchange-correlation= PBE
                           (   1   4   3   4   0   0   0)
     Any further DFT definition will be discarded
     Please, verify this is what you really want

     Message from routine setup:
     using ibrav=0 with symmetry is DISCOURAGED, use correct ibrav instead

     R & G space division:  proc/nbgrp/npool/nimage =       8
     Subspace diagonalization in iterative solution of the eigenvalue problem:
     a serial algorithm will be used


     Parallelization info
     --------------------
     sticks:   dense  smooth     PW     G-vecs:    dense   smooth      PW
     Min         532     151     44                26154     3989     629
     Max         533     152     46                26155     3993     632
     Sum        4257    1209    357               209233    31919    5041

     Using Slab Decomposition



     bravais-lattice index     =            0
     lattice parameter (alat)  =       5.5533  a.u.
     unit-cell volume          =     171.2590 (a.u.)^3
     number of atoms/cell      =            2
     number of atomic types    =            2
     number of electrons       =        28.00
     number of Kohn-Sham states=           18
     kinetic-energy cutoff     =     124.0000  Ry
     charge density cutoff     =    1736.0000  Ry
     scf convergence threshold =      1.0E-08
     mixing beta               =       0.7000
     number of iterations used =            8  plain     mixing
     energy convergence thresh.=      1.0E-04
     force convergence thresh. =      1.0E-03
     press convergence thresh. =      5.0E-01
     Exchange-correlation= PBE
                           (   1   4   3   4   0   0   0)
     nstep                     =           50


     celldm(1)=   5.553300  celldm(2)=   0.000000  celldm(3)=   0.000000
     celldm(4)=   0.000000  celldm(5)=   0.000000  celldm(6)=   0.000000

     crystal axes: (cart. coord. in units of alat)
               a(1) = (   1.000000   0.000000   0.000000 )  
               a(2) = (   0.000000   1.000000   0.000000 )  
               a(3) = (   0.000000   0.000000   1.000000 )  

     reciprocal axes: (cart. coord. in units 2 pi/alat)
               b(1) = (  1.000000  0.000000  0.000000 )  
               b(2) = (  0.000000  1.000000  0.000000 )  
               b(3) = (  0.000000  0.000000  1.000000 )  


     PseudoPot. # 1 for Fe read from file:
     ../../pseudos/Fe.pbe-spn-kjpaw_psl.0.2.1.UPF
     MD5 check sum: e86618425769142926afa95317d90200
     Pseudo is Projector augmented-wave + core cor, Zval = 16.0
     Generated using "atomic" code by A. Dal Corso  v.5.0.99 svn rev. 10869
     Shape of augmentation charge: PSQ
     Using radial grid of 1191 points,  6 beta functions with: 
                l(1) =   0
                l(2) =   0
                l(3) =   1
                l(4) =   1
                l(5) =   2
                l(6) =   2
     Q(r) pseudized with 0 coefficients 


     PseudoPot. # 2 for Ti read from file:
     ../../pseudos/ti_pbe_v1.4.uspp.F.UPF
     MD5 check sum: 88a00a6731bd790ddea75d31a80cb452
     Pseudo is Ultrasoft + core correction, Zval = 12.0
     Generated by new atomic code, or converted to UPF format
     Using radial grid of  851 points,  6 beta functions with: 
                l(1) =   0
                l(2) =   0
                l(3) =   1
                l(4) =   1
                l(5) =   2
                l(6) =   2
     Q(r) pseudized with  6 coefficients,  rinner =    1.000   1.000   1.000
                                                       1.000   1.000

     atomic species   valence    mass     pseudopotential
     Fe               16.00    55.84500     Fe( 1.00)
     Ti               12.00    47.86700     Ti( 1.00)

     48 Sym. Ops., with inversion, found



   Cartesian axes

     site n.     atom                  positions (alat units)
         1        Fe     tau(   1) = (   0.5000000   0.5000000   0.5000000  )
         2        Ti     tau(   2) = (   0.0000000   0.0000000   0.0000000  )

     number of k points=   120  Marzari-Vanderbilt smearing, width (Ry)=  0.0050

     Number of k-points >= 100: set verbosity='high' to print them.

     Dense  grid:   209233 G-vectors     FFT dimensions: (  75,  75,  75)

     Smooth grid:    31919 G-vectors     FFT dimensions: (  40,  40,  40)

     Estimated max dynamical RAM per process >     125.80 MB

     Estimated total dynamical RAM >    1006.42 MB

     Check: negative core charge=   -0.000002

     Initial potential from superposition of free atoms

     starting charge      26.9995, renormalised to      28.0000

     negative rho (up, down):  1.347E-03 0.000E+00
     Starting wfcs are   23 randomized atomic wfcs
     Checking if some PAW data can be deallocated... 

     total cpu time spent up to now is        1.9 secs

     per-process dynamical memory:   151.6 Mb

     Self-consistent Calculation

     iteration #  1     ecut=   124.00 Ry     beta= 0.70
     Davidson diagonalization with overlap
     ethr =  1.00E-02,  avg # of iterations =  2.1

     negative rho (up, down):  8.075E-05 0.000E+00

     total cpu time spent up to now is        3.9 secs

     total energy              =    -434.88034974 Ry
     estimated scf accuracy    <      17.47740323 Ry

     iteration #  2     ecut=   124.00 Ry     beta= 0.70
     Davidson diagonalization with overlap
     ethr =  1.00E-02,  avg # of iterations =  6.1

     negative rho (up, down):  2.388E-05 0.000E+00

     total cpu time spent up to now is        7.2 secs

     total energy              =    -448.51195570 Ry
     estimated scf accuracy    <      66.14338935 Ry

     iteration #  3     ecut=   124.00 Ry     beta= 0.70
     Davidson diagonalization with overlap
     ethr =  1.00E-02,  avg # of iterations =  3.1

     negative rho (up, down):  2.384E-04 0.000E+00

     total cpu time spent up to now is        9.5 secs

     total energy              =    -448.59876074 Ry
     estimated scf accuracy    <      16.77187988 Ry

     iteration #  4     ecut=   124.00 Ry     beta= 0.70
     Davidson diagonalization with overlap
     ethr =  1.00E-02,  avg # of iterations =  2.1

     negative rho (up, down):  2.771E-04 0.000E+00

     total cpu time spent up to now is       11.5 secs

     total energy              =    -449.11451992 Ry
     estimated scf accuracy    <       4.73362336 Ry

     iteration #  5     ecut=   124.00 Ry     beta= 0.70
     Davidson diagonalization with overlap
     ethr =  1.00E-02,  avg # of iterations =  1.0

     negative rho (up, down):  3.233E-04 0.000E+00

     total cpu time spent up to now is       13.2 secs

     total energy              =    -449.12131532 Ry
     estimated scf accuracy    <       4.31212425 Ry

     iteration #  6     ecut=   124.00 Ry     beta= 0.70
     Davidson diagonalization with overlap
     ethr =  1.00E-02,  avg # of iterations =  1.0

     negative rho (up, down):  1.107E-03 0.000E+00

     total cpu time spent up to now is       14.8 secs

     total energy              =    -447.89389661 Ry
     estimated scf accuracy    <       4.51968901 Ry

     iteration #  7     ecut=   124.00 Ry     beta= 0.70
     Davidson diagonalization with overlap
     ethr =  1.00E-02,  avg # of iterations =  3.4

     negative rho (up, down):  1.008E-03 0.000E+00

     total cpu time spent up to now is       16.8 secs

     total energy              =    -448.58423346 Ry
     estimated scf accuracy    <       3.81978614 Ry

     iteration #  8     ecut=   124.00 Ry     beta= 0.70
     Davidson diagonalization with overlap
     ethr =  1.00E-02,  avg # of iterations =  1.0

     negative rho (up, down):  8.248E-04 0.000E+00

     total cpu time spent up to now is       18.5 secs

     total energy              =    -448.46846099 Ry
     estimated scf accuracy    <       1.21375717 Ry

     iteration #  9     ecut=   124.00 Ry     beta= 0.70
     Davidson diagonalization with overlap
     ethr =  4.33E-03,  avg # of iterations =  1.7

     negative rho (up, down):  8.317E-04 0.000E+00

     total cpu time spent up to now is       20.3 secs

     total energy              =    -448.59501092 Ry
     estimated scf accuracy    <       0.12585284 Ry

     iteration # 10     ecut=   124.00 Ry     beta= 0.70
     Davidson diagonalization with overlap
     ethr =  4.49E-04,  avg # of iterations =  2.3

     negative rho (up, down):  8.588E-04 0.000E+00

     total cpu time spent up to now is       22.0 secs

     total energy              =    -448.59602789 Ry
     estimated scf accuracy    <       0.14907511 Ry

     iteration # 11     ecut=   124.00 Ry     beta= 0.70
     Davidson diagonalization with overlap
     ethr =  4.49E-04,  avg # of iterations =  1.1

     negative rho (up, down):  1.121E-03 0.000E+00

     total cpu time spent up to now is       23.7 secs

     total energy              =    -448.56917534 Ry
     estimated scf accuracy    <       0.14868094 Ry

     iteration # 12     ecut=   124.00 Ry     beta= 0.70
     Davidson diagonalization with overlap
     ethr =  4.49E-04,  avg # of iterations =  4.3

     negative rho (up, down):  1.213E-03 0.000E+00

     total cpu time spent up to now is       26.1 secs

     total energy              =    -448.65391027 Ry
     estimated scf accuracy    <       0.18318038 Ry

     iteration # 13     ecut=   124.00 Ry     beta= 0.70
     Davidson diagonalization with overlap
     ethr =  4.49E-04,  avg # of iterations =  1.9

     negative rho (up, down):  2.114E-03 0.000E+00

     total cpu time spent up to now is       27.9 secs

     total energy              =    -449.03322661 Ry
     estimated scf accuracy    <       0.44442172 Ry

     iteration # 14     ecut=   124.00 Ry     beta= 0.70
     Davidson diagonalization with overlap
     ethr =  4.49E-04,  avg # of iterations =  6.2

     negative rho (up, down):  1.459E-03 0.000E+00

     total cpu time spent up to now is       30.8 secs

     total energy              =    -448.51932687 Ry
     estimated scf accuracy    <      26.98882261 Ry

     iteration # 15     ecut=   124.00 Ry     beta= 0.70
     Davidson diagonalization with overlap
     ethr =  4.49E-04,  avg # of iterations =  4.8

     negative rho (up, down):  1.137E-03 0.000E+00

     total cpu time spent up to now is       33.3 secs

     total energy              =    -448.49454823 Ry
     estimated scf accuracy    <       4.43870821 Ry

     iteration # 16     ecut=   124.00 Ry     beta= 0.70
     Davidson diagonalization with overlap
     ethr =  4.49E-04,  avg # of iterations =  4.3

     negative rho (up, down):  1.088E-03 0.000E+00

     total cpu time spent up to now is       35.7 secs

     total energy              =    -448.60519511 Ry
     estimated scf accuracy    <       0.36277654 Ry

     iteration # 17     ecut=   124.00 Ry     beta= 0.70
     Davidson diagonalization with overlap
     ethr =  4.49E-04,  avg # of iterations =  2.0

     negative rho (up, down):  1.022E-03 0.000E+00

     total cpu time spent up to now is       37.5 secs

     total energy              =    -448.58523807 Ry
     estimated scf accuracy    <       0.39566393 Ry

     iteration # 18     ecut=   124.00 Ry     beta= 0.70
     Davidson diagonalization with overlap
     ethr =  4.49E-04,  avg # of iterations =  1.2

     negative rho (up, down):  9.735E-04 0.000E+00

     total cpu time spent up to now is       39.2 secs

     total energy              =    -448.57914660 Ry
     estimated scf accuracy    <       0.10585198 Ry

     iteration # 19     ecut=   124.00 Ry     beta= 0.70
     Davidson diagonalization with overlap
     ethr =  3.78E-04,  avg # of iterations =  1.8

     negative rho (up, down):  9.827E-04 0.000E+00

     total cpu time spent up to now is       40.9 secs

     total energy              =    -448.58492275 Ry
     estimated scf accuracy    <       0.01167453 Ry

     iteration # 20     ecut=   124.00 Ry     beta= 0.70
     Davidson diagonalization with overlap
     ethr =  4.17E-05,  avg # of iterations =  4.3

     negative rho (up, down):  9.840E-04 0.000E+00

     total cpu time spent up to now is       43.1 secs

     total energy              =    -448.58662258 Ry
     estimated scf accuracy    <       0.00743011 Ry

     iteration # 21     ecut=   124.00 Ry     beta= 0.70
     Davidson diagonalization with overlap
     ethr =  2.65E-05,  avg # of iterations =  1.2

     negative rho (up, down):  9.783E-04 0.000E+00

     total cpu time spent up to now is       44.8 secs

     total energy              =    -448.58668664 Ry
     estimated scf accuracy    <       0.00779712 Ry

     iteration # 22     ecut=   124.00 Ry     beta= 0.70
     Davidson diagonalization with overlap
     ethr =  2.65E-05,  avg # of iterations =  1.0

     negative rho (up, down):  1.037E-03 0.000E+00

     total cpu time spent up to now is       46.4 secs

     total energy              =    -448.58737857 Ry
     estimated scf accuracy    <       0.00638001 Ry

     iteration # 23     ecut=   124.00 Ry     beta= 0.70
     Davidson diagonalization with overlap
     ethr =  2.28E-05,  avg # of iterations =  1.0

     negative rho (up, down):  1.004E-03 0.000E+00

     total cpu time spent up to now is       48.1 secs

     total energy              =    -448.58667571 Ry
     estimated scf accuracy    <       0.01401581 Ry

     iteration # 24     ecut=   124.00 Ry     beta= 0.70
     Davidson diagonalization with overlap
     ethr =  2.28E-05,  avg # of iterations =  1.0

     negative rho (up, down):  9.887E-04 0.000E+00

     total cpu time spent up to now is       49.8 secs

     total energy              =    -448.58663217 Ry
     estimated scf accuracy    <       0.00473460 Ry

     iteration # 25     ecut=   124.00 Ry     beta= 0.70
     Davidson diagonalization with overlap
     ethr =  1.69E-05,  avg # of iterations =  1.0

     negative rho (up, down):  9.662E-04 0.000E+00

     total cpu time spent up to now is       51.5 secs

     total energy              =    -448.58651421 Ry
     estimated scf accuracy    <       0.00172769 Ry

     iteration # 26     ecut=   124.00 Ry     beta= 0.70
     Davidson diagonalization with overlap
     ethr =  6.17E-06,  avg # of iterations =  1.7

     negative rho (up, down):  9.659E-04 0.000E+00

     total cpu time spent up to now is       53.2 secs

     total energy              =    -448.58655054 Ry
     estimated scf accuracy    <       0.00047004 Ry

     iteration # 27     ecut=   124.00 Ry     beta= 0.70
     Davidson diagonalization with overlap
     ethr =  1.68E-06,  avg # of iterations =  2.3

     negative rho (up, down):  9.621E-04 0.000E+00

     total cpu time spent up to now is       55.0 secs

     total energy              =    -448.58654470 Ry
     estimated scf accuracy    <       0.00023845 Ry

     iteration # 28     ecut=   124.00 Ry     beta= 0.70
     Davidson diagonalization with overlap
     ethr =  8.52E-07,  avg # of iterations =  1.7

     negative rho (up, down):  9.604E-04 0.000E+00

     total cpu time spent up to now is       56.7 secs

     total energy              =    -448.58653701 Ry
     estimated scf accuracy    <       0.00010746 Ry

     iteration # 29     ecut=   124.00 Ry     beta= 0.70
     Davidson diagonalization with overlap
     ethr =  3.84E-07,  avg # of iterations =  2.4

     negative rho (up, down):  9.615E-04 0.000E+00

     total cpu time spent up to now is       58.6 secs

     total energy              =    -448.58653629 Ry
     estimated scf accuracy    <       0.00003417 Ry

     iteration # 30     ecut=   124.00 Ry     beta= 0.70
     Davidson diagonalization with overlap
     ethr =  1.22E-07,  avg # of iterations =  3.3

     negative rho (up, down):  9.610E-04 0.000E+00

     total cpu time spent up to now is       60.5 secs

     total energy              =    -448.58654028 Ry
     estimated scf accuracy    <       0.00000540 Ry

     iteration # 31     ecut=   124.00 Ry     beta= 0.70
     Davidson diagonalization with overlap
     ethr =  1.93E-08,  avg # of iterations =  4.0

     negative rho (up, down):  9.613E-04 0.000E+00

     total cpu time spent up to now is       62.7 secs

     total energy              =    -448.58654137 Ry
     estimated scf accuracy    <       0.00000083 Ry

     iteration # 32     ecut=   124.00 Ry     beta= 0.70
     Davidson diagonalization with overlap
     ethr =  2.95E-09,  avg # of iterations =  3.0

     negative rho (up, down):  9.613E-04 0.000E+00

     total cpu time spent up to now is       64.6 secs

     total energy              =    -448.58654147 Ry
     estimated scf accuracy    <       0.00000005 Ry

     iteration # 33     ecut=   124.00 Ry     beta= 0.70
     Davidson diagonalization with overlap
     ethr =  1.74E-10,  avg # of iterations =  4.5

     negative rho (up, down):  9.615E-04 0.000E+00

     total cpu time spent up to now is       67.0 secs

     End of self-consistent calculation

     Number of k-points >= 100: set verbosity='high' to print the bands.

     the Fermi energy is    17.7222 ev

!    total energy              =    -448.58654149 Ry
     estimated scf accuracy    <          4.8E-09 Ry
     smearing contrib. (-TS)   =      -0.00001774 Ry
     internal energy E=F+TS    =    -448.58652375 Ry

     The total energy is F=E-TS. E is the sum of the following terms:
     one-electron contribution =    -151.35065372 Ry
     hartree contribution      =      91.62732609 Ry
     xc contribution           =     -52.88875636 Ry
     ewald contribution        =    -259.82070277 Ry
     one-center paw contrib.   =     -76.15373699 Ry

     convergence has been achieved in  33 iterations

     negative rho (up, down):  9.615E-04 0.000E+00

     Forces acting on atoms (cartesian axes, Ry/au):

     atom    1 type  1   force =     0.00000000    0.00000000    0.00000000
     atom    2 type  2   force =     0.00000000    0.00000000    0.00000000

     Total force =     0.000000     Total SCF correction =     0.000000


     Computing stress (Cartesian axis) and pressure


     negative rho (up, down):  9.615E-04 0.000E+00
          total   stress  (Ry/bohr**3)                   (kbar)     P=       29.45
   0.00020020   0.00000000   0.00000000           29.45        0.00        0.00
   0.00000000   0.00020020   0.00000000            0.00       29.45        0.00
   0.00000000   0.00000000   0.00020020            0.00        0.00       29.45


     BFGS Geometry Optimization
     Energy error            =      5.3E-02 Ry
     Gradient error          =      0.0E+00 Ry/Bohr
     Cell gradient error     =      2.9E+02 kbar

     number of scf cycles    =   1
     number of bfgs steps    =   0

     enthalpy           new  =    -448.2180789899 Ry

     new trust radius        =       0.1276791490 bohr
     new conv_thr            =       0.0000000100 Ry

     new unit-cell volume =    147.39852 a.u.^3 (    21.84221 Ang^3 )
     density =      7.88464 g/cm^3

CELL_PARAMETERS (alat=  5.55330037)
   0.951217592   0.000000000   0.000000000
   0.000000000   0.951217592   0.000000000
   0.000000000   0.000000000   0.951217592

ATOMIC_POSITIONS (crystal)
Fe               0.5000000000        0.5000000000        0.5000000000
Ti               0.0000000000        0.0000000000        0.0000000000



     Writing config-only to output data dir ./TiFe.save/ :
     XML data file
     NEW-OLD atomic charge density approx. for the potential
     New effective cutoffs (rho, wfc): 1918.48  137.04

     Check: negative core charge=   -0.000001

     negative rho (up, down):  8.717E-04 0.000E+00

     total cpu time spent up to now is       69.5 secs

     per-process dynamical memory:   161.7 Mb

     Self-consistent Calculation

     iteration #  1     ecut=   124.00 Ry     beta= 0.70
     Davidson diagonalization with overlap
     ethr =  1.00E-06,  avg # of iterations = 10.4

     negative rho (up, down):  9.104E-04 0.000E+00

     total cpu time spent up to now is       74.3 secs

     total energy              =    -448.54995530 Ry
     estimated scf accuracy    <       0.00132085 Ry

     iteration #  2     ecut=   124.00 Ry     beta= 0.70
     Davidson diagonalization with overlap
     ethr =  4.72E-06,  avg # of iterations =  4.0

     negative rho (up, down):  9.213E-04 0.000E+00

     total cpu time spent up to now is       76.6 secs

     total energy              =    -448.54740123 Ry
     estimated scf accuracy    <       0.03708819 Ry

     iteration #  3     ecut=   124.00 Ry     beta= 0.70
     Davidson diagonalization with overlap
     ethr =  4.72E-06,  avg # of iterations =  4.2

     negative rho (up, down):  9.180E-04 0.000E+00

     total cpu time spent up to now is       78.8 secs

     total energy              =    -448.55130160 Ry
     estimated scf accuracy    <       0.00458639 Ry

     iteration #  4     ecut=   124.00 Ry     beta= 0.70
     Davidson diagonalization with overlap
     ethr =  4.72E-06,  avg # of iterations =  1.9

     negative rho (up, down):  9.261E-04 0.000E+00

     total cpu time spent up to now is       80.6 secs

     total energy              =    -448.55153747 Ry
     estimated scf accuracy    <       0.00026987 Ry

     iteration #  5     ecut=   124.00 Ry     beta= 0.70
     Davidson diagonalization with overlap
     ethr =  9.64E-07,  avg # of iterations =  3.2

     negative rho (up, down):  9.270E-04 0.000E+00

     total cpu time spent up to now is       82.5 secs

     total energy              =    -448.55156741 Ry
     estimated scf accuracy    <       0.00002371 Ry

     iteration #  6     ecut=   124.00 Ry     beta= 0.70
     Davidson diagonalization with overlap
     ethr =  8.47E-08,  avg # of iterations =  2.2

     negative rho (up, down):  9.272E-04 0.000E+00

     total cpu time spent up to now is       84.3 secs

     total energy              =    -448.55157060 Ry
     estimated scf accuracy    <       0.00000016 Ry

     iteration #  7     ecut=   124.00 Ry     beta= 0.70
     Davidson diagonalization with overlap
     ethr =  5.57E-10,  avg # of iterations =  6.4

     negative rho (up, down):  9.272E-04 0.000E+00

     total cpu time spent up to now is       87.4 secs

     total energy              =    -448.55157125 Ry
     estimated scf accuracy    <       0.00000007 Ry

     iteration #  8     ecut=   124.00 Ry     beta= 0.70
     Davidson diagonalization with overlap
     ethr =  2.41E-10,  avg # of iterations =  1.1

     negative rho (up, down):  9.273E-04 0.000E+00

     total cpu time spent up to now is       89.1 secs

     total energy              =    -448.55157126 Ry
     estimated scf accuracy    <       0.00000009 Ry

     iteration #  9     ecut=   124.00 Ry     beta= 0.70
     Davidson diagonalization with overlap
     ethr =  2.41E-10,  avg # of iterations =  1.1

     negative rho (up, down):  9.273E-04 0.000E+00

     total cpu time spent up to now is       90.7 secs

     End of self-consistent calculation

     Number of k-points >= 100: set verbosity='high' to print the bands.

     the Fermi energy is    20.9833 ev

!    total energy              =    -448.55157126 Ry
     estimated scf accuracy    <          3.9E-09 Ry
     smearing contrib. (-TS)   =       0.00001143 Ry
     internal energy E=F+TS    =    -448.55158269 Ry

     The total energy is F=E-TS. E is the sum of the following terms:
     one-electron contribution =    -130.98254054 Ry
     hartree contribution      =      84.91518658 Ry
     xc contribution           =     -53.18187293 Ry
     ewald contribution        =    -273.14539286 Ry
     one-center paw contrib.   =     -76.15696293 Ry

     convergence has been achieved in   9 iterations

     negative rho (up, down):  9.273E-04 0.000E+00

     Forces acting on atoms (cartesian axes, Ry/au):

     atom    1 type  1   force =     0.00000000    0.00000000    0.00000000
     atom    2 type  2   force =     0.00000000    0.00000000    0.00000000

     Total force =     0.000000     Total SCF correction =     0.000000


     Computing stress (Cartesian axis) and pressure


     negative rho (up, down):  9.273E-04 0.000E+00
          total   stress  (Ry/bohr**3)                   (kbar)     P=      451.12
   0.00306663   0.00000000   0.00000000          451.12        0.00        0.00
   0.00000000   0.00306663   0.00000000            0.00      451.12        0.00
   0.00000000   0.00000000   0.00306663            0.00        0.00      451.12

     Energy error            =      1.6E-02 Ry
     Gradient error          =      0.0E+00 Ry/Bohr
     Cell gradient error     =      1.3E+02 kbar

     number of scf cycles    =   2
     number of bfgs steps    =   1

     enthalpy           old  =    -448.2180789899 Ry
     enthalpy           new  =    -448.2344444791 Ry

     CASE: enthalpy          _new < enthalpy          _old

     new trust radius        =       0.0370993124 bohr
     new conv_thr            =            1.0E-10 Ry

     new unit-cell volume =    154.25849 a.u.^3 (    22.85875 Ang^3 )
     density =      7.53400 g/cm^3

CELL_PARAMETERS (alat=  5.55330037)
   0.965751057   0.000000000   0.000000000
   0.000000000   0.965751057   0.000000000
   0.000000000   0.000000000   0.965751057

ATOMIC_POSITIONS (crystal)
Fe               0.5000000000        0.5000000000        0.5000000000
Ti               0.0000000000        0.0000000000        0.0000000000



     Writing config-only to output data dir ./TiFe.save/ :
     XML data file
     NEW-OLD atomic charge density approx. for the potential
     New effective cutoffs (rho, wfc): 1861.17  132.95

     Check: negative core charge=   -0.000002

     negative rho (up, down):  9.372E-04 0.000E+00

     total cpu time spent up to now is       93.3 secs

     per-process dynamical memory:   162.1 Mb

     Self-consistent Calculation

     iteration #  1     ecut=   124.00 Ry     beta= 0.70
     Davidson diagonalization with overlap
     ethr =  1.00E-06,  avg # of iterations =  8.7

     negative rho (up, down):  9.384E-04 0.000E+00

     total cpu time spent up to now is       97.1 secs

     total energy              =    -448.56710370 Ry
     estimated scf accuracy    <       0.00112159 Ry

     iteration #  2     ecut=   124.00 Ry     beta= 0.70
     Davidson diagonalization with overlap
     ethr =  4.01E-06,  avg # of iterations =  5.0

     negative rho (up, down):  9.262E-04 0.000E+00

     total cpu time spent up to now is       99.7 secs

     total energy              =    -448.56341077 Ry
     estimated scf accuracy    <       0.09600129 Ry

     iteration #  3     ecut=   124.00 Ry     beta= 0.70
     Davidson diagonalization with overlap
     ethr =  4.01E-06,  avg # of iterations =  4.7

     negative rho (up, down):  9.352E-04 0.000E+00

     total cpu time spent up to now is      102.1 secs

     total energy              =    -448.56887814 Ry
     estimated scf accuracy    <       0.00019249 Ry

     iteration #  4     ecut=   124.00 Ry     beta= 0.70
     Davidson diagonalization with overlap
     ethr =  6.87E-07,  avg # of iterations =  2.1

     negative rho (up, down):  9.376E-04 0.000E+00

     total cpu time spent up to now is      104.0 secs

     total energy              =    -448.56892089 Ry
     estimated scf accuracy    <       0.00002198 Ry

     iteration #  5     ecut=   124.00 Ry     beta= 0.70
     Davidson diagonalization with overlap
     ethr =  7.85E-08,  avg # of iterations =  4.5

     negative rho (up, down):  9.356E-04 0.000E+00

     total cpu time spent up to now is      106.4 secs

     total energy              =    -448.56893073 Ry
     estimated scf accuracy    <       0.00000101 Ry

     iteration #  6     ecut=   124.00 Ry     beta= 0.70
     Davidson diagonalization with overlap
     ethr =  3.60E-09,  avg # of iterations =  3.8

     negative rho (up, down):  9.361E-04 0.000E+00

     total cpu time spent up to now is      108.7 secs

     total energy              =    -448.56893122 Ry
     estimated scf accuracy    <       0.00000091 Ry

     iteration #  7     ecut=   124.00 Ry     beta= 0.70
     Davidson diagonalization with overlap
     ethr =  3.24E-09,  avg # of iterations =  2.1

     negative rho (up, down):  9.363E-04 0.000E+00

     total cpu time spent up to now is      110.7 secs

     total energy              =    -448.56893132 Ry
     estimated scf accuracy    <       0.00000007 Ry

     iteration #  8     ecut=   124.00 Ry     beta= 0.70
     Davidson diagonalization with overlap
     ethr =  2.40E-10,  avg # of iterations =  4.2

     negative rho (up, down):  9.363E-04 0.000E+00

     total cpu time spent up to now is      113.0 secs

     total energy              =    -448.56893135 Ry
     estimated scf accuracy    <          2.4E-09 Ry

     iteration #  9     ecut=   124.00 Ry     beta= 0.70
     Davidson diagonalization with overlap
     ethr =  8.71E-12,  avg # of iterations =  4.9

     negative rho (up, down):  9.363E-04 0.000E+00

     total cpu time spent up to now is      115.4 secs

     total energy              =    -448.56893135 Ry
     estimated scf accuracy    <          4.6E-10 Ry

     iteration # 10     ecut=   124.00 Ry     beta= 0.70
     Davidson diagonalization with overlap
     ethr =  1.66E-12,  avg # of iterations =  2.6

     negative rho (up, down):  9.363E-04 0.000E+00

     total cpu time spent up to now is      117.4 secs

     End of self-consistent calculation

     Number of k-points >= 100: set verbosity='high' to print the bands.

     the Fermi energy is    19.9385 ev

!    total energy              =    -448.56893135 Ry
     estimated scf accuracy    <          3.4E-11 Ry
     smearing contrib. (-TS)   =       0.00002501 Ry
     internal energy E=F+TS    =    -448.56895636 Ry

     The total energy is F=E-TS. E is the sum of the following terms:
     one-electron contribution =    -137.22677581 Ry
     hartree contribution      =      86.93506165 Ry
     xc contribution           =     -53.08634185 Ry
     ewald contribution        =    -269.03486242 Ry
     one-center paw contrib.   =     -76.15603794 Ry

     convergence has been achieved in  10 iterations

     negative rho (up, down):  9.363E-04 0.000E+00

     Forces acting on atoms (cartesian axes, Ry/au):

     atom    1 type  1   force =     0.00000000    0.00000000    0.00000000
     atom    2 type  2   force =     0.00000000    0.00000000    0.00000000

     Total force =     0.000000     Total SCF correction =     0.000000


     Computing stress (Cartesian axis) and pressure


     negative rho (up, down):  9.363E-04 0.000E+00
          total   stress  (Ry/bohr**3)                   (kbar)     P=      298.16
   0.00202685   0.00000000   0.00000000          298.16        0.00        0.00
   0.00000000   0.00202685   0.00000000            0.00      298.16        0.00
   0.00000000   0.00000000   0.00202685            0.00        0.00      298.16

     Energy error            =      2.6E-03 Ry
     Gradient error          =      0.0E+00 Ry/Bohr
     Cell gradient error     =      1.8E+01 kbar

     number of scf cycles    =   3
     number of bfgs steps    =   2

     enthalpy           old  =    -448.2344444791 Ry
     enthalpy           new  =    -448.2370453976 Ry

     CASE: enthalpy          _new < enthalpy          _old

     new trust radius        =       0.0046020626 bohr
     new conv_thr            =            1.0E-10 Ry

     new unit-cell volume =    153.40271 a.u.^3 (    22.73194 Ang^3 )
     density =      7.57603 g/cm^3

CELL_PARAMETERS (alat=  5.55330037)
   0.963961839   0.000000000   0.000000000
   0.000000000   0.963961839   0.000000000
   0.000000000   0.000000000   0.963961839

ATOMIC_POSITIONS (crystal)
Fe               0.5000000000        0.5000000000        0.5000000000
Ti               0.0000000000        0.0000000000        0.0000000000



     Writing config-only to output data dir ./TiFe.save/ :
     XML data file
     NEW-OLD atomic charge density approx. for the potential
     New effective cutoffs (rho, wfc): 1868.09  133.44

     Check: negative core charge=   -0.000002

     negative rho (up, down):  9.327E-04 0.000E+00

     total cpu time spent up to now is      119.9 secs

     per-process dynamical memory:   162.1 Mb

     Self-consistent Calculation

     iteration #  1     ecut=   124.00 Ry     beta= 0.70
     Davidson diagonalization with overlap
     ethr =  1.00E-06,  avg # of iterations =  3.0

     Threshold (ethr) on eigenvalues was too large:
     Diagonalizing with lowered threshold

     Davidson diagonalization with overlap
     ethr =  5.12E-09,  avg # of iterations =  5.7

     negative rho (up, down):  9.346E-04 0.000E+00

     total cpu time spent up to now is      124.9 secs

     total energy              =    -448.56712308 Ry
     estimated scf accuracy    <       0.00000239 Ry

     iteration #  2     ecut=   124.00 Ry     beta= 0.70
     Davidson diagonalization with overlap
     ethr =  8.54E-09,  avg # of iterations =  4.1

     negative rho (up, down):  9.354E-04 0.000E+00

     total cpu time spent up to now is      127.2 secs

     total energy              =    -448.56713532 Ry
     estimated scf accuracy    <       0.00010291 Ry

     iteration #  3     ecut=   124.00 Ry     beta= 0.70
     Davidson diagonalization with overlap
     ethr =  8.54E-09,  avg # of iterations =  4.3

     negative rho (up, down):  9.352E-04 0.000E+00

     total cpu time spent up to now is      129.3 secs

     total energy              =    -448.56714577 Ry
     estimated scf accuracy    <       0.00000530 Ry

     iteration #  4     ecut=   124.00 Ry     beta= 0.70
     Davidson diagonalization with overlap
     ethr =  8.54E-09,  avg # of iterations =  1.7

     negative rho (up, down):  9.355E-04 0.000E+00

     total cpu time spent up to now is      131.1 secs

     total energy              =    -448.56714624 Ry
     estimated scf accuracy    <       0.00000057 Ry

     iteration #  5     ecut=   124.00 Ry     beta= 0.70
     Davidson diagonalization with overlap
     ethr =  2.05E-09,  avg # of iterations =  3.0

     negative rho (up, down):  9.355E-04 0.000E+00

     total cpu time spent up to now is      132.9 secs

     total energy              =    -448.56714632 Ry
     estimated scf accuracy    <       0.00000002 Ry

     iteration #  6     ecut=   124.00 Ry     beta= 0.70
     Davidson diagonalization with overlap
     ethr =  7.43E-11,  avg # of iterations =  4.3

     negative rho (up, down):  9.355E-04 0.000E+00

     total cpu time spent up to now is      135.1 secs

     total energy              =    -448.56714633 Ry
     estimated scf accuracy    <          1.7E-09 Ry

     iteration #  7     ecut=   124.00 Ry     beta= 0.70
     Davidson diagonalization with overlap
     ethr =  6.16E-12,  avg # of iterations =  4.3

     negative rho (up, down):  9.356E-04 0.000E+00

     total cpu time spent up to now is      137.3 secs

     total energy              =    -448.56714633 Ry
     estimated scf accuracy    <          5.3E-10 Ry

     iteration #  8     ecut=   124.00 Ry     beta= 0.70
     Davidson diagonalization with overlap
     ethr =  1.88E-12,  avg # of iterations =  2.1

     negative rho (up, down):  9.356E-04 0.000E+00

     total cpu time spent up to now is      139.2 secs

     total energy              =    -448.56714633 Ry
     estimated scf accuracy    <          1.3E-10 Ry

     iteration #  9     ecut=   124.00 Ry     beta= 0.70
     Davidson diagonalization with overlap
     ethr =  4.60E-13,  avg # of iterations =  1.9

     negative rho (up, down):  9.356E-04 0.000E+00

     total cpu time spent up to now is      141.0 secs

     total energy              =    -448.56714633 Ry
     estimated scf accuracy    <          2.3E-10 Ry

     iteration # 10     ecut=   124.00 Ry     beta= 0.70
     Davidson diagonalization with overlap
     ethr =  4.60E-13,  avg # of iterations =  1.8

     negative rho (up, down):  9.356E-04 0.000E+00

     total cpu time spent up to now is      142.8 secs

     End of self-consistent calculation

     Number of k-points >= 100: set verbosity='high' to print the bands.

     the Fermi energy is    20.0611 ev

!    total energy              =    -448.56714633 Ry
     estimated scf accuracy    <          8.2E-12 Ry
     smearing contrib. (-TS)   =       0.00002673 Ry
     internal energy E=F+TS    =    -448.56717306 Ry

     The total energy is F=E-TS. E is the sum of the following terms:
     one-electron contribution =    -136.46583736 Ry
     hartree contribution      =      86.68666207 Ry
     xc contribution           =     -53.09761616 Ry
     ewald contribution        =    -269.53422030 Ry
     one-center paw contrib.   =     -76.15616131 Ry

     convergence has been achieved in  10 iterations

     negative rho (up, down):  9.356E-04 0.000E+00

     Forces acting on atoms (cartesian axes, Ry/au):

     atom    1 type  1   force =     0.00000000    0.00000000    0.00000000
     atom    2 type  2   force =     0.00000000    0.00000000    0.00000000

     Total force =     0.000000     Total SCF correction =     0.000000


     Computing stress (Cartesian axis) and pressure


     negative rho (up, down):  9.356E-04 0.000E+00
          total   stress  (Ry/bohr**3)                   (kbar)     P=      315.64
   0.00214569   0.00000000   0.00000000          315.64        0.00        0.00
   0.00000000   0.00214569   0.00000000            0.00      315.64        0.00
   0.00000000   0.00000000   0.00214569            0.00        0.00      315.64

     Energy error            =      5.6E-05 Ry
     Gradient error          =      0.0E+00 Ry/Bohr
     Cell gradient error     =      8.5E-01 kbar

     number of scf cycles    =   4
     number of bfgs steps    =   3

     enthalpy           old  =    -448.2370453976 Ry
     enthalpy           new  =    -448.2371015825 Ry

     CASE: enthalpy          _new < enthalpy          _old

     new trust radius        =       0.0002237125 bohr
     new conv_thr            =            1.0E-10 Ry

     new unit-cell volume =    153.36115 a.u.^3 (    22.72578 Ang^3 )
     density =      7.57808 g/cm^3

CELL_PARAMETERS (alat=  5.55330037)
   0.963874782   0.000000000   0.000000000
   0.000000000   0.963874782   0.000000000
   0.000000000   0.000000000   0.963874782

ATOMIC_POSITIONS (crystal)
Fe               0.5000000000        0.5000000000        0.5000000000
Ti               0.0000000000        0.0000000000        0.0000000000



     Writing config-only to output data dir ./TiFe.save/ :
     XML data file
     NEW-OLD atomic charge density approx. for the potential
     New effective cutoffs (rho, wfc): 1868.43  133.47

     Check: negative core charge=   -0.000002

     negative rho (up, down):  9.354E-04 0.000E+00

     total cpu time spent up to now is      145.3 secs

     per-process dynamical memory:   162.2 Mb

     Self-consistent Calculation

     iteration #  1     ecut=   124.00 Ry     beta= 0.70
     Davidson diagonalization with overlap
     ethr =  1.00E-06,  avg # of iterations =  2.0

     Threshold (ethr) on eigenvalues was too large:
     Diagonalizing with lowered threshold

     Davidson diagonalization with overlap
     ethr =  2.68E-11,  avg # of iterations =  6.9

     negative rho (up, down):  9.355E-04 0.000E+00

     total cpu time spent up to now is      150.1 secs

     total energy              =    -448.56705696 Ry
     estimated scf accuracy    <       0.00000002 Ry

     iteration #  2     ecut=   124.00 Ry     beta= 0.70
     Davidson diagonalization with overlap
     ethr =  5.72E-11,  avg # of iterations =  4.5

     negative rho (up, down):  9.355E-04 0.000E+00

     total cpu time spent up to now is      152.4 secs

     total energy              =    -448.56705695 Ry
     estimated scf accuracy    <       0.00000114 Ry

     iteration #  3     ecut=   124.00 Ry     beta= 0.70
     Davidson diagonalization with overlap
     ethr =  5.72E-11,  avg # of iterations =  4.6

     negative rho (up, down):  9.355E-04 0.000E+00

     total cpu time spent up to now is      154.7 secs

     total energy              =    -448.56705703 Ry
     estimated scf accuracy    <          6.8E-09 Ry

     iteration #  4     ecut=   124.00 Ry     beta= 0.70
     Davidson diagonalization with overlap
     ethr =  2.44E-11,  avg # of iterations =  1.2

     negative rho (up, down):  9.355E-04 0.000E+00

     total cpu time spent up to now is      156.4 secs

     total energy              =    -448.56705703 Ry
     estimated scf accuracy    <          1.2E-09 Ry

     iteration #  5     ecut=   124.00 Ry     beta= 0.70
     Davidson diagonalization with overlap
     ethr =  4.46E-12,  avg # of iterations =  3.3

     negative rho (up, down):  9.355E-04 0.000E+00

     total cpu time spent up to now is      158.3 secs

     End of self-consistent calculation

     Number of k-points >= 100: set verbosity='high' to print the bands.

     the Fermi energy is    20.0671 ev

!    total energy              =    -448.56705703 Ry
     estimated scf accuracy    <          3.4E-11 Ry
     smearing contrib. (-TS)   =       0.00002679 Ry
     internal energy E=F+TS    =    -448.56708383 Ry

     The total energy is F=E-TS. E is the sum of the following terms:
     one-electron contribution =    -136.42876581 Ry
     hartree contribution      =      86.67458282 Ry
     xc contribution           =     -53.09816828 Ry
     ewald contribution        =    -269.55856457 Ry
     one-center paw contrib.   =     -76.15616799 Ry

     convergence has been achieved in   5 iterations

     negative rho (up, down):  9.355E-04 0.000E+00

     Forces acting on atoms (cartesian axes, Ry/au):

     atom    1 type  1   force =     0.00000000    0.00000000    0.00000000
     atom    2 type  2   force =     0.00000000    0.00000000    0.00000000

     Total force =     0.000000     Total SCF correction =     0.000000


     Computing stress (Cartesian axis) and pressure


     negative rho (up, down):  9.355E-04 0.000E+00
          total   stress  (Ry/bohr**3)                   (kbar)     P=      316.49
   0.00215147   0.00000000   0.00000000          316.49        0.00        0.00
   0.00000000   0.00215147   0.00000000            0.00      316.49        0.00
   0.00000000   0.00000000   0.00215147            0.00        0.00      316.49

     Energy error            =      1.2E-07 Ry
     Gradient error          =      0.0E+00 Ry/Bohr
     Cell gradient error     =      3.0E-03 kbar

     bfgs converged in   5 scf cycles and   4 bfgs steps
     (criteria: energy <  1.0E-04 Ry, force <  1.0E-03 Ry/Bohr, cell <  5.0E-01 kbar)

     End of BFGS Geometry Optimization

     Final enthalpy           =    -448.2371017020 Ry

     File ./TiFe.bfgs deleted, as requested
Begin final coordinates
     new unit-cell volume =    153.36115 a.u.^3 (    22.72578 Ang^3 )
     density =      7.57808 g/cm^3

CELL_PARAMETERS (alat=  5.55330037)
   0.963874782   0.000000000   0.000000000
   0.000000000   0.963874782   0.000000000
   0.000000000   0.000000000   0.963874782

ATOMIC_POSITIONS (crystal)
Fe               0.5000000000        0.5000000000        0.5000000000
Ti               0.0000000000        0.0000000000        0.0000000000
End final coordinates



     Writing config-only to output data dir ./TiFe.save/ :
     XML data file

     Final scf calculation at the relaxed structure.
     The G-vectors are recalculated for the final unit cell
     Results may differ from those at the preceding step.

     Parallelization info
     --------------------
     sticks:   dense  smooth     PW     G-vecs:    dense   smooth      PW
     Min         496     139     41                23420     3551     567
     Max         497     140     42                23423     3554     570
     Sum        3969    1117    333               187367    28425    4553

     Using Slab Decomposition



     bravais-lattice index     =            0
     lattice parameter (alat)  =       5.5533  a.u.
     unit-cell volume          =     153.3611 (a.u.)^3
     number of atoms/cell      =            2
     number of atomic types    =            2
     number of electrons       =        28.00
     number of Kohn-Sham states=           18
     kinetic-energy cutoff     =     124.0000  Ry
     charge density cutoff     =    1736.0000  Ry
     scf convergence threshold =      1.0E-10
     mixing beta               =       0.7000
     number of iterations used =            8  plain     mixing
     press convergence thresh. =      5.0E-01
     Exchange-correlation= PBE
                           (   1   4   3   4   0   0   0)

     celldm(1)=   5.553300  celldm(2)=   0.000000  celldm(3)=   0.000000
     celldm(4)=   0.000000  celldm(5)=   0.000000  celldm(6)=   0.000000

     crystal axes: (cart. coord. in units of alat)
               a(1) = (   0.963875   0.000000   0.000000 )  
               a(2) = (   0.000000   0.963875   0.000000 )  
               a(3) = (   0.000000   0.000000   0.963875 )  

     reciprocal axes: (cart. coord. in units 2 pi/alat)
               b(1) = (  1.037479  0.000000  0.000000 )  
               b(2) = (  0.000000  1.037479  0.000000 )  
               b(3) = (  0.000000  0.000000  1.037479 )  


     PseudoPot. # 1 for Fe read from file:
     ../../pseudos/Fe.pbe-spn-kjpaw_psl.0.2.1.UPF
     MD5 check sum: e86618425769142926afa95317d90200
     Pseudo is Projector augmented-wave + core cor, Zval = 16.0
     Generated using "atomic" code by A. Dal Corso  v.5.0.99 svn rev. 10869
     Shape of augmentation charge: PSQ
     Using radial grid of 1191 points,  6 beta functions with: 
                l(1) =   0
                l(2) =   0
                l(3) =   1
                l(4) =   1
                l(5) =   2
                l(6) =   2
     Q(r) pseudized with 0 coefficients 


     PseudoPot. # 2 for Ti read from file:
     ../../pseudos/ti_pbe_v1.4.uspp.F.UPF
     MD5 check sum: 88a00a6731bd790ddea75d31a80cb452
     Pseudo is Ultrasoft + core correction, Zval = 12.0
     Generated by new atomic code, or converted to UPF format
     Using radial grid of  851 points,  6 beta functions with: 
                l(1) =   0
                l(2) =   0
                l(3) =   1
                l(4) =   1
                l(5) =   2
                l(6) =   2
     Q(r) pseudized with  6 coefficients,  rinner =    1.000   1.000   1.000
                                                       1.000   1.000

     atomic species   valence    mass     pseudopotential
     Fe               16.00    55.84500     Fe( 1.00)
     Ti               12.00    47.86700     Ti( 1.00)

     48 Sym. Ops., with inversion, found



   Cartesian axes

     site n.     atom                  positions (alat units)
         1        Fe     tau(   1) = (   0.4819374   0.4819374   0.4819374  )
         2        Ti     tau(   2) = (   0.0000000   0.0000000   0.0000000  )

     number of k points=   120  Marzari-Vanderbilt smearing, width (Ry)=  0.0050

     Number of k-points >= 100: set verbosity='high' to print them.

     Dense  grid:   187367 G-vectors     FFT dimensions: (  72,  72,  72)

     Smooth grid:    28425 G-vectors     FFT dimensions: (  40,  40,  40)

     Estimated max dynamical RAM per process >     114.21 MB

     Estimated total dynamical RAM >     913.64 MB

     Check: negative core charge=   -0.000002

     Initial potential from superposition of free atoms

     starting charge      26.9995, renormalised to      28.0000

     negative rho (up, down):  1.325E-03 0.000E+00
     Starting wfcs are   23 randomized atomic wfcs
     Checking if some PAW data can be deallocated... 

     total cpu time spent up to now is      162.0 secs

     per-process dynamical memory:   154.8 Mb

     Self-consistent Calculation

     iteration #  1     ecut=   124.00 Ry     beta= 0.70
     Davidson diagonalization with overlap
     c_bands:  1 eigenvalues not converged
     c_bands:  1 eigenvalues not converged
     c_bands:  1 eigenvalues not converged
     c_bands:  1 eigenvalues not converged
     c_bands:  1 eigenvalues not converged
     c_bands:  1 eigenvalues not converged
     c_bands:  1 eigenvalues not converged
     c_bands:  1 eigenvalues not converged
     c_bands:  1 eigenvalues not converged
     c_bands:  1 eigenvalues not converged
     c_bands:  1 eigenvalues not converged
     c_bands:  1 eigenvalues not converged
     c_bands:  1 eigenvalues not converged
     c_bands:  1 eigenvalues not converged
     ethr =  1.00E-06,  avg # of iterations = 16.4

     negative rho (up, down):  6.117E-05 0.000E+00

     total cpu time spent up to now is      169.6 secs

     total energy              =    -436.89090616 Ry
     estimated scf accuracy    <      15.04240535 Ry

     iteration #  2     ecut=   124.00 Ry     beta= 0.70
     Davidson diagonalization with overlap
     ethr =  1.00E-02,  avg # of iterations =  6.2

     negative rho (up, down):  1.042E-04 0.000E+00

     total cpu time spent up to now is      172.6 secs

     total energy              =    -448.42571347 Ry
     estimated scf accuracy    <      58.50948081 Ry

     iteration #  3     ecut=   124.00 Ry     beta= 0.70
     Davidson diagonalization with overlap
     ethr =  1.00E-02,  avg # of iterations =  3.0

     negative rho (up, down):  3.712E-04 0.000E+00

     total cpu time spent up to now is      174.8 secs

     total energy              =    -448.49326925 Ry
     estimated scf accuracy    <      14.77403442 Ry

     iteration #  4     ecut=   124.00 Ry     beta= 0.70
     Davidson diagonalization with overlap
     ethr =  1.00E-02,  avg # of iterations =  2.1

     negative rho (up, down):  3.385E-04 0.000E+00

     total cpu time spent up to now is      176.6 secs

     total energy              =    -449.02703536 Ry
     estimated scf accuracy    <       3.99221835 Ry

     iteration #  5     ecut=   124.00 Ry     beta= 0.70
     Davidson diagonalization with overlap
     ethr =  1.00E-02,  avg # of iterations =  1.0

     negative rho (up, down):  6.008E-04 0.000E+00

     total cpu time spent up to now is      178.1 secs

     total energy              =    -448.38208295 Ry
     estimated scf accuracy    <       3.76019235 Ry

     iteration #  6     ecut=   124.00 Ry     beta= 0.70
     Davidson diagonalization with overlap
     ethr =  1.00E-02,  avg # of iterations =  1.6

     negative rho (up, down):  6.056E-04 0.000E+00

     total cpu time spent up to now is      179.8 secs

     total energy              =    -448.61976789 Ry
     estimated scf accuracy    <       0.30468164 Ry

     iteration #  7     ecut=   124.00 Ry     beta= 0.70
     Davidson diagonalization with overlap
     ethr =  1.09E-03,  avg # of iterations =  3.0

     negative rho (up, down):  6.345E-04 0.000E+00

     total cpu time spent up to now is      181.5 secs

     total energy              =    -448.63098621 Ry
     estimated scf accuracy    <       0.27189279 Ry

     iteration #  8     ecut=   124.00 Ry     beta= 0.70
     Davidson diagonalization with overlap
     ethr =  9.71E-04,  avg # of iterations =  1.0

     negative rho (up, down):  9.138E-04 0.000E+00

     total cpu time spent up to now is      183.1 secs

     total energy              =    -448.53687961 Ry
     estimated scf accuracy    <       0.24350756 Ry

     iteration #  9     ecut=   124.00 Ry     beta= 0.70
     Davidson diagonalization with overlap
     ethr =  8.70E-04,  avg # of iterations =  2.2

     negative rho (up, down):  1.074E-03 0.000E+00

     total cpu time spent up to now is      184.8 secs

     total energy              =    -448.56868700 Ry
     estimated scf accuracy    <       0.04205335 Ry

     iteration # 10     ecut=   124.00 Ry     beta= 0.70
     Davidson diagonalization with overlap
     ethr =  1.50E-04,  avg # of iterations =  5.1

     negative rho (up, down):  9.445E-04 0.000E+00

     total cpu time spent up to now is      187.2 secs

     total energy              =    -448.53700631 Ry
     estimated scf accuracy    <       0.67202849 Ry

     iteration # 11     ecut=   124.00 Ry     beta= 0.70
     Davidson diagonalization with overlap
     ethr =  1.50E-04,  avg # of iterations =  4.0

     negative rho (up, down):  9.907E-04 0.000E+00

     total cpu time spent up to now is      189.1 secs

     total energy              =    -448.57853704 Ry
     estimated scf accuracy    <       0.01126444 Ry

     iteration # 12     ecut=   124.00 Ry     beta= 0.70
     Davidson diagonalization with overlap
     ethr =  4.02E-05,  avg # of iterations =  4.4

     negative rho (up, down):  7.785E-04 0.000E+00

     total cpu time spent up to now is      191.2 secs

     total energy              =    -448.47964734 Ry
     estimated scf accuracy    <       0.56057425 Ry

     iteration # 13     ecut=   124.00 Ry     beta= 0.70
     Davidson diagonalization with overlap
     ethr =  4.02E-05,  avg # of iterations =  5.4

     negative rho (up, down):  8.239E-04 0.000E+00

     total cpu time spent up to now is      193.8 secs

     total energy              =    -448.58511348 Ry
     estimated scf accuracy    <       0.38442485 Ry

     iteration # 14     ecut=   124.00 Ry     beta= 0.70
     Davidson diagonalization with overlap
     ethr =  4.02E-05,  avg # of iterations =  1.3

     negative rho (up, down):  9.145E-04 0.000E+00

     total cpu time spent up to now is      195.4 secs

     total energy              =    -448.56860883 Ry
     estimated scf accuracy    <       0.26354050 Ry

     iteration # 15     ecut=   124.00 Ry     beta= 0.70
     Davidson diagonalization with overlap
     ethr =  4.02E-05,  avg # of iterations =  2.7

     negative rho (up, down):  9.004E-04 0.000E+00

     total cpu time spent up to now is      197.2 secs

     total energy              =    -448.57106265 Ry
     estimated scf accuracy    <       0.08555032 Ry

     iteration # 16     ecut=   124.00 Ry     beta= 0.70
     Davidson diagonalization with overlap
     ethr =  4.02E-05,  avg # of iterations =  1.0

     negative rho (up, down):  8.795E-04 0.000E+00

     total cpu time spent up to now is      198.7 secs

     total energy              =    -448.57092825 Ry
     estimated scf accuracy    <       0.06067175 Ry

     iteration # 17     ecut=   124.00 Ry     beta= 0.70
     Davidson diagonalization with overlap
     ethr =  4.02E-05,  avg # of iterations =  1.0

     negative rho (up, down):  8.954E-04 0.000E+00

     total cpu time spent up to now is      200.3 secs

     total energy              =    -448.56753172 Ry
     estimated scf accuracy    <       0.04797353 Ry

     iteration # 18     ecut=   124.00 Ry     beta= 0.70
     Davidson diagonalization with overlap
     ethr =  4.02E-05,  avg # of iterations =  1.5

     negative rho (up, down):  9.130E-04 0.000E+00

     total cpu time spent up to now is      201.9 secs

     total energy              =    -448.56755236 Ry
     estimated scf accuracy    <       0.01632906 Ry

     iteration # 19     ecut=   124.00 Ry     beta= 0.70
     Davidson diagonalization with overlap
     ethr =  4.02E-05,  avg # of iterations =  1.0

     negative rho (up, down):  9.679E-04 0.000E+00

     total cpu time spent up to now is      203.5 secs

     total energy              =    -448.56598433 Ry
     estimated scf accuracy    <       0.00999290 Ry

     iteration # 20     ecut=   124.00 Ry     beta= 0.70
     Davidson diagonalization with overlap
     ethr =  3.57E-05,  avg # of iterations =  2.0

     negative rho (up, down):  9.702E-04 0.000E+00

     total cpu time spent up to now is      205.1 secs

     total energy              =    -448.56678251 Ry
     estimated scf accuracy    <       0.00002368 Ry

     iteration # 21     ecut=   124.00 Ry     beta= 0.70
     Davidson diagonalization with overlap
     ethr =  8.46E-08,  avg # of iterations =  6.3

     negative rho (up, down):  9.626E-04 0.000E+00

     total cpu time spent up to now is      207.9 secs

     total energy              =    -448.56689228 Ry
     estimated scf accuracy    <       0.00019640 Ry

     iteration # 22     ecut=   124.00 Ry     beta= 0.70
     Davidson diagonalization with overlap
     ethr =  8.46E-08,  avg # of iterations =  3.9

     negative rho (up, down):  9.599E-04 0.000E+00

     total cpu time spent up to now is      209.9 secs

     total energy              =    -448.56690207 Ry
     estimated scf accuracy    <       0.00001040 Ry

     iteration # 23     ecut=   124.00 Ry     beta= 0.70
     Davidson diagonalization with overlap
     ethr =  3.71E-08,  avg # of iterations =  3.1

     negative rho (up, down):  9.601E-04 0.000E+00

     total cpu time spent up to now is      211.7 secs

     total energy              =    -448.56690376 Ry
     estimated scf accuracy    <       0.00000374 Ry

     iteration # 24     ecut=   124.00 Ry     beta= 0.70
     Davidson diagonalization with overlap
     ethr =  1.33E-08,  avg # of iterations =  1.1

     negative rho (up, down):  9.604E-04 0.000E+00

     total cpu time spent up to now is      213.3 secs

     total energy              =    -448.56690374 Ry
     estimated scf accuracy    <       0.00000132 Ry

     iteration # 25     ecut=   124.00 Ry     beta= 0.70
     Davidson diagonalization with overlap
     ethr =  4.70E-09,  avg # of iterations =  1.6

     negative rho (up, down):  9.605E-04 0.000E+00

     total cpu time spent up to now is      214.9 secs

     total energy              =    -448.56690378 Ry
     estimated scf accuracy    <       0.00000016 Ry

     iteration # 26     ecut=   124.00 Ry     beta= 0.70
     Davidson diagonalization with overlap
     ethr =  5.75E-10,  avg # of iterations =  2.6

     negative rho (up, down):  9.605E-04 0.000E+00

     total cpu time spent up to now is      216.7 secs

     total energy              =    -448.56690380 Ry
     estimated scf accuracy    <          5.7E-09 Ry

     iteration # 27     ecut=   124.00 Ry     beta= 0.70
     Davidson diagonalization with overlap
     ethr =  2.04E-11,  avg # of iterations =  4.6

     negative rho (up, down):  9.605E-04 0.000E+00

     total cpu time spent up to now is      218.9 secs

     End of self-consistent calculation

     Number of k-points >= 100: set verbosity='high' to print the bands.

     the Fermi energy is    20.0671 ev

!    total energy              =    -448.56690380 Ry
     estimated scf accuracy    <          8.9E-11 Ry
     smearing contrib. (-TS)   =       0.00002682 Ry
     internal energy E=F+TS    =    -448.56693062 Ry

     The total energy is F=E-TS. E is the sum of the following terms:
     one-electron contribution =    -136.42885029 Ry
     hartree contribution      =      86.67463442 Ry
     xc contribution           =     -53.09800311 Ry
     ewald contribution        =    -269.55856457 Ry
     one-center paw contrib.   =     -76.15614707 Ry

     convergence has been achieved in  27 iterations

     negative rho (up, down):  9.605E-04 0.000E+00

     Forces acting on atoms (cartesian axes, Ry/au):

     atom    1 type  1   force =     0.00000000    0.00000000    0.00000000
     atom    2 type  2   force =     0.00000000    0.00000000    0.00000000

     Total force =     0.000000     Total SCF correction =     0.000000


     Computing stress (Cartesian axis) and pressure


     negative rho (up, down):  9.605E-04 0.000E+00
          total   stress  (Ry/bohr**3)                   (kbar)     P=      315.48
   0.00214456   0.00000000   0.00000000          315.48        0.00        0.00
   0.00000000   0.00214456   0.00000000            0.00      315.48        0.00
   0.00000000   0.00000000   0.00214456            0.00        0.00      315.48


     Writing all to output data dir ./TiFe.save/ :
     XML data file, charge density, pseudopotentials, collected wavefunctions

     init_run     :      3.07s CPU      3.19s WALL (       2 calls)
     electrons    :    192.21s CPU    203.07s WALL (       6 calls)
     update_pot   :      0.38s CPU      0.41s WALL (       4 calls)
     forces       :      1.89s CPU      2.09s WALL (       6 calls)
     stress       :     10.29s CPU     10.72s WALL (       6 calls)

     Called by init_run:
     wfcinit      :      1.30s CPU      1.34s WALL (       2 calls)
     potinit      :      0.47s CPU      0.49s WALL (       2 calls)
     hinit0       :      0.93s CPU      0.95s WALL (       2 calls)

     Called by electrons:
     c_bands      :    139.59s CPU    143.40s WALL (      96 calls)
     sum_band     :     32.26s CPU     36.58s WALL (      96 calls)
     v_of_rho     :      2.42s CPU      2.60s WALL (     100 calls)
     newd         :     12.93s CPU     15.42s WALL (     100 calls)
     PAW_pot      :      5.98s CPU      6.08s WALL (     104 calls)
     mix_rho      :      0.25s CPU      0.28s WALL (      96 calls)

     Called by c_bands:
     init_us_2    :      3.97s CPU      4.13s WALL (   25200 calls)
     cegterg      :    132.95s CPU    136.39s WALL (   11520 calls)

     Called by *egterg:
     cdiaghg      :     17.56s CPU     17.96s WALL (   47849 calls)
     h_psi        :     99.00s CPU    101.70s WALL (   48809 calls)
     s_psi        :      2.66s CPU      2.74s WALL (   48809 calls)
     g_psi        :      0.67s CPU      0.68s WALL (   37049 calls)

     Called by h_psi:
     h_psi:calbec :      3.88s CPU      4.00s WALL (   48809 calls)
     vloc_psi     :     91.72s CPU     94.22s WALL (   48809 calls)
     add_vuspsi   :      2.79s CPU      2.87s WALL (   48809 calls)

     General routines
     calbec       :      6.22s CPU      6.40s WALL (   73049 calls)
     fft          :      1.89s CPU      2.10s WALL (    1444 calls)
     ffts         :      0.30s CPU      0.31s WALL (     196 calls)
     fftw         :     77.43s CPU     79.47s WALL ( 1350770 calls)
     interpolate  :      0.40s CPU      0.42s WALL (     100 calls)

     Parallel routines

     PWSCF        :    209.20s CPU    221.26s WALL


   This run was terminated on:  17:53:26  27Oct2025            

=------------------------------------------------------------------------------=
   JOB DONE.
=------------------------------------------------------------------------------=
