
     Program PWSCF v.7.4 starts on 27Oct2025 at 17:42:18 

     This program is part of the open-source Quantum ESPRESSO suite
     for quantum simulation of materials; please cite
         "P. Giannozzi et al., J. Phys.:Condens. Matter 21 395502 (2009);
         "P. Giannozzi et al., J. Phys.:Condens. Matter 29 465901 (2017);
         "P. Giannozzi et al., J. Chem. Phys. 152 154105 (2020);
          URL http://www.quantum-espresso.org", 
     in publications or presentations arising from this work. More details at
     http://www.quantum-espresso.org/quote

     Parallel version (MPI & OpenMP), running on       8 processor cores
     Number of MPI processes:                 8
     Threads/MPI process:                     1

     MPI processes distributed on     1 nodes
     199988 MiB available memory on the printing compute node when the environment starts

     Reading input from TiFe_relaxed8.in

     Current dimensions of program PWSCF are:
     Max number of different atomic species (ntypx) = 10
     Max number of k-points (npk) =  40000
     Max angular momentum in pseudopotentials (lmaxx) =  4
     file Fe.pbe-spn-kjpaw_psl.0.2.1.UPF: wavefunction(s)  3D renormalized

     IMPORTANT: XC functional enforced from input :
     Exchange-correlation= PBE
                           (   1   4   3   4   0   0   0)
     Any further DFT definition will be discarded
     Please, verify this is what you really want

     Message from routine setup:
     using ibrav=0 with symmetry is DISCOURAGED, use correct ibrav instead

     R & G space division:  proc/nbgrp/npool/nimage =       8
     Subspace diagonalization in iterative solution of the eigenvalue problem:
     a serial algorithm will be used


     Parallelization info
     --------------------
     sticks:   dense  smooth     PW     G-vecs:    dense   smooth      PW
     Min         532     151     44                26154     3989     629
     Max         533     152     46                26155     3993     632
     Sum        4257    1209    357               209233    31919    5041

     Using Slab Decomposition



     bravais-lattice index     =            0
     lattice parameter (alat)  =       5.5533  a.u.
     unit-cell volume          =     171.2590 (a.u.)^3
     number of atoms/cell      =            2
     number of atomic types    =            2
     number of electrons       =        28.00
     number of Kohn-Sham states=           18
     kinetic-energy cutoff     =     124.0000  Ry
     charge density cutoff     =    1736.0000  Ry
     scf convergence threshold =      1.0E-08
     mixing beta               =       0.7000
     number of iterations used =            8  plain     mixing
     energy convergence thresh.=      1.0E-04
     force convergence thresh. =      1.0E-03
     press convergence thresh. =      5.0E-01
     Exchange-correlation= PBE
                           (   1   4   3   4   0   0   0)
     nstep                     =           50


     celldm(1)=   5.553300  celldm(2)=   0.000000  celldm(3)=   0.000000
     celldm(4)=   0.000000  celldm(5)=   0.000000  celldm(6)=   0.000000

     crystal axes: (cart. coord. in units of alat)
               a(1) = (   1.000000   0.000000   0.000000 )  
               a(2) = (   0.000000   1.000000   0.000000 )  
               a(3) = (   0.000000   0.000000   1.000000 )  

     reciprocal axes: (cart. coord. in units 2 pi/alat)
               b(1) = (  1.000000  0.000000  0.000000 )  
               b(2) = (  0.000000  1.000000  0.000000 )  
               b(3) = (  0.000000  0.000000  1.000000 )  


     PseudoPot. # 1 for Fe read from file:
     ../../pseudos/Fe.pbe-spn-kjpaw_psl.0.2.1.UPF
     MD5 check sum: e86618425769142926afa95317d90200
     Pseudo is Projector augmented-wave + core cor, Zval = 16.0
     Generated using "atomic" code by A. Dal Corso  v.5.0.99 svn rev. 10869
     Shape of augmentation charge: PSQ
     Using radial grid of 1191 points,  6 beta functions with: 
                l(1) =   0
                l(2) =   0
                l(3) =   1
                l(4) =   1
                l(5) =   2
                l(6) =   2
     Q(r) pseudized with 0 coefficients 


     PseudoPot. # 2 for Ti read from file:
     ../../pseudos/ti_pbe_v1.4.uspp.F.UPF
     MD5 check sum: 88a00a6731bd790ddea75d31a80cb452
     Pseudo is Ultrasoft + core correction, Zval = 12.0
     Generated by new atomic code, or converted to UPF format
     Using radial grid of  851 points,  6 beta functions with: 
                l(1) =   0
                l(2) =   0
                l(3) =   1
                l(4) =   1
                l(5) =   2
                l(6) =   2
     Q(r) pseudized with  6 coefficients,  rinner =    1.000   1.000   1.000
                                                       1.000   1.000

     atomic species   valence    mass     pseudopotential
     Fe               16.00    55.84500     Fe( 1.00)
     Ti               12.00    47.86700     Ti( 1.00)

     48 Sym. Ops., with inversion, found



   Cartesian axes

     site n.     atom                  positions (alat units)
         1        Fe     tau(   1) = (   0.5000000   0.5000000   0.5000000  )
         2        Ti     tau(   2) = (   0.0000000   0.0000000   0.0000000  )

     number of k points=   120  Marzari-Vanderbilt smearing, width (Ry)=  0.0050

     Number of k-points >= 100: set verbosity='high' to print them.

     Dense  grid:   209233 G-vectors     FFT dimensions: (  75,  75,  75)

     Smooth grid:    31919 G-vectors     FFT dimensions: (  40,  40,  40)

     Estimated max dynamical RAM per process >     125.80 MB

     Estimated total dynamical RAM >    1006.42 MB

     Check: negative core charge=   -0.000002

     Initial potential from superposition of free atoms

     starting charge      26.9995, renormalised to      28.0000

     negative rho (up, down):  1.347E-03 0.000E+00
     Starting wfcs are   23 randomized atomic wfcs
     Checking if some PAW data can be deallocated... 

     total cpu time spent up to now is        1.9 secs

     per-process dynamical memory:   151.6 Mb

     Self-consistent Calculation

     iteration #  1     ecut=   124.00 Ry     beta= 0.70
     Davidson diagonalization with overlap
     ethr =  1.00E-02,  avg # of iterations =  2.1

     negative rho (up, down):  8.075E-05 0.000E+00

     total cpu time spent up to now is        3.9 secs

     total energy              =    -434.88034974 Ry
     estimated scf accuracy    <      17.47740323 Ry

     iteration #  2     ecut=   124.00 Ry     beta= 0.70
     Davidson diagonalization with overlap
     ethr =  1.00E-02,  avg # of iterations =  6.1

     negative rho (up, down):  2.388E-05 0.000E+00

     total cpu time spent up to now is        7.2 secs

     total energy              =    -448.51195570 Ry
     estimated scf accuracy    <      66.14338935 Ry

     iteration #  3     ecut=   124.00 Ry     beta= 0.70
     Davidson diagonalization with overlap
     ethr =  1.00E-02,  avg # of iterations =  3.1

     negative rho (up, down):  2.384E-04 0.000E+00

     total cpu time spent up to now is        9.6 secs

     total energy              =    -448.59876074 Ry
     estimated scf accuracy    <      16.77187988 Ry

     iteration #  4     ecut=   124.00 Ry     beta= 0.70
     Davidson diagonalization with overlap
     ethr =  1.00E-02,  avg # of iterations =  2.1

     negative rho (up, down):  2.771E-04 0.000E+00

     total cpu time spent up to now is       11.6 secs

     total energy              =    -449.11451992 Ry
     estimated scf accuracy    <       4.73362336 Ry

     iteration #  5     ecut=   124.00 Ry     beta= 0.70
     Davidson diagonalization with overlap
     ethr =  1.00E-02,  avg # of iterations =  1.0

     negative rho (up, down):  3.233E-04 0.000E+00

     total cpu time spent up to now is       13.3 secs

     total energy              =    -449.12131532 Ry
     estimated scf accuracy    <       4.31212425 Ry

     iteration #  6     ecut=   124.00 Ry     beta= 0.70
     Davidson diagonalization with overlap
     ethr =  1.00E-02,  avg # of iterations =  1.0

     negative rho (up, down):  1.107E-03 0.000E+00

     total cpu time spent up to now is       14.9 secs

     total energy              =    -447.89389661 Ry
     estimated scf accuracy    <       4.51968901 Ry

     iteration #  7     ecut=   124.00 Ry     beta= 0.70
     Davidson diagonalization with overlap
     ethr =  1.00E-02,  avg # of iterations =  3.4

     negative rho (up, down):  1.008E-03 0.000E+00

     total cpu time spent up to now is       17.0 secs

     total energy              =    -448.58423346 Ry
     estimated scf accuracy    <       3.81978614 Ry

     iteration #  8     ecut=   124.00 Ry     beta= 0.70
     Davidson diagonalization with overlap
     ethr =  1.00E-02,  avg # of iterations =  1.0

     negative rho (up, down):  8.248E-04 0.000E+00

     total cpu time spent up to now is       18.6 secs

     total energy              =    -448.46846099 Ry
     estimated scf accuracy    <       1.21375717 Ry

     iteration #  9     ecut=   124.00 Ry     beta= 0.70
     Davidson diagonalization with overlap
     ethr =  4.33E-03,  avg # of iterations =  1.7

     negative rho (up, down):  8.317E-04 0.000E+00

     total cpu time spent up to now is       20.4 secs

     total energy              =    -448.59501092 Ry
     estimated scf accuracy    <       0.12585284 Ry

     iteration # 10     ecut=   124.00 Ry     beta= 0.70
     Davidson diagonalization with overlap
     ethr =  4.49E-04,  avg # of iterations =  2.3

     negative rho (up, down):  8.588E-04 0.000E+00

     total cpu time spent up to now is       22.2 secs

     total energy              =    -448.59602789 Ry
     estimated scf accuracy    <       0.14907511 Ry

     iteration # 11     ecut=   124.00 Ry     beta= 0.70
     Davidson diagonalization with overlap
     ethr =  4.49E-04,  avg # of iterations =  1.1

     negative rho (up, down):  1.121E-03 0.000E+00

     total cpu time spent up to now is       23.9 secs

     total energy              =    -448.56917534 Ry
     estimated scf accuracy    <       0.14868094 Ry

     iteration # 12     ecut=   124.00 Ry     beta= 0.70
     Davidson diagonalization with overlap
     ethr =  4.49E-04,  avg # of iterations =  4.3

     negative rho (up, down):  1.213E-03 0.000E+00

     total cpu time spent up to now is       26.2 secs

     total energy              =    -448.65391027 Ry
     estimated scf accuracy    <       0.18318037 Ry

     iteration # 13     ecut=   124.00 Ry     beta= 0.70
     Davidson diagonalization with overlap
     ethr =  4.49E-04,  avg # of iterations =  1.9

     negative rho (up, down):  2.114E-03 0.000E+00

     total cpu time spent up to now is       28.0 secs

     total energy              =    -449.03322661 Ry
     estimated scf accuracy    <       0.44442169 Ry

     iteration # 14     ecut=   124.00 Ry     beta= 0.70
     Davidson diagonalization with overlap
     ethr =  4.49E-04,  avg # of iterations =  6.2

     negative rho (up, down):  1.459E-03 0.000E+00

     total cpu time spent up to now is       31.0 secs

     total energy              =    -448.51932689 Ry
     estimated scf accuracy    <      26.98882271 Ry

     iteration # 15     ecut=   124.00 Ry     beta= 0.70
     Davidson diagonalization with overlap
     ethr =  4.49E-04,  avg # of iterations =  4.8

     negative rho (up, down):  1.137E-03 0.000E+00

     total cpu time spent up to now is       33.5 secs

     total energy              =    -448.49454822 Ry
     estimated scf accuracy    <       4.43870842 Ry

     iteration # 16     ecut=   124.00 Ry     beta= 0.70
     Davidson diagonalization with overlap
     ethr =  4.49E-04,  avg # of iterations =  4.3

     negative rho (up, down):  1.088E-03 0.000E+00

     total cpu time spent up to now is       35.9 secs

     total energy              =    -448.60519511 Ry
     estimated scf accuracy    <       0.36277654 Ry

     iteration # 17     ecut=   124.00 Ry     beta= 0.70
     Davidson diagonalization with overlap
     ethr =  4.49E-04,  avg # of iterations =  2.0

     negative rho (up, down):  1.022E-03 0.000E+00

     total cpu time spent up to now is       37.7 secs

     total energy              =    -448.58523807 Ry
     estimated scf accuracy    <       0.39566393 Ry

     iteration # 18     ecut=   124.00 Ry     beta= 0.70
     Davidson diagonalization with overlap
     ethr =  4.49E-04,  avg # of iterations =  1.2

     negative rho (up, down):  9.735E-04 0.000E+00

     total cpu time spent up to now is       39.4 secs

     total energy              =    -448.57914660 Ry
     estimated scf accuracy    <       0.10585197 Ry

     iteration # 19     ecut=   124.00 Ry     beta= 0.70
     Davidson diagonalization with overlap
     ethr =  3.78E-04,  avg # of iterations =  1.8

     negative rho (up, down):  9.827E-04 0.000E+00

     total cpu time spent up to now is       41.2 secs

     total energy              =    -448.58492275 Ry
     estimated scf accuracy    <       0.01167453 Ry

     iteration # 20     ecut=   124.00 Ry     beta= 0.70
     Davidson diagonalization with overlap
     ethr =  4.17E-05,  avg # of iterations =  4.3

     negative rho (up, down):  9.840E-04 0.000E+00

     total cpu time spent up to now is       43.3 secs

     total energy              =    -448.58662258 Ry
     estimated scf accuracy    <       0.00743011 Ry

     iteration # 21     ecut=   124.00 Ry     beta= 0.70
     Davidson diagonalization with overlap
     ethr =  2.65E-05,  avg # of iterations =  1.2

     negative rho (up, down):  9.783E-04 0.000E+00

     total cpu time spent up to now is       45.0 secs

     total energy              =    -448.58668664 Ry
     estimated scf accuracy    <       0.00779712 Ry

     iteration # 22     ecut=   124.00 Ry     beta= 0.70
     Davidson diagonalization with overlap
     ethr =  2.65E-05,  avg # of iterations =  1.0

     negative rho (up, down):  1.037E-03 0.000E+00

     total cpu time spent up to now is       46.7 secs

     total energy              =    -448.58737857 Ry
     estimated scf accuracy    <       0.00638001 Ry

     iteration # 23     ecut=   124.00 Ry     beta= 0.70
     Davidson diagonalization with overlap
     ethr =  2.28E-05,  avg # of iterations =  1.0

     negative rho (up, down):  1.004E-03 0.000E+00

     total cpu time spent up to now is       48.4 secs

     total energy              =    -448.58667571 Ry
     estimated scf accuracy    <       0.01401583 Ry

     iteration # 24     ecut=   124.00 Ry     beta= 0.70
     Davidson diagonalization with overlap
     ethr =  2.28E-05,  avg # of iterations =  1.0

     negative rho (up, down):  9.887E-04 0.000E+00

     total cpu time spent up to now is       50.1 secs

     total energy              =    -448.58663217 Ry
     estimated scf accuracy    <       0.00473461 Ry

     iteration # 25     ecut=   124.00 Ry     beta= 0.70
     Davidson diagonalization with overlap
     ethr =  1.69E-05,  avg # of iterations =  1.0

     negative rho (up, down):  9.662E-04 0.000E+00

     total cpu time spent up to now is       51.8 secs

     total energy              =    -448.58651421 Ry
     estimated scf accuracy    <       0.00172769 Ry

     iteration # 26     ecut=   124.00 Ry     beta= 0.70
     Davidson diagonalization with overlap
     ethr =  6.17E-06,  avg # of iterations =  1.7

     negative rho (up, down):  9.659E-04 0.000E+00

     total cpu time spent up to now is       53.5 secs

     total energy              =    -448.58655054 Ry
     estimated scf accuracy    <       0.00047004 Ry

     iteration # 27     ecut=   124.00 Ry     beta= 0.70
     Davidson diagonalization with overlap
     ethr =  1.68E-06,  avg # of iterations =  2.3

     negative rho (up, down):  9.621E-04 0.000E+00

     total cpu time spent up to now is       55.3 secs

     total energy              =    -448.58654470 Ry
     estimated scf accuracy    <       0.00023845 Ry

     iteration # 28     ecut=   124.00 Ry     beta= 0.70
     Davidson diagonalization with overlap
     ethr =  8.52E-07,  avg # of iterations =  1.7

     negative rho (up, down):  9.604E-04 0.000E+00

     total cpu time spent up to now is       57.1 secs

     total energy              =    -448.58653701 Ry
     estimated scf accuracy    <       0.00010746 Ry

     iteration # 29     ecut=   124.00 Ry     beta= 0.70
     Davidson diagonalization with overlap
     ethr =  3.84E-07,  avg # of iterations =  2.4

     negative rho (up, down):  9.615E-04 0.000E+00

     total cpu time spent up to now is       58.9 secs

     total energy              =    -448.58653629 Ry
     estimated scf accuracy    <       0.00003417 Ry

     iteration # 30     ecut=   124.00 Ry     beta= 0.70
     Davidson diagonalization with overlap
     ethr =  1.22E-07,  avg # of iterations =  3.3

     negative rho (up, down):  9.610E-04 0.000E+00

     total cpu time spent up to now is       60.9 secs

     total energy              =    -448.58654028 Ry
     estimated scf accuracy    <       0.00000540 Ry

     iteration # 31     ecut=   124.00 Ry     beta= 0.70
     Davidson diagonalization with overlap
     ethr =  1.93E-08,  avg # of iterations =  4.0

     negative rho (up, down):  9.613E-04 0.000E+00

     total cpu time spent up to now is       63.0 secs

     total energy              =    -448.58654137 Ry
     estimated scf accuracy    <       0.00000083 Ry

     iteration # 32     ecut=   124.00 Ry     beta= 0.70
     Davidson diagonalization with overlap
     ethr =  2.95E-09,  avg # of iterations =  3.0

     negative rho (up, down):  9.613E-04 0.000E+00

     total cpu time spent up to now is       65.0 secs

     total energy              =    -448.58654147 Ry
     estimated scf accuracy    <       0.00000005 Ry

     iteration # 33     ecut=   124.00 Ry     beta= 0.70
     Davidson diagonalization with overlap
     ethr =  1.74E-10,  avg # of iterations =  4.5

     negative rho (up, down):  9.615E-04 0.000E+00

     total cpu time spent up to now is       67.3 secs

     End of self-consistent calculation

     Number of k-points >= 100: set verbosity='high' to print the bands.

     the Fermi energy is    17.7222 ev

!    total energy              =    -448.58654149 Ry
     estimated scf accuracy    <          4.8E-09 Ry
     smearing contrib. (-TS)   =      -0.00001774 Ry
     internal energy E=F+TS    =    -448.58652375 Ry

     The total energy is F=E-TS. E is the sum of the following terms:
     one-electron contribution =    -151.35065372 Ry
     hartree contribution      =      91.62732609 Ry
     xc contribution           =     -52.88875636 Ry
     ewald contribution        =    -259.82070277 Ry
     one-center paw contrib.   =     -76.15373699 Ry

     convergence has been achieved in  33 iterations

     negative rho (up, down):  9.615E-04 0.000E+00

     Forces acting on atoms (cartesian axes, Ry/au):

     atom    1 type  1   force =     0.00000000    0.00000000    0.00000000
     atom    2 type  2   force =     0.00000000    0.00000000    0.00000000

     Total force =     0.000000     Total SCF correction =     0.000000


     Computing stress (Cartesian axis) and pressure


     negative rho (up, down):  9.615E-04 0.000E+00
          total   stress  (Ry/bohr**3)                   (kbar)     P=       29.45
   0.00020020   0.00000000   0.00000000           29.45        0.00        0.00
   0.00000000   0.00020020   0.00000000            0.00       29.45        0.00
   0.00000000   0.00000000   0.00020020            0.00        0.00       29.45


     BFGS Geometry Optimization
     Energy error            =      2.4E-02 Ry
     Gradient error          =      0.0E+00 Ry/Bohr
     Cell gradient error     =      2.0E+02 kbar

     number of scf cycles    =   1
     number of bfgs steps    =   0

     enthalpy           new  =    -448.3239149216 Ry

     new trust radius        =       0.0872423845 bohr
     new conv_thr            =       0.0000000100 Ry

     new unit-cell volume =    154.69795 a.u.^3 (    22.92387 Ang^3 )
     density =      7.51260 g/cm^3

CELL_PARAMETERS (alat=  5.55330037)
   0.966667278   0.000000000   0.000000000
   0.000000000   0.966667278   0.000000000
   0.000000000   0.000000000   0.966667278

ATOMIC_POSITIONS (crystal)
Fe               0.5000000000        0.5000000000        0.5000000000
Ti               0.0000000000        0.0000000000        0.0000000000



     Writing config-only to output data dir ./TiFe.save/ :
     XML data file
     NEW-OLD atomic charge density approx. for the potential
     New effective cutoffs (rho, wfc): 1857.65  132.70

     Check: negative core charge=   -0.000002

     negative rho (up, down):  8.876E-04 0.000E+00

     total cpu time spent up to now is       69.9 secs

     per-process dynamical memory:   162.0 Mb

     Self-consistent Calculation

     iteration #  1     ecut=   124.00 Ry     beta= 0.70
     Davidson diagonalization with overlap
     ethr =  1.00E-06,  avg # of iterations =  9.4

     negative rho (up, down):  9.206E-04 0.000E+00

     total cpu time spent up to now is       74.2 secs

     total energy              =    -448.56886892 Ry
     estimated scf accuracy    <       0.00133920 Ry

     iteration #  2     ecut=   124.00 Ry     beta= 0.70
     Davidson diagonalization with overlap
     ethr =  4.78E-06,  avg # of iterations =  4.3

     negative rho (up, down):  9.361E-04 0.000E+00

     total cpu time spent up to now is       76.7 secs

     total energy              =    -448.56442684 Ry
     estimated scf accuracy    <       0.06928920 Ry

     iteration #  3     ecut=   124.00 Ry     beta= 0.70
     Davidson diagonalization with overlap
     ethr =  4.78E-06,  avg # of iterations =  4.4

     negative rho (up, down):  9.293E-04 0.000E+00

     total cpu time spent up to now is       79.0 secs

     total energy              =    -448.56966638 Ry
     estimated scf accuracy    <       0.00169691 Ry

     iteration #  4     ecut=   124.00 Ry     beta= 0.70
     Davidson diagonalization with overlap
     ethr =  4.78E-06,  avg # of iterations =  1.1

     negative rho (up, down):  9.353E-04 0.000E+00

     total cpu time spent up to now is       80.7 secs

     total energy              =    -448.56978169 Ry
     estimated scf accuracy    <       0.00017686 Ry

     iteration #  5     ecut=   124.00 Ry     beta= 0.70
     Davidson diagonalization with overlap
     ethr =  6.32E-07,  avg # of iterations =  3.4

     negative rho (up, down):  9.359E-04 0.000E+00

     total cpu time spent up to now is       82.6 secs

     total energy              =    -448.56980581 Ry
     estimated scf accuracy    <       0.00001128 Ry

     iteration #  6     ecut=   124.00 Ry     beta= 0.70
     Davidson diagonalization with overlap
     ethr =  4.03E-08,  avg # of iterations =  4.5

     negative rho (up, down):  9.361E-04 0.000E+00

     total cpu time spent up to now is       84.8 secs

     total energy              =    -448.56980832 Ry
     estimated scf accuracy    <       0.00000107 Ry

     iteration #  7     ecut=   124.00 Ry     beta= 0.70
     Davidson diagonalization with overlap
     ethr =  3.84E-09,  avg # of iterations =  4.1

     negative rho (up, down):  9.365E-04 0.000E+00

     total cpu time spent up to now is       86.9 secs

     total energy              =    -448.56980860 Ry
     estimated scf accuracy    <       0.00000046 Ry

     iteration #  8     ecut=   124.00 Ry     beta= 0.70
     Davidson diagonalization with overlap
     ethr =  1.63E-09,  avg # of iterations =  2.0

     negative rho (up, down):  9.366E-04 0.000E+00

     total cpu time spent up to now is       88.8 secs

     total energy              =    -448.56980868 Ry
     estimated scf accuracy    <       0.00000012 Ry

     iteration #  9     ecut=   124.00 Ry     beta= 0.70
     Davidson diagonalization with overlap
     ethr =  4.41E-10,  avg # of iterations =  1.8

     negative rho (up, down):  9.366E-04 0.000E+00

     total cpu time spent up to now is       90.6 secs

     total energy              =    -448.56980867 Ry
     estimated scf accuracy    <       0.00000004 Ry

     iteration # 10     ecut=   124.00 Ry     beta= 0.70
     Davidson diagonalization with overlap
     ethr =  1.55E-10,  avg # of iterations =  3.5

     negative rho (up, down):  9.366E-04 0.000E+00

     total cpu time spent up to now is       92.6 secs

     End of self-consistent calculation

     Number of k-points >= 100: set verbosity='high' to print the bands.

     the Fermi energy is    19.8761 ev

!    total energy              =    -448.56980868 Ry
     estimated scf accuracy    <          2.1E-09 Ry
     smearing contrib. (-TS)   =       0.00002392 Ry
     internal energy E=F+TS    =    -448.56983260 Ry

     The total energy is F=E-TS. E is the sum of the following terms:
     one-electron contribution =    -137.61602007 Ry
     hartree contribution      =      87.06269955 Ry
     xc contribution           =     -53.08067196 Ry
     ewald contribution        =    -268.77986746 Ry
     one-center paw contrib.   =     -76.15597265 Ry

     convergence has been achieved in  10 iterations

     negative rho (up, down):  9.366E-04 0.000E+00

     Forces acting on atoms (cartesian axes, Ry/au):

     atom    1 type  1   force =     0.00000000    0.00000000    0.00000000
     atom    2 type  2   force =     0.00000000    0.00000000    0.00000000

     Total force =     0.000000     Total SCF correction =     0.000000


     Computing stress (Cartesian axis) and pressure


     negative rho (up, down):  9.366E-04 0.000E+00
          total   stress  (Ry/bohr**3)                   (kbar)     P=      289.35
   0.00196693   0.00000000   0.00000000          289.35        0.00        0.00
   0.00000000   0.00196693   0.00000000            0.00      289.35        0.00
   0.00000000   0.00000000   0.00196693            0.00        0.00      289.35

     Energy error            =      8.7E-03 Ry
     Gradient error          =      0.0E+00 Ry/Bohr
     Cell gradient error     =      6.4E+01 kbar

     number of scf cycles    =   2
     number of bfgs steps    =   1

     enthalpy           old  =    -448.3239149216 Ry
     enthalpy           new  =    -448.3325786223 Ry

     CASE: enthalpy          _new < enthalpy          _old

     new trust radius        =       0.0199850836 bohr
     new conv_thr            =            1.0E-10 Ry

     new unit-cell volume =    158.45653 a.u.^3 (    23.48083 Ang^3 )
     density =      7.33440 g/cm^3

CELL_PARAMETERS (alat=  5.55330037)
   0.974433516   0.000000000   0.000000000
   0.000000000   0.974433516   0.000000000
   0.000000000   0.000000000   0.974433516

ATOMIC_POSITIONS (crystal)
Fe               0.5000000000        0.5000000000        0.5000000000
Ti               0.0000000000        0.0000000000        0.0000000000



     Writing config-only to output data dir ./TiFe.save/ :
     XML data file
     NEW-OLD atomic charge density approx. for the potential
     New effective cutoffs (rho, wfc): 1828.15  130.59

     Check: negative core charge=   -0.000002

     negative rho (up, down):  9.620E-04 0.000E+00

     total cpu time spent up to now is       95.2 secs

     per-process dynamical memory:   162.2 Mb

     Self-consistent Calculation

     iteration #  1     ecut=   124.00 Ry     beta= 0.70
     Davidson diagonalization with overlap
     ethr =  1.00E-06,  avg # of iterations =  7.0

     negative rho (up, down):  9.461E-04 0.000E+00

     total cpu time spent up to now is       98.6 secs

     total energy              =    -448.57578368 Ry
     estimated scf accuracy    <       0.00020481 Ry

     iteration #  2     ecut=   124.00 Ry     beta= 0.70
     Davidson diagonalization with overlap
     ethr =  7.31E-07,  avg # of iterations =  4.2

     negative rho (up, down):  9.384E-04 0.000E+00

     total cpu time spent up to now is      101.0 secs

     total energy              =    -448.57529214 Ry
     estimated scf accuracy    <       0.01582247 Ry

     iteration #  3     ecut=   124.00 Ry     beta= 0.70
     Davidson diagonalization with overlap
     ethr =  7.31E-07,  avg # of iterations =  4.6

     negative rho (up, down):  9.409E-04 0.000E+00

     total cpu time spent up to now is      103.4 secs

     total energy              =    -448.57626191 Ry
     estimated scf accuracy    <       0.00006232 Ry

     iteration #  4     ecut=   124.00 Ry     beta= 0.70
     Davidson diagonalization with overlap
     ethr =  2.23E-07,  avg # of iterations =  2.0

     negative rho (up, down):  9.413E-04 0.000E+00

     total cpu time spent up to now is      105.2 secs

     total energy              =    -448.57627422 Ry
     estimated scf accuracy    <       0.00000300 Ry

     iteration #  5     ecut=   124.00 Ry     beta= 0.70
     Davidson diagonalization with overlap
     ethr =  1.07E-08,  avg # of iterations =  4.8

     negative rho (up, down):  9.403E-04 0.000E+00

     total cpu time spent up to now is      107.8 secs

     total energy              =    -448.57627629 Ry
     estimated scf accuracy    <       0.00000049 Ry

     iteration #  6     ecut=   124.00 Ry     beta= 0.70
     Davidson diagonalization with overlap
     ethr =  1.75E-09,  avg # of iterations =  3.7

     negative rho (up, down):  9.403E-04 0.000E+00

     total cpu time spent up to now is      110.1 secs

     total energy              =    -448.57627648 Ry
     estimated scf accuracy    <       0.00000028 Ry

     iteration #  7     ecut=   124.00 Ry     beta= 0.70
     Davidson diagonalization with overlap
     ethr =  9.91E-10,  avg # of iterations =  1.2

     negative rho (up, down):  9.404E-04 0.000E+00

     total cpu time spent up to now is      111.8 secs

     total energy              =    -448.57627649 Ry
     estimated scf accuracy    <       0.00000001 Ry

     iteration #  8     ecut=   124.00 Ry     beta= 0.70
     Davidson diagonalization with overlap
     ethr =  4.03E-11,  avg # of iterations =  4.4

     negative rho (up, down):  9.404E-04 0.000E+00

     total cpu time spent up to now is      114.2 secs

     total energy              =    -448.57627650 Ry
     estimated scf accuracy    <          1.3E-10 Ry

     iteration #  9     ecut=   124.00 Ry     beta= 0.70
     Davidson diagonalization with overlap
     ethr =  4.68E-13,  avg # of iterations =  5.5

     negative rho (up, down):  9.404E-04 0.000E+00

     total cpu time spent up to now is      116.8 secs

     total energy              =    -448.57627650 Ry
     estimated scf accuracy    <          2.3E-10 Ry

     iteration # 10     ecut=   124.00 Ry     beta= 0.70
     Davidson diagonalization with overlap
     ethr =  4.68E-13,  avg # of iterations =  2.5

     negative rho (up, down):  9.404E-04 0.000E+00

     total cpu time spent up to now is      118.8 secs

     End of self-consistent calculation

     Number of k-points >= 100: set verbosity='high' to print the bands.

     the Fermi energy is    19.3575 ev

!    total energy              =    -448.57627650 Ry
     estimated scf accuracy    <          3.2E-12 Ry
     smearing contrib. (-TS)   =       0.00001673 Ry
     internal energy E=F+TS    =    -448.57629323 Ry

     The total energy is F=E-TS. E is the sum of the following terms:
     one-electron contribution =    -140.88648139 Ry
     hartree contribution      =      88.13642650 Ry
     xc contribution           =     -53.03310971 Ry
     ewald contribution        =    -266.63769102 Ry
     one-center paw contrib.   =     -76.15543762 Ry

     convergence has been achieved in  10 iterations

     negative rho (up, down):  9.404E-04 0.000E+00

     Forces acting on atoms (cartesian axes, Ry/au):

     atom    1 type  1   force =     0.00000000    0.00000000    0.00000000
     atom    2 type  2   force =     0.00000000    0.00000000    0.00000000

     Total force =     0.000000     Total SCF correction =     0.000000


     Computing stress (Cartesian axis) and pressure


     negative rho (up, down):  9.404E-04 0.000E+00
          total   stress  (Ry/bohr**3)                   (kbar)     P=      218.38
   0.00148450   0.00000000   0.00000000          218.38        0.00        0.00
   0.00000000   0.00148450   0.00000000            0.00      218.38        0.00
   0.00000000   0.00000000   0.00148450            0.00        0.00      218.38

     Energy error            =      7.0E-04 Ry
     Gradient error          =      0.0E+00 Ry/Bohr
     Cell gradient error     =      7.2E+00 kbar

     number of scf cycles    =   3
     number of bfgs steps    =   2

     enthalpy           old  =    -448.3325786223 Ry
     enthalpy           new  =    -448.3332826365 Ry

     CASE: enthalpy          _new < enthalpy          _old

     new trust radius        =       0.0020677304 bohr
     new conv_thr            =            1.0E-10 Ry

     new unit-cell volume =    158.06642 a.u.^3 (    23.42303 Ang^3 )
     density =      7.35250 g/cm^3

CELL_PARAMETERS (alat=  5.55330037)
   0.973633201   0.000000000   0.000000000
   0.000000000   0.973633201   0.000000000
   0.000000000   0.000000000   0.973633201

ATOMIC_POSITIONS (crystal)
Fe               0.5000000000        0.5000000000        0.5000000000
Ti               0.0000000000        0.0000000000        0.0000000000



     Writing config-only to output data dir ./TiFe.save/ :
     XML data file
     NEW-OLD atomic charge density approx. for the potential
     New effective cutoffs (rho, wfc): 1831.16  130.80

     Check: negative core charge=   -0.000002

     negative rho (up, down):  9.372E-04 0.000E+00

     total cpu time spent up to now is      121.4 secs

     per-process dynamical memory:   162.4 Mb

     Self-consistent Calculation

     iteration #  1     ecut=   124.00 Ry     beta= 0.70
     Davidson diagonalization with overlap
     ethr =  1.00E-06,  avg # of iterations =  2.0

     Threshold (ethr) on eigenvalues was too large:
     Diagonalizing with lowered threshold

     Davidson diagonalization with overlap
     ethr =  1.36E-09,  avg # of iterations =  6.4

     negative rho (up, down):  9.389E-04 0.000E+00

     total cpu time spent up to now is      126.2 secs

     total energy              =    -448.57568368 Ry
     estimated scf accuracy    <       0.00000064 Ry

     iteration #  2     ecut=   124.00 Ry     beta= 0.70
     Davidson diagonalization with overlap
     ethr =  2.27E-09,  avg # of iterations =  4.1

     negative rho (up, down):  9.394E-04 0.000E+00

     total cpu time spent up to now is      128.5 secs

     total energy              =    -448.57568529 Ry
     estimated scf accuracy    <       0.00003103 Ry

     iteration #  3     ecut=   124.00 Ry     beta= 0.70
     Davidson diagonalization with overlap
     ethr =  2.27E-09,  avg # of iterations =  4.6

     negative rho (up, down):  9.394E-04 0.000E+00

     total cpu time spent up to now is      130.7 secs

     total energy              =    -448.57568803 Ry
     estimated scf accuracy    <       0.00000107 Ry

     iteration #  4     ecut=   124.00 Ry     beta= 0.70
     Davidson diagonalization with overlap
     ethr =  2.27E-09,  avg # of iterations =  1.3

     negative rho (up, down):  9.395E-04 0.000E+00

     total cpu time spent up to now is      132.5 secs

     total energy              =    -448.57568815 Ry
     estimated scf accuracy    <       0.00000013 Ry

     iteration #  5     ecut=   124.00 Ry     beta= 0.70
     Davidson diagonalization with overlap
     ethr =  4.68E-10,  avg # of iterations =  3.4

     negative rho (up, down):  9.396E-04 0.000E+00

     total cpu time spent up to now is      134.4 secs

     total energy              =    -448.57568817 Ry
     estimated scf accuracy    <       0.00000001 Ry

     iteration #  6     ecut=   124.00 Ry     beta= 0.70
     Davidson diagonalization with overlap
     ethr =  3.61E-11,  avg # of iterations =  3.4

     negative rho (up, down):  9.396E-04 0.000E+00

     total cpu time spent up to now is      136.3 secs

     total energy              =    -448.57568817 Ry
     estimated scf accuracy    <          8.9E-10 Ry

     iteration #  7     ecut=   124.00 Ry     beta= 0.70
     Davidson diagonalization with overlap
     ethr =  3.19E-12,  avg # of iterations =  4.5

     negative rho (up, down):  9.396E-04 0.000E+00

     total cpu time spent up to now is      138.6 secs

     total energy              =    -448.57568817 Ry
     estimated scf accuracy    <          1.7E-10 Ry

     iteration #  8     ecut=   124.00 Ry     beta= 0.70
     Davidson diagonalization with overlap
     ethr =  5.98E-13,  avg # of iterations =  3.6

     negative rho (up, down):  9.396E-04 0.000E+00

     total cpu time spent up to now is      140.8 secs

     total energy              =    -448.57568817 Ry
     estimated scf accuracy    <          1.3E-09 Ry

     iteration #  9     ecut=   124.00 Ry     beta= 0.70
     Davidson diagonalization with overlap
     ethr =  5.98E-13,  avg # of iterations =  2.3

     negative rho (up, down):  9.396E-04 0.000E+00

     total cpu time spent up to now is      142.6 secs

     total energy              =    -448.57568817 Ry
     estimated scf accuracy    <          3.3E-10 Ry

     iteration # 10     ecut=   124.00 Ry     beta= 0.70
     Davidson diagonalization with overlap
     ethr =  5.98E-13,  avg # of iterations =  3.5

     negative rho (up, down):  9.396E-04 0.000E+00

     total cpu time spent up to now is      144.5 secs

     End of self-consistent calculation

     Number of k-points >= 100: set verbosity='high' to print the bands.

     the Fermi energy is    19.4102 ev

!    total energy              =    -448.57568817 Ry
     estimated scf accuracy    <          3.3E-11 Ry
     smearing contrib. (-TS)   =       0.00001711 Ry
     internal energy E=F+TS    =    -448.57570528 Ry

     The total energy is F=E-TS. E is the sum of the following terms:
     one-electron contribution =    -140.55141816 Ry
     hartree contribution      =      88.02598688 Ry
     xc contribution           =     -53.03791750 Ry
     ewald contribution        =    -266.85686410 Ry
     one-center paw contrib.   =     -76.15549240 Ry

     convergence has been achieved in  10 iterations

     negative rho (up, down):  9.396E-04 0.000E+00

     Forces acting on atoms (cartesian axes, Ry/au):

     atom    1 type  1   force =     0.00000000    0.00000000    0.00000000
     atom    2 type  2   force =     0.00000000    0.00000000    0.00000000

     Total force =     0.000000     Total SCF correction =     0.000000


     Computing stress (Cartesian axis) and pressure


     negative rho (up, down):  9.396E-04 0.000E+00
          total   stress  (Ry/bohr**3)                   (kbar)     P=      225.38
   0.00153209   0.00000000   0.00000000          225.38        0.00        0.00
   0.00000000   0.00153209   0.00000000            0.00      225.38        0.00
   0.00000000   0.00000000   0.00153209            0.00        0.00      225.38

     Energy error            =      9.9E-06 Ry
     Gradient error          =      0.0E+00 Ry/Bohr
     Cell gradient error     =      2.1E-01 kbar

     bfgs converged in   4 scf cycles and   3 bfgs steps
     (criteria: energy <  1.0E-04 Ry, force <  1.0E-03 Ry/Bohr, cell <  5.0E-01 kbar)

     End of BFGS Geometry Optimization

     Final enthalpy           =    -448.3332925399 Ry

     File ./TiFe.bfgs deleted, as requested
Begin final coordinates
     new unit-cell volume =    158.06642 a.u.^3 (    23.42303 Ang^3 )
     density =      7.35250 g/cm^3

CELL_PARAMETERS (alat=  5.55330037)
   0.973633201   0.000000000   0.000000000
   0.000000000   0.973633201   0.000000000
   0.000000000   0.000000000   0.973633201

ATOMIC_POSITIONS (crystal)
Fe               0.5000000000        0.5000000000        0.5000000000
Ti               0.0000000000        0.0000000000        0.0000000000
End final coordinates



     Writing config-only to output data dir ./TiFe.save/ :
     XML data file

     Final scf calculation at the relaxed structure.
     The G-vectors are recalculated for the final unit cell
     Results may differ from those at the preceding step.

     Parallelization info
     --------------------
     sticks:   dense  smooth     PW     G-vecs:    dense   smooth      PW
     Min         504     144     42                24101     3676     586
     Max         506     145     43                24102     3679     589
     Sum        4041    1153    341               192815    29423    4697

     Using Slab Decomposition



     bravais-lattice index     =            0
     lattice parameter (alat)  =       5.5533  a.u.
     unit-cell volume          =     158.0664 (a.u.)^3
     number of atoms/cell      =            2
     number of atomic types    =            2
     number of electrons       =        28.00
     number of Kohn-Sham states=           18
     kinetic-energy cutoff     =     124.0000  Ry
     charge density cutoff     =    1736.0000  Ry
     scf convergence threshold =      1.0E-10
     mixing beta               =       0.7000
     number of iterations used =            8  plain     mixing
     press convergence thresh. =      5.0E-01
     Exchange-correlation= PBE
                           (   1   4   3   4   0   0   0)

     celldm(1)=   5.553300  celldm(2)=   0.000000  celldm(3)=   0.000000
     celldm(4)=   0.000000  celldm(5)=   0.000000  celldm(6)=   0.000000

     crystal axes: (cart. coord. in units of alat)
               a(1) = (   0.973633   0.000000   0.000000 )  
               a(2) = (   0.000000   0.973633   0.000000 )  
               a(3) = (   0.000000   0.000000   0.973633 )  

     reciprocal axes: (cart. coord. in units 2 pi/alat)
               b(1) = (  1.027081  0.000000  0.000000 )  
               b(2) = (  0.000000  1.027081  0.000000 )  
               b(3) = (  0.000000  0.000000  1.027081 )  


     PseudoPot. # 1 for Fe read from file:
     ../../pseudos/Fe.pbe-spn-kjpaw_psl.0.2.1.UPF
     MD5 check sum: e86618425769142926afa95317d90200
     Pseudo is Projector augmented-wave + core cor, Zval = 16.0
     Generated using "atomic" code by A. Dal Corso  v.5.0.99 svn rev. 10869
     Shape of augmentation charge: PSQ
     Using radial grid of 1191 points,  6 beta functions with: 
                l(1) =   0
                l(2) =   0
                l(3) =   1
                l(4) =   1
                l(5) =   2
                l(6) =   2
     Q(r) pseudized with 0 coefficients 


     PseudoPot. # 2 for Ti read from file:
     ../../pseudos/ti_pbe_v1.4.uspp.F.UPF
     MD5 check sum: 88a00a6731bd790ddea75d31a80cb452
     Pseudo is Ultrasoft + core correction, Zval = 12.0
     Generated by new atomic code, or converted to UPF format
     Using radial grid of  851 points,  6 beta functions with: 
                l(1) =   0
                l(2) =   0
                l(3) =   1
                l(4) =   1
                l(5) =   2
                l(6) =   2
     Q(r) pseudized with  6 coefficients,  rinner =    1.000   1.000   1.000
                                                       1.000   1.000

     atomic species   valence    mass     pseudopotential
     Fe               16.00    55.84500     Fe( 1.00)
     Ti               12.00    47.86700     Ti( 1.00)

     48 Sym. Ops., with inversion, found



   Cartesian axes

     site n.     atom                  positions (alat units)
         1        Fe     tau(   1) = (   0.4868166   0.4868166   0.4868166  )
         2        Ti     tau(   2) = (   0.0000000   0.0000000   0.0000000  )

     number of k points=   120  Marzari-Vanderbilt smearing, width (Ry)=  0.0050

     Number of k-points >= 100: set verbosity='high' to print them.

     Dense  grid:   192815 G-vectors     FFT dimensions: (  72,  72,  72)

     Smooth grid:    29423 G-vectors     FFT dimensions: (  40,  40,  40)

     Estimated max dynamical RAM per process >     117.03 MB

     Estimated total dynamical RAM >     936.23 MB

     Check: negative core charge=   -0.000002

     Initial potential from superposition of free atoms

     starting charge      26.9995, renormalised to      28.0000

     negative rho (up, down):  1.339E-03 0.000E+00
     Starting wfcs are   23 randomized atomic wfcs
     Checking if some PAW data can be deallocated... 

     total cpu time spent up to now is      148.2 secs

     per-process dynamical memory:   154.5 Mb

     Self-consistent Calculation

     iteration #  1     ecut=   124.00 Ry     beta= 0.70
     Davidson diagonalization with overlap
     c_bands:  1 eigenvalues not converged
     c_bands:  1 eigenvalues not converged
     c_bands:  1 eigenvalues not converged
     c_bands:  1 eigenvalues not converged
     c_bands:  1 eigenvalues not converged
     c_bands:  1 eigenvalues not converged
     c_bands:  1 eigenvalues not converged
     c_bands:  1 eigenvalues not converged
     c_bands:  1 eigenvalues not converged
     c_bands:  1 eigenvalues not converged
     c_bands:  1 eigenvalues not converged
     c_bands:  1 eigenvalues not converged
     c_bands:  1 eigenvalues not converged
     c_bands:  1 eigenvalues not converged
     c_bands:  1 eigenvalues not converged
     c_bands:  1 eigenvalues not converged
     ethr =  1.00E-06,  avg # of iterations = 16.5

     negative rho (up, down):  6.425E-05 0.000E+00

     total cpu time spent up to now is      156.0 secs

     total energy              =    -436.40876685 Ry
     estimated scf accuracy    <      15.64139149 Ry

     iteration #  2     ecut=   124.00 Ry     beta= 0.70
     Davidson diagonalization with overlap
     ethr =  1.00E-02,  avg # of iterations =  6.2

     negative rho (up, down):  9.437E-05 0.000E+00

     total cpu time spent up to now is      159.1 secs

     WARNING: integrated charge=    28.00008526, expected=    28.00000000

     total energy              =    -448.50612438 Ry
     estimated scf accuracy    <      60.31240762 Ry

     iteration #  3     ecut=   124.00 Ry     beta= 0.70
     Davidson diagonalization with overlap
     ethr =  1.00E-02,  avg # of iterations =  3.0

     negative rho (up, down):  3.541E-04 0.000E+00

     total cpu time spent up to now is      161.3 secs

     WARNING: integrated charge=    28.00001510, expected=    28.00000000

     total energy              =    -448.52469622 Ry
     estimated scf accuracy    <      15.34743220 Ry

     iteration #  4     ecut=   124.00 Ry     beta= 0.70
     Davidson diagonalization with overlap
     ethr =  1.00E-02,  avg # of iterations =  2.1

     negative rho (up, down):  3.339E-04 0.000E+00

     total cpu time spent up to now is      163.2 secs

     WARNING: integrated charge=    28.00001422, expected=    28.00000000

     total energy              =    -449.06229671 Ry
     estimated scf accuracy    <       4.23337573 Ry

     iteration #  5     ecut=   124.00 Ry     beta= 0.70
     Davidson diagonalization with overlap
     ethr =  1.00E-02,  avg # of iterations =  1.0

     negative rho (up, down):  5.284E-04 0.000E+00

     total cpu time spent up to now is      164.8 secs

     total energy              =    -448.48882365 Ry
     estimated scf accuracy    <       4.00473565 Ry

     iteration #  6     ecut=   124.00 Ry     beta= 0.70
     Davidson diagonalization with overlap
     ethr =  1.00E-02,  avg # of iterations =  1.4

     negative rho (up, down):  5.269E-04 0.000E+00

     total cpu time spent up to now is      166.4 secs

     total energy              =    -448.66982502 Ry
     estimated scf accuracy    <       0.59184533 Ry

     iteration #  7     ecut=   124.00 Ry     beta= 0.70
     Davidson diagonalization with overlap
     ethr =  2.11E-03,  avg # of iterations =  1.7

     negative rho (up, down):  5.461E-04 0.000E+00

     total cpu time spent up to now is      168.1 secs

     total energy              =    -448.67879046 Ry
     estimated scf accuracy    <       0.51377269 Ry

     iteration #  8     ecut=   124.00 Ry     beta= 0.70
     Davidson diagonalization with overlap
     ethr =  1.83E-03,  avg # of iterations =  1.0

     negative rho (up, down):  1.392E-03 0.000E+00

     total cpu time spent up to now is      169.6 secs

     total energy              =    -448.46330386 Ry
     estimated scf accuracy    <       0.43549953 Ry

     iteration #  9     ecut=   124.00 Ry     beta= 0.70
     Davidson diagonalization with overlap
     ethr =  1.56E-03,  avg # of iterations =  5.1

     negative rho (up, down):  1.175E-03 0.000E+00

     total cpu time spent up to now is      172.0 secs

     WARNING: integrated charge=    28.00002029, expected=    28.00000000

     total energy              =    -448.23035863 Ry
     estimated scf accuracy    <       6.60657946 Ry

     iteration # 10     ecut=   124.00 Ry     beta= 0.70
     Davidson diagonalization with overlap
     ethr =  1.56E-03,  avg # of iterations =  3.9

     negative rho (up, down):  1.427E-03 0.000E+00

     total cpu time spent up to now is      174.0 secs

     WARNING: integrated charge=    28.00001285, expected=    28.00000000

     total energy              =    -448.58299123 Ry
     estimated scf accuracy    <       0.09413461 Ry

     iteration # 11     ecut=   124.00 Ry     beta= 0.70
     Davidson diagonalization with overlap
     ethr =  3.36E-04,  avg # of iterations =  4.8

     negative rho (up, down):  1.826E-03 0.000E+00

     total cpu time spent up to now is      176.2 secs

     WARNING: integrated charge=    27.99999521, expected=    28.00000000

     total energy              =    -449.57575245 Ry
     estimated scf accuracy    <       4.56619078 Ry

     iteration # 12     ecut=   124.00 Ry     beta= 0.70
     Davidson diagonalization with overlap
     ethr =  3.36E-04,  avg # of iterations =  5.3

     negative rho (up, down):  1.376E-03 0.000E+00

     total cpu time spent up to now is      178.7 secs

     WARNING: integrated charge=    28.00000353, expected=    28.00000000

     total energy              =    -447.91897449 Ry
     estimated scf accuracy    <      26.68275026 Ry

     iteration # 13     ecut=   124.00 Ry     beta= 0.70
     Davidson diagonalization with overlap
     ethr =  3.36E-04,  avg # of iterations =  5.8

     negative rho (up, down):  9.181E-04 0.000E+00

     total cpu time spent up to now is      181.4 secs

     WARNING: integrated charge=    28.00000592, expected=    28.00000000

     total energy              =    -448.18227224 Ry
     estimated scf accuracy    <       1.27852994 Ry

     iteration # 14     ecut=   124.00 Ry     beta= 0.70
     Davidson diagonalization with overlap
     ethr =  3.36E-04,  avg # of iterations =  5.4

     negative rho (up, down):  1.005E-03 0.000E+00

     total cpu time spent up to now is      184.1 secs

     WARNING: integrated charge=    28.00000439, expected=    28.00000000

     total energy              =    -448.57013012 Ry
     estimated scf accuracy    <       4.26438128 Ry

     iteration # 15     ecut=   124.00 Ry     beta= 0.70
     Davidson diagonalization with overlap
     ethr =  3.36E-04,  avg # of iterations =  3.7

     negative rho (up, down):  1.035E-03 0.000E+00

     total cpu time spent up to now is      186.1 secs

     WARNING: integrated charge=    28.00000431, expected=    28.00000000

     total energy              =    -448.63203731 Ry
     estimated scf accuracy    <       1.12637350 Ry

     iteration # 16     ecut=   124.00 Ry     beta= 0.70
     Davidson diagonalization with overlap
     ethr =  3.36E-04,  avg # of iterations =  1.0

     negative rho (up, down):  1.286E-03 0.000E+00

     total cpu time spent up to now is      187.7 secs

     total energy              =    -448.49522978 Ry
     estimated scf accuracy    <       0.90138909 Ry

     iteration # 17     ecut=   124.00 Ry     beta= 0.70
     Davidson diagonalization with overlap
     ethr =  3.36E-04,  avg # of iterations =  4.5

     negative rho (up, down):  1.032E-03 0.000E+00

     total cpu time spent up to now is      189.8 secs

     WARNING: integrated charge=    28.00000325, expected=    28.00000000

     total energy              =    -448.56551224 Ry
     estimated scf accuracy    <       0.14750635 Ry

     iteration # 18     ecut=   124.00 Ry     beta= 0.70
     Davidson diagonalization with overlap
     ethr =  3.36E-04,  avg # of iterations =  1.8

     negative rho (up, down):  3.280E-04 0.000E+00

     total cpu time spent up to now is      191.5 secs

     WARNING: integrated charge=    27.99999688, expected=    28.00000000

     total energy              =    -448.59630893 Ry
     estimated scf accuracy    <       0.00386109 Ry

     iteration # 19     ecut=   124.00 Ry     beta= 0.70
     Davidson diagonalization with overlap
     ethr =  1.38E-05,  avg # of iterations =  7.4

     negative rho (up, down):  3.122E-04 0.000E+00

     total cpu time spent up to now is      195.1 secs

     total energy              =    -448.65953833 Ry
     estimated scf accuracy    <       0.24382392 Ry

     iteration # 20     ecut=   124.00 Ry     beta= 0.70
     Davidson diagonalization with overlap
     ethr =  1.38E-05,  avg # of iterations =  4.1

     negative rho (up, down):  4.027E-04 0.000E+00

     total cpu time spent up to now is      197.1 secs

     total energy              =    -448.64602578 Ry
     estimated scf accuracy    <       0.34992956 Ry

     iteration # 21     ecut=   124.00 Ry     beta= 0.70
     Davidson diagonalization with overlap
     ethr =  1.38E-05,  avg # of iterations =  3.9

     negative rho (up, down):  1.014E-03 0.000E+00

     total cpu time spent up to now is      199.5 secs

     total energy              =    -448.48407806 Ry
     estimated scf accuracy    <       0.49526746 Ry

     iteration # 22     ecut=   124.00 Ry     beta= 0.70
     Davidson diagonalization with overlap
     ethr =  1.38E-05,  avg # of iterations =  8.0

     negative rho (up, down):  7.893E-04 0.000E+00

     total cpu time spent up to now is      203.2 secs

     total energy              =    -448.53273994 Ry
     estimated scf accuracy    <       0.32121249 Ry

     iteration # 23     ecut=   124.00 Ry     beta= 0.70
     Davidson diagonalization with overlap
     ethr =  1.38E-05,  avg # of iterations =  5.7

     negative rho (up, down):  1.118E-03 0.000E+00

     total cpu time spent up to now is      205.9 secs

     total energy              =    -448.55821807 Ry
     estimated scf accuracy    <       0.10842708 Ry

     iteration # 24     ecut=   124.00 Ry     beta= 0.70
     Davidson diagonalization with overlap
     ethr =  1.38E-05,  avg # of iterations =  5.5

     negative rho (up, down):  9.149E-04 0.000E+00

     total cpu time spent up to now is      208.6 secs

     total energy              =    -448.56784251 Ry
     estimated scf accuracy    <       0.07739959 Ry

     iteration # 25     ecut=   124.00 Ry     beta= 0.70
     Davidson diagonalization with overlap
     ethr =  1.38E-05,  avg # of iterations =  4.7

     negative rho (up, down):  9.515E-04 0.000E+00

     total cpu time spent up to now is      211.0 secs

     total energy              =    -448.57546619 Ry
     estimated scf accuracy    <       0.00449718 Ry

     iteration # 26     ecut=   124.00 Ry     beta= 0.70
     Davidson diagonalization with overlap
     ethr =  1.38E-05,  avg # of iterations =  1.0

     negative rho (up, down):  9.593E-04 0.000E+00

     total cpu time spent up to now is      212.6 secs

     total energy              =    -448.57553351 Ry
     estimated scf accuracy    <       0.00084047 Ry

     iteration # 27     ecut=   124.00 Ry     beta= 0.70
     Davidson diagonalization with overlap
     ethr =  3.00E-06,  avg # of iterations =  2.2

     negative rho (up, down):  9.671E-04 0.000E+00

     total cpu time spent up to now is      214.3 secs

     total energy              =    -448.57554094 Ry
     estimated scf accuracy    <       0.00020216 Ry

     iteration # 28     ecut=   124.00 Ry     beta= 0.70
     Davidson diagonalization with overlap
     ethr =  7.22E-07,  avg # of iterations =  2.7

     negative rho (up, down):  9.660E-04 0.000E+00

     total cpu time spent up to now is      216.1 secs

     total energy              =    -448.57556448 Ry
     estimated scf accuracy    <       0.00000043 Ry

     iteration # 29     ecut=   124.00 Ry     beta= 0.70
     Davidson diagonalization with overlap
     ethr =  1.53E-09,  avg # of iterations =  5.9

     negative rho (up, down):  9.696E-04 0.000E+00

     total cpu time spent up to now is      218.8 secs

     total energy              =    -448.57556601 Ry
     estimated scf accuracy    <       0.00000099 Ry

     iteration # 30     ecut=   124.00 Ry     beta= 0.70
     Davidson diagonalization with overlap
     ethr =  1.53E-09,  avg # of iterations =  4.7

     negative rho (up, down):  9.690E-04 0.000E+00

     total cpu time spent up to now is      221.1 secs

     total energy              =    -448.57556636 Ry
     estimated scf accuracy    <       0.00000659 Ry

     iteration # 31     ecut=   124.00 Ry     beta= 0.70
     Davidson diagonalization with overlap
     ethr =  1.53E-09,  avg # of iterations =  3.1

     negative rho (up, down):  9.681E-04 0.000E+00

     total cpu time spent up to now is      222.9 secs

     total energy              =    -448.57556571 Ry
     estimated scf accuracy    <       0.00000210 Ry

     iteration # 32     ecut=   124.00 Ry     beta= 0.70
     Davidson diagonalization with overlap
     ethr =  1.53E-09,  avg # of iterations =  4.2

     negative rho (up, down):  9.684E-04 0.000E+00

     total cpu time spent up to now is      225.2 secs

     total energy              =    -448.57556621 Ry
     estimated scf accuracy    <       0.00000168 Ry

     iteration # 33     ecut=   124.00 Ry     beta= 0.70
     Davidson diagonalization with overlap
     ethr =  1.53E-09,  avg # of iterations =  1.5

     negative rho (up, down):  9.686E-04 0.000E+00

     total cpu time spent up to now is      226.8 secs

     total energy              =    -448.57556618 Ry
     estimated scf accuracy    <       0.00000050 Ry

     iteration # 34     ecut=   124.00 Ry     beta= 0.70
     Davidson diagonalization with overlap
     ethr =  1.53E-09,  avg # of iterations =  2.2

     negative rho (up, down):  9.686E-04 0.000E+00

     total cpu time spent up to now is      228.5 secs

     total energy              =    -448.57556620 Ry
     estimated scf accuracy    <       0.00000002 Ry

     iteration # 35     ecut=   124.00 Ry     beta= 0.70
     Davidson diagonalization with overlap
     ethr =  8.11E-11,  avg # of iterations =  3.0

     negative rho (up, down):  9.688E-04 0.000E+00

     total cpu time spent up to now is      230.3 secs

     total energy              =    -448.57556620 Ry
     estimated scf accuracy    <          1.2E-09 Ry

     iteration # 36     ecut=   124.00 Ry     beta= 0.70
     Davidson diagonalization with overlap
     ethr =  4.27E-12,  avg # of iterations =  5.4

     negative rho (up, down):  9.687E-04 0.000E+00

     total cpu time spent up to now is      232.8 secs

     total energy              =    -448.57556620 Ry
     estimated scf accuracy    <       0.00000002 Ry

     iteration # 37     ecut=   124.00 Ry     beta= 0.70
     Davidson diagonalization with overlap
     ethr =  4.27E-12,  avg # of iterations =  4.3

     negative rho (up, down):  9.687E-04 0.000E+00

     total cpu time spent up to now is      235.2 secs

     total energy              =    -448.57556621 Ry
     estimated scf accuracy    <          2.3E-10 Ry

     iteration # 38     ecut=   124.00 Ry     beta= 0.70
     Davidson diagonalization with overlap
     ethr =  8.11E-13,  avg # of iterations =  2.7

     negative rho (up, down):  9.687E-04 0.000E+00

     total cpu time spent up to now is      237.0 secs

     End of self-consistent calculation

     Number of k-points >= 100: set verbosity='high' to print the bands.

     the Fermi energy is    19.4102 ev

!    total energy              =    -448.57556621 Ry
     estimated scf accuracy    <          2.4E-11 Ry
     smearing contrib. (-TS)   =       0.00001713 Ry
     internal energy E=F+TS    =    -448.57558334 Ry

     The total energy is F=E-TS. E is the sum of the following terms:
     one-electron contribution =    -140.55156863 Ry
     hartree contribution      =      88.02612732 Ry
     xc contribution           =     -53.03780192 Ry
     ewald contribution        =    -266.85686410 Ry
     one-center paw contrib.   =     -76.15547599 Ry

     convergence has been achieved in  38 iterations

     negative rho (up, down):  9.687E-04 0.000E+00

     Forces acting on atoms (cartesian axes, Ry/au):

     atom    1 type  1   force =     0.00000000    0.00000000    0.00000000
     atom    2 type  2   force =     0.00000000    0.00000000    0.00000000

     Total force =     0.000000     Total SCF correction =     0.000000


     Computing stress (Cartesian axis) and pressure


     negative rho (up, down):  9.687E-04 0.000E+00
          total   stress  (Ry/bohr**3)                   (kbar)     P=      224.68
   0.00152731   0.00000000   0.00000000          224.68        0.00        0.00
   0.00000000   0.00152731   0.00000000            0.00      224.68        0.00
   0.00000000   0.00000000   0.00152731            0.00        0.00      224.68


     Writing all to output data dir ./TiFe.save/ :
     XML data file, charge density, pseudopotentials, collected wavefunctions

     init_run     :      3.09s CPU      3.22s WALL (       2 calls)
     electrons    :    211.87s CPU    223.67s WALL (       5 calls)
     update_pot   :      0.29s CPU      0.31s WALL (       3 calls)
     forces       :      1.60s CPU      1.75s WALL (       5 calls)
     stress       :      8.60s CPU      8.98s WALL (       5 calls)

     Called by init_run:
     wfcinit      :      1.32s CPU      1.35s WALL (       2 calls)
     potinit      :      0.47s CPU      0.49s WALL (       2 calls)
     hinit0       :      0.93s CPU      0.94s WALL (       2 calls)

     Called by electrons:
     c_bands      :    155.88s CPU    160.01s WALL (     102 calls)
     sum_band     :     34.21s CPU     38.83s WALL (     102 calls)
     v_of_rho     :      2.53s CPU      2.71s WALL (     106 calls)
     newd         :     13.68s CPU     16.45s WALL (     106 calls)
     PAW_pot      :      6.26s CPU      6.37s WALL (     109 calls)
     mix_rho      :      0.27s CPU      0.31s WALL (     102 calls)

     Called by c_bands:
     init_us_2    :      4.17s CPU      4.35s WALL (   26280 calls)
     cegterg      :    148.78s CPU    152.53s WALL (   12240 calls)

     Called by *egterg:
     cdiaghg      :     20.06s CPU     20.50s WALL (   54660 calls)
     h_psi        :    109.98s CPU    112.91s WALL (   55380 calls)
     s_psi        :      3.00s CPU      3.09s WALL (   55380 calls)
     g_psi        :      0.76s CPU      0.77s WALL (   42900 calls)

     Called by h_psi:
     h_psi:calbec :      4.33s CPU      4.45s WALL (   55380 calls)
     vloc_psi     :    101.86s CPU    104.57s WALL (   55380 calls)
     add_vuspsi   :      3.13s CPU      3.23s WALL (   55380 calls)

     General routines
     calbec       :      6.54s CPU      6.73s WALL (   78180 calls)
     fft          :      1.89s CPU      2.10s WALL (    1497 calls)
     ffts         :      0.30s CPU      0.31s WALL (     208 calls)
     fftw         :     85.51s CPU     87.69s WALL ( 1481326 calls)
     interpolate  :      0.40s CPU      0.42s WALL (     106 calls)

     Parallel routines

     PWSCF        :    226.55s CPU    239.44s WALL


   This run was terminated on:  17:46:18  27Oct2025            

=------------------------------------------------------------------------------=
   JOB DONE.
=------------------------------------------------------------------------------=
