
     Program PWSCF v.7.4 starts on 27Oct2025 at 17: 3:46 

     This program is part of the open-source Quantum ESPRESSO suite
     for quantum simulation of materials; please cite
         "P. Giannozzi et al., J. Phys.:Condens. Matter 21 395502 (2009);
         "P. Giannozzi et al., J. Phys.:Condens. Matter 29 465901 (2017);
         "P. Giannozzi et al., J. Chem. Phys. 152 154105 (2020);
          URL http://www.quantum-espresso.org", 
     in publications or presentations arising from this work. More details at
     http://www.quantum-espresso.org/quote

     Parallel version (MPI & OpenMP), running on       8 processor cores
     Number of MPI processes:                 8
     Threads/MPI process:                     1

     MPI processes distributed on     1 nodes
     214898 MiB available memory on the printing compute node when the environment starts

     Reading input from TiFe_relaxed.in

     Current dimensions of program PWSCF are:
     Max number of different atomic species (ntypx) = 10
     Max number of k-points (npk) =  40000
     Max angular momentum in pseudopotentials (lmaxx) =  4
     file Fe.pbe-spn-kjpaw_psl.0.2.1.UPF: wavefunction(s)  3D renormalized

     IMPORTANT: XC functional enforced from input :
     Exchange-correlation= PBE
                           (   1   4   3   4   0   0   0)
     Any further DFT definition will be discarded
     Please, verify this is what you really want

     Message from routine setup:
     using ibrav=0 with symmetry is DISCOURAGED, use correct ibrav instead

     R & G space division:  proc/nbgrp/npool/nimage =       8
     Subspace diagonalization in iterative solution of the eigenvalue problem:
     a serial algorithm will be used


     Parallelization info
     --------------------
     sticks:   dense  smooth     PW     G-vecs:    dense   smooth      PW
     Min         532     151     44                26154     3989     629
     Max         533     152     46                26155     3993     632
     Sum        4257    1209    357               209233    31919    5041

     Using Slab Decomposition



     bravais-lattice index     =            0
     lattice parameter (alat)  =       5.5533  a.u.
     unit-cell volume          =     171.2590 (a.u.)^3
     number of atoms/cell      =            2
     number of atomic types    =            2
     number of electrons       =        28.00
     number of Kohn-Sham states=           18
     kinetic-energy cutoff     =     124.0000  Ry
     charge density cutoff     =    1736.0000  Ry
     scf convergence threshold =      1.0E-08
     mixing beta               =       0.7000
     number of iterations used =            8  plain     mixing
     energy convergence thresh.=      1.0E-04
     force convergence thresh. =      1.0E-03
     press convergence thresh. =      5.0E-01
     Exchange-correlation= PBE
                           (   1   4   3   4   0   0   0)
     nstep                     =           50


     celldm(1)=   5.553300  celldm(2)=   0.000000  celldm(3)=   0.000000
     celldm(4)=   0.000000  celldm(5)=   0.000000  celldm(6)=   0.000000

     crystal axes: (cart. coord. in units of alat)
               a(1) = (   1.000000   0.000000   0.000000 )  
               a(2) = (   0.000000   1.000000   0.000000 )  
               a(3) = (   0.000000   0.000000   1.000000 )  

     reciprocal axes: (cart. coord. in units 2 pi/alat)
               b(1) = (  1.000000  0.000000  0.000000 )  
               b(2) = (  0.000000  1.000000  0.000000 )  
               b(3) = (  0.000000  0.000000  1.000000 )  


     PseudoPot. # 1 for Fe read from file:
     ../../pseudos/Fe.pbe-spn-kjpaw_psl.0.2.1.UPF
     MD5 check sum: e86618425769142926afa95317d90200
     Pseudo is Projector augmented-wave + core cor, Zval = 16.0
     Generated using "atomic" code by A. Dal Corso  v.5.0.99 svn rev. 10869
     Shape of augmentation charge: PSQ
     Using radial grid of 1191 points,  6 beta functions with: 
                l(1) =   0
                l(2) =   0
                l(3) =   1
                l(4) =   1
                l(5) =   2
                l(6) =   2
     Q(r) pseudized with 0 coefficients 


     PseudoPot. # 2 for Ti read from file:
     ../../pseudos/ti_pbe_v1.4.uspp.F.UPF
     MD5 check sum: 88a00a6731bd790ddea75d31a80cb452
     Pseudo is Ultrasoft + core correction, Zval = 12.0
     Generated by new atomic code, or converted to UPF format
     Using radial grid of  851 points,  6 beta functions with: 
                l(1) =   0
                l(2) =   0
                l(3) =   1
                l(4) =   1
                l(5) =   2
                l(6) =   2
     Q(r) pseudized with  6 coefficients,  rinner =    1.000   1.000   1.000
                                                       1.000   1.000

     atomic species   valence    mass     pseudopotential
     Fe               16.00    55.84500     Fe( 1.00)
     Ti               12.00    47.86700     Ti( 1.00)

     48 Sym. Ops., with inversion, found



   Cartesian axes

     site n.     atom                  positions (alat units)
         1        Fe     tau(   1) = (   0.5000000   0.5000000   0.5000000  )
         2        Ti     tau(   2) = (   0.0000000   0.0000000   0.0000000  )

     number of k points=   120  Marzari-Vanderbilt smearing, width (Ry)=  0.0050

     Number of k-points >= 100: set verbosity='high' to print them.

     Dense  grid:   209233 G-vectors     FFT dimensions: (  75,  75,  75)

     Smooth grid:    31919 G-vectors     FFT dimensions: (  40,  40,  40)

     Estimated max dynamical RAM per process >     125.80 MB

     Estimated total dynamical RAM >    1006.42 MB

     Check: negative core charge=   -0.000002

     Initial potential from superposition of free atoms

     starting charge      26.9995, renormalised to      28.0000

     negative rho (up, down):  1.347E-03 0.000E+00
     Starting wfcs are   23 randomized atomic wfcs
     Checking if some PAW data can be deallocated... 

     total cpu time spent up to now is        2.5 secs

     per-process dynamical memory:   151.6 Mb

     Self-consistent Calculation

     iteration #  1     ecut=   124.00 Ry     beta= 0.70
     Davidson diagonalization with overlap
     ethr =  1.00E-02,  avg # of iterations =  2.1

     negative rho (up, down):  8.075E-05 0.000E+00

     total cpu time spent up to now is        4.5 secs

     total energy              =    -434.88034974 Ry
     estimated scf accuracy    <      17.47740323 Ry

     iteration #  2     ecut=   124.00 Ry     beta= 0.70
     Davidson diagonalization with overlap
     ethr =  1.00E-02,  avg # of iterations =  6.1

     negative rho (up, down):  2.388E-05 0.000E+00

     total cpu time spent up to now is        7.9 secs

     total energy              =    -448.51195570 Ry
     estimated scf accuracy    <      66.14338935 Ry

     iteration #  3     ecut=   124.00 Ry     beta= 0.70
     Davidson diagonalization with overlap
     ethr =  1.00E-02,  avg # of iterations =  3.1

     negative rho (up, down):  2.384E-04 0.000E+00

     total cpu time spent up to now is       10.3 secs

     total energy              =    -448.59876074 Ry
     estimated scf accuracy    <      16.77187988 Ry

     iteration #  4     ecut=   124.00 Ry     beta= 0.70
     Davidson diagonalization with overlap
     ethr =  1.00E-02,  avg # of iterations =  2.1

     negative rho (up, down):  2.771E-04 0.000E+00

     total cpu time spent up to now is       12.3 secs

     total energy              =    -449.11451992 Ry
     estimated scf accuracy    <       4.73362336 Ry

     iteration #  5     ecut=   124.00 Ry     beta= 0.70
     Davidson diagonalization with overlap
     ethr =  1.00E-02,  avg # of iterations =  1.0

     negative rho (up, down):  3.233E-04 0.000E+00

     total cpu time spent up to now is       14.0 secs

     total energy              =    -449.12131532 Ry
     estimated scf accuracy    <       4.31212425 Ry

     iteration #  6     ecut=   124.00 Ry     beta= 0.70
     Davidson diagonalization with overlap
     ethr =  1.00E-02,  avg # of iterations =  1.0

     negative rho (up, down):  1.107E-03 0.000E+00

     total cpu time spent up to now is       15.7 secs

     total energy              =    -447.89389661 Ry
     estimated scf accuracy    <       4.51968901 Ry

     iteration #  7     ecut=   124.00 Ry     beta= 0.70
     Davidson diagonalization with overlap
     ethr =  1.00E-02,  avg # of iterations =  3.4

     negative rho (up, down):  1.008E-03 0.000E+00

     total cpu time spent up to now is       17.7 secs

     total energy              =    -448.58423346 Ry
     estimated scf accuracy    <       3.81978614 Ry

     iteration #  8     ecut=   124.00 Ry     beta= 0.70
     Davidson diagonalization with overlap
     ethr =  1.00E-02,  avg # of iterations =  1.0

     negative rho (up, down):  8.248E-04 0.000E+00

     total cpu time spent up to now is       19.4 secs

     total energy              =    -448.46846099 Ry
     estimated scf accuracy    <       1.21375717 Ry

     iteration #  9     ecut=   124.00 Ry     beta= 0.70
     Davidson diagonalization with overlap
     ethr =  4.33E-03,  avg # of iterations =  1.7

     negative rho (up, down):  8.317E-04 0.000E+00

     total cpu time spent up to now is       21.2 secs

     total energy              =    -448.59501092 Ry
     estimated scf accuracy    <       0.12585284 Ry

     iteration # 10     ecut=   124.00 Ry     beta= 0.70
     Davidson diagonalization with overlap
     ethr =  4.49E-04,  avg # of iterations =  2.3

     negative rho (up, down):  8.588E-04 0.000E+00

     total cpu time spent up to now is       23.0 secs

     total energy              =    -448.59602789 Ry
     estimated scf accuracy    <       0.14907511 Ry

     iteration # 11     ecut=   124.00 Ry     beta= 0.70
     Davidson diagonalization with overlap
     ethr =  4.49E-04,  avg # of iterations =  1.1

     negative rho (up, down):  1.121E-03 0.000E+00

     total cpu time spent up to now is       24.7 secs

     total energy              =    -448.56917534 Ry
     estimated scf accuracy    <       0.14868094 Ry

     iteration # 12     ecut=   124.00 Ry     beta= 0.70
     Davidson diagonalization with overlap
     ethr =  4.49E-04,  avg # of iterations =  4.3

     negative rho (up, down):  1.213E-03 0.000E+00

     total cpu time spent up to now is       27.1 secs

     total energy              =    -448.65391027 Ry
     estimated scf accuracy    <       0.18318038 Ry

     iteration # 13     ecut=   124.00 Ry     beta= 0.70
     Davidson diagonalization with overlap
     ethr =  4.49E-04,  avg # of iterations =  1.9

     negative rho (up, down):  2.114E-03 0.000E+00

     total cpu time spent up to now is       28.9 secs

     total energy              =    -449.03322661 Ry
     estimated scf accuracy    <       0.44442171 Ry

     iteration # 14     ecut=   124.00 Ry     beta= 0.70
     Davidson diagonalization with overlap
     ethr =  4.49E-04,  avg # of iterations =  6.2

     negative rho (up, down):  1.459E-03 0.000E+00

     total cpu time spent up to now is       31.9 secs

     total energy              =    -448.51932688 Ry
     estimated scf accuracy    <      26.98882276 Ry

     iteration # 15     ecut=   124.00 Ry     beta= 0.70
     Davidson diagonalization with overlap
     ethr =  4.49E-04,  avg # of iterations =  4.8

     negative rho (up, down):  1.137E-03 0.000E+00

     total cpu time spent up to now is       34.5 secs

     total energy              =    -448.49454822 Ry
     estimated scf accuracy    <       4.43870838 Ry

     iteration # 16     ecut=   124.00 Ry     beta= 0.70
     Davidson diagonalization with overlap
     ethr =  4.49E-04,  avg # of iterations =  4.3

     negative rho (up, down):  1.088E-03 0.000E+00

     total cpu time spent up to now is       36.9 secs

     total energy              =    -448.60519511 Ry
     estimated scf accuracy    <       0.36277654 Ry

     iteration # 17     ecut=   124.00 Ry     beta= 0.70
     Davidson diagonalization with overlap
     ethr =  4.49E-04,  avg # of iterations =  2.0

     negative rho (up, down):  1.022E-03 0.000E+00

     total cpu time spent up to now is       38.8 secs

     total energy              =    -448.58523807 Ry
     estimated scf accuracy    <       0.39566392 Ry

     iteration # 18     ecut=   124.00 Ry     beta= 0.70
     Davidson diagonalization with overlap
     ethr =  4.49E-04,  avg # of iterations =  1.2

     negative rho (up, down):  9.735E-04 0.000E+00

     total cpu time spent up to now is       40.5 secs

     total energy              =    -448.57914660 Ry
     estimated scf accuracy    <       0.10585197 Ry

     iteration # 19     ecut=   124.00 Ry     beta= 0.70
     Davidson diagonalization with overlap
     ethr =  3.78E-04,  avg # of iterations =  1.8

     negative rho (up, down):  9.827E-04 0.000E+00

     total cpu time spent up to now is       42.3 secs

     total energy              =    -448.58492275 Ry
     estimated scf accuracy    <       0.01167453 Ry

     iteration # 20     ecut=   124.00 Ry     beta= 0.70
     Davidson diagonalization with overlap
     ethr =  4.17E-05,  avg # of iterations =  4.3

     negative rho (up, down):  9.840E-04 0.000E+00

     total cpu time spent up to now is       44.5 secs

     total energy              =    -448.58662258 Ry
     estimated scf accuracy    <       0.00743011 Ry

     iteration # 21     ecut=   124.00 Ry     beta= 0.70
     Davidson diagonalization with overlap
     ethr =  2.65E-05,  avg # of iterations =  1.2

     negative rho (up, down):  9.783E-04 0.000E+00

     total cpu time spent up to now is       46.2 secs

     total energy              =    -448.58668664 Ry
     estimated scf accuracy    <       0.00779712 Ry

     iteration # 22     ecut=   124.00 Ry     beta= 0.70
     Davidson diagonalization with overlap
     ethr =  2.65E-05,  avg # of iterations =  1.0

     negative rho (up, down):  1.037E-03 0.000E+00

     total cpu time spent up to now is       47.9 secs

     total energy              =    -448.58737857 Ry
     estimated scf accuracy    <       0.00638001 Ry

     iteration # 23     ecut=   124.00 Ry     beta= 0.70
     Davidson diagonalization with overlap
     ethr =  2.28E-05,  avg # of iterations =  1.0

     negative rho (up, down):  1.004E-03 0.000E+00

     total cpu time spent up to now is       49.6 secs

     total energy              =    -448.58667571 Ry
     estimated scf accuracy    <       0.01401583 Ry

     iteration # 24     ecut=   124.00 Ry     beta= 0.70
     Davidson diagonalization with overlap
     ethr =  2.28E-05,  avg # of iterations =  1.0

     negative rho (up, down):  9.887E-04 0.000E+00

     total cpu time spent up to now is       51.3 secs

     total energy              =    -448.58663217 Ry
     estimated scf accuracy    <       0.00473461 Ry

     iteration # 25     ecut=   124.00 Ry     beta= 0.70
     Davidson diagonalization with overlap
     ethr =  1.69E-05,  avg # of iterations =  1.0

     negative rho (up, down):  9.662E-04 0.000E+00

     total cpu time spent up to now is       53.0 secs

     total energy              =    -448.58651421 Ry
     estimated scf accuracy    <       0.00172769 Ry

     iteration # 26     ecut=   124.00 Ry     beta= 0.70
     Davidson diagonalization with overlap
     ethr =  6.17E-06,  avg # of iterations =  1.7

     negative rho (up, down):  9.659E-04 0.000E+00

     total cpu time spent up to now is       54.8 secs

     total energy              =    -448.58655054 Ry
     estimated scf accuracy    <       0.00047004 Ry

     iteration # 27     ecut=   124.00 Ry     beta= 0.70
     Davidson diagonalization with overlap
     ethr =  1.68E-06,  avg # of iterations =  2.3

     negative rho (up, down):  9.621E-04 0.000E+00

     total cpu time spent up to now is       56.6 secs

     total energy              =    -448.58654470 Ry
     estimated scf accuracy    <       0.00023845 Ry

     iteration # 28     ecut=   124.00 Ry     beta= 0.70
     Davidson diagonalization with overlap
     ethr =  8.52E-07,  avg # of iterations =  1.7

     negative rho (up, down):  9.604E-04 0.000E+00

     total cpu time spent up to now is       58.4 secs

     total energy              =    -448.58653701 Ry
     estimated scf accuracy    <       0.00010746 Ry

     iteration # 29     ecut=   124.00 Ry     beta= 0.70
     Davidson diagonalization with overlap
     ethr =  3.84E-07,  avg # of iterations =  2.4

     negative rho (up, down):  9.615E-04 0.000E+00

     total cpu time spent up to now is       60.2 secs

     total energy              =    -448.58653629 Ry
     estimated scf accuracy    <       0.00003417 Ry

     iteration # 30     ecut=   124.00 Ry     beta= 0.70
     Davidson diagonalization with overlap
     ethr =  1.22E-07,  avg # of iterations =  3.3

     negative rho (up, down):  9.610E-04 0.000E+00

     total cpu time spent up to now is       62.3 secs

     total energy              =    -448.58654028 Ry
     estimated scf accuracy    <       0.00000540 Ry

     iteration # 31     ecut=   124.00 Ry     beta= 0.70
     Davidson diagonalization with overlap
     ethr =  1.93E-08,  avg # of iterations =  4.0

     negative rho (up, down):  9.613E-04 0.000E+00

     total cpu time spent up to now is       64.4 secs

     total energy              =    -448.58654137 Ry
     estimated scf accuracy    <       0.00000083 Ry

     iteration # 32     ecut=   124.00 Ry     beta= 0.70
     Davidson diagonalization with overlap
     ethr =  2.95E-09,  avg # of iterations =  3.0

     negative rho (up, down):  9.613E-04 0.000E+00

     total cpu time spent up to now is       66.4 secs

     total energy              =    -448.58654147 Ry
     estimated scf accuracy    <       0.00000005 Ry

     iteration # 33     ecut=   124.00 Ry     beta= 0.70
     Davidson diagonalization with overlap
     ethr =  1.74E-10,  avg # of iterations =  4.5

     negative rho (up, down):  9.615E-04 0.000E+00

     total cpu time spent up to now is       68.8 secs

     End of self-consistent calculation

     Number of k-points >= 100: set verbosity='high' to print the bands.

     the Fermi energy is    17.7222 ev

!    total energy              =    -448.58654149 Ry
     estimated scf accuracy    <          4.8E-09 Ry
     smearing contrib. (-TS)   =      -0.00001774 Ry
     internal energy E=F+TS    =    -448.58652375 Ry

     The total energy is F=E-TS. E is the sum of the following terms:
     one-electron contribution =    -151.35065372 Ry
     hartree contribution      =      91.62732609 Ry
     xc contribution           =     -52.88875636 Ry
     ewald contribution        =    -259.82070277 Ry
     one-center paw contrib.   =     -76.15373699 Ry

     convergence has been achieved in  33 iterations

     negative rho (up, down):  9.615E-04 0.000E+00

     Forces acting on atoms (cartesian axes, Ry/au):

     atom    1 type  1   force =     0.00000000    0.00000000    0.00000000
     atom    2 type  2   force =     0.00000000    0.00000000    0.00000000

     Total force =     0.000000     Total SCF correction =     0.000000


     Computing stress (Cartesian axis) and pressure


     negative rho (up, down):  9.615E-04 0.000E+00
          total   stress  (Ry/bohr**3)                   (kbar)     P=       29.45
   0.00020020   0.00000000   0.00000000           29.45        0.00        0.00
   0.00000000   0.00020020   0.00000000            0.00       29.45        0.00
   0.00000000   0.00000000   0.00020020            0.00        0.00       29.45


     BFGS Geometry Optimization
     Energy error            =      7.3E-02 Ry
     Gradient error          =      0.0E+00 Ry/Bohr
     Cell gradient error     =      3.3E+02 kbar

     number of scf cycles    =   1
     number of bfgs steps    =   0

     enthalpy           new  =    -448.1651028085 Ry

     new trust radius        =       0.1479197722 bohr
     new conv_thr            =       0.0000000100 Ry

     new unit-cell volume =    143.83264 a.u.^3 (    21.31380 Ang^3 )
     density =      8.08011 g/cm^3

CELL_PARAMETERS (alat=  5.55330037)
   0.943484251   0.000000000   0.000000000
   0.000000000   0.943484251   0.000000000
   0.000000000   0.000000000   0.943484251

ATOMIC_POSITIONS (crystal)
Fe               0.5000000000        0.5000000000        0.5000000000
Ti               0.0000000000        0.0000000000        0.0000000000



     Writing config-only to output data dir ./TiFe.save/ :
     XML data file
     NEW-OLD atomic charge density approx. for the potential
     New effective cutoffs (rho, wfc): 1950.06  139.30

     Check: negative core charge=   -0.000001

     negative rho (up, down):  8.546E-04 0.000E+00

     total cpu time spent up to now is       71.5 secs

     per-process dynamical memory:   162.1 Mb

     Self-consistent Calculation

     iteration #  1     ecut=   124.00 Ry     beta= 0.70
     Davidson diagonalization with overlap
     ethr =  1.00E-06,  avg # of iterations = 10.7

     negative rho (up, down):  8.998E-04 0.000E+00

     total cpu time spent up to now is       76.5 secs

     total energy              =    -448.53754717 Ry
     estimated scf accuracy    <       0.00217959 Ry

     iteration #  2     ecut=   124.00 Ry     beta= 0.70
     Davidson diagonalization with overlap
     ethr =  7.78E-06,  avg # of iterations =  4.0

     negative rho (up, down):  9.147E-04 0.000E+00

     total cpu time spent up to now is       78.9 secs

     total energy              =    -448.53211154 Ry
     estimated scf accuracy    <       0.07474775 Ry

     iteration #  3     ecut=   124.00 Ry     beta= 0.70
     Davidson diagonalization with overlap
     ethr =  7.78E-06,  avg # of iterations =  4.2

     negative rho (up, down):  9.086E-04 0.000E+00

     total cpu time spent up to now is       81.2 secs

     total energy              =    -448.53918876 Ry
     estimated scf accuracy    <       0.00480948 Ry

     iteration #  4     ecut=   124.00 Ry     beta= 0.70
     Davidson diagonalization with overlap
     ethr =  7.78E-06,  avg # of iterations =  1.8

     negative rho (up, down):  9.183E-04 0.000E+00

     total cpu time spent up to now is       83.0 secs

     total energy              =    -448.53948427 Ry
     estimated scf accuracy    <       0.00037019 Ry

     iteration #  5     ecut=   124.00 Ry     beta= 0.70
     Davidson diagonalization with overlap
     ethr =  1.32E-06,  avg # of iterations =  3.0

     negative rho (up, down):  9.191E-04 0.000E+00

     total cpu time spent up to now is       84.9 secs

     total energy              =    -448.53952583 Ry
     estimated scf accuracy    <       0.00001860 Ry

     iteration #  6     ecut=   124.00 Ry     beta= 0.70
     Davidson diagonalization with overlap
     ethr =  6.64E-08,  avg # of iterations =  3.7

     negative rho (up, down):  9.196E-04 0.000E+00

     total cpu time spent up to now is       87.0 secs

     total energy              =    -448.53952996 Ry
     estimated scf accuracy    <       0.00000034 Ry

     iteration #  7     ecut=   124.00 Ry     beta= 0.70
     Davidson diagonalization with overlap
     ethr =  1.23E-09,  avg # of iterations =  5.3

     negative rho (up, down):  9.197E-04 0.000E+00

     total cpu time spent up to now is       89.7 secs

     total energy              =    -448.53953055 Ry
     estimated scf accuracy    <       0.00000104 Ry

     iteration #  8     ecut=   124.00 Ry     beta= 0.70
     Davidson diagonalization with overlap
     ethr =  1.23E-09,  avg # of iterations =  2.1

     negative rho (up, down):  9.197E-04 0.000E+00

     total cpu time spent up to now is       91.5 secs

     End of self-consistent calculation

     Number of k-points >= 100: set verbosity='high' to print the bands.

     the Fermi energy is    21.5799 ev

!    total energy              =    -448.53953060 Ry
     estimated scf accuracy    <          5.2E-09 Ry
     smearing contrib. (-TS)   =      -0.00001496 Ry
     internal energy E=F+TS    =    -448.53951565 Ry

     The total energy is F=E-TS. E is the sum of the following terms:
     one-electron contribution =    -127.59896171 Ry
     hartree contribution      =      83.83747868 Ry
     xc contribution           =     -53.23639578 Ry
     ewald contribution        =    -275.38424990 Ry
     one-center paw contrib.   =     -76.15738694 Ry

     convergence has been achieved in   8 iterations

     negative rho (up, down):  9.197E-04 0.000E+00

     Forces acting on atoms (cartesian axes, Ry/au):

     atom    1 type  1   force =     0.00000000    0.00000000    0.00000000
     atom    2 type  2   force =     0.00000000    0.00000000    0.00000000

     Total force =     0.000000     Total SCF correction =     0.000000


     Computing stress (Cartesian axis) and pressure


     negative rho (up, down):  9.197E-04 0.000E+00
          total   stress  (Ry/bohr**3)                   (kbar)     P=      543.55
   0.00369496   0.00000000   0.00000000          543.55        0.00        0.00
   0.00000000   0.00369496   0.00000000            0.00      543.55        0.00
   0.00000000   0.00000000   0.00369496            0.00        0.00      543.55

     Energy error            =      2.0E-02 Ry
     Gradient error          =      0.0E+00 Ry/Bohr
     Cell gradient error     =      1.8E+02 kbar

     number of scf cycles    =   2
     number of bfgs steps    =   1

     enthalpy           old  =    -448.1651028085 Ry
     enthalpy           new  =    -448.1855834989 Ry

     CASE: enthalpy          _new < enthalpy          _old

     new trust radius        =       0.0469881036 bohr
     new conv_thr            =            1.0E-10 Ry

     new unit-cell volume =    152.45226 a.u.^3 (    22.59109 Ang^3 )
     density =      7.62326 g/cm^3

CELL_PARAMETERS (alat=  5.55330037)
   0.961966884   0.000000000   0.000000000
   0.000000000   0.961966884   0.000000000
   0.000000000   0.000000000   0.961966884

ATOMIC_POSITIONS (crystal)
Fe               0.5000000000        0.5000000000        0.5000000000
Ti               0.0000000000        0.0000000000        0.0000000000



     Writing config-only to output data dir ./TiFe.save/ :
     XML data file
     NEW-OLD atomic charge density approx. for the potential
     New effective cutoffs (rho, wfc): 1875.84  134.00

     Check: negative core charge=   -0.000002

     negative rho (up, down):  9.403E-04 0.000E+00

     total cpu time spent up to now is       94.1 secs

     per-process dynamical memory:   162.1 Mb

     Self-consistent Calculation

     iteration #  1     ecut=   124.00 Ry     beta= 0.70
     Davidson diagonalization with overlap
     ethr =  1.00E-06,  avg # of iterations =  8.5

     negative rho (up, down):  9.395E-04 0.000E+00

     total cpu time spent up to now is       98.2 secs

     total energy              =    -448.56319605 Ry
     estimated scf accuracy    <       0.00122831 Ry

     iteration #  2     ecut=   124.00 Ry     beta= 0.70
     Davidson diagonalization with overlap
     ethr =  4.39E-06,  avg # of iterations =  5.0

     negative rho (up, down):  9.261E-04 0.000E+00

     total cpu time spent up to now is      100.8 secs

     total energy              =    -448.55907168 Ry
     estimated scf accuracy    <       0.10100737 Ry

     iteration #  3     ecut=   124.00 Ry     beta= 0.70
     Davidson diagonalization with overlap
     ethr =  4.39E-06,  avg # of iterations =  4.5

     negative rho (up, down):  9.344E-04 0.000E+00

     total cpu time spent up to now is      103.2 secs

     total energy              =    -448.56498205 Ry
     estimated scf accuracy    <       0.00017636 Ry

     iteration #  4     ecut=   124.00 Ry     beta= 0.70
     Davidson diagonalization with overlap
     ethr =  6.30E-07,  avg # of iterations =  2.1

     negative rho (up, down):  9.362E-04 0.000E+00

     total cpu time spent up to now is      105.2 secs

     total energy              =    -448.56503339 Ry
     estimated scf accuracy    <       0.00001125 Ry

     iteration #  5     ecut=   124.00 Ry     beta= 0.70
     Davidson diagonalization with overlap
     ethr =  4.02E-08,  avg # of iterations =  5.2

     negative rho (up, down):  9.340E-04 0.000E+00

     total cpu time spent up to now is      107.9 secs

     total energy              =    -448.56504184 Ry
     estimated scf accuracy    <       0.00000243 Ry

     iteration #  6     ecut=   124.00 Ry     beta= 0.70
     Davidson diagonalization with overlap
     ethr =  8.69E-09,  avg # of iterations =  2.7

     negative rho (up, down):  9.345E-04 0.000E+00

     total cpu time spent up to now is      110.1 secs

     total energy              =    -448.56504256 Ry
     estimated scf accuracy    <       0.00000069 Ry

     iteration #  7     ecut=   124.00 Ry     beta= 0.70
     Davidson diagonalization with overlap
     ethr =  2.46E-09,  avg # of iterations =  2.4

     negative rho (up, down):  9.347E-04 0.000E+00

     total cpu time spent up to now is      112.1 secs

     total energy              =    -448.56504264 Ry
     estimated scf accuracy    <       0.00000006 Ry

     iteration #  8     ecut=   124.00 Ry     beta= 0.70
     Davidson diagonalization with overlap
     ethr =  2.29E-10,  avg # of iterations =  4.1

     negative rho (up, down):  9.347E-04 0.000E+00

     total cpu time spent up to now is      114.4 secs

     total energy              =    -448.56504266 Ry
     estimated scf accuracy    <          2.3E-09 Ry

     iteration #  9     ecut=   124.00 Ry     beta= 0.70
     Davidson diagonalization with overlap
     ethr =  8.07E-12,  avg # of iterations =  4.8

     negative rho (up, down):  9.346E-04 0.000E+00

     total cpu time spent up to now is      116.8 secs

     total energy              =    -448.56504266 Ry
     estimated scf accuracy    <          2.8E-10 Ry

     iteration # 10     ecut=   124.00 Ry     beta= 0.70
     Davidson diagonalization with overlap
     ethr =  9.87E-13,  avg # of iterations =  3.0

     negative rho (up, down):  9.346E-04 0.000E+00

     total cpu time spent up to now is      118.9 secs

     End of self-consistent calculation

     Number of k-points >= 100: set verbosity='high' to print the bands.

     the Fermi energy is    20.1996 ev

!    total energy              =    -448.56504266 Ry
     estimated scf accuracy    <          9.0E-12 Ry
     smearing contrib. (-TS)   =       0.00002744 Ry
     internal energy E=F+TS    =    -448.56507010 Ry

     The total energy is F=E-TS. E is the sum of the following terms:
     one-electron contribution =    -135.61472956 Ry
     hartree contribution      =      86.40948154 Ry
     xc contribution           =     -53.11033649 Ry
     ewald contribution        =    -270.09318822 Ry
     one-center paw contrib.   =     -76.15629738 Ry

     convergence has been achieved in  10 iterations

     negative rho (up, down):  9.346E-04 0.000E+00

     Forces acting on atoms (cartesian axes, Ry/au):

     atom    1 type  1   force =     0.00000000    0.00000000    0.00000000
     atom    2 type  2   force =     0.00000000    0.00000000    0.00000000

     Total force =     0.000000     Total SCF correction =     0.000000


     Computing stress (Cartesian axis) and pressure


     negative rho (up, down):  9.346E-04 0.000E+00
          total   stress  (Ry/bohr**3)                   (kbar)     P=      335.66
   0.00228177   0.00000000   0.00000000          335.66        0.00        0.00
   0.00000000   0.00228177   0.00000000            0.00      335.66        0.00
   0.00000000   0.00000000   0.00228177            0.00        0.00      335.66

     Energy error            =      4.3E-03 Ry
     Gradient error          =      0.0E+00 Ry/Bohr
     Cell gradient error     =      2.6E+01 kbar

     number of scf cycles    =   3
     number of bfgs steps    =   2

     enthalpy           old  =    -448.1855834989 Ry
     enthalpy           new  =    -448.1898841890 Ry

     CASE: enthalpy          _new < enthalpy          _old

     new trust radius        =       0.0062181720 bohr
     new conv_thr            =            1.0E-10 Ry

     new unit-cell volume =    151.30350 a.u.^3 (    22.42087 Ang^3 )
     density =      7.68114 g/cm^3

CELL_PARAMETERS (alat=  5.55330037)
   0.959544596   0.000000000   0.000000000
   0.000000000   0.959544596   0.000000000
   0.000000000   0.000000000   0.959544596

ATOMIC_POSITIONS (crystal)
Fe               0.5000000000        0.5000000000        0.5000000000
Ti               0.0000000000        0.0000000000        0.0000000000



     Writing config-only to output data dir ./TiFe.save/ :
     XML data file
     NEW-OLD atomic charge density approx. for the potential
     New effective cutoffs (rho, wfc): 1885.33  134.67

     Check: negative core charge=   -0.000002

     negative rho (up, down):  9.330E-04 0.000E+00

     total cpu time spent up to now is      121.5 secs

     per-process dynamical memory:   162.1 Mb

     Self-consistent Calculation

     iteration #  1     ecut=   124.00 Ry     beta= 0.70
     Davidson diagonalization with overlap
     ethr =  1.00E-06,  avg # of iterations =  3.9

     Threshold (ethr) on eigenvalues was too large:
     Diagonalizing with lowered threshold

     Davidson diagonalization with overlap
     ethr =  7.00E-09,  avg # of iterations =  5.7

     negative rho (up, down):  9.331E-04 0.000E+00

     total cpu time spent up to now is      126.6 secs

     total energy              =    -448.56227983 Ry
     estimated scf accuracy    <       0.00000287 Ry

     iteration #  2     ecut=   124.00 Ry     beta= 0.70
     Davidson diagonalization with overlap
     ethr =  1.02E-08,  avg # of iterations =  4.0

     negative rho (up, down):  9.333E-04 0.000E+00

     total cpu time spent up to now is      128.9 secs

     total energy              =    -448.56231119 Ry
     estimated scf accuracy    <       0.00009544 Ry

     iteration #  3     ecut=   124.00 Ry     beta= 0.70
     Davidson diagonalization with overlap
     ethr =  1.02E-08,  avg # of iterations =  4.2

     negative rho (up, down):  9.330E-04 0.000E+00

     total cpu time spent up to now is      131.0 secs

     total energy              =    -448.56232410 Ry
     estimated scf accuracy    <       0.00001007 Ry

     iteration #  4     ecut=   124.00 Ry     beta= 0.70
     Davidson diagonalization with overlap
     ethr =  1.02E-08,  avg # of iterations =  1.9

     negative rho (up, down):  9.333E-04 0.000E+00

     total cpu time spent up to now is      132.8 secs

     total energy              =    -448.56232493 Ry
     estimated scf accuracy    <       0.00000075 Ry

     iteration #  5     ecut=   124.00 Ry     beta= 0.70
     Davidson diagonalization with overlap
     ethr =  2.69E-09,  avg # of iterations =  2.9

     negative rho (up, down):  9.333E-04 0.000E+00

     total cpu time spent up to now is      134.7 secs

     total energy              =    -448.56232503 Ry
     estimated scf accuracy    <       0.00000003 Ry

     iteration #  6     ecut=   124.00 Ry     beta= 0.70
     Davidson diagonalization with overlap
     ethr =  1.08E-10,  avg # of iterations =  3.4

     negative rho (up, down):  9.333E-04 0.000E+00

     total cpu time spent up to now is      136.7 secs

     total energy              =    -448.56232504 Ry
     estimated scf accuracy    <          3.4E-10 Ry

     iteration #  7     ecut=   124.00 Ry     beta= 0.70
     Davidson diagonalization with overlap
     ethr =  1.20E-12,  avg # of iterations =  5.8

     negative rho (up, down):  9.333E-04 0.000E+00

     total cpu time spent up to now is      139.6 secs

     total energy              =    -448.56232504 Ry
     estimated scf accuracy    <          1.9E-09 Ry

     iteration #  8     ecut=   124.00 Ry     beta= 0.70
     Davidson diagonalization with overlap
     ethr =  1.20E-12,  avg # of iterations =  1.9

     negative rho (up, down):  9.333E-04 0.000E+00

     total cpu time spent up to now is      141.4 secs

     total energy              =    -448.56232505 Ry
     estimated scf accuracy    <          3.6E-10 Ry

     iteration #  9     ecut=   124.00 Ry     beta= 0.70
     Davidson diagonalization with overlap
     ethr =  1.20E-12,  avg # of iterations =  2.9

     negative rho (up, down):  9.333E-04 0.000E+00

     total cpu time spent up to now is      143.3 secs

     End of self-consistent calculation

     Number of k-points >= 100: set verbosity='high' to print the bands.

     the Fermi energy is    20.3707 ev

!    total energy              =    -448.56232505 Ry
     estimated scf accuracy    <          8.9E-11 Ry
     smearing contrib. (-TS)   =       0.00002622 Ry
     internal energy E=F+TS    =    -448.56235127 Ry

     The total energy is F=E-TS. E is the sum of the following terms:
     one-electron contribution =    -134.57781753 Ry
     hartree contribution      =      86.07296055 Ry
     xc contribution           =     -53.12602115 Ry
     ewald contribution        =    -270.77501553 Ry
     one-center paw contrib.   =     -76.15645760 Ry

     convergence has been achieved in   9 iterations

     negative rho (up, down):  9.333E-04 0.000E+00

     Forces acting on atoms (cartesian axes, Ry/au):

     atom    1 type  1   force =     0.00000000    0.00000000    0.00000000
     atom    2 type  2   force =     0.00000000    0.00000000    0.00000000

     Total force =     0.000000     Total SCF correction =     0.000000


     Computing stress (Cartesian axis) and pressure


     negative rho (up, down):  9.333E-04 0.000E+00
          total   stress  (Ry/bohr**3)                   (kbar)     P=      360.49
   0.00245056   0.00000000   0.00000000          360.49        0.00        0.00
   0.00000000   0.00245056   0.00000000            0.00      360.49        0.00
   0.00000000   0.00000000   0.00245056            0.00        0.00      360.49

     Energy error            =      1.1E-04 Ry
     Gradient error          =      0.0E+00 Ry/Bohr
     Cell gradient error     =      1.5E+00 kbar

     number of scf cycles    =   4
     number of bfgs steps    =   3

     enthalpy           old  =    -448.1898841890 Ry
     enthalpy           new  =    -448.1899934523 Ry

     CASE: enthalpy          _new < enthalpy          _old

     new trust radius        =       0.0003758855 bohr
     new conv_thr            =            1.0E-10 Ry

     new unit-cell volume =    151.23416 a.u.^3 (    22.41059 Ang^3 )
     density =      7.68466 g/cm^3

CELL_PARAMETERS (alat=  5.55330037)
   0.959397985   0.000000000   0.000000000
   0.000000000   0.959397985   0.000000000
   0.000000000   0.000000000   0.959397985

ATOMIC_POSITIONS (crystal)
Fe               0.5000000000        0.5000000000        0.5000000000
Ti               0.0000000000        0.0000000000        0.0000000000



     Writing config-only to output data dir ./TiFe.save/ :
     XML data file
     NEW-OLD atomic charge density approx. for the potential
     New effective cutoffs (rho, wfc): 1885.90  134.71

     Check: negative core charge=   -0.000002

     negative rho (up, down):  9.333E-04 0.000E+00

     total cpu time spent up to now is      145.8 secs

     per-process dynamical memory:   162.1 Mb

     Self-consistent Calculation

     iteration #  1     ecut=   124.00 Ry     beta= 0.70
     Davidson diagonalization with overlap
     ethr =  1.00E-06,  avg # of iterations =  2.0

     Threshold (ethr) on eigenvalues was too large:
     Diagonalizing with lowered threshold

     Davidson diagonalization with overlap
     ethr =  1.11E-10,  avg # of iterations =  6.7

     negative rho (up, down):  9.332E-04 0.000E+00

     total cpu time spent up to now is      150.6 secs

     total energy              =    -448.56215452 Ry
     estimated scf accuracy    <       0.00000007 Ry

     iteration #  2     ecut=   124.00 Ry     beta= 0.70
     Davidson diagonalization with overlap
     ethr =  2.36E-10,  avg # of iterations =  4.5

     negative rho (up, down):  9.333E-04 0.000E+00

     total cpu time spent up to now is      153.0 secs

     total energy              =    -448.56215439 Ry
     estimated scf accuracy    <       0.00000512 Ry

     iteration #  3     ecut=   124.00 Ry     beta= 0.70
     Davidson diagonalization with overlap
     ethr =  2.36E-10,  avg # of iterations =  4.6

     negative rho (up, down):  9.332E-04 0.000E+00

     total cpu time spent up to now is      155.3 secs

     total energy              =    -448.56215473 Ry
     estimated scf accuracy    <       0.00000001 Ry

     iteration #  4     ecut=   124.00 Ry     beta= 0.70
     Davidson diagonalization with overlap
     ethr =  4.96E-11,  avg # of iterations =  1.8

     negative rho (up, down):  9.332E-04 0.000E+00

     total cpu time spent up to now is      157.1 secs

     total energy              =    -448.56215474 Ry
     estimated scf accuracy    <          3.2E-09 Ry

     iteration #  5     ecut=   124.00 Ry     beta= 0.70
     Davidson diagonalization with overlap
     ethr =  1.15E-11,  avg # of iterations =  3.0

     negative rho (up, down):  9.333E-04 0.000E+00

     total cpu time spent up to now is      159.0 secs

     End of self-consistent calculation

     Number of k-points >= 100: set verbosity='high' to print the bands.

     the Fermi energy is    20.3812 ev

!    total energy              =    -448.56215474 Ry
     estimated scf accuracy    <          2.7E-11 Ry
     smearing contrib. (-TS)   =       0.00002608 Ry
     internal energy E=F+TS    =    -448.56218082 Ry

     The total energy is F=E-TS. E is the sum of the following terms:
     one-electron contribution =    -134.51486197 Ry
     hartree contribution      =      86.05251506 Ry
     xc contribution           =     -53.12697135 Ry
     ewald contribution        =    -270.81639415 Ry
     one-center paw contrib.   =     -76.15646840 Ry

     convergence has been achieved in   5 iterations

     negative rho (up, down):  9.333E-04 0.000E+00

     Forces acting on atoms (cartesian axes, Ry/au):

     atom    1 type  1   force =     0.00000000    0.00000000    0.00000000
     atom    2 type  2   force =     0.00000000    0.00000000    0.00000000

     Total force =     0.000000     Total SCF correction =     0.000000


     Computing stress (Cartesian axis) and pressure


     negative rho (up, down):  9.333E-04 0.000E+00
          total   stress  (Ry/bohr**3)                   (kbar)     P=      362.03
   0.00246103   0.00000000   0.00000000          362.03        0.00        0.00
   0.00000000   0.00246103   0.00000000            0.00      362.03        0.00
   0.00000000   0.00000000   0.00246103            0.00        0.00      362.03

     Energy error            =      3.4E-07 Ry
     Gradient error          =      0.0E+00 Ry/Bohr
     Cell gradient error     =      3.0E-02 kbar

     bfgs converged in   5 scf cycles and   4 bfgs steps
     (criteria: energy <  1.0E-04 Ry, force <  1.0E-03 Ry/Bohr, cell <  5.0E-01 kbar)

     End of BFGS Geometry Optimization

     Final enthalpy           =    -448.1899937918 Ry

     File ./TiFe.bfgs deleted, as requested
Begin final coordinates
     new unit-cell volume =    151.23416 a.u.^3 (    22.41059 Ang^3 )
     density =      7.68466 g/cm^3

CELL_PARAMETERS (alat=  5.55330037)
   0.959397985   0.000000000   0.000000000
   0.000000000   0.959397985   0.000000000
   0.000000000   0.000000000   0.959397985

ATOMIC_POSITIONS (crystal)
Fe               0.5000000000        0.5000000000        0.5000000000
Ti               0.0000000000        0.0000000000        0.0000000000
End final coordinates



     Writing config-only to output data dir ./TiFe.save/ :
     XML data file

     Final scf calculation at the relaxed structure.
     The G-vectors are recalculated for the final unit cell
     Results may differ from those at the preceding step.

     Parallelization info
     --------------------
     sticks:   dense  smooth     PW     G-vecs:    dense   smooth      PW
     Min         488     139     41                23042     3531     567
     Max         489     140     42                23047     3533     570
     Sum        3909    1117    333               184355    28257    4553

     Using Slab Decomposition



     bravais-lattice index     =            0
     lattice parameter (alat)  =       5.5533  a.u.
     unit-cell volume          =     151.2342 (a.u.)^3
     number of atoms/cell      =            2
     number of atomic types    =            2
     number of electrons       =        28.00
     number of Kohn-Sham states=           18
     kinetic-energy cutoff     =     124.0000  Ry
     charge density cutoff     =    1736.0000  Ry
     scf convergence threshold =      1.0E-10
     mixing beta               =       0.7000
     number of iterations used =            8  plain     mixing
     press convergence thresh. =      5.0E-01
     Exchange-correlation= PBE
                           (   1   4   3   4   0   0   0)

     celldm(1)=   5.553300  celldm(2)=   0.000000  celldm(3)=   0.000000
     celldm(4)=   0.000000  celldm(5)=   0.000000  celldm(6)=   0.000000

     crystal axes: (cart. coord. in units of alat)
               a(1) = (   0.959398   0.000000   0.000000 )  
               a(2) = (   0.000000   0.959398   0.000000 )  
               a(3) = (   0.000000   0.000000   0.959398 )  

     reciprocal axes: (cart. coord. in units 2 pi/alat)
               b(1) = (  1.042320  0.000000  0.000000 )  
               b(2) = (  0.000000  1.042320  0.000000 )  
               b(3) = (  0.000000  0.000000  1.042320 )  


     PseudoPot. # 1 for Fe read from file:
     ../../pseudos/Fe.pbe-spn-kjpaw_psl.0.2.1.UPF
     MD5 check sum: e86618425769142926afa95317d90200
     Pseudo is Projector augmented-wave + core cor, Zval = 16.0
     Generated using "atomic" code by A. Dal Corso  v.5.0.99 svn rev. 10869
     Shape of augmentation charge: PSQ
     Using radial grid of 1191 points,  6 beta functions with: 
                l(1) =   0
                l(2) =   0
                l(3) =   1
                l(4) =   1
                l(5) =   2
                l(6) =   2
     Q(r) pseudized with 0 coefficients 


     PseudoPot. # 2 for Ti read from file:
     ../../pseudos/ti_pbe_v1.4.uspp.F.UPF
     MD5 check sum: 88a00a6731bd790ddea75d31a80cb452
     Pseudo is Ultrasoft + core correction, Zval = 12.0
     Generated by new atomic code, or converted to UPF format
     Using radial grid of  851 points,  6 beta functions with: 
                l(1) =   0
                l(2) =   0
                l(3) =   1
                l(4) =   1
                l(5) =   2
                l(6) =   2
     Q(r) pseudized with  6 coefficients,  rinner =    1.000   1.000   1.000
                                                       1.000   1.000

     atomic species   valence    mass     pseudopotential
     Fe               16.00    55.84500     Fe( 1.00)
     Ti               12.00    47.86700     Ti( 1.00)

     48 Sym. Ops., with inversion, found



   Cartesian axes

     site n.     atom                  positions (alat units)
         1        Fe     tau(   1) = (   0.4796990   0.4796990   0.4796990  )
         2        Ti     tau(   2) = (   0.0000000   0.0000000   0.0000000  )

     number of k points=   120  Marzari-Vanderbilt smearing, width (Ry)=  0.0050

     Number of k-points >= 100: set verbosity='high' to print them.

     Dense  grid:   184355 G-vectors     FFT dimensions: (  72,  72,  72)

     Smooth grid:    28257 G-vectors     FFT dimensions: (  40,  40,  40)

     Estimated max dynamical RAM per process >     112.65 MB

     Estimated total dynamical RAM >     901.23 MB

     Check: negative core charge=   -0.000002

     Initial potential from superposition of free atoms

     starting charge      26.9995, renormalised to      28.0000

     negative rho (up, down):  1.320E-03 0.000E+00
     Starting wfcs are   23 randomized atomic wfcs
     Checking if some PAW data can be deallocated... 

     total cpu time spent up to now is      162.7 secs

     per-process dynamical memory:   154.5 Mb

     Self-consistent Calculation

     iteration #  1     ecut=   124.00 Ry     beta= 0.70
     Davidson diagonalization with overlap
     c_bands:  1 eigenvalues not converged
     c_bands:  1 eigenvalues not converged
     c_bands:  1 eigenvalues not converged
     c_bands:  1 eigenvalues not converged
     c_bands:  1 eigenvalues not converged
     c_bands:  1 eigenvalues not converged
     c_bands:  1 eigenvalues not converged
     c_bands:  1 eigenvalues not converged
     c_bands:  1 eigenvalues not converged
     c_bands:  2 eigenvalues not converged
     c_bands:  1 eigenvalues not converged
     c_bands:  1 eigenvalues not converged
     c_bands:  1 eigenvalues not converged
     c_bands:  1 eigenvalues not converged
     c_bands:  1 eigenvalues not converged
     c_bands:  1 eigenvalues not converged
     c_bands:  1 eigenvalues not converged
     c_bands:  1 eigenvalues not converged
     ethr =  1.00E-06,  avg # of iterations = 16.6

     negative rho (up, down):  5.993E-05 0.000E+00

     total cpu time spent up to now is      170.6 secs

     total energy              =    -437.10944184 Ry
     estimated scf accuracy    <      14.76937570 Ry

     iteration #  2     ecut=   124.00 Ry     beta= 0.70
     Davidson diagonalization with overlap
     ethr =  1.00E-02,  avg # of iterations =  6.2

     negative rho (up, down):  1.084E-04 0.000E+00

     total cpu time spent up to now is      173.7 secs

     total energy              =    -448.38221216 Ry
     estimated scf accuracy    <      57.69905711 Ry

     iteration #  3     ecut=   124.00 Ry     beta= 0.70
     Davidson diagonalization with overlap
     ethr =  1.00E-02,  avg # of iterations =  3.0

     negative rho (up, down):  3.782E-04 0.000E+00

     total cpu time spent up to now is      176.0 secs

     total energy              =    -448.47878781 Ry
     estimated scf accuracy    <      14.50602549 Ry

     iteration #  4     ecut=   124.00 Ry     beta= 0.70
     Davidson diagonalization with overlap
     ethr =  1.00E-02,  avg # of iterations =  2.1

     negative rho (up, down):  3.402E-04 0.000E+00

     total cpu time spent up to now is      177.8 secs

     total energy              =    -449.00931476 Ry
     estimated scf accuracy    <       3.87902065 Ry

     iteration #  5     ecut=   124.00 Ry     beta= 0.70
     Davidson diagonalization with overlap
     ethr =  1.00E-02,  avg # of iterations =  1.0

     negative rho (up, down):  6.288E-04 0.000E+00

     total cpu time spent up to now is      179.4 secs

     total energy              =    -448.35828156 Ry
     estimated scf accuracy    <       3.64646079 Ry

     iteration #  6     ecut=   124.00 Ry     beta= 0.70
     Davidson diagonalization with overlap
     ethr =  1.00E-02,  avg # of iterations =  1.6

     negative rho (up, down):  6.367E-04 0.000E+00

     total cpu time spent up to now is      181.1 secs

     total energy              =    -448.60371467 Ry
     estimated scf accuracy    <       0.25248697 Ry

     iteration #  7     ecut=   124.00 Ry     beta= 0.70
     Davidson diagonalization with overlap
     ethr =  9.02E-04,  avg # of iterations =  3.4

     negative rho (up, down):  7.262E-04 0.000E+00

     total cpu time spent up to now is      182.9 secs

     total energy              =    -448.59899136 Ry
     estimated scf accuracy    <       0.22262126 Ry

     iteration #  8     ecut=   124.00 Ry     beta= 0.70
     Davidson diagonalization with overlap
     ethr =  7.95E-04,  avg # of iterations =  1.1

     negative rho (up, down):  9.803E-04 0.000E+00

     total cpu time spent up to now is      184.5 secs

     total energy              =    -448.53130474 Ry
     estimated scf accuracy    <       0.16305849 Ry

     iteration #  9     ecut=   124.00 Ry     beta= 0.70
     Davidson diagonalization with overlap
     ethr =  5.82E-04,  avg # of iterations =  2.5

     negative rho (up, down):  1.120E-03 0.000E+00

     total cpu time spent up to now is      186.4 secs

     total energy              =    -448.56470137 Ry
     estimated scf accuracy    <       0.00327381 Ry

     iteration # 10     ecut=   124.00 Ry     beta= 0.70
     Davidson diagonalization with overlap
     ethr =  1.17E-05,  avg # of iterations =  8.4

     negative rho (up, down):  1.127E-03 0.000E+00

     total cpu time spent up to now is      190.1 secs

     total energy              =    -448.61824057 Ry
     estimated scf accuracy    <       0.77721087 Ry

     iteration # 11     ecut=   124.00 Ry     beta= 0.70
     Davidson diagonalization with overlap
     ethr =  1.17E-05,  avg # of iterations =  1.7

     negative rho (up, down):  9.242E-04 0.000E+00

     total cpu time spent up to now is      191.8 secs

     total energy              =    -448.55034631 Ry
     estimated scf accuracy    <       0.89668857 Ry

     iteration # 12     ecut=   124.00 Ry     beta= 0.70
     Davidson diagonalization with overlap
     ethr =  1.17E-05,  avg # of iterations =  5.6

     negative rho (up, down):  8.156E-04 0.000E+00

     total cpu time spent up to now is      194.4 secs

     total energy              =    -448.53447867 Ry
     estimated scf accuracy    <       0.13747865 Ry

     iteration # 13     ecut=   124.00 Ry     beta= 0.70
     Davidson diagonalization with overlap
     ethr =  1.17E-05,  avg # of iterations =  5.6

     negative rho (up, down):  8.451E-04 0.000E+00

     total cpu time spent up to now is      197.2 secs

     total energy              =    -448.57298855 Ry
     estimated scf accuracy    <       0.23458500 Ry

     iteration # 14     ecut=   124.00 Ry     beta= 0.70
     Davidson diagonalization with overlap
     ethr =  1.17E-05,  avg # of iterations =  2.1

     negative rho (up, down):  9.111E-04 0.000E+00

     total cpu time spent up to now is      198.9 secs

     total energy              =    -448.56285788 Ry
     estimated scf accuracy    <       0.15605389 Ry

     iteration # 15     ecut=   124.00 Ry     beta= 0.70
     Davidson diagonalization with overlap
     ethr =  1.17E-05,  avg # of iterations =  3.8

     negative rho (up, down):  1.016E-03 0.000E+00

     total cpu time spent up to now is      201.1 secs

     total energy              =    -448.55860288 Ry
     estimated scf accuracy    <       0.04506384 Ry

     iteration # 16     ecut=   124.00 Ry     beta= 0.70
     Davidson diagonalization with overlap
     ethr =  1.17E-05,  avg # of iterations =  4.5

     negative rho (up, down):  1.004E-03 0.000E+00

     total cpu time spent up to now is      203.4 secs

     total energy              =    -448.56233805 Ry
     estimated scf accuracy    <       0.00179623 Ry

     iteration # 17     ecut=   124.00 Ry     beta= 0.70
     Davidson diagonalization with overlap
     ethr =  6.42E-06,  avg # of iterations =  1.1

     negative rho (up, down):  9.673E-04 0.000E+00

     total cpu time spent up to now is      205.0 secs

     total energy              =    -448.56185810 Ry
     estimated scf accuracy    <       0.00133790 Ry

     iteration # 18     ecut=   124.00 Ry     beta= 0.70
     Davidson diagonalization with overlap
     ethr =  4.78E-06,  avg # of iterations =  2.0

     negative rho (up, down):  9.622E-04 0.000E+00

     total cpu time spent up to now is      206.8 secs

     total energy              =    -448.56198429 Ry
     estimated scf accuracy    <       0.00041954 Ry

     iteration # 19     ecut=   124.00 Ry     beta= 0.70
     Davidson diagonalization with overlap
     ethr =  1.50E-06,  avg # of iterations =  1.1

     negative rho (up, down):  9.580E-04 0.000E+00

     total cpu time spent up to now is      208.4 secs

     total energy              =    -448.56197346 Ry
     estimated scf accuracy    <       0.00018076 Ry

     iteration # 20     ecut=   124.00 Ry     beta= 0.70
     Davidson diagonalization with overlap
     ethr =  6.46E-07,  avg # of iterations =  2.3

     negative rho (up, down):  9.557E-04 0.000E+00

     total cpu time spent up to now is      210.1 secs

     total energy              =    -448.56198355 Ry
     estimated scf accuracy    <       0.00001846 Ry

     iteration # 21     ecut=   124.00 Ry     beta= 0.70
     Davidson diagonalization with overlap
     ethr =  6.59E-08,  avg # of iterations =  4.4

     negative rho (up, down):  9.557E-04 0.000E+00

     total cpu time spent up to now is      212.2 secs

     total energy              =    -448.56198965 Ry
     estimated scf accuracy    <       0.00000318 Ry

     iteration # 22     ecut=   124.00 Ry     beta= 0.70
     Davidson diagonalization with overlap
     ethr =  1.14E-08,  avg # of iterations =  3.2

     negative rho (up, down):  9.559E-04 0.000E+00

     total cpu time spent up to now is      214.0 secs

     total energy              =    -448.56198987 Ry
     estimated scf accuracy    <       0.00000065 Ry

     iteration # 23     ecut=   124.00 Ry     beta= 0.70
     Davidson diagonalization with overlap
     ethr =  2.32E-09,  avg # of iterations =  2.9

     negative rho (up, down):  9.561E-04 0.000E+00

     total cpu time spent up to now is      215.8 secs

     total energy              =    -448.56198992 Ry
     estimated scf accuracy    <       0.00000003 Ry

     iteration # 24     ecut=   124.00 Ry     beta= 0.70
     Davidson diagonalization with overlap
     ethr =  1.11E-10,  avg # of iterations =  4.8

     negative rho (up, down):  9.560E-04 0.000E+00

     total cpu time spent up to now is      218.3 secs

     total energy              =    -448.56198993 Ry
     estimated scf accuracy    <       0.00000013 Ry

     iteration # 25     ecut=   124.00 Ry     beta= 0.70
     Davidson diagonalization with overlap
     ethr =  1.11E-10,  avg # of iterations =  3.7

     negative rho (up, down):  9.560E-04 0.000E+00

     total cpu time spent up to now is      220.3 secs

     total energy              =    -448.56198994 Ry
     estimated scf accuracy    <          1.5E-09 Ry

     iteration # 26     ecut=   124.00 Ry     beta= 0.70
     Davidson diagonalization with overlap
     ethr =  5.23E-12,  avg # of iterations =  3.0

     negative rho (up, down):  9.560E-04 0.000E+00

     total cpu time spent up to now is      222.2 secs

     total energy              =    -448.56198994 Ry
     estimated scf accuracy    <          6.6E-10 Ry

     iteration # 27     ecut=   124.00 Ry     beta= 0.70
     Davidson diagonalization with overlap
     ethr =  2.37E-12,  avg # of iterations =  2.6

     negative rho (up, down):  9.560E-04 0.000E+00

     total cpu time spent up to now is      224.1 secs

     End of self-consistent calculation

     Number of k-points >= 100: set verbosity='high' to print the bands.

     the Fermi energy is    20.3812 ev

!    total energy              =    -448.56198994 Ry
     estimated scf accuracy    <          4.1E-11 Ry
     smearing contrib. (-TS)   =       0.00002607 Ry
     internal energy E=F+TS    =    -448.56201601 Ry

     The total energy is F=E-TS. E is the sum of the following terms:
     one-electron contribution =    -134.51503526 Ry
     hartree contribution      =      86.05267073 Ry
     xc contribution           =     -53.12681052 Ry
     ewald contribution        =    -270.81639415 Ry
     one-center paw contrib.   =     -76.15644681 Ry

     convergence has been achieved in  27 iterations

     negative rho (up, down):  9.560E-04 0.000E+00

     Forces acting on atoms (cartesian axes, Ry/au):

     atom    1 type  1   force =     0.00000000    0.00000000    0.00000000
     atom    2 type  2   force =     0.00000000    0.00000000    0.00000000

     Total force =     0.000000     Total SCF correction =     0.000000


     Computing stress (Cartesian axis) and pressure


     negative rho (up, down):  9.560E-04 0.000E+00
          total   stress  (Ry/bohr**3)                   (kbar)     P=      360.97
   0.00245379   0.00000000   0.00000000          360.97        0.00        0.00
   0.00000000   0.00245379   0.00000000            0.00      360.97        0.00
   0.00000000   0.00000000   0.00245379            0.00        0.00      360.97


     Writing all to output data dir ./TiFe.save/ :
     XML data file, charge density, pseudopotentials, collected wavefunctions

     init_run     :      3.12s CPU      3.45s WALL (       2 calls)
     electrons    :    198.74s CPU    207.56s WALL (       6 calls)
     update_pot   :      0.39s CPU      0.41s WALL (       4 calls)
     forces       :      1.91s CPU      2.04s WALL (       6 calls)
     stress       :     10.62s CPU     10.95s WALL (       6 calls)

     Called by init_run:
     wfcinit      :      1.34s CPU      1.50s WALL (       2 calls)
     potinit      :      0.47s CPU      0.58s WALL (       2 calls)
     hinit0       :      0.94s CPU      0.96s WALL (       2 calls)

     Called by electrons:
     c_bands      :    145.48s CPU    149.47s WALL (      94 calls)
     sum_band     :     33.33s CPU     36.15s WALL (      94 calls)
     v_of_rho     :      2.33s CPU      2.48s WALL (      98 calls)
     newd         :     12.62s CPU     14.38s WALL (      98 calls)
     PAW_pot      :      5.98s CPU      6.16s WALL (     102 calls)
     mix_rho      :      0.24s CPU      0.26s WALL (      94 calls)

     Called by c_bands:
     init_us_2    :      4.00s CPU      4.16s WALL (   24720 calls)
     cegterg      :    138.83s CPU    142.50s WALL (   11280 calls)

     Called by *egterg:
     cdiaghg      :     18.70s CPU     19.22s WALL (   49024 calls)
     h_psi        :    103.01s CPU    105.93s WALL (   49984 calls)
     s_psi        :      2.70s CPU      2.78s WALL (   49984 calls)
     g_psi        :      0.70s CPU      0.71s WALL (   38464 calls)

     Called by h_psi:
     h_psi:calbec :      4.28s CPU      4.40s WALL (   49984 calls)
     vloc_psi     :     95.35s CPU     98.06s WALL (   49984 calls)
     add_vuspsi   :      2.79s CPU      2.88s WALL (   49984 calls)

     General routines
     calbec       :      6.75s CPU      6.94s WALL (   73984 calls)
     fft          :      1.91s CPU      2.09s WALL (    1418 calls)
     ffts         :      0.31s CPU      0.32s WALL (     192 calls)
     fftw         :     83.01s CPU     85.16s WALL ( 1354170 calls)
     interpolate  :      0.41s CPU      0.43s WALL (      98 calls)

     Parallel routines

     PWSCF        :    216.16s CPU    226.55s WALL


   This run was terminated on:  17: 7:32  27Oct2025            

=------------------------------------------------------------------------------=
   JOB DONE.
=------------------------------------------------------------------------------=
