
     Program PWSCF v.7.4 starts on 27Oct2025 at 17:17:40 

     This program is part of the open-source Quantum ESPRESSO suite
     for quantum simulation of materials; please cite
         "P. Giannozzi et al., J. Phys.:Condens. Matter 21 395502 (2009);
         "P. Giannozzi et al., J. Phys.:Condens. Matter 29 465901 (2017);
         "P. Giannozzi et al., J. Chem. Phys. 152 154105 (2020);
          URL http://www.quantum-espresso.org", 
     in publications or presentations arising from this work. More details at
     http://www.quantum-espresso.org/quote

     Parallel version (MPI & OpenMP), running on       8 processor cores
     Number of MPI processes:                 8
     Threads/MPI process:                     1

     MPI processes distributed on     1 nodes
     199950 MiB available memory on the printing compute node when the environment starts

     Reading input from TiFe_relaxed1.in

     Current dimensions of program PWSCF are:
     Max number of different atomic species (ntypx) = 10
     Max number of k-points (npk) =  40000
     Max angular momentum in pseudopotentials (lmaxx) =  4
     file Fe.pbe-spn-kjpaw_psl.0.2.1.UPF: wavefunction(s)  3D renormalized

     IMPORTANT: XC functional enforced from input :
     Exchange-correlation= PBE
                           (   1   4   3   4   0   0   0)
     Any further DFT definition will be discarded
     Please, verify this is what you really want

     Message from routine setup:
     using ibrav=0 with symmetry is DISCOURAGED, use correct ibrav instead

     R & G space division:  proc/nbgrp/npool/nimage =       8
     Subspace diagonalization in iterative solution of the eigenvalue problem:
     a serial algorithm will be used


     Parallelization info
     --------------------
     sticks:   dense  smooth     PW     G-vecs:    dense   smooth      PW
     Min         532     151     44                26154     3989     629
     Max         533     152     46                26155     3993     632
     Sum        4257    1209    357               209233    31919    5041

     Using Slab Decomposition



     bravais-lattice index     =            0
     lattice parameter (alat)  =       5.5533  a.u.
     unit-cell volume          =     171.2590 (a.u.)^3
     number of atoms/cell      =            2
     number of atomic types    =            2
     number of electrons       =        28.00
     number of Kohn-Sham states=           18
     kinetic-energy cutoff     =     124.0000  Ry
     charge density cutoff     =    1736.0000  Ry
     scf convergence threshold =      1.0E-08
     mixing beta               =       0.7000
     number of iterations used =            8  plain     mixing
     energy convergence thresh.=      1.0E-04
     force convergence thresh. =      1.0E-03
     press convergence thresh. =      5.0E-01
     Exchange-correlation= PBE
                           (   1   4   3   4   0   0   0)
     nstep                     =           50


     celldm(1)=   5.553300  celldm(2)=   0.000000  celldm(3)=   0.000000
     celldm(4)=   0.000000  celldm(5)=   0.000000  celldm(6)=   0.000000

     crystal axes: (cart. coord. in units of alat)
               a(1) = (   1.000000   0.000000   0.000000 )  
               a(2) = (   0.000000   1.000000   0.000000 )  
               a(3) = (   0.000000   0.000000   1.000000 )  

     reciprocal axes: (cart. coord. in units 2 pi/alat)
               b(1) = (  1.000000  0.000000  0.000000 )  
               b(2) = (  0.000000  1.000000  0.000000 )  
               b(3) = (  0.000000  0.000000  1.000000 )  


     PseudoPot. # 1 for Fe read from file:
     ../../pseudos/Fe.pbe-spn-kjpaw_psl.0.2.1.UPF
     MD5 check sum: e86618425769142926afa95317d90200
     Pseudo is Projector augmented-wave + core cor, Zval = 16.0
     Generated using "atomic" code by A. Dal Corso  v.5.0.99 svn rev. 10869
     Shape of augmentation charge: PSQ
     Using radial grid of 1191 points,  6 beta functions with: 
                l(1) =   0
                l(2) =   0
                l(3) =   1
                l(4) =   1
                l(5) =   2
                l(6) =   2
     Q(r) pseudized with 0 coefficients 


     PseudoPot. # 2 for Ti read from file:
     ../../pseudos/ti_pbe_v1.4.uspp.F.UPF
     MD5 check sum: 88a00a6731bd790ddea75d31a80cb452
     Pseudo is Ultrasoft + core correction, Zval = 12.0
     Generated by new atomic code, or converted to UPF format
     Using radial grid of  851 points,  6 beta functions with: 
                l(1) =   0
                l(2) =   0
                l(3) =   1
                l(4) =   1
                l(5) =   2
                l(6) =   2
     Q(r) pseudized with  6 coefficients,  rinner =    1.000   1.000   1.000
                                                       1.000   1.000

     atomic species   valence    mass     pseudopotential
     Fe               16.00    55.84500     Fe( 1.00)
     Ti               12.00    47.86700     Ti( 1.00)

     48 Sym. Ops., with inversion, found



   Cartesian axes

     site n.     atom                  positions (alat units)
         1        Fe     tau(   1) = (   0.5000000   0.5000000   0.5000000  )
         2        Ti     tau(   2) = (   0.0000000   0.0000000   0.0000000  )

     number of k points=   120  Marzari-Vanderbilt smearing, width (Ry)=  0.0050

     Number of k-points >= 100: set verbosity='high' to print them.

     Dense  grid:   209233 G-vectors     FFT dimensions: (  75,  75,  75)

     Smooth grid:    31919 G-vectors     FFT dimensions: (  40,  40,  40)

     Estimated max dynamical RAM per process >     125.80 MB

     Estimated total dynamical RAM >    1006.42 MB

     Check: negative core charge=   -0.000002

     Initial potential from superposition of free atoms

     starting charge      26.9995, renormalised to      28.0000

     negative rho (up, down):  1.347E-03 0.000E+00
     Starting wfcs are   23 randomized atomic wfcs
     Checking if some PAW data can be deallocated... 

     total cpu time spent up to now is        2.0 secs

     per-process dynamical memory:   151.6 Mb

     Self-consistent Calculation

     iteration #  1     ecut=   124.00 Ry     beta= 0.70
     Davidson diagonalization with overlap
     ethr =  1.00E-02,  avg # of iterations =  2.1

     negative rho (up, down):  8.075E-05 0.000E+00

     total cpu time spent up to now is        4.0 secs

     total energy              =    -434.88034974 Ry
     estimated scf accuracy    <      17.47740323 Ry

     iteration #  2     ecut=   124.00 Ry     beta= 0.70
     Davidson diagonalization with overlap
     ethr =  1.00E-02,  avg # of iterations =  6.1

     negative rho (up, down):  2.388E-05 0.000E+00

     total cpu time spent up to now is        7.3 secs

     total energy              =    -448.51195570 Ry
     estimated scf accuracy    <      66.14338935 Ry

     iteration #  3     ecut=   124.00 Ry     beta= 0.70
     Davidson diagonalization with overlap
     ethr =  1.00E-02,  avg # of iterations =  3.1

     negative rho (up, down):  2.384E-04 0.000E+00

     total cpu time spent up to now is        9.7 secs

     total energy              =    -448.59876074 Ry
     estimated scf accuracy    <      16.77187988 Ry

     iteration #  4     ecut=   124.00 Ry     beta= 0.70
     Davidson diagonalization with overlap
     ethr =  1.00E-02,  avg # of iterations =  2.1

     negative rho (up, down):  2.771E-04 0.000E+00

     total cpu time spent up to now is       11.7 secs

     total energy              =    -449.11451992 Ry
     estimated scf accuracy    <       4.73362336 Ry

     iteration #  5     ecut=   124.00 Ry     beta= 0.70
     Davidson diagonalization with overlap
     ethr =  1.00E-02,  avg # of iterations =  1.0

     negative rho (up, down):  3.233E-04 0.000E+00

     total cpu time spent up to now is       13.4 secs

     total energy              =    -449.12131532 Ry
     estimated scf accuracy    <       4.31212425 Ry

     iteration #  6     ecut=   124.00 Ry     beta= 0.70
     Davidson diagonalization with overlap
     ethr =  1.00E-02,  avg # of iterations =  1.0

     negative rho (up, down):  1.107E-03 0.000E+00

     total cpu time spent up to now is       15.1 secs

     total energy              =    -447.89389661 Ry
     estimated scf accuracy    <       4.51968901 Ry

     iteration #  7     ecut=   124.00 Ry     beta= 0.70
     Davidson diagonalization with overlap
     ethr =  1.00E-02,  avg # of iterations =  3.4

     negative rho (up, down):  1.008E-03 0.000E+00

     total cpu time spent up to now is       17.1 secs

     total energy              =    -448.58423346 Ry
     estimated scf accuracy    <       3.81978614 Ry

     iteration #  8     ecut=   124.00 Ry     beta= 0.70
     Davidson diagonalization with overlap
     ethr =  1.00E-02,  avg # of iterations =  1.0

     negative rho (up, down):  8.248E-04 0.000E+00

     total cpu time spent up to now is       18.8 secs

     total energy              =    -448.46846099 Ry
     estimated scf accuracy    <       1.21375717 Ry

     iteration #  9     ecut=   124.00 Ry     beta= 0.70
     Davidson diagonalization with overlap
     ethr =  4.33E-03,  avg # of iterations =  1.7

     negative rho (up, down):  8.317E-04 0.000E+00

     total cpu time spent up to now is       20.6 secs

     total energy              =    -448.59501092 Ry
     estimated scf accuracy    <       0.12585284 Ry

     iteration # 10     ecut=   124.00 Ry     beta= 0.70
     Davidson diagonalization with overlap
     ethr =  4.49E-04,  avg # of iterations =  2.3

     negative rho (up, down):  8.588E-04 0.000E+00

     total cpu time spent up to now is       22.4 secs

     total energy              =    -448.59602789 Ry
     estimated scf accuracy    <       0.14907511 Ry

     iteration # 11     ecut=   124.00 Ry     beta= 0.70
     Davidson diagonalization with overlap
     ethr =  4.49E-04,  avg # of iterations =  1.1

     negative rho (up, down):  1.121E-03 0.000E+00

     total cpu time spent up to now is       24.1 secs

     total energy              =    -448.56917534 Ry
     estimated scf accuracy    <       0.14868094 Ry

     iteration # 12     ecut=   124.00 Ry     beta= 0.70
     Davidson diagonalization with overlap
     ethr =  4.49E-04,  avg # of iterations =  4.3

     negative rho (up, down):  1.213E-03 0.000E+00

     total cpu time spent up to now is       26.5 secs

     total energy              =    -448.65391026 Ry
     estimated scf accuracy    <       0.18318037 Ry

     iteration # 13     ecut=   124.00 Ry     beta= 0.70
     Davidson diagonalization with overlap
     ethr =  4.49E-04,  avg # of iterations =  1.9

     negative rho (up, down):  2.114E-03 0.000E+00

     total cpu time spent up to now is       28.3 secs

     total energy              =    -449.03322660 Ry
     estimated scf accuracy    <       0.44442165 Ry

     iteration # 14     ecut=   124.00 Ry     beta= 0.70
     Davidson diagonalization with overlap
     ethr =  4.49E-04,  avg # of iterations =  6.2

     negative rho (up, down):  1.459E-03 0.000E+00

     total cpu time spent up to now is       31.3 secs

     total energy              =    -448.51932691 Ry
     estimated scf accuracy    <      26.98882288 Ry

     iteration # 15     ecut=   124.00 Ry     beta= 0.70
     Davidson diagonalization with overlap
     ethr =  4.49E-04,  avg # of iterations =  4.8

     negative rho (up, down):  1.137E-03 0.000E+00

     total cpu time spent up to now is       33.9 secs

     total energy              =    -448.49454821 Ry
     estimated scf accuracy    <       4.43870871 Ry

     iteration # 16     ecut=   124.00 Ry     beta= 0.70
     Davidson diagonalization with overlap
     ethr =  4.49E-04,  avg # of iterations =  4.3

     negative rho (up, down):  1.088E-03 0.000E+00

     total cpu time spent up to now is       36.3 secs

     total energy              =    -448.60519511 Ry
     estimated scf accuracy    <       0.36277654 Ry

     iteration # 17     ecut=   124.00 Ry     beta= 0.70
     Davidson diagonalization with overlap
     ethr =  4.49E-04,  avg # of iterations =  2.0

     negative rho (up, down):  1.022E-03 0.000E+00

     total cpu time spent up to now is       38.1 secs

     total energy              =    -448.58523807 Ry
     estimated scf accuracy    <       0.39566391 Ry

     iteration # 18     ecut=   124.00 Ry     beta= 0.70
     Davidson diagonalization with overlap
     ethr =  4.49E-04,  avg # of iterations =  1.2

     negative rho (up, down):  9.735E-04 0.000E+00

     total cpu time spent up to now is       39.8 secs

     total energy              =    -448.57914660 Ry
     estimated scf accuracy    <       0.10585194 Ry

     iteration # 19     ecut=   124.00 Ry     beta= 0.70
     Davidson diagonalization with overlap
     ethr =  3.78E-04,  avg # of iterations =  1.8

     negative rho (up, down):  9.827E-04 0.000E+00

     total cpu time spent up to now is       41.6 secs

     total energy              =    -448.58492275 Ry
     estimated scf accuracy    <       0.01167453 Ry

     iteration # 20     ecut=   124.00 Ry     beta= 0.70
     Davidson diagonalization with overlap
     ethr =  4.17E-05,  avg # of iterations =  4.3

     negative rho (up, down):  9.840E-04 0.000E+00

     total cpu time spent up to now is       43.8 secs

     total energy              =    -448.58662258 Ry
     estimated scf accuracy    <       0.00743010 Ry

     iteration # 21     ecut=   124.00 Ry     beta= 0.70
     Davidson diagonalization with overlap
     ethr =  2.65E-05,  avg # of iterations =  1.2

     negative rho (up, down):  9.783E-04 0.000E+00

     total cpu time spent up to now is       45.5 secs

     total energy              =    -448.58668664 Ry
     estimated scf accuracy    <       0.00779711 Ry

     iteration # 22     ecut=   124.00 Ry     beta= 0.70
     Davidson diagonalization with overlap
     ethr =  2.65E-05,  avg # of iterations =  1.0

     negative rho (up, down):  1.037E-03 0.000E+00

     total cpu time spent up to now is       47.2 secs

     total energy              =    -448.58737858 Ry
     estimated scf accuracy    <       0.00638001 Ry

     iteration # 23     ecut=   124.00 Ry     beta= 0.70
     Davidson diagonalization with overlap
     ethr =  2.28E-05,  avg # of iterations =  1.0

     negative rho (up, down):  1.004E-03 0.000E+00

     total cpu time spent up to now is       49.0 secs

     total energy              =    -448.58667571 Ry
     estimated scf accuracy    <       0.01401587 Ry

     iteration # 24     ecut=   124.00 Ry     beta= 0.70
     Davidson diagonalization with overlap
     ethr =  2.28E-05,  avg # of iterations =  1.0

     negative rho (up, down):  9.887E-04 0.000E+00

     total cpu time spent up to now is       50.7 secs

     total energy              =    -448.58663217 Ry
     estimated scf accuracy    <       0.00473463 Ry

     iteration # 25     ecut=   124.00 Ry     beta= 0.70
     Davidson diagonalization with overlap
     ethr =  1.69E-05,  avg # of iterations =  1.0

     negative rho (up, down):  9.662E-04 0.000E+00

     total cpu time spent up to now is       52.4 secs

     total energy              =    -448.58651421 Ry
     estimated scf accuracy    <       0.00172770 Ry

     iteration # 26     ecut=   124.00 Ry     beta= 0.70
     Davidson diagonalization with overlap
     ethr =  6.17E-06,  avg # of iterations =  1.7

     negative rho (up, down):  9.659E-04 0.000E+00

     total cpu time spent up to now is       54.1 secs

     total energy              =    -448.58655054 Ry
     estimated scf accuracy    <       0.00047004 Ry

     iteration # 27     ecut=   124.00 Ry     beta= 0.70
     Davidson diagonalization with overlap
     ethr =  1.68E-06,  avg # of iterations =  2.3

     negative rho (up, down):  9.621E-04 0.000E+00

     total cpu time spent up to now is       56.0 secs

     total energy              =    -448.58654470 Ry
     estimated scf accuracy    <       0.00023845 Ry

     iteration # 28     ecut=   124.00 Ry     beta= 0.70
     Davidson diagonalization with overlap
     ethr =  8.52E-07,  avg # of iterations =  1.7

     negative rho (up, down):  9.604E-04 0.000E+00

     total cpu time spent up to now is       57.8 secs

     total energy              =    -448.58653701 Ry
     estimated scf accuracy    <       0.00010746 Ry

     iteration # 29     ecut=   124.00 Ry     beta= 0.70
     Davidson diagonalization with overlap
     ethr =  3.84E-07,  avg # of iterations =  2.4

     negative rho (up, down):  9.615E-04 0.000E+00

     total cpu time spent up to now is       59.6 secs

     total energy              =    -448.58653629 Ry
     estimated scf accuracy    <       0.00003417 Ry

     iteration # 30     ecut=   124.00 Ry     beta= 0.70
     Davidson diagonalization with overlap
     ethr =  1.22E-07,  avg # of iterations =  3.3

     negative rho (up, down):  9.610E-04 0.000E+00

     total cpu time spent up to now is       61.6 secs

     total energy              =    -448.58654028 Ry
     estimated scf accuracy    <       0.00000540 Ry

     iteration # 31     ecut=   124.00 Ry     beta= 0.70
     Davidson diagonalization with overlap
     ethr =  1.93E-08,  avg # of iterations =  4.0

     negative rho (up, down):  9.613E-04 0.000E+00

     total cpu time spent up to now is       63.8 secs

     total energy              =    -448.58654137 Ry
     estimated scf accuracy    <       0.00000083 Ry

     iteration # 32     ecut=   124.00 Ry     beta= 0.70
     Davidson diagonalization with overlap
     ethr =  2.95E-09,  avg # of iterations =  3.0

     negative rho (up, down):  9.613E-04 0.000E+00

     total cpu time spent up to now is       65.8 secs

     total energy              =    -448.58654147 Ry
     estimated scf accuracy    <       0.00000005 Ry

     iteration # 33     ecut=   124.00 Ry     beta= 0.70
     Davidson diagonalization with overlap
     ethr =  1.74E-10,  avg # of iterations =  4.5

     negative rho (up, down):  9.615E-04 0.000E+00

     total cpu time spent up to now is       68.2 secs

     End of self-consistent calculation

     Number of k-points >= 100: set verbosity='high' to print the bands.

     the Fermi energy is    17.7222 ev

!    total energy              =    -448.58654149 Ry
     estimated scf accuracy    <          4.8E-09 Ry
     smearing contrib. (-TS)   =      -0.00001774 Ry
     internal energy E=F+TS    =    -448.58652375 Ry

     The total energy is F=E-TS. E is the sum of the following terms:
     one-electron contribution =    -151.35065372 Ry
     hartree contribution      =      91.62732609 Ry
     xc contribution           =     -52.88875636 Ry
     ewald contribution        =    -259.82070277 Ry
     one-center paw contrib.   =     -76.15373699 Ry

     convergence has been achieved in  33 iterations

     negative rho (up, down):  9.615E-04 0.000E+00

     Forces acting on atoms (cartesian axes, Ry/au):

     atom    1 type  1   force =     0.00000000    0.00000000    0.00000000
     atom    2 type  2   force =     0.00000000    0.00000000    0.00000000

     Total force =     0.000000     Total SCF correction =     0.000000


     Computing stress (Cartesian axis) and pressure


     negative rho (up, down):  9.615E-04 0.000E+00
          total   stress  (Ry/bohr**3)                   (kbar)     P=       29.45
   0.00020020   0.00000000   0.00000000           29.45        0.00        0.00
   0.00000000   0.00020020   0.00000000            0.00       29.45        0.00
   0.00000000   0.00000000   0.00020020            0.00        0.00       29.45


     BFGS Geometry Optimization
     Energy error            =      8.5E-03 Ry
     Gradient error          =      0.0E+00 Ry/Bohr
     Cell gradient error     =      1.2E+02 kbar

     number of scf cycles    =   1
     number of bfgs steps    =   0

     enthalpy           new  =    -448.6943406826 Ry

     new trust radius        =       0.0542862932 bohr
     new conv_thr            =       0.0000000100 Ry

     new unit-cell volume =    182.13793 a.u.^3 (    26.99006 Ang^3 )
     density =      6.38079 g/cm^3

CELL_PARAMETERS (alat=  5.55330037)
   1.020741179   0.000000000   0.000000000
   0.000000000   1.020741179   0.000000000
   0.000000000   0.000000000   1.020741179

ATOMIC_POSITIONS (crystal)
Fe               0.5000000000        0.5000000000        0.5000000000
Ti               0.0000000000        0.0000000000        0.0000000000



     Writing config-only to output data dir ./TiFe.save/ :
     XML data file
     NEW-OLD atomic charge density approx. for the potential
     New effective cutoffs (rho, wfc): 1666.04  119.01

     negative rho (up, down):  1.014E-03 0.000E+00

     total cpu time spent up to now is       70.8 secs

     per-process dynamical memory:   162.3 Mb

     Self-consistent Calculation

     iteration #  1     ecut=   124.00 Ry     beta= 0.70
     Davidson diagonalization with overlap
     ethr =  1.00E-06,  avg # of iterations =  8.2

     negative rho (up, down):  9.858E-04 0.000E+00

     total cpu time spent up to now is       74.7 secs

     total energy              =    -448.58258067 Ry
     estimated scf accuracy    <       0.00179312 Ry

     iteration #  2     ecut=   124.00 Ry     beta= 0.70
     Davidson diagonalization with overlap
     ethr =  6.40E-06,  avg # of iterations =  5.4

     negative rho (up, down):  9.638E-04 0.000E+00

     total cpu time spent up to now is       77.4 secs

     total energy              =    -448.57375266 Ry
     estimated scf accuracy    <       0.20627798 Ry

     iteration #  3     ecut=   124.00 Ry     beta= 0.70
     Davidson diagonalization with overlap
     ethr =  6.40E-06,  avg # of iterations =  5.0

     negative rho (up, down):  9.739E-04 0.000E+00

     total cpu time spent up to now is       79.9 secs

     total energy              =    -448.58428938 Ry
     estimated scf accuracy    <       0.00068635 Ry

     iteration #  4     ecut=   124.00 Ry     beta= 0.70
     Davidson diagonalization with overlap
     ethr =  2.45E-06,  avg # of iterations =  2.0

     negative rho (up, down):  9.749E-04 0.000E+00

     total cpu time spent up to now is       81.8 secs

     total energy              =    -448.58438336 Ry
     estimated scf accuracy    <       0.00005583 Ry

     iteration #  5     ecut=   124.00 Ry     beta= 0.70
     Davidson diagonalization with overlap
     ethr =  1.99E-07,  avg # of iterations =  4.3

     negative rho (up, down):  9.717E-04 0.000E+00

     total cpu time spent up to now is       84.1 secs

     total energy              =    -448.58440169 Ry
     estimated scf accuracy    <       0.00000754 Ry

     iteration #  6     ecut=   124.00 Ry     beta= 0.70
     Davidson diagonalization with overlap
     ethr =  2.69E-08,  avg # of iterations =  3.5

     negative rho (up, down):  9.711E-04 0.000E+00

     total cpu time spent up to now is       86.3 secs

     total energy              =    -448.58440407 Ry
     estimated scf accuracy    <       0.00000146 Ry

     iteration #  7     ecut=   124.00 Ry     beta= 0.70
     Davidson diagonalization with overlap
     ethr =  5.21E-09,  avg # of iterations =  2.5

     negative rho (up, down):  9.715E-04 0.000E+00

     total cpu time spent up to now is       88.3 secs

     total energy              =    -448.58440414 Ry
     estimated scf accuracy    <       0.00000031 Ry

     iteration #  8     ecut=   124.00 Ry     beta= 0.70
     Davidson diagonalization with overlap
     ethr =  1.09E-09,  avg # of iterations =  3.1

     negative rho (up, down):  9.716E-04 0.000E+00

     total cpu time spent up to now is       90.4 secs

     total energy              =    -448.58440422 Ry
     estimated scf accuracy    <       0.00000003 Ry

     iteration #  9     ecut=   124.00 Ry     beta= 0.70
     Davidson diagonalization with overlap
     ethr =  1.22E-10,  avg # of iterations =  3.9

     negative rho (up, down):  9.715E-04 0.000E+00

     total cpu time spent up to now is       92.5 secs

     End of self-consistent calculation

     Number of k-points >= 100: set verbosity='high' to print the bands.

     the Fermi energy is    16.4635 ev

!    total energy              =    -448.58440423 Ry
     estimated scf accuracy    <          2.5E-09 Ry
     smearing contrib. (-TS)   =      -0.00002480 Ry
     internal energy E=F+TS    =    -448.58437943 Ry

     The total energy is F=E-TS. E is the sum of the following terms:
     one-electron contribution =    -159.51878180 Ry
     hartree contribution      =      94.41268633 Ry
     xc contribution           =     -52.78466876 Ry
     ewald contribution        =    -254.54121774 Ry
     one-center paw contrib.   =     -76.15239746 Ry

     convergence has been achieved in   9 iterations

     negative rho (up, down):  9.715E-04 0.000E+00

     Forces acting on atoms (cartesian axes, Ry/au):

     atom    1 type  1   force =     0.00000000    0.00000000    0.00000000
     atom    2 type  2   force =     0.00000000    0.00000000    0.00000000

     Total force =     0.000000     Total SCF correction =     0.000000


     Computing stress (Cartesian axis) and pressure


     negative rho (up, down):  9.715E-04 0.000E+00
          total   stress  (Ry/bohr**3)                   (kbar)     P=      -81.36
  -0.00055309   0.00000000   0.00000000          -81.36        0.00        0.00
   0.00000000  -0.00055309   0.00000000            0.00      -81.36        0.00
   0.00000000   0.00000000  -0.00055309            0.00        0.00      -81.36

     Energy error            =      4.7E-03 Ry
     Gradient error          =      0.0E+00 Ry/Bohr
     Cell gradient error     =      1.1E+01 kbar

     number of scf cycles    =   2
     number of bfgs steps    =   1

     enthalpy           old  =    -448.6943406826 Ry
     enthalpy           new  =    -448.6990511518 Ry

     CASE: enthalpy          _new < enthalpy          _old

     new trust radius        =       0.0058177257 bohr
     new conv_thr            =            1.0E-10 Ry

     new unit-cell volume =    183.31820 a.u.^3 (    27.16495 Ang^3 )
     density =      6.33971 g/cm^3

CELL_PARAMETERS (alat=  5.55330037)
   1.022941260   0.000000000   0.000000000
   0.000000000   1.022941260   0.000000000
   0.000000000   0.000000000   1.022941260

ATOMIC_POSITIONS (crystal)
Fe               0.5000000000        0.5000000000        0.5000000000
Ti               0.0000000000        0.0000000000        0.0000000000



     Writing config-only to output data dir ./TiFe.save/ :
     XML data file
     NEW-OLD atomic charge density approx. for the potential
     New effective cutoffs (rho, wfc): 1658.88  118.50

     negative rho (up, down):  9.726E-04 0.000E+00

     total cpu time spent up to now is       95.1 secs

     per-process dynamical memory:   162.3 Mb

     Self-consistent Calculation

     iteration #  1     ecut=   124.00 Ry     beta= 0.70
     Davidson diagonalization with overlap
     ethr =  1.00E-06,  avg # of iterations =  3.0

     Threshold (ethr) on eigenvalues was too large:
     Diagonalizing with lowered threshold

     Davidson diagonalization with overlap
     ethr =  2.51E-08,  avg # of iterations =  4.9

     negative rho (up, down):  9.722E-04 0.000E+00

     total cpu time spent up to now is       99.8 secs

     total energy              =    -448.58368279 Ry
     estimated scf accuracy    <       0.00001216 Ry

     iteration #  2     ecut=   124.00 Ry     beta= 0.70
     Davidson diagonalization with overlap
     ethr =  4.34E-08,  avg # of iterations =  4.5

     negative rho (up, down):  9.713E-04 0.000E+00

     total cpu time spent up to now is      102.2 secs

     total energy              =    -448.58364167 Ry
     estimated scf accuracy    <       0.00112004 Ry

     iteration #  3     ecut=   124.00 Ry     beta= 0.70
     Davidson diagonalization with overlap
     ethr =  4.34E-08,  avg # of iterations =  4.9

     negative rho (up, down):  9.724E-04 0.000E+00

     total cpu time spent up to now is      104.5 secs

     total energy              =    -448.58370643 Ry
     estimated scf accuracy    <       0.00001198 Ry

     iteration #  4     ecut=   124.00 Ry     beta= 0.70
     Davidson diagonalization with overlap
     ethr =  4.28E-08,  avg # of iterations =  1.3

     negative rho (up, down):  9.723E-04 0.000E+00

     total cpu time spent up to now is      106.3 secs

     total energy              =    -448.58370728 Ry
     estimated scf accuracy    <       0.00000146 Ry

     iteration #  5     ecut=   124.00 Ry     beta= 0.70
     Davidson diagonalization with overlap
     ethr =  5.21E-09,  avg # of iterations =  3.9

     negative rho (up, down):  9.722E-04 0.000E+00

     total cpu time spent up to now is      108.3 secs

     total energy              =    -448.58370753 Ry
     estimated scf accuracy    <       0.00000016 Ry

     iteration #  6     ecut=   124.00 Ry     beta= 0.70
     Davidson diagonalization with overlap
     ethr =  5.86E-10,  avg # of iterations =  3.6

     negative rho (up, down):  9.722E-04 0.000E+00

     total cpu time spent up to now is      110.3 secs

     total energy              =    -448.58370755 Ry
     estimated scf accuracy    <       0.00000002 Ry

     iteration #  7     ecut=   124.00 Ry     beta= 0.70
     Davidson diagonalization with overlap
     ethr =  7.93E-11,  avg # of iterations =  4.2

     negative rho (up, down):  9.721E-04 0.000E+00

     total cpu time spent up to now is      112.5 secs

     total energy              =    -448.58370755 Ry
     estimated scf accuracy    <       0.00000001 Ry

     iteration #  8     ecut=   124.00 Ry     beta= 0.70
     Davidson diagonalization with overlap
     ethr =  5.18E-11,  avg # of iterations =  2.9

     negative rho (up, down):  9.720E-04 0.000E+00

     total cpu time spent up to now is      114.5 secs

     total energy              =    -448.58370757 Ry
     estimated scf accuracy    <       0.00000002 Ry

     iteration #  9     ecut=   124.00 Ry     beta= 0.70
     Davidson diagonalization with overlap
     ethr =  5.18E-11,  avg # of iterations =  4.1

     negative rho (up, down):  9.721E-04 0.000E+00

     total cpu time spent up to now is      116.8 secs

     total energy              =    -448.58370755 Ry
     estimated scf accuracy    <       0.00000024 Ry

     iteration # 10     ecut=   124.00 Ry     beta= 0.70
     Davidson diagonalization with overlap
     ethr =  5.18E-11,  avg # of iterations =  3.8

     negative rho (up, down):  9.721E-04 0.000E+00

     total cpu time spent up to now is      119.0 secs

     total energy              =    -448.58370755 Ry
     estimated scf accuracy    <       0.00000002 Ry

     iteration # 11     ecut=   124.00 Ry     beta= 0.70
     Davidson diagonalization with overlap
     ethr =  5.18E-11,  avg # of iterations =  2.0

     negative rho (up, down):  9.721E-04 0.000E+00

     total cpu time spent up to now is      120.9 secs

     total energy              =    -448.58370755 Ry
     estimated scf accuracy    <          2.8E-09 Ry

     iteration # 12     ecut=   124.00 Ry     beta= 0.70
     Davidson diagonalization with overlap
     ethr =  9.94E-12,  avg # of iterations =  4.5

     negative rho (up, down):  9.721E-04 0.000E+00

     total cpu time spent up to now is      123.3 secs

     total energy              =    -448.58370756 Ry
     estimated scf accuracy    <          4.6E-10 Ry

     iteration # 13     ecut=   124.00 Ry     beta= 0.70
     Davidson diagonalization with overlap
     ethr =  1.64E-12,  avg # of iterations =  1.8

     negative rho (up, down):  9.721E-04 0.000E+00

     total cpu time spent up to now is      125.1 secs

     total energy              =    -448.58370756 Ry
     estimated scf accuracy    <          1.8E-10 Ry

     iteration # 14     ecut=   124.00 Ry     beta= 0.70
     Davidson diagonalization with overlap
     ethr =  6.47E-13,  avg # of iterations =  1.5

     negative rho (up, down):  9.721E-04 0.000E+00

     total cpu time spent up to now is      126.8 secs

     total energy              =    -448.58370756 Ry
     estimated scf accuracy    <          2.4E-10 Ry

     iteration # 15     ecut=   124.00 Ry     beta= 0.70
     Davidson diagonalization with overlap
     ethr =  6.47E-13,  avg # of iterations =  2.0

     negative rho (up, down):  9.721E-04 0.000E+00

     total cpu time spent up to now is      128.7 secs

     End of self-consistent calculation

     Number of k-points >= 100: set verbosity='high' to print the bands.

     the Fermi energy is    16.3350 ev

!    total energy              =    -448.58370756 Ry
     estimated scf accuracy    <          1.4E-13 Ry
     smearing contrib. (-TS)   =      -0.00002172 Ry
     internal energy E=F+TS    =    -448.58368584 Ry

     The total energy is F=E-TS. E is the sum of the following terms:
     one-electron contribution =    -160.36901776 Ry
     hartree contribution      =      94.70557762 Ry
     xc contribution           =     -52.77422978 Ry
     ewald contribution        =    -253.99376566 Ry
     one-center paw contrib.   =     -76.15225025 Ry

     convergence has been achieved in  15 iterations

     negative rho (up, down):  9.721E-04 0.000E+00

     Forces acting on atoms (cartesian axes, Ry/au):

     atom    1 type  1   force =     0.00000000    0.00000000    0.00000000
     atom    2 type  2   force =     0.00000000    0.00000000    0.00000000

     Total force =     0.000000     Total SCF correction =     0.000000


     Computing stress (Cartesian axis) and pressure


     negative rho (up, down):  9.721E-04 0.000E+00
          total   stress  (Ry/bohr**3)                   (kbar)     P=      -91.86
  -0.00062444   0.00000000   0.00000000          -91.86        0.00        0.00
   0.00000000  -0.00062444   0.00000000            0.00      -91.86        0.00
   0.00000000   0.00000000  -0.00062444            0.00        0.00      -91.86

     Energy error            =      4.6E-05 Ry
     Gradient error          =      0.0E+00 Ry/Bohr
     Cell gradient error     =      7.4E-01 kbar

     number of scf cycles    =   3
     number of bfgs steps    =   2

     enthalpy           old  =    -448.6990511518 Ry
     enthalpy           new  =    -448.6990973990 Ry

     CASE: enthalpy          _new < enthalpy          _old

     new trust radius        =       0.0004111285 bohr
     new conv_thr            =            1.0E-10 Ry

     new unit-cell volume =    183.40171 a.u.^3 (    27.17733 Ang^3 )
     density =      6.33682 g/cm^3

CELL_PARAMETERS (alat=  5.55330037)
   1.023096569   0.000000000   0.000000000
   0.000000000   1.023096569   0.000000000
   0.000000000   0.000000000   1.023096569

ATOMIC_POSITIONS (crystal)
Fe               0.5000000000        0.5000000000        0.5000000000
Ti               0.0000000000        0.0000000000        0.0000000000



     Writing config-only to output data dir ./TiFe.save/ :
     XML data file
     NEW-OLD atomic charge density approx. for the potential
     New effective cutoffs (rho, wfc): 1658.38  118.46

     negative rho (up, down):  9.722E-04 0.000E+00

     total cpu time spent up to now is      131.3 secs

     per-process dynamical memory:   162.6 Mb

     Self-consistent Calculation

     iteration #  1     ecut=   124.00 Ry     beta= 0.70
     Davidson diagonalization with overlap
     ethr =  1.00E-06,  avg # of iterations =  2.0

     Threshold (ethr) on eigenvalues was too large:
     Diagonalizing with lowered threshold

     Davidson diagonalization with overlap
     ethr =  8.79E-11,  avg # of iterations =  6.6

     negative rho (up, down):  9.721E-04 0.000E+00

     total cpu time spent up to now is      136.1 secs

     total energy              =    -448.58365510 Ry
     estimated scf accuracy    <       0.00000005 Ry

     iteration #  2     ecut=   124.00 Ry     beta= 0.70
     Davidson diagonalization with overlap
     ethr =  1.94E-10,  avg # of iterations =  4.4

     negative rho (up, down):  9.721E-04 0.000E+00

     total cpu time spent up to now is      138.5 secs

     total energy              =    -448.58365494 Ry
     estimated scf accuracy    <       0.00000465 Ry

     iteration #  3     ecut=   124.00 Ry     beta= 0.70
     Davidson diagonalization with overlap
     ethr =  1.94E-10,  avg # of iterations =  4.8

     negative rho (up, down):  9.722E-04 0.000E+00

     total cpu time spent up to now is      140.8 secs

     total energy              =    -448.58365521 Ry
     estimated scf accuracy    <       0.00000007 Ry

     iteration #  4     ecut=   124.00 Ry     beta= 0.70
     Davidson diagonalization with overlap
     ethr =  1.94E-10,  avg # of iterations =  1.3

     negative rho (up, down):  9.721E-04 0.000E+00

     total cpu time spent up to now is      142.5 secs

     total energy              =    -448.58365521 Ry
     estimated scf accuracy    <          8.4E-09 Ry

     iteration #  5     ecut=   124.00 Ry     beta= 0.70
     Davidson diagonalization with overlap
     ethr =  3.01E-11,  avg # of iterations =  3.8

     negative rho (up, down):  9.721E-04 0.000E+00

     total cpu time spent up to now is      144.5 secs

     total energy              =    -448.58365521 Ry
     estimated scf accuracy    <          8.2E-10 Ry

     iteration #  6     ecut=   124.00 Ry     beta= 0.70
     Davidson diagonalization with overlap
     ethr =  2.94E-12,  avg # of iterations =  3.9

     negative rho (up, down):  9.721E-04 0.000E+00

     total cpu time spent up to now is      146.6 secs

     total energy              =    -448.58365521 Ry
     estimated scf accuracy    <          1.2E-10 Ry

     iteration #  7     ecut=   124.00 Ry     beta= 0.70
     Davidson diagonalization with overlap
     ethr =  4.22E-13,  avg # of iterations =  4.4

     negative rho (up, down):  9.721E-04 0.000E+00

     total cpu time spent up to now is      148.8 secs

     total energy              =    -448.58365521 Ry
     estimated scf accuracy    <          3.7E-10 Ry

     iteration #  8     ecut=   124.00 Ry     beta= 0.70
     Davidson diagonalization with overlap
     ethr =  4.22E-13,  avg # of iterations =  3.4

     negative rho (up, down):  9.721E-04 0.000E+00

     total cpu time spent up to now is      150.8 secs

     End of self-consistent calculation

     Number of k-points >= 100: set verbosity='high' to print the bands.

     the Fermi energy is    16.3260 ev

!    total energy              =    -448.58365521 Ry
     estimated scf accuracy    <          1.6E-11 Ry
     smearing contrib. (-TS)   =      -0.00002149 Ry
     internal energy E=F+TS    =    -448.58363372 Ry

     The total energy is F=E-TS. E is the sum of the following terms:
     one-electron contribution =    -160.42899713 Ry
     hartree contribution      =      94.72632531 Ry
     xc contribution           =     -52.77351271 Ry
     ewald contribution        =    -253.95520878 Ry
     one-center paw contrib.   =     -76.15224041 Ry

     convergence has been achieved in   8 iterations

     negative rho (up, down):  9.721E-04 0.000E+00

     Forces acting on atoms (cartesian axes, Ry/au):

     atom    1 type  1   force =     0.00000000    0.00000000    0.00000000
     atom    2 type  2   force =     0.00000000    0.00000000    0.00000000

     Total force =     0.000000     Total SCF correction =     0.000000


     Computing stress (Cartesian axis) and pressure


     negative rho (up, down):  9.721E-04 0.000E+00
          total   stress  (Ry/bohr**3)                   (kbar)     P=      -92.53
  -0.00062902   0.00000000   0.00000000          -92.53        0.00        0.00
   0.00000000  -0.00062902   0.00000000            0.00      -92.53        0.00
   0.00000000   0.00000000  -0.00062902            0.00        0.00      -92.53

     Energy error            =      2.2E-07 Ry
     Gradient error          =      0.0E+00 Ry/Bohr
     Cell gradient error     =      6.3E-02 kbar

     bfgs converged in   4 scf cycles and   3 bfgs steps
     (criteria: energy <  1.0E-04 Ry, force <  1.0E-03 Ry/Bohr, cell <  5.0E-01 kbar)

     End of BFGS Geometry Optimization

     Final enthalpy           =    -448.6990976190 Ry

     File ./TiFe.bfgs deleted, as requested
Begin final coordinates
     new unit-cell volume =    183.40171 a.u.^3 (    27.17733 Ang^3 )
     density =      6.33682 g/cm^3

CELL_PARAMETERS (alat=  5.55330037)
   1.023096569   0.000000000   0.000000000
   0.000000000   1.023096569   0.000000000
   0.000000000   0.000000000   1.023096569

ATOMIC_POSITIONS (crystal)
Fe               0.5000000000        0.5000000000        0.5000000000
Ti               0.0000000000        0.0000000000        0.0000000000
End final coordinates



     Writing config-only to output data dir ./TiFe.save/ :
     XML data file

     Final scf calculation at the relaxed structure.
     The G-vectors are recalculated for the final unit cell
     Results may differ from those at the preceding step.

     Parallelization info
     --------------------
     sticks:   dense  smooth     PW     G-vecs:    dense   smooth      PW
     Min         558     159     46                28002     4283     680
     Max         559     161     47                28005     4284     683
     Sum        4469    1281    373               224023    34265    5449

     Using Slab Decomposition



     bravais-lattice index     =            0
     lattice parameter (alat)  =       5.5533  a.u.
     unit-cell volume          =     183.4017 (a.u.)^3
     number of atoms/cell      =            2
     number of atomic types    =            2
     number of electrons       =        28.00
     number of Kohn-Sham states=           18
     kinetic-energy cutoff     =     124.0000  Ry
     charge density cutoff     =    1736.0000  Ry
     scf convergence threshold =      1.0E-10
     mixing beta               =       0.7000
     number of iterations used =            8  plain     mixing
     press convergence thresh. =      5.0E-01
     Exchange-correlation= PBE
                           (   1   4   3   4   0   0   0)

     celldm(1)=   5.553300  celldm(2)=   0.000000  celldm(3)=   0.000000
     celldm(4)=   0.000000  celldm(5)=   0.000000  celldm(6)=   0.000000

     crystal axes: (cart. coord. in units of alat)
               a(1) = (   1.023097   0.000000   0.000000 )  
               a(2) = (   0.000000   1.023097   0.000000 )  
               a(3) = (   0.000000   0.000000   1.023097 )  

     reciprocal axes: (cart. coord. in units 2 pi/alat)
               b(1) = (  0.977425  0.000000  0.000000 )  
               b(2) = (  0.000000  0.977425  0.000000 )  
               b(3) = (  0.000000  0.000000  0.977425 )  


     PseudoPot. # 1 for Fe read from file:
     ../../pseudos/Fe.pbe-spn-kjpaw_psl.0.2.1.UPF
     MD5 check sum: e86618425769142926afa95317d90200
     Pseudo is Projector augmented-wave + core cor, Zval = 16.0
     Generated using "atomic" code by A. Dal Corso  v.5.0.99 svn rev. 10869
     Shape of augmentation charge: PSQ
     Using radial grid of 1191 points,  6 beta functions with: 
                l(1) =   0
                l(2) =   0
                l(3) =   1
                l(4) =   1
                l(5) =   2
                l(6) =   2
     Q(r) pseudized with 0 coefficients 


     PseudoPot. # 2 for Ti read from file:
     ../../pseudos/ti_pbe_v1.4.uspp.F.UPF
     MD5 check sum: 88a00a6731bd790ddea75d31a80cb452
     Pseudo is Ultrasoft + core correction, Zval = 12.0
     Generated by new atomic code, or converted to UPF format
     Using radial grid of  851 points,  6 beta functions with: 
                l(1) =   0
                l(2) =   0
                l(3) =   1
                l(4) =   1
                l(5) =   2
                l(6) =   2
     Q(r) pseudized with  6 coefficients,  rinner =    1.000   1.000   1.000
                                                       1.000   1.000

     atomic species   valence    mass     pseudopotential
     Fe               16.00    55.84500     Fe( 1.00)
     Ti               12.00    47.86700     Ti( 1.00)

     48 Sym. Ops., with inversion, found



   Cartesian axes

     site n.     atom                  positions (alat units)
         1        Fe     tau(   1) = (   0.5115483   0.5115483   0.5115483  )
         2        Ti     tau(   2) = (   0.0000000   0.0000000   0.0000000  )

     number of k points=   120  Marzari-Vanderbilt smearing, width (Ry)=  0.0050

     Number of k-points >= 100: set verbosity='high' to print them.

     Dense  grid:   224023 G-vectors     FFT dimensions: (  75,  75,  75)

     Smooth grid:    34265 G-vectors     FFT dimensions: (  45,  45,  45)

     Estimated max dynamical RAM per process >     133.88 MB

     Estimated total dynamical RAM >       1.05 GB

     Check: negative core charge=   -0.000001

     Initial potential from superposition of free atoms

     starting charge      26.9995, renormalised to      28.0000

     negative rho (up, down):  1.375E-03 0.000E+00
     Starting wfcs are   23 randomized atomic wfcs
     Checking if some PAW data can be deallocated... 

     total cpu time spent up to now is      154.6 secs

     per-process dynamical memory:   154.5 Mb

     Self-consistent Calculation

     iteration #  1     ecut=   124.00 Ry     beta= 0.70
     Davidson diagonalization with overlap
     c_bands:  1 eigenvalues not converged
     c_bands:  1 eigenvalues not converged
     c_bands:  1 eigenvalues not converged
     c_bands:  1 eigenvalues not converged
     c_bands:  1 eigenvalues not converged
     c_bands:  1 eigenvalues not converged
     c_bands:  1 eigenvalues not converged
     c_bands:  1 eigenvalues not converged
     c_bands:  1 eigenvalues not converged
     c_bands:  1 eigenvalues not converged
     c_bands:  1 eigenvalues not converged
     c_bands:  1 eigenvalues not converged
     c_bands:  1 eigenvalues not converged
     c_bands:  1 eigenvalues not converged
     ethr =  1.00E-06,  avg # of iterations = 16.5

     negative rho (up, down):  1.348E-04 0.000E+00

     total cpu time spent up to now is      166.2 secs

     total energy              =    -433.69099231 Ry
     estimated scf accuracy    <      18.94499724 Ry

     iteration #  2     ecut=   124.00 Ry     beta= 0.70
     Davidson diagonalization with overlap
     ethr =  1.00E-02,  avg # of iterations =  6.4

     negative rho (up, down):  2.602E-05 0.000E+00

     total cpu time spent up to now is      171.1 secs

     total energy              =    -448.52832648 Ry
     estimated scf accuracy    <      71.21804305 Ry

     iteration #  3     ecut=   124.00 Ry     beta= 0.70
     Davidson diagonalization with overlap
     ethr =  1.00E-02,  avg # of iterations =  3.1

     negative rho (up, down):  2.369E-04 0.000E+00

     total cpu time spent up to now is      174.4 secs

     total energy              =    -448.77962989 Ry
     estimated scf accuracy    <      18.15915931 Ry

     iteration #  4     ecut=   124.00 Ry     beta= 0.70
     Davidson diagonalization with overlap
     ethr =  1.00E-02,  avg # of iterations =  2.2

     negative rho (up, down):  3.041E-04 0.000E+00

     total cpu time spent up to now is      177.2 secs

     total energy              =    -449.17805393 Ry
     estimated scf accuracy    <       6.00621159 Ry

     iteration #  5     ecut=   124.00 Ry     beta= 0.70
     Davidson diagonalization with overlap
     ethr =  1.00E-02,  avg # of iterations =  1.1

     negative rho (up, down):  5.589E-04 0.000E+00

     total cpu time spent up to now is      179.5 secs

     total energy              =    -448.93917727 Ry
     estimated scf accuracy    <       5.16045074 Ry

     iteration #  6     ecut=   124.00 Ry     beta= 0.70
     Davidson diagonalization with overlap
     ethr =  1.00E-02,  avg # of iterations =  1.2

     negative rho (up, down):  1.068E-03 0.000E+00

     total cpu time spent up to now is      181.9 secs

     total energy              =    -447.95519011 Ry
     estimated scf accuracy    <       4.65726861 Ry

     iteration #  7     ecut=   124.00 Ry     beta= 0.70
     Davidson diagonalization with overlap
     ethr =  1.00E-02,  avg # of iterations =  3.0

     negative rho (up, down):  1.207E-03 0.000E+00

     total cpu time spent up to now is      184.6 secs

     total energy              =    -448.89990905 Ry
     estimated scf accuracy    <       2.74292410 Ry

     iteration #  8     ecut=   124.00 Ry     beta= 0.70
     Davidson diagonalization with overlap
     ethr =  9.80E-03,  avg # of iterations =  1.8

     negative rho (up, down):  7.420E-04 0.000E+00

     total cpu time spent up to now is      187.0 secs

     total energy              =    -447.93051886 Ry
     estimated scf accuracy    <       9.67981820 Ry

     iteration #  9     ecut=   124.00 Ry     beta= 0.70
     Davidson diagonalization with overlap
     ethr =  9.80E-03,  avg # of iterations =  2.3

     negative rho (up, down):  8.927E-04 0.000E+00

     total cpu time spent up to now is      189.5 secs

     total energy              =    -448.55216046 Ry
     estimated scf accuracy    <       0.18414955 Ry

     iteration # 10     ecut=   124.00 Ry     beta= 0.70
     Davidson diagonalization with overlap
     ethr =  6.58E-04,  avg # of iterations =  2.6

     negative rho (up, down):  3.584E-04 0.000E+00

     total cpu time spent up to now is      192.0 secs

     total energy              =    -448.55338737 Ry
     estimated scf accuracy    <       0.10947059 Ry

     iteration # 11     ecut=   124.00 Ry     beta= 0.70
     Davidson diagonalization with overlap
     ethr =  3.91E-04,  avg # of iterations =  5.0

     negative rho (up, down):  5.363E-04 0.000E+00

     total cpu time spent up to now is      195.6 secs

     total energy              =    -448.45228640 Ry
     estimated scf accuracy    <       4.76892556 Ry

     iteration # 12     ecut=   124.00 Ry     beta= 0.70
     Davidson diagonalization with overlap
     ethr =  3.91E-04,  avg # of iterations =  4.3

     negative rho (up, down):  4.419E-04 0.000E+00

     total cpu time spent up to now is      198.7 secs

     total energy              =    -448.67929263 Ry
     estimated scf accuracy    <       0.39806735 Ry

     iteration # 13     ecut=   124.00 Ry     beta= 0.70
     Davidson diagonalization with overlap
     ethr =  3.91E-04,  avg # of iterations =  1.4

     negative rho (up, down):  4.940E-04 0.000E+00

     total cpu time spent up to now is      201.1 secs

     total energy              =    -448.67883510 Ry
     estimated scf accuracy    <       0.85838498 Ry

     iteration # 14     ecut=   124.00 Ry     beta= 0.70
     Davidson diagonalization with overlap
     ethr =  3.91E-04,  avg # of iterations =  1.0

     negative rho (up, down):  1.458E-04 0.000E+00

     total cpu time spent up to now is      203.5 secs

     total energy              =    -448.74975897 Ry
     estimated scf accuracy    <       0.89207252 Ry

     iteration # 15     ecut=   124.00 Ry     beta= 0.70
     Davidson diagonalization with overlap
     ethr =  3.91E-04,  avg # of iterations =  2.1

     negative rho (up, down):  7.203E-04 0.000E+00

     total cpu time spent up to now is      206.3 secs

     total energy              =    -448.55864350 Ry
     estimated scf accuracy    <       0.79272084 Ry

     iteration # 16     ecut=   124.00 Ry     beta= 0.70
     Davidson diagonalization with overlap
     ethr =  3.91E-04,  avg # of iterations =  3.4

     negative rho (up, down):  7.038E-04 0.000E+00

     total cpu time spent up to now is      209.5 secs

     total energy              =    -448.59976020 Ry
     estimated scf accuracy    <       0.13906297 Ry

     iteration # 17     ecut=   124.00 Ry     beta= 0.70
     Davidson diagonalization with overlap
     ethr =  3.91E-04,  avg # of iterations =  1.0

     negative rho (up, down):  1.076E-03 0.000E+00

     total cpu time spent up to now is      211.9 secs

     total energy              =    -448.53831439 Ry
     estimated scf accuracy    <       0.15767428 Ry

     iteration # 18     ecut=   124.00 Ry     beta= 0.70
     Davidson diagonalization with overlap
     ethr =  3.91E-04,  avg # of iterations =  4.7

     negative rho (up, down):  1.127E-03 0.000E+00

     total cpu time spent up to now is      215.2 secs

     total energy              =    -448.68280477 Ry
     estimated scf accuracy    <       0.86300376 Ry

     iteration # 19     ecut=   124.00 Ry     beta= 0.70
     Davidson diagonalization with overlap
     ethr =  3.91E-04,  avg # of iterations =  3.0

     negative rho (up, down):  6.527E-04 0.000E+00

     total cpu time spent up to now is      217.7 secs

     total energy              =    -448.40944841 Ry
     estimated scf accuracy    <       2.70926581 Ry

     iteration # 20     ecut=   124.00 Ry     beta= 0.70
     Davidson diagonalization with overlap
     ethr =  3.91E-04,  avg # of iterations =  4.5

     negative rho (up, down):  6.497E-04 0.000E+00

     total cpu time spent up to now is      221.0 secs

     total energy              =    -448.59555933 Ry
     estimated scf accuracy    <       0.04710645 Ry

     iteration # 21     ecut=   124.00 Ry     beta= 0.70
     Davidson diagonalization with overlap
     ethr =  1.68E-04,  avg # of iterations =  1.4

     negative rho (up, down):  8.267E-04 0.000E+00

     total cpu time spent up to now is      223.4 secs

     total energy              =    -448.56765375 Ry
     estimated scf accuracy    <       0.15934917 Ry

     iteration # 22     ecut=   124.00 Ry     beta= 0.70
     Davidson diagonalization with overlap
     ethr =  1.68E-04,  avg # of iterations =  3.4

     negative rho (up, down):  5.400E-04 0.000E+00

     total cpu time spent up to now is      226.5 secs

     total energy              =    -448.57764035 Ry
     estimated scf accuracy    <       0.01577579 Ry

     iteration # 23     ecut=   124.00 Ry     beta= 0.70
     Davidson diagonalization with overlap
     ethr =  5.63E-05,  avg # of iterations =  5.3

     negative rho (up, down):  5.432E-04 0.000E+00

     total cpu time spent up to now is      230.3 secs

     total energy              =    -448.62824273 Ry
     estimated scf accuracy    <       0.40633725 Ry

     iteration # 24     ecut=   124.00 Ry     beta= 0.70
     Davidson diagonalization with overlap
     ethr =  5.63E-05,  avg # of iterations =  1.0

     negative rho (up, down):  4.871E-04 0.000E+00

     total cpu time spent up to now is      232.7 secs

     total energy              =    -448.61752535 Ry
     estimated scf accuracy    <       0.40380115 Ry

     iteration # 25     ecut=   124.00 Ry     beta= 0.70
     Davidson diagonalization with overlap
     ethr =  5.63E-05,  avg # of iterations =  1.0

     negative rho (up, down):  7.006E-04 0.000E+00

     total cpu time spent up to now is      235.0 secs

     total energy              =    -448.60030256 Ry
     estimated scf accuracy    <       0.29971839 Ry

     iteration # 26     ecut=   124.00 Ry     beta= 0.70
     Davidson diagonalization with overlap
     ethr =  5.63E-05,  avg # of iterations =  2.1

     negative rho (up, down):  9.818E-04 0.000E+00

     total cpu time spent up to now is      237.7 secs

     total energy              =    -448.56612973 Ry
     estimated scf accuracy    <       0.21230648 Ry

     iteration # 27     ecut=   124.00 Ry     beta= 0.70
     Davidson diagonalization with overlap
     ethr =  5.63E-05,  avg # of iterations =  4.7

     negative rho (up, down):  9.872E-04 0.000E+00

     total cpu time spent up to now is      241.2 secs

     total energy              =    -448.58351009 Ry
     estimated scf accuracy    <       0.00219579 Ry

     iteration # 28     ecut=   124.00 Ry     beta= 0.70
     Davidson diagonalization with overlap
     ethr =  7.84E-06,  avg # of iterations =  3.7

     negative rho (up, down):  1.012E-03 0.000E+00

     total cpu time spent up to now is      244.2 secs

     total energy              =    -448.58273981 Ry
     estimated scf accuracy    <       0.00561822 Ry

     iteration # 29     ecut=   124.00 Ry     beta= 0.70
     Davidson diagonalization with overlap
     ethr =  7.84E-06,  avg # of iterations =  3.9

     negative rho (up, down):  9.898E-04 0.000E+00

     total cpu time spent up to now is      247.4 secs

     total energy              =    -448.58373425 Ry
     estimated scf accuracy    <       0.00480562 Ry

     iteration # 30     ecut=   124.00 Ry     beta= 0.70
     Davidson diagonalization with overlap
     ethr =  7.84E-06,  avg # of iterations =  1.0

     negative rho (up, down):  9.719E-04 0.000E+00

     total cpu time spent up to now is      249.7 secs

     total energy              =    -448.58367692 Ry
     estimated scf accuracy    <       0.00103388 Ry

     iteration # 31     ecut=   124.00 Ry     beta= 0.70
     Davidson diagonalization with overlap
     ethr =  3.69E-06,  avg # of iterations =  2.9

     negative rho (up, down):  9.730E-04 0.000E+00

     total cpu time spent up to now is      252.3 secs

     total energy              =    -448.58378576 Ry
     estimated scf accuracy    <       0.00004033 Ry

     iteration # 32     ecut=   124.00 Ry     beta= 0.70
     Davidson diagonalization with overlap
     ethr =  1.44E-07,  avg # of iterations =  2.9

     negative rho (up, down):  9.732E-04 0.000E+00

     total cpu time spent up to now is      255.0 secs

     total energy              =    -448.58379213 Ry
     estimated scf accuracy    <       0.00000937 Ry

     iteration # 33     ecut=   124.00 Ry     beta= 0.70
     Davidson diagonalization with overlap
     ethr =  3.35E-08,  avg # of iterations =  3.7

     negative rho (up, down):  9.728E-04 0.000E+00

     total cpu time spent up to now is      257.8 secs

     total energy              =    -448.58379226 Ry
     estimated scf accuracy    <       0.00001192 Ry

     iteration # 34     ecut=   124.00 Ry     beta= 0.70
     Davidson diagonalization with overlap
     ethr =  3.35E-08,  avg # of iterations =  1.8

     negative rho (up, down):  9.728E-04 0.000E+00

     total cpu time spent up to now is      260.3 secs

     total energy              =    -448.58379288 Ry
     estimated scf accuracy    <       0.00000079 Ry

     iteration # 35     ecut=   124.00 Ry     beta= 0.70
     Davidson diagonalization with overlap
     ethr =  2.82E-09,  avg # of iterations =  4.2

     negative rho (up, down):  9.728E-04 0.000E+00

     total cpu time spent up to now is      263.3 secs

     total energy              =    -448.58379305 Ry
     estimated scf accuracy    <       0.00000063 Ry

     iteration # 36     ecut=   124.00 Ry     beta= 0.70
     Davidson diagonalization with overlap
     ethr =  2.26E-09,  avg # of iterations =  1.0

     negative rho (up, down):  9.728E-04 0.000E+00

     total cpu time spent up to now is      265.6 secs

     total energy              =    -448.58379291 Ry
     estimated scf accuracy    <       0.00000049 Ry

     iteration # 37     ecut=   124.00 Ry     beta= 0.70
     Davidson diagonalization with overlap
     ethr =  1.76E-09,  avg # of iterations =  1.0

     negative rho (up, down):  9.727E-04 0.000E+00

     total cpu time spent up to now is      268.0 secs

     total energy              =    -448.58379290 Ry
     estimated scf accuracy    <       0.00000016 Ry

     iteration # 38     ecut=   124.00 Ry     beta= 0.70
     Davidson diagonalization with overlap
     ethr =  5.66E-10,  avg # of iterations =  1.1

     negative rho (up, down):  9.726E-04 0.000E+00

     total cpu time spent up to now is      270.4 secs

     total energy              =    -448.58379287 Ry
     estimated scf accuracy    <       0.00000009 Ry

     iteration # 39     ecut=   124.00 Ry     beta= 0.70
     Davidson diagonalization with overlap
     ethr =  3.34E-10,  avg # of iterations =  2.0

     negative rho (up, down):  9.726E-04 0.000E+00

     total cpu time spent up to now is      272.9 secs

     total energy              =    -448.58379287 Ry
     estimated scf accuracy    <       0.00000002 Ry

     iteration # 40     ecut=   124.00 Ry     beta= 0.70
     Davidson diagonalization with overlap
     ethr =  7.48E-11,  avg # of iterations =  4.6

     negative rho (up, down):  9.726E-04 0.000E+00

     total cpu time spent up to now is      276.0 secs

     total energy              =    -448.58379288 Ry
     estimated scf accuracy    <       0.00000001 Ry

     iteration # 41     ecut=   124.00 Ry     beta= 0.70
     Davidson diagonalization with overlap
     ethr =  4.65E-11,  avg # of iterations =  2.7

     negative rho (up, down):  9.726E-04 0.000E+00

     total cpu time spent up to now is      278.8 secs

     total energy              =    -448.58379288 Ry
     estimated scf accuracy    <          4.7E-09 Ry

     iteration # 42     ecut=   124.00 Ry     beta= 0.70
     Davidson diagonalization with overlap
     ethr =  1.67E-11,  avg # of iterations =  2.1

     negative rho (up, down):  9.726E-04 0.000E+00

     total cpu time spent up to now is      281.3 secs

     total energy              =    -448.58379288 Ry
     estimated scf accuracy    <          6.5E-10 Ry

     iteration # 43     ecut=   124.00 Ry     beta= 0.70
     Davidson diagonalization with overlap
     ethr =  2.33E-12,  avg # of iterations =  2.9

     negative rho (up, down):  9.726E-04 0.000E+00

     total cpu time spent up to now is      283.9 secs

     total energy              =    -448.58379288 Ry
     estimated scf accuracy    <          4.1E-10 Ry

     iteration # 44     ecut=   124.00 Ry     beta= 0.70
     Davidson diagonalization with overlap
     ethr =  1.48E-12,  avg # of iterations =  1.4

     negative rho (up, down):  9.727E-04 0.000E+00

     total cpu time spent up to now is      286.3 secs

     End of self-consistent calculation

     Number of k-points >= 100: set verbosity='high' to print the bands.

     the Fermi energy is    16.3259 ev

!    total energy              =    -448.58379288 Ry
     estimated scf accuracy    <          5.7E-11 Ry
     smearing contrib. (-TS)   =      -0.00002143 Ry
     internal energy E=F+TS    =    -448.58377145 Ry

     The total energy is F=E-TS. E is the sum of the following terms:
     one-electron contribution =    -160.42871797 Ry
     hartree contribution      =      94.72602875 Ry
     xc contribution           =     -52.77361029 Ry
     ewald contribution        =    -253.95520878 Ry
     one-center paw contrib.   =     -76.15226316 Ry

     convergence has been achieved in  44 iterations

     negative rho (up, down):  9.727E-04 0.000E+00

     Forces acting on atoms (cartesian axes, Ry/au):

     atom    1 type  1   force =     0.00000000    0.00000000    0.00000000
     atom    2 type  2   force =     0.00000000    0.00000000    0.00000000

     Total force =     0.000000     Total SCF correction =     0.000000


     Computing stress (Cartesian axis) and pressure


     negative rho (up, down):  9.727E-04 0.000E+00
          total   stress  (Ry/bohr**3)                   (kbar)     P=      -92.33
  -0.00062762   0.00000000   0.00000000          -92.33        0.00        0.00
   0.00000000  -0.00062762   0.00000000            0.00      -92.33        0.00
   0.00000000   0.00000000  -0.00062762            0.00        0.00      -92.33


     Writing all to output data dir ./TiFe.save/ :
     XML data file, charge density, pseudopotentials, collected wavefunctions

     init_run     :      3.08s CPU      3.22s WALL (       2 calls)
     electrons    :    258.81s CPU    272.87s WALL (       5 calls)
     update_pot   :      0.29s CPU      0.31s WALL (       3 calls)
     forces       :      1.66s CPU      1.85s WALL (       5 calls)
     stress       :      8.94s CPU      9.31s WALL (       5 calls)

     Called by init_run:
     wfcinit      :      1.69s CPU      1.72s WALL (       2 calls)
     potinit      :      0.59s CPU      0.60s WALL (       2 calls)
     hinit0       :      0.40s CPU      0.42s WALL (       2 calls)

     Called by electrons:
     c_bands      :    189.03s CPU    193.52s WALL (     111 calls)
     sum_band     :     44.67s CPU     50.47s WALL (     111 calls)
     v_of_rho     :      3.03s CPU      3.24s WALL (     114 calls)
     newd         :     15.88s CPU     19.38s WALL (     114 calls)
     PAW_pot      :      6.78s CPU      6.88s WALL (     117 calls)
     mix_rho      :      0.35s CPU      0.38s WALL (     111 calls)

     Called by c_bands:
     init_us_2    :      4.85s CPU      5.04s WALL (   28440 calls)
     cegterg      :    180.71s CPU    184.77s WALL (   13320 calls)

     Called by *egterg:
     cdiaghg      :     19.67s CPU     20.07s WALL (   53695 calls)
     h_psi        :    141.76s CPU    145.07s WALL (   54535 calls)
     s_psi        :      3.18s CPU      3.27s WALL (   54535 calls)
     g_psi        :      0.77s CPU      0.78s WALL (   40975 calls)

     Called by h_psi:
     h_psi:calbec :      4.79s CPU      4.91s WALL (   54535 calls)
     vloc_psi     :    132.85s CPU    135.95s WALL (   54535 calls)
     add_vuspsi   :      3.33s CPU      3.42s WALL (   54535 calls)

     General routines
     calbec       :      7.24s CPU      7.43s WALL (   78415 calls)
     fft          :      1.66s CPU      1.89s WALL (    1602 calls)
     ffts         :      0.42s CPU      0.43s WALL (     225 calls)
     fftw         :    119.97s CPU    122.58s WALL ( 1506818 calls)
     interpolate  :      0.53s CPU      0.56s WALL (     114 calls)

     Parallel routines

     PWSCF        :    273.91s CPU    289.20s WALL


   This run was terminated on:  17:22:29  27Oct2025            

=------------------------------------------------------------------------------=
   JOB DONE.
=------------------------------------------------------------------------------=
