
     Program PWSCF v.7.4 starts on 27Oct2025 at 17:35: 2 

     This program is part of the open-source Quantum ESPRESSO suite
     for quantum simulation of materials; please cite
         "P. Giannozzi et al., J. Phys.:Condens. Matter 21 395502 (2009);
         "P. Giannozzi et al., J. Phys.:Condens. Matter 29 465901 (2017);
         "P. Giannozzi et al., J. Chem. Phys. 152 154105 (2020);
          URL http://www.quantum-espresso.org", 
     in publications or presentations arising from this work. More details at
     http://www.quantum-espresso.org/quote

     Parallel version (MPI & OpenMP), running on       8 processor cores
     Number of MPI processes:                 8
     Threads/MPI process:                     1

     MPI processes distributed on     1 nodes
     199890 MiB available memory on the printing compute node when the environment starts

     Reading input from TiFe_relaxed6.in

     Current dimensions of program PWSCF are:
     Max number of different atomic species (ntypx) = 10
     Max number of k-points (npk) =  40000
     Max angular momentum in pseudopotentials (lmaxx) =  4
     file Fe.pbe-spn-kjpaw_psl.0.2.1.UPF: wavefunction(s)  3D renormalized

     IMPORTANT: XC functional enforced from input :
     Exchange-correlation= PBE
                           (   1   4   3   4   0   0   0)
     Any further DFT definition will be discarded
     Please, verify this is what you really want

     Message from routine setup:
     using ibrav=0 with symmetry is DISCOURAGED, use correct ibrav instead

     R & G space division:  proc/nbgrp/npool/nimage =       8
     Subspace diagonalization in iterative solution of the eigenvalue problem:
     a serial algorithm will be used


     Parallelization info
     --------------------
     sticks:   dense  smooth     PW     G-vecs:    dense   smooth      PW
     Min         532     151     44                26154     3989     629
     Max         533     152     46                26155     3993     632
     Sum        4257    1209    357               209233    31919    5041

     Using Slab Decomposition



     bravais-lattice index     =            0
     lattice parameter (alat)  =       5.5533  a.u.
     unit-cell volume          =     171.2590 (a.u.)^3
     number of atoms/cell      =            2
     number of atomic types    =            2
     number of electrons       =        28.00
     number of Kohn-Sham states=           18
     kinetic-energy cutoff     =     124.0000  Ry
     charge density cutoff     =    1736.0000  Ry
     scf convergence threshold =      1.0E-08
     mixing beta               =       0.7000
     number of iterations used =            8  plain     mixing
     energy convergence thresh.=      1.0E-04
     force convergence thresh. =      1.0E-03
     press convergence thresh. =      5.0E-01
     Exchange-correlation= PBE
                           (   1   4   3   4   0   0   0)
     nstep                     =           50


     celldm(1)=   5.553300  celldm(2)=   0.000000  celldm(3)=   0.000000
     celldm(4)=   0.000000  celldm(5)=   0.000000  celldm(6)=   0.000000

     crystal axes: (cart. coord. in units of alat)
               a(1) = (   1.000000   0.000000   0.000000 )  
               a(2) = (   0.000000   1.000000   0.000000 )  
               a(3) = (   0.000000   0.000000   1.000000 )  

     reciprocal axes: (cart. coord. in units 2 pi/alat)
               b(1) = (  1.000000  0.000000  0.000000 )  
               b(2) = (  0.000000  1.000000  0.000000 )  
               b(3) = (  0.000000  0.000000  1.000000 )  


     PseudoPot. # 1 for Fe read from file:
     ../../pseudos/Fe.pbe-spn-kjpaw_psl.0.2.1.UPF
     MD5 check sum: e86618425769142926afa95317d90200
     Pseudo is Projector augmented-wave + core cor, Zval = 16.0
     Generated using "atomic" code by A. Dal Corso  v.5.0.99 svn rev. 10869
     Shape of augmentation charge: PSQ
     Using radial grid of 1191 points,  6 beta functions with: 
                l(1) =   0
                l(2) =   0
                l(3) =   1
                l(4) =   1
                l(5) =   2
                l(6) =   2
     Q(r) pseudized with 0 coefficients 


     PseudoPot. # 2 for Ti read from file:
     ../../pseudos/ti_pbe_v1.4.uspp.F.UPF
     MD5 check sum: 88a00a6731bd790ddea75d31a80cb452
     Pseudo is Ultrasoft + core correction, Zval = 12.0
     Generated by new atomic code, or converted to UPF format
     Using radial grid of  851 points,  6 beta functions with: 
                l(1) =   0
                l(2) =   0
                l(3) =   1
                l(4) =   1
                l(5) =   2
                l(6) =   2
     Q(r) pseudized with  6 coefficients,  rinner =    1.000   1.000   1.000
                                                       1.000   1.000

     atomic species   valence    mass     pseudopotential
     Fe               16.00    55.84500     Fe( 1.00)
     Ti               12.00    47.86700     Ti( 1.00)

     48 Sym. Ops., with inversion, found



   Cartesian axes

     site n.     atom                  positions (alat units)
         1        Fe     tau(   1) = (   0.5000000   0.5000000   0.5000000  )
         2        Ti     tau(   2) = (   0.0000000   0.0000000   0.0000000  )

     number of k points=   120  Marzari-Vanderbilt smearing, width (Ry)=  0.0050

     Number of k-points >= 100: set verbosity='high' to print them.

     Dense  grid:   209233 G-vectors     FFT dimensions: (  75,  75,  75)

     Smooth grid:    31919 G-vectors     FFT dimensions: (  40,  40,  40)

     Estimated max dynamical RAM per process >     125.80 MB

     Estimated total dynamical RAM >    1006.42 MB

     Check: negative core charge=   -0.000002

     Initial potential from superposition of free atoms

     starting charge      26.9995, renormalised to      28.0000

     negative rho (up, down):  1.347E-03 0.000E+00
     Starting wfcs are   23 randomized atomic wfcs
     Checking if some PAW data can be deallocated... 

     total cpu time spent up to now is        1.9 secs

     per-process dynamical memory:   151.8 Mb

     Self-consistent Calculation

     iteration #  1     ecut=   124.00 Ry     beta= 0.70
     Davidson diagonalization with overlap
     ethr =  1.00E-02,  avg # of iterations =  2.1

     negative rho (up, down):  8.075E-05 0.000E+00

     total cpu time spent up to now is        3.9 secs

     total energy              =    -434.88034974 Ry
     estimated scf accuracy    <      17.47740323 Ry

     iteration #  2     ecut=   124.00 Ry     beta= 0.70
     Davidson diagonalization with overlap
     ethr =  1.00E-02,  avg # of iterations =  6.1

     negative rho (up, down):  2.388E-05 0.000E+00

     total cpu time spent up to now is        7.2 secs

     total energy              =    -448.51195570 Ry
     estimated scf accuracy    <      66.14338935 Ry

     iteration #  3     ecut=   124.00 Ry     beta= 0.70
     Davidson diagonalization with overlap
     ethr =  1.00E-02,  avg # of iterations =  3.1

     negative rho (up, down):  2.384E-04 0.000E+00

     total cpu time spent up to now is        9.5 secs

     total energy              =    -448.59876074 Ry
     estimated scf accuracy    <      16.77187988 Ry

     iteration #  4     ecut=   124.00 Ry     beta= 0.70
     Davidson diagonalization with overlap
     ethr =  1.00E-02,  avg # of iterations =  2.1

     negative rho (up, down):  2.771E-04 0.000E+00

     total cpu time spent up to now is       11.5 secs

     total energy              =    -449.11451992 Ry
     estimated scf accuracy    <       4.73362336 Ry

     iteration #  5     ecut=   124.00 Ry     beta= 0.70
     Davidson diagonalization with overlap
     ethr =  1.00E-02,  avg # of iterations =  1.0

     negative rho (up, down):  3.233E-04 0.000E+00

     total cpu time spent up to now is       13.1 secs

     total energy              =    -449.12131532 Ry
     estimated scf accuracy    <       4.31212425 Ry

     iteration #  6     ecut=   124.00 Ry     beta= 0.70
     Davidson diagonalization with overlap
     ethr =  1.00E-02,  avg # of iterations =  1.0

     negative rho (up, down):  1.107E-03 0.000E+00

     total cpu time spent up to now is       14.8 secs

     total energy              =    -447.89389661 Ry
     estimated scf accuracy    <       4.51968901 Ry

     iteration #  7     ecut=   124.00 Ry     beta= 0.70
     Davidson diagonalization with overlap
     ethr =  1.00E-02,  avg # of iterations =  3.4

     negative rho (up, down):  1.008E-03 0.000E+00

     total cpu time spent up to now is       16.8 secs

     total energy              =    -448.58423346 Ry
     estimated scf accuracy    <       3.81978614 Ry

     iteration #  8     ecut=   124.00 Ry     beta= 0.70
     Davidson diagonalization with overlap
     ethr =  1.00E-02,  avg # of iterations =  1.0

     negative rho (up, down):  8.248E-04 0.000E+00

     total cpu time spent up to now is       18.5 secs

     total energy              =    -448.46846099 Ry
     estimated scf accuracy    <       1.21375717 Ry

     iteration #  9     ecut=   124.00 Ry     beta= 0.70
     Davidson diagonalization with overlap
     ethr =  4.33E-03,  avg # of iterations =  1.7

     negative rho (up, down):  8.317E-04 0.000E+00

     total cpu time spent up to now is       20.2 secs

     total energy              =    -448.59501092 Ry
     estimated scf accuracy    <       0.12585284 Ry

     iteration # 10     ecut=   124.00 Ry     beta= 0.70
     Davidson diagonalization with overlap
     ethr =  4.49E-04,  avg # of iterations =  2.3

     negative rho (up, down):  8.588E-04 0.000E+00

     total cpu time spent up to now is       22.0 secs

     total energy              =    -448.59602789 Ry
     estimated scf accuracy    <       0.14907511 Ry

     iteration # 11     ecut=   124.00 Ry     beta= 0.70
     Davidson diagonalization with overlap
     ethr =  4.49E-04,  avg # of iterations =  1.1

     negative rho (up, down):  1.121E-03 0.000E+00

     total cpu time spent up to now is       23.7 secs

     total energy              =    -448.56917534 Ry
     estimated scf accuracy    <       0.14868094 Ry

     iteration # 12     ecut=   124.00 Ry     beta= 0.70
     Davidson diagonalization with overlap
     ethr =  4.49E-04,  avg # of iterations =  4.3

     negative rho (up, down):  1.213E-03 0.000E+00

     total cpu time spent up to now is       26.0 secs

     total energy              =    -448.65391027 Ry
     estimated scf accuracy    <       0.18318037 Ry

     iteration # 13     ecut=   124.00 Ry     beta= 0.70
     Davidson diagonalization with overlap
     ethr =  4.49E-04,  avg # of iterations =  1.9

     negative rho (up, down):  2.114E-03 0.000E+00

     total cpu time spent up to now is       27.8 secs

     total energy              =    -449.03322660 Ry
     estimated scf accuracy    <       0.44442168 Ry

     iteration # 14     ecut=   124.00 Ry     beta= 0.70
     Davidson diagonalization with overlap
     ethr =  4.49E-04,  avg # of iterations =  6.2

     negative rho (up, down):  1.459E-03 0.000E+00

     total cpu time spent up to now is       30.7 secs

     total energy              =    -448.51932687 Ry
     estimated scf accuracy    <      26.98882216 Ry

     iteration # 15     ecut=   124.00 Ry     beta= 0.70
     Davidson diagonalization with overlap
     ethr =  4.49E-04,  avg # of iterations =  4.8

     negative rho (up, down):  1.137E-03 0.000E+00

     total cpu time spent up to now is       33.2 secs

     total energy              =    -448.49454824 Ry
     estimated scf accuracy    <       4.43870809 Ry

     iteration # 16     ecut=   124.00 Ry     beta= 0.70
     Davidson diagonalization with overlap
     ethr =  4.49E-04,  avg # of iterations =  4.3

     negative rho (up, down):  1.088E-03 0.000E+00

     total cpu time spent up to now is       35.6 secs

     total energy              =    -448.60519511 Ry
     estimated scf accuracy    <       0.36277655 Ry

     iteration # 17     ecut=   124.00 Ry     beta= 0.70
     Davidson diagonalization with overlap
     ethr =  4.49E-04,  avg # of iterations =  2.0

     negative rho (up, down):  1.022E-03 0.000E+00

     total cpu time spent up to now is       37.4 secs

     total energy              =    -448.58523807 Ry
     estimated scf accuracy    <       0.39566395 Ry

     iteration # 18     ecut=   124.00 Ry     beta= 0.70
     Davidson diagonalization with overlap
     ethr =  4.49E-04,  avg # of iterations =  1.2

     negative rho (up, down):  9.735E-04 0.000E+00

     total cpu time spent up to now is       39.1 secs

     total energy              =    -448.57914660 Ry
     estimated scf accuracy    <       0.10585199 Ry

     iteration # 19     ecut=   124.00 Ry     beta= 0.70
     Davidson diagonalization with overlap
     ethr =  3.78E-04,  avg # of iterations =  1.8

     negative rho (up, down):  9.827E-04 0.000E+00

     total cpu time spent up to now is       40.9 secs

     total energy              =    -448.58492275 Ry
     estimated scf accuracy    <       0.01167454 Ry

     iteration # 20     ecut=   124.00 Ry     beta= 0.70
     Davidson diagonalization with overlap
     ethr =  4.17E-05,  avg # of iterations =  4.3

     negative rho (up, down):  9.840E-04 0.000E+00

     total cpu time spent up to now is       43.0 secs

     total energy              =    -448.58662258 Ry
     estimated scf accuracy    <       0.00743011 Ry

     iteration # 21     ecut=   124.00 Ry     beta= 0.70
     Davidson diagonalization with overlap
     ethr =  2.65E-05,  avg # of iterations =  1.2

     negative rho (up, down):  9.783E-04 0.000E+00

     total cpu time spent up to now is       44.7 secs

     total energy              =    -448.58668664 Ry
     estimated scf accuracy    <       0.00779712 Ry

     iteration # 22     ecut=   124.00 Ry     beta= 0.70
     Davidson diagonalization with overlap
     ethr =  2.65E-05,  avg # of iterations =  1.0

     negative rho (up, down):  1.037E-03 0.000E+00

     total cpu time spent up to now is       46.4 secs

     total energy              =    -448.58737857 Ry
     estimated scf accuracy    <       0.00638001 Ry

     iteration # 23     ecut=   124.00 Ry     beta= 0.70
     Davidson diagonalization with overlap
     ethr =  2.28E-05,  avg # of iterations =  1.0

     negative rho (up, down):  1.004E-03 0.000E+00

     total cpu time spent up to now is       48.0 secs

     total energy              =    -448.58667571 Ry
     estimated scf accuracy    <       0.01401581 Ry

     iteration # 24     ecut=   124.00 Ry     beta= 0.70
     Davidson diagonalization with overlap
     ethr =  2.28E-05,  avg # of iterations =  1.0

     negative rho (up, down):  9.887E-04 0.000E+00

     total cpu time spent up to now is       49.7 secs

     total energy              =    -448.58663217 Ry
     estimated scf accuracy    <       0.00473461 Ry

     iteration # 25     ecut=   124.00 Ry     beta= 0.70
     Davidson diagonalization with overlap
     ethr =  1.69E-05,  avg # of iterations =  1.0

     negative rho (up, down):  9.662E-04 0.000E+00

     total cpu time spent up to now is       51.4 secs

     total energy              =    -448.58651421 Ry
     estimated scf accuracy    <       0.00172770 Ry

     iteration # 26     ecut=   124.00 Ry     beta= 0.70
     Davidson diagonalization with overlap
     ethr =  6.17E-06,  avg # of iterations =  1.7

     negative rho (up, down):  9.659E-04 0.000E+00

     total cpu time spent up to now is       53.1 secs

     total energy              =    -448.58655054 Ry
     estimated scf accuracy    <       0.00047004 Ry

     iteration # 27     ecut=   124.00 Ry     beta= 0.70
     Davidson diagonalization with overlap
     ethr =  1.68E-06,  avg # of iterations =  2.3

     negative rho (up, down):  9.621E-04 0.000E+00

     total cpu time spent up to now is       54.9 secs

     total energy              =    -448.58654469 Ry
     estimated scf accuracy    <       0.00023845 Ry

     iteration # 28     ecut=   124.00 Ry     beta= 0.70
     Davidson diagonalization with overlap
     ethr =  8.52E-07,  avg # of iterations =  1.7

     negative rho (up, down):  9.604E-04 0.000E+00

     total cpu time spent up to now is       56.7 secs

     total energy              =    -448.58653701 Ry
     estimated scf accuracy    <       0.00010746 Ry

     iteration # 29     ecut=   124.00 Ry     beta= 0.70
     Davidson diagonalization with overlap
     ethr =  3.84E-07,  avg # of iterations =  2.4

     negative rho (up, down):  9.615E-04 0.000E+00

     total cpu time spent up to now is       58.5 secs

     total energy              =    -448.58653629 Ry
     estimated scf accuracy    <       0.00003417 Ry

     iteration # 30     ecut=   124.00 Ry     beta= 0.70
     Davidson diagonalization with overlap
     ethr =  1.22E-07,  avg # of iterations =  3.3

     negative rho (up, down):  9.610E-04 0.000E+00

     total cpu time spent up to now is       60.5 secs

     total energy              =    -448.58654028 Ry
     estimated scf accuracy    <       0.00000540 Ry

     iteration # 31     ecut=   124.00 Ry     beta= 0.70
     Davidson diagonalization with overlap
     ethr =  1.93E-08,  avg # of iterations =  4.0

     negative rho (up, down):  9.613E-04 0.000E+00

     total cpu time spent up to now is       62.6 secs

     total energy              =    -448.58654137 Ry
     estimated scf accuracy    <       0.00000083 Ry

     iteration # 32     ecut=   124.00 Ry     beta= 0.70
     Davidson diagonalization with overlap
     ethr =  2.95E-09,  avg # of iterations =  3.0

     negative rho (up, down):  9.613E-04 0.000E+00

     total cpu time spent up to now is       64.5 secs

     total energy              =    -448.58654147 Ry
     estimated scf accuracy    <       0.00000005 Ry

     iteration # 33     ecut=   124.00 Ry     beta= 0.70
     Davidson diagonalization with overlap
     ethr =  1.74E-10,  avg # of iterations =  4.5

     negative rho (up, down):  9.615E-04 0.000E+00

     total cpu time spent up to now is       66.9 secs

     End of self-consistent calculation

     Number of k-points >= 100: set verbosity='high' to print the bands.

     the Fermi energy is    17.7222 ev

!    total energy              =    -448.58654149 Ry
     estimated scf accuracy    <          4.8E-09 Ry
     smearing contrib. (-TS)   =      -0.00001774 Ry
     internal energy E=F+TS    =    -448.58652375 Ry

     The total energy is F=E-TS. E is the sum of the following terms:
     one-electron contribution =    -151.35065371 Ry
     hartree contribution      =      91.62732608 Ry
     xc contribution           =     -52.88875636 Ry
     ewald contribution        =    -259.82070277 Ry
     one-center paw contrib.   =     -76.15373699 Ry

     convergence has been achieved in  33 iterations

     negative rho (up, down):  9.615E-04 0.000E+00

     Forces acting on atoms (cartesian axes, Ry/au):

     atom    1 type  1   force =     0.00000000    0.00000000    0.00000000
     atom    2 type  2   force =     0.00000000    0.00000000    0.00000000

     Total force =     0.000000     Total SCF correction =     0.000000


     Computing stress (Cartesian axis) and pressure


     negative rho (up, down):  9.615E-04 0.000E+00
          total   stress  (Ry/bohr**3)                   (kbar)     P=       29.45
   0.00020020   0.00000000   0.00000000           29.45        0.00        0.00
   0.00000000   0.00020020   0.00000000            0.00       29.45        0.00
   0.00000000   0.00000000   0.00020020            0.00        0.00       29.45


     BFGS Geometry Optimization
     Energy error            =      6.8E-03 Ry
     Gradient error          =      0.0E+00 Ry/Bohr
     Cell gradient error     =      1.1E+02 kbar

     number of scf cycles    =   1
     number of bfgs steps    =   0

     enthalpy           new  =    -448.4297508533 Ry

     new trust radius        =       0.0468056226 bohr
     new conv_thr            =       0.0000000100 Ry

     new unit-cell volume =    162.23447 a.u.^3 (    24.04067 Ang^3 )
     density =      7.16360 g/cm^3

CELL_PARAMETERS (alat=  5.55330037)
   0.982116963   0.000000000   0.000000000
   0.000000000   0.982116963   0.000000000
   0.000000000   0.000000000   0.982116963

ATOMIC_POSITIONS (crystal)
Fe               0.5000000000        0.5000000000        0.5000000000
Ti               0.0000000000        0.0000000000        0.0000000000



     Writing config-only to output data dir ./TiFe.save/ :
     XML data file
     NEW-OLD atomic charge density approx. for the potential
     New effective cutoffs (rho, wfc): 1799.66  128.55

     Check: negative core charge=   -0.000002

     negative rho (up, down):  9.402E-04 0.000E+00

     total cpu time spent up to now is       69.5 secs

     per-process dynamical memory:   161.7 Mb

     Self-consistent Calculation

     iteration #  1     ecut=   124.00 Ry     beta= 0.70
     Davidson diagonalization with overlap
     ethr =  1.00E-06,  avg # of iterations =  8.9

     negative rho (up, down):  9.460E-04 0.000E+00

     total cpu time spent up to now is       73.4 secs

     total energy              =    -448.58037667 Ry
     estimated scf accuracy    <       0.00008090 Ry

     iteration #  2     ecut=   124.00 Ry     beta= 0.70
     Davidson diagonalization with overlap
     ethr =  2.89E-07,  avg # of iterations =  2.5

     negative rho (up, down):  9.463E-04 0.000E+00

     total cpu time spent up to now is       75.5 secs

     total energy              =    -448.58092009 Ry
     estimated scf accuracy    <       0.00013593 Ry

     iteration #  3     ecut=   124.00 Ry     beta= 0.70
     Davidson diagonalization with overlap
     ethr =  2.89E-07,  avg # of iterations =  4.2

     negative rho (up, down):  9.459E-04 0.000E+00

     total cpu time spent up to now is       77.6 secs

     total energy              =    -448.58095874 Ry
     estimated scf accuracy    <       0.00174063 Ry

     iteration #  4     ecut=   124.00 Ry     beta= 0.70
     Davidson diagonalization with overlap
     ethr =  2.89E-07,  avg # of iterations =  4.0

     negative rho (up, down):  9.477E-04 0.000E+00

     total cpu time spent up to now is       79.7 secs

     total energy              =    -448.58105121 Ry
     estimated scf accuracy    <       0.00000792 Ry

     iteration #  5     ecut=   124.00 Ry     beta= 0.70
     Davidson diagonalization with overlap
     ethr =  2.83E-08,  avg # of iterations =  2.1

     negative rho (up, down):  9.475E-04 0.000E+00

     total cpu time spent up to now is       81.6 secs

     total energy              =    -448.58105268 Ry
     estimated scf accuracy    <       0.00000139 Ry

     iteration #  6     ecut=   124.00 Ry     beta= 0.70
     Davidson diagonalization with overlap
     ethr =  4.97E-09,  avg # of iterations =  2.1

     negative rho (up, down):  9.475E-04 0.000E+00

     total cpu time spent up to now is       83.4 secs

     End of self-consistent calculation

     Number of k-points >= 100: set verbosity='high' to print the bands.

     the Fermi energy is    18.8590 ev

!    total energy              =    -448.58105291 Ry
     estimated scf accuracy    <          7.1E-09 Ry
     smearing contrib. (-TS)   =       0.00001299 Ry
     internal energy E=F+TS    =    -448.58106590 Ry

     The total energy is F=E-TS. E is the sum of the following terms:
     one-electron contribution =    -144.08069274 Ry
     hartree contribution      =      89.19425548 Ry
     xc contribution           =     -52.98803934 Ry
     ewald contribution        =    -264.55169054 Ry
     one-center paw contrib.   =     -76.15489875 Ry

     convergence has been achieved in   6 iterations

     negative rho (up, down):  9.475E-04 0.000E+00

     Forces acting on atoms (cartesian axes, Ry/au):

     atom    1 type  1   force =     0.00000000    0.00000000    0.00000000
     atom    2 type  2   force =     0.00000000    0.00000000    0.00000000

     Total force =     0.000000     Total SCF correction =     0.000000


     Computing stress (Cartesian axis) and pressure


     negative rho (up, down):  9.475E-04 0.000E+00
          total   stress  (Ry/bohr**3)                   (kbar)     P=      154.76
   0.00105201   0.00000000   0.00000000          154.76        0.00        0.00
   0.00000000   0.00105201   0.00000000            0.00      154.76        0.00
   0.00000000   0.00000000   0.00105201            0.00        0.00      154.76

     Energy error            =      2.8E-03 Ry
     Gradient error          =      0.0E+00 Ry/Bohr
     Cell gradient error     =      2.0E+01 kbar

     number of scf cycles    =   2
     number of bfgs steps    =   1

     enthalpy           old  =    -448.4297508533 Ry
     enthalpy           new  =    -448.4325244201 Ry

     CASE: enthalpy          _new < enthalpy          _old

     new trust radius        =       0.0072101234 bohr
     new conv_thr            =            1.0E-10 Ry

     new unit-cell volume =    163.61591 a.u.^3 (    24.24538 Ang^3 )
     density =      7.10312 g/cm^3

CELL_PARAMETERS (alat=  5.55330037)
   0.984896704   0.000000000   0.000000000
   0.000000000   0.984896704   0.000000000
   0.000000000   0.000000000   0.984896704

ATOMIC_POSITIONS (crystal)
Fe               0.5000000000        0.5000000000        0.5000000000
Ti               0.0000000000        0.0000000000        0.0000000000



     Writing config-only to output data dir ./TiFe.save/ :
     XML data file
     NEW-OLD atomic charge density approx. for the potential
     New effective cutoffs (rho, wfc): 1789.52  127.83

     Check: negative core charge=   -0.000002

     negative rho (up, down):  9.516E-04 0.000E+00

     total cpu time spent up to now is       86.0 secs

     per-process dynamical memory:   161.7 Mb

     Self-consistent Calculation

     iteration #  1     ecut=   124.00 Ry     beta= 0.70
     Davidson diagonalization with overlap
     ethr =  1.00E-06,  avg # of iterations =  4.5

     Threshold (ethr) on eigenvalues was too large:
     Diagonalizing with lowered threshold

     Davidson diagonalization with overlap
     ethr =  1.92E-08,  avg # of iterations =  5.0

     negative rho (up, down):  9.500E-04 0.000E+00

     total cpu time spent up to now is       90.8 secs

     total energy              =    -448.58235792 Ry
     estimated scf accuracy    <       0.00000983 Ry

     iteration #  2     ecut=   124.00 Ry     beta= 0.70
     Davidson diagonalization with overlap
     ethr =  3.51E-08,  avg # of iterations =  4.1

     negative rho (up, down):  9.493E-04 0.000E+00

     total cpu time spent up to now is       93.1 secs

     total energy              =    -448.58236417 Ry
     estimated scf accuracy    <       0.00051973 Ry

     iteration #  3     ecut=   124.00 Ry     beta= 0.70
     Davidson diagonalization with overlap
     ethr =  3.51E-08,  avg # of iterations =  4.6

     negative rho (up, down):  9.503E-04 0.000E+00

     total cpu time spent up to now is       95.3 secs

     total energy              =    -448.58240385 Ry
     estimated scf accuracy    <       0.00001263 Ry

     iteration #  4     ecut=   124.00 Ry     beta= 0.70
     Davidson diagonalization with overlap
     ethr =  3.51E-08,  avg # of iterations =  1.4

     negative rho (up, down):  9.501E-04 0.000E+00

     total cpu time spent up to now is       97.1 secs

     total energy              =    -448.58240510 Ry
     estimated scf accuracy    <       0.00000104 Ry

     iteration #  5     ecut=   124.00 Ry     beta= 0.70
     Davidson diagonalization with overlap
     ethr =  3.72E-09,  avg # of iterations =  3.9

     negative rho (up, down):  9.500E-04 0.000E+00

     total cpu time spent up to now is       99.1 secs

     total energy              =    -448.58240532 Ry
     estimated scf accuracy    <       0.00000012 Ry

     iteration #  6     ecut=   124.00 Ry     beta= 0.70
     Davidson diagonalization with overlap
     ethr =  4.39E-10,  avg # of iterations =  2.9

     negative rho (up, down):  9.499E-04 0.000E+00

     total cpu time spent up to now is      101.0 secs

     total energy              =    -448.58240534 Ry
     estimated scf accuracy    <          5.2E-09 Ry

     iteration #  7     ecut=   124.00 Ry     beta= 0.70
     Davidson diagonalization with overlap
     ethr =  1.86E-11,  avg # of iterations =  5.0

     negative rho (up, down):  9.500E-04 0.000E+00

     total cpu time spent up to now is      103.6 secs

     total energy              =    -448.58240534 Ry
     estimated scf accuracy    <          5.2E-09 Ry

     iteration #  8     ecut=   124.00 Ry     beta= 0.70
     Davidson diagonalization with overlap
     ethr =  1.85E-11,  avg # of iterations =  2.1

     negative rho (up, down):  9.499E-04 0.000E+00

     total cpu time spent up to now is      105.4 secs

     total energy              =    -448.58240534 Ry
     estimated scf accuracy    <          1.7E-09 Ry

     iteration #  9     ecut=   124.00 Ry     beta= 0.70
     Davidson diagonalization with overlap
     ethr =  5.94E-12,  avg # of iterations =  2.0

     negative rho (up, down):  9.499E-04 0.000E+00

     total cpu time spent up to now is      107.3 secs

     total energy              =    -448.58240534 Ry
     estimated scf accuracy    <          5.2E-10 Ry

     iteration # 10     ecut=   124.00 Ry     beta= 0.70
     Davidson diagonalization with overlap
     ethr =  1.85E-12,  avg # of iterations =  1.8

     negative rho (up, down):  9.499E-04 0.000E+00

     total cpu time spent up to now is      109.0 secs

     End of self-consistent calculation

     Number of k-points >= 100: set verbosity='high' to print the bands.

     the Fermi energy is    18.6814 ev

!    total energy              =    -448.58240534 Ry
     estimated scf accuracy    <          9.0E-12 Ry
     smearing contrib. (-TS)   =       0.00000975 Ry
     internal energy E=F+TS    =    -448.58241510 Ry

     The total energy is F=E-TS. E is the sum of the following terms:
     one-electron contribution =    -145.22467106 Ry
     hartree contribution      =      89.57399176 Ry
     xc contribution           =     -52.97198095 Ry
     ewald contribution        =    -263.80502827 Ry
     one-center paw contrib.   =     -76.15472658 Ry

     convergence has been achieved in  10 iterations

     negative rho (up, down):  9.499E-04 0.000E+00

     Forces acting on atoms (cartesian axes, Ry/au):

     atom    1 type  1   force =     0.00000000    0.00000000    0.00000000
     atom    2 type  2   force =     0.00000000    0.00000000    0.00000000

     Total force =     0.000000     Total SCF correction =     0.000000


     Computing stress (Cartesian axis) and pressure


     negative rho (up, down):  9.499E-04 0.000E+00
          total   stress  (Ry/bohr**3)                   (kbar)     P=      133.34
   0.00090642   0.00000000   0.00000000          133.34        0.00        0.00
   0.00000000   0.00090642   0.00000000            0.00      133.34        0.00
   0.00000000   0.00000000   0.00090642            0.00        0.00      133.34

     Energy error            =      8.8E-05 Ry
     Gradient error          =      0.0E+00 Ry/Bohr
     Cell gradient error     =      1.3E+00 kbar

     number of scf cycles    =   3
     number of bfgs steps    =   2

     enthalpy           old  =    -448.4325244201 Ry
     enthalpy           new  =    -448.4326121135 Ry

     CASE: enthalpy          _new < enthalpy          _old

     new trust radius        =       0.0004537860 bohr
     new conv_thr            =            1.0E-10 Ry

     new unit-cell volume =    163.52886 a.u.^3 (    24.23248 Ang^3 )
     density =      7.10690 g/cm^3

CELL_PARAMETERS (alat=  5.55330037)
   0.984722001   0.000000000   0.000000000
   0.000000000   0.984722001   0.000000000
   0.000000000   0.000000000   0.984722001

ATOMIC_POSITIONS (crystal)
Fe               0.5000000000        0.5000000000        0.5000000000
Ti               0.0000000000        0.0000000000        0.0000000000



     Writing config-only to output data dir ./TiFe.save/ :
     XML data file
     NEW-OLD atomic charge density approx. for the potential
     New effective cutoffs (rho, wfc): 1790.15  127.87

     Check: negative core charge=   -0.000002

     negative rho (up, down):  9.497E-04 0.000E+00

     total cpu time spent up to now is      111.6 secs

     per-process dynamical memory:   161.7 Mb

     Self-consistent Calculation

     iteration #  1     ecut=   124.00 Ry     beta= 0.70
     Davidson diagonalization with overlap
     ethr =  1.00E-06,  avg # of iterations =  2.0

     Threshold (ethr) on eigenvalues was too large:
     Diagonalizing with lowered threshold

     Davidson diagonalization with overlap
     ethr =  6.61E-11,  avg # of iterations =  6.4

     negative rho (up, down):  9.498E-04 0.000E+00

     total cpu time spent up to now is      116.4 secs

     total energy              =    -448.58232584 Ry
     estimated scf accuracy    <       0.00000003 Ry

     iteration #  2     ecut=   124.00 Ry     beta= 0.70
     Davidson diagonalization with overlap
     ethr =  1.24E-10,  avg # of iterations =  4.2

     negative rho (up, down):  9.498E-04 0.000E+00

     total cpu time spent up to now is      118.8 secs

     total energy              =    -448.58232587 Ry
     estimated scf accuracy    <       0.00000183 Ry

     iteration #  3     ecut=   124.00 Ry     beta= 0.70
     Davidson diagonalization with overlap
     ethr =  1.24E-10,  avg # of iterations =  4.6

     negative rho (up, down):  9.498E-04 0.000E+00

     total cpu time spent up to now is      121.0 secs

     total energy              =    -448.58232602 Ry
     estimated scf accuracy    <       0.00000005 Ry

     iteration #  4     ecut=   124.00 Ry     beta= 0.70
     Davidson diagonalization with overlap
     ethr =  1.24E-10,  avg # of iterations =  1.3

     negative rho (up, down):  9.498E-04 0.000E+00

     total cpu time spent up to now is      122.7 secs

     total energy              =    -448.58232603 Ry
     estimated scf accuracy    <          6.4E-09 Ry

     iteration #  5     ecut=   124.00 Ry     beta= 0.70
     Davidson diagonalization with overlap
     ethr =  2.27E-11,  avg # of iterations =  3.5

     negative rho (up, down):  9.498E-04 0.000E+00

     total cpu time spent up to now is      124.6 secs

     total energy              =    -448.58232603 Ry
     estimated scf accuracy    <          5.3E-10 Ry

     iteration #  6     ecut=   124.00 Ry     beta= 0.70
     Davidson diagonalization with overlap
     ethr =  1.89E-12,  avg # of iterations =  3.4

     negative rho (up, down):  9.498E-04 0.000E+00

     total cpu time spent up to now is      126.5 secs

     End of self-consistent calculation

     Number of k-points >= 100: set verbosity='high' to print the bands.

     the Fermi energy is    18.6925 ev

!    total energy              =    -448.58232603 Ry
     estimated scf accuracy    <          4.8E-11 Ry
     smearing contrib. (-TS)   =       0.00001000 Ry
     internal energy E=F+TS    =    -448.58233603 Ry

     The total energy is F=E-TS. E is the sum of the following terms:
     one-electron contribution =    -145.15291612 Ry
     hartree contribution      =      89.55012921 Ry
     xc contribution           =     -52.97297984 Ry
     ewald contribution        =    -263.85183071 Ry
     one-center paw contrib.   =     -76.15473858 Ry

     convergence has been achieved in   6 iterations

     negative rho (up, down):  9.498E-04 0.000E+00

     Forces acting on atoms (cartesian axes, Ry/au):

     atom    1 type  1   force =     0.00000000    0.00000000    0.00000000
     atom    2 type  2   force =     0.00000000    0.00000000    0.00000000

     Total force =     0.000000     Total SCF correction =     0.000000


     Computing stress (Cartesian axis) and pressure


     negative rho (up, down):  9.498E-04 0.000E+00
          total   stress  (Ry/bohr**3)                   (kbar)     P=      134.65
   0.00091532   0.00000000   0.00000000          134.65        0.00        0.00
   0.00000000   0.00091532   0.00000000            0.00      134.65        0.00
   0.00000000   0.00000000   0.00091532            0.00        0.00      134.65

     Energy error            =      3.9E-07 Ry
     Gradient error          =      0.0E+00 Ry/Bohr
     Cell gradient error     =      2.8E-02 kbar

     bfgs converged in   4 scf cycles and   3 bfgs steps
     (criteria: energy <  1.0E-04 Ry, force <  1.0E-03 Ry/Bohr, cell <  5.0E-01 kbar)

     End of BFGS Geometry Optimization

     Final enthalpy           =    -448.4326125032 Ry

     File ./TiFe.bfgs deleted, as requested
Begin final coordinates
     new unit-cell volume =    163.52886 a.u.^3 (    24.23248 Ang^3 )
     density =      7.10690 g/cm^3

CELL_PARAMETERS (alat=  5.55330037)
   0.984722001   0.000000000   0.000000000
   0.000000000   0.984722001   0.000000000
   0.000000000   0.000000000   0.984722001

ATOMIC_POSITIONS (crystal)
Fe               0.5000000000        0.5000000000        0.5000000000
Ti               0.0000000000        0.0000000000        0.0000000000
End final coordinates



     Writing config-only to output data dir ./TiFe.save/ :
     XML data file

     Final scf calculation at the relaxed structure.
     The G-vectors are recalculated for the final unit cell
     Results may differ from those at the preceding step.

     Parallelization info
     --------------------
     sticks:   dense  smooth     PW     G-vecs:    dense   smooth      PW
     Min         518     148     43                24975     3818     617
     Max         520     149     44                24976     3821     620
     Sum        4149    1185    349               199805    30551    4945

     Using Slab Decomposition



     bravais-lattice index     =            0
     lattice parameter (alat)  =       5.5533  a.u.
     unit-cell volume          =     163.5289 (a.u.)^3
     number of atoms/cell      =            2
     number of atomic types    =            2
     number of electrons       =        28.00
     number of Kohn-Sham states=           18
     kinetic-energy cutoff     =     124.0000  Ry
     charge density cutoff     =    1736.0000  Ry
     scf convergence threshold =      1.0E-10
     mixing beta               =       0.7000
     number of iterations used =            8  plain     mixing
     press convergence thresh. =      5.0E-01
     Exchange-correlation= PBE
                           (   1   4   3   4   0   0   0)

     celldm(1)=   5.553300  celldm(2)=   0.000000  celldm(3)=   0.000000
     celldm(4)=   0.000000  celldm(5)=   0.000000  celldm(6)=   0.000000

     crystal axes: (cart. coord. in units of alat)
               a(1) = (   0.984722   0.000000   0.000000 )  
               a(2) = (   0.000000   0.984722   0.000000 )  
               a(3) = (   0.000000   0.000000   0.984722 )  

     reciprocal axes: (cart. coord. in units 2 pi/alat)
               b(1) = (  1.015515  0.000000  0.000000 )  
               b(2) = (  0.000000  1.015515  0.000000 )  
               b(3) = (  0.000000  0.000000  1.015515 )  


     PseudoPot. # 1 for Fe read from file:
     ../../pseudos/Fe.pbe-spn-kjpaw_psl.0.2.1.UPF
     MD5 check sum: e86618425769142926afa95317d90200
     Pseudo is Projector augmented-wave + core cor, Zval = 16.0
     Generated using "atomic" code by A. Dal Corso  v.5.0.99 svn rev. 10869
     Shape of augmentation charge: PSQ
     Using radial grid of 1191 points,  6 beta functions with: 
                l(1) =   0
                l(2) =   0
                l(3) =   1
                l(4) =   1
                l(5) =   2
                l(6) =   2
     Q(r) pseudized with 0 coefficients 


     PseudoPot. # 2 for Ti read from file:
     ../../pseudos/ti_pbe_v1.4.uspp.F.UPF
     MD5 check sum: 88a00a6731bd790ddea75d31a80cb452
     Pseudo is Ultrasoft + core correction, Zval = 12.0
     Generated by new atomic code, or converted to UPF format
     Using radial grid of  851 points,  6 beta functions with: 
                l(1) =   0
                l(2) =   0
                l(3) =   1
                l(4) =   1
                l(5) =   2
                l(6) =   2
     Q(r) pseudized with  6 coefficients,  rinner =    1.000   1.000   1.000
                                                       1.000   1.000

     atomic species   valence    mass     pseudopotential
     Fe               16.00    55.84500     Fe( 1.00)
     Ti               12.00    47.86700     Ti( 1.00)

     48 Sym. Ops., with inversion, found



   Cartesian axes

     site n.     atom                  positions (alat units)
         1        Fe     tau(   1) = (   0.4923610   0.4923610   0.4923610  )
         2        Ti     tau(   2) = (   0.0000000   0.0000000   0.0000000  )

     number of k points=   120  Marzari-Vanderbilt smearing, width (Ry)=  0.0050

     Number of k-points >= 100: set verbosity='high' to print them.

     Dense  grid:   199805 G-vectors     FFT dimensions: (  75,  75,  75)

     Smooth grid:    30551 G-vectors     FFT dimensions: (  40,  40,  40)

     Estimated max dynamical RAM per process >     121.29 MB

     Estimated total dynamical RAM >     970.35 MB

     Check: negative core charge=   -0.000002

     Initial potential from superposition of free atoms

     starting charge      26.9995, renormalised to      28.0000

     negative rho (up, down):  1.326E-03 0.000E+00
     Starting wfcs are   23 randomized atomic wfcs
     Checking if some PAW data can be deallocated... 

     total cpu time spent up to now is      129.8 secs

     per-process dynamical memory:   154.7 Mb

     Self-consistent Calculation

     iteration #  1     ecut=   124.00 Ry     beta= 0.70
     Davidson diagonalization with overlap
     c_bands:  1 eigenvalues not converged
     c_bands:  1 eigenvalues not converged
     c_bands:  1 eigenvalues not converged
     c_bands:  1 eigenvalues not converged
     c_bands:  1 eigenvalues not converged
     c_bands:  1 eigenvalues not converged
     c_bands:  1 eigenvalues not converged
     c_bands:  1 eigenvalues not converged
     c_bands:  1 eigenvalues not converged
     c_bands:  1 eigenvalues not converged
     c_bands:  1 eigenvalues not converged
     c_bands:  1 eigenvalues not converged
     ethr =  1.00E-06,  avg # of iterations = 16.5

     negative rho (up, down):  7.292E-05 0.000E+00

     total cpu time spent up to now is      137.7 secs

     total energy              =    -435.82693428 Ry
     estimated scf accuracy    <      16.35691691 Ry

     iteration #  2     ecut=   124.00 Ry     beta= 0.70
     Davidson diagonalization with overlap
     ethr =  1.00E-02,  avg # of iterations =  6.3

     negative rho (up, down):  8.065E-05 0.000E+00

     total cpu time spent up to now is      141.0 secs

     total energy              =    -448.58397735 Ry
     estimated scf accuracy    <      62.48543163 Ry

     iteration #  3     ecut=   124.00 Ry     beta= 0.70
     Davidson diagonalization with overlap
     ethr =  1.00E-02,  avg # of iterations =  3.0

     negative rho (up, down):  3.392E-04 0.000E+00

     total cpu time spent up to now is      143.3 secs

     total energy              =    -448.56333935 Ry
     estimated scf accuracy    <      15.99862552 Ry

     iteration #  4     ecut=   124.00 Ry     beta= 0.70
     Davidson diagonalization with overlap
     ethr =  1.00E-02,  avg # of iterations =  2.1

     negative rho (up, down):  3.352E-04 0.000E+00

     total cpu time spent up to now is      145.2 secs

     total energy              =    -449.09905449 Ry
     estimated scf accuracy    <       4.54401081 Ry

     iteration #  5     ecut=   124.00 Ry     beta= 0.70
     Davidson diagonalization with overlap
     ethr =  1.00E-02,  avg # of iterations =  1.0

     negative rho (up, down):  4.448E-04 0.000E+00

     total cpu time spent up to now is      146.9 secs

     total energy              =    -448.62844340 Ry
     estimated scf accuracy    <       4.28626323 Ry

     iteration #  6     ecut=   124.00 Ry     beta= 0.70
     Davidson diagonalization with overlap
     ethr =  1.00E-02,  avg # of iterations =  1.1

     negative rho (up, down):  4.534E-04 0.000E+00

     total cpu time spent up to now is      148.5 secs

     total energy              =    -448.71636340 Ry
     estimated scf accuracy    <       1.10782624 Ry

     iteration #  7     ecut=   124.00 Ry     beta= 0.70
     Davidson diagonalization with overlap
     ethr =  3.96E-03,  avg # of iterations =  1.1

     negative rho (up, down):  4.374E-04 0.000E+00

     total cpu time spent up to now is      150.2 secs

     total energy              =    -448.67392563 Ry
     estimated scf accuracy    <       0.73910161 Ry

     iteration #  8     ecut=   124.00 Ry     beta= 0.70
     Davidson diagonalization with overlap
     ethr =  2.64E-03,  avg # of iterations =  1.6

     negative rho (up, down):  2.046E-03 0.000E+00

     total cpu time spent up to now is      151.9 secs

     total energy              =    -449.17649423 Ry
     estimated scf accuracy    <       0.44613965 Ry

     iteration #  9     ecut=   124.00 Ry     beta= 0.70
     Davidson diagonalization with overlap
     ethr =  1.59E-03,  avg # of iterations =  2.0
     Minimization algorithm failed to find Fermi energy: reverting to bisection
     Possible cause: smearing is larger than the electronic band-gap.

     negative rho (up, down):  1.103E-03 0.000E+00

     total cpu time spent up to now is      153.8 secs

     total energy              =    -448.71360133 Ry
     estimated scf accuracy    <       1.97613862 Ry

     iteration # 10     ecut=   124.00 Ry     beta= 0.70
     Davidson diagonalization with overlap
     ethr =  1.59E-03,  avg # of iterations =  5.9

     negative rho (up, down):  7.079E-04 0.000E+00

     total cpu time spent up to now is      156.7 secs

     total energy              =    -448.32473277 Ry
     estimated scf accuracy    <      15.22569977 Ry

     iteration # 11     ecut=   124.00 Ry     beta= 0.70
     Davidson diagonalization with overlap
     ethr =  1.59E-03,  avg # of iterations =  4.2

     negative rho (up, down):  5.650E-04 0.000E+00

     total cpu time spent up to now is      158.9 secs

     total energy              =    -448.70290466 Ry
     estimated scf accuracy    <       1.56117764 Ry

     iteration # 12     ecut=   124.00 Ry     beta= 0.70
     Davidson diagonalization with overlap
     ethr =  1.59E-03,  avg # of iterations =  1.0

     negative rho (up, down):  1.201E-03 0.000E+00

     total cpu time spent up to now is      160.5 secs

     total energy              =    -449.07157637 Ry
     estimated scf accuracy    <       1.31637257 Ry

     iteration # 13     ecut=   124.00 Ry     beta= 0.70
     Davidson diagonalization with overlap
     ethr =  1.59E-03,  avg # of iterations =  3.7

     negative rho (up, down):  4.433E-04 0.000E+00

     total cpu time spent up to now is      162.6 secs

     total energy              =    -447.39837444 Ry
     estimated scf accuracy    <      11.22189630 Ry

     iteration # 14     ecut=   124.00 Ry     beta= 0.70
     Davidson diagonalization with overlap
     ethr =  1.59E-03,  avg # of iterations =  4.8

     negative rho (up, down):  4.657E-04 0.000E+00

     total cpu time spent up to now is      165.0 secs

     total energy              =    -448.70490032 Ry
     estimated scf accuracy    <       1.49258281 Ry

     iteration # 15     ecut=   124.00 Ry     beta= 0.70
     Davidson diagonalization with overlap
     ethr =  1.59E-03,  avg # of iterations =  1.1

     negative rho (up, down):  4.997E-04 0.000E+00

     total cpu time spent up to now is      166.7 secs

     total energy              =    -448.67649259 Ry
     estimated scf accuracy    <       0.96127511 Ry

     iteration # 16     ecut=   124.00 Ry     beta= 0.70
     Davidson diagonalization with overlap
     ethr =  1.59E-03,  avg # of iterations =  1.0

     negative rho (up, down):  6.111E-04 0.000E+00

     total cpu time spent up to now is      168.3 secs

     total energy              =    -448.59438982 Ry
     estimated scf accuracy    <       0.86455156 Ry

     iteration # 17     ecut=   124.00 Ry     beta= 0.70
     Davidson diagonalization with overlap
     ethr =  1.59E-03,  avg # of iterations =  1.1

     negative rho (up, down):  6.412E-04 0.000E+00

     total cpu time spent up to now is      170.0 secs

     total energy              =    -448.61335470 Ry
     estimated scf accuracy    <       0.20626177 Ry

     iteration # 18     ecut=   124.00 Ry     beta= 0.70
     Davidson diagonalization with overlap
     ethr =  7.37E-04,  avg # of iterations =  1.2

     negative rho (up, down):  9.066E-04 0.000E+00

     total cpu time spent up to now is      171.6 secs

     total energy              =    -448.57445554 Ry
     estimated scf accuracy    <       0.22665664 Ry

     iteration # 19     ecut=   124.00 Ry     beta= 0.70
     Davidson diagonalization with overlap
     ethr =  7.37E-04,  avg # of iterations =  1.8

     negative rho (up, down):  1.042E-03 0.000E+00

     total cpu time spent up to now is      173.4 secs

     total energy              =    -448.56594071 Ry
     estimated scf accuracy    <       0.08286080 Ry

     iteration # 20     ecut=   124.00 Ry     beta= 0.70
     Davidson diagonalization with overlap
     ethr =  2.96E-04,  avg # of iterations =  3.5

     negative rho (up, down):  9.375E-04 0.000E+00

     total cpu time spent up to now is      175.3 secs

     total energy              =    -448.57649360 Ry
     estimated scf accuracy    <       0.03916527 Ry

     iteration # 21     ecut=   124.00 Ry     beta= 0.70
     Davidson diagonalization with overlap
     ethr =  1.40E-04,  avg # of iterations =  1.9

     negative rho (up, down):  1.026E-03 0.000E+00

     total cpu time spent up to now is      177.0 secs

     total energy              =    -448.58032603 Ry
     estimated scf accuracy    <       0.00403384 Ry

     iteration # 22     ecut=   124.00 Ry     beta= 0.70
     Davidson diagonalization with overlap
     ethr =  1.44E-05,  avg # of iterations =  4.5

     negative rho (up, down):  9.782E-04 0.000E+00

     total cpu time spent up to now is      179.5 secs

     total energy              =    -448.58213138 Ry
     estimated scf accuracy    <       0.02635753 Ry

     iteration # 23     ecut=   124.00 Ry     beta= 0.70
     Davidson diagonalization with overlap
     ethr =  1.44E-05,  avg # of iterations =  1.9

     negative rho (up, down):  9.730E-04 0.000E+00

     total cpu time spent up to now is      181.2 secs

     total energy              =    -448.58230891 Ry
     estimated scf accuracy    <       0.00858077 Ry

     iteration # 24     ecut=   124.00 Ry     beta= 0.70
     Davidson diagonalization with overlap
     ethr =  1.44E-05,  avg # of iterations =  1.1

     negative rho (up, down):  9.591E-04 0.000E+00

     total cpu time spent up to now is      182.9 secs

     total energy              =    -448.58199457 Ry
     estimated scf accuracy    <       0.00374205 Ry

     iteration # 25     ecut=   124.00 Ry     beta= 0.70
     Davidson diagonalization with overlap
     ethr =  1.34E-05,  avg # of iterations =  2.0

     negative rho (up, down):  9.600E-04 0.000E+00

     total cpu time spent up to now is      184.6 secs

     total energy              =    -448.58224602 Ry
     estimated scf accuracy    <       0.00009872 Ry

     iteration # 26     ecut=   124.00 Ry     beta= 0.70
     Davidson diagonalization with overlap
     ethr =  3.53E-07,  avg # of iterations =  5.5

     negative rho (up, down):  9.501E-04 0.000E+00

     total cpu time spent up to now is      187.1 secs

     total energy              =    -448.58220768 Ry
     estimated scf accuracy    <       0.00029751 Ry

     iteration # 27     ecut=   124.00 Ry     beta= 0.70
     Davidson diagonalization with overlap
     ethr =  3.53E-07,  avg # of iterations =  3.8

     negative rho (up, down):  9.487E-04 0.000E+00

     total cpu time spent up to now is      189.2 secs

     total energy              =    -448.58224516 Ry
     estimated scf accuracy    <       0.00000680 Ry

     iteration # 28     ecut=   124.00 Ry     beta= 0.70
     Davidson diagonalization with overlap
     ethr =  2.43E-08,  avg # of iterations =  4.7

     negative rho (up, down):  9.486E-04 0.000E+00

     total cpu time spent up to now is      191.6 secs

     total energy              =    -448.58224954 Ry
     estimated scf accuracy    <       0.00000289 Ry

     iteration # 29     ecut=   124.00 Ry     beta= 0.70
     Davidson diagonalization with overlap
     ethr =  1.03E-08,  avg # of iterations =  1.2

     negative rho (up, down):  9.493E-04 0.000E+00

     total cpu time spent up to now is      193.3 secs

     total energy              =    -448.58224863 Ry
     estimated scf accuracy    <       0.00000262 Ry

     iteration # 30     ecut=   124.00 Ry     beta= 0.70
     Davidson diagonalization with overlap
     ethr =  9.34E-09,  avg # of iterations =  2.0

     negative rho (up, down):  9.493E-04 0.000E+00

     total cpu time spent up to now is      195.1 secs

     total energy              =    -448.58224898 Ry
     estimated scf accuracy    <       0.00000010 Ry

     iteration # 31     ecut=   124.00 Ry     beta= 0.70
     Davidson diagonalization with overlap
     ethr =  3.60E-10,  avg # of iterations =  4.5

     negative rho (up, down):  9.492E-04 0.000E+00

     total cpu time spent up to now is      197.3 secs

     total energy              =    -448.58224901 Ry
     estimated scf accuracy    <       0.00000008 Ry

     iteration # 32     ecut=   124.00 Ry     beta= 0.70
     Davidson diagonalization with overlap
     ethr =  2.71E-10,  avg # of iterations =  1.2

     negative rho (up, down):  9.491E-04 0.000E+00

     total cpu time spent up to now is      199.0 secs

     total energy              =    -448.58224900 Ry
     estimated scf accuracy    <       0.00000003 Ry

     iteration # 33     ecut=   124.00 Ry     beta= 0.70
     Davidson diagonalization with overlap
     ethr =  9.85E-11,  avg # of iterations =  3.2

     negative rho (up, down):  9.491E-04 0.000E+00

     total cpu time spent up to now is      200.9 secs

     total energy              =    -448.58224901 Ry
     estimated scf accuracy    <          5.6E-09 Ry

     iteration # 34     ecut=   124.00 Ry     beta= 0.70
     Davidson diagonalization with overlap
     ethr =  1.99E-11,  avg # of iterations =  2.7

     negative rho (up, down):  9.491E-04 0.000E+00

     total cpu time spent up to now is      202.7 secs

     total energy              =    -448.58224901 Ry
     estimated scf accuracy    <          4.6E-09 Ry

     iteration # 35     ecut=   124.00 Ry     beta= 0.70
     Davidson diagonalization with overlap
     ethr =  1.65E-11,  avg # of iterations =  2.5

     negative rho (up, down):  9.491E-04 0.000E+00

     total cpu time spent up to now is      204.6 secs

     End of self-consistent calculation

     Number of k-points >= 100: set verbosity='high' to print the bands.

     the Fermi energy is    18.6925 ev

!    total energy              =    -448.58224901 Ry
     estimated scf accuracy    <          7.0E-11 Ry
     smearing contrib. (-TS)   =       0.00001002 Ry
     internal energy E=F+TS    =    -448.58225903 Ry

     The total energy is F=E-TS. E is the sum of the following terms:
     one-electron contribution =    -145.15299660 Ry
     hartree contribution      =      89.55021051 Ry
     xc contribution           =     -52.97291514 Ry
     ewald contribution        =    -263.85183071 Ry
     one-center paw contrib.   =     -76.15472708 Ry

     convergence has been achieved in  35 iterations

     negative rho (up, down):  9.491E-04 0.000E+00

     Forces acting on atoms (cartesian axes, Ry/au):

     atom    1 type  1   force =     0.00000000    0.00000000    0.00000000
     atom    2 type  2   force =     0.00000000    0.00000000    0.00000000

     Total force =     0.000000     Total SCF correction =     0.000000


     Computing stress (Cartesian axis) and pressure


     negative rho (up, down):  9.491E-04 0.000E+00
          total   stress  (Ry/bohr**3)                   (kbar)     P=      134.37
   0.00091343   0.00000000   0.00000000          134.37        0.00        0.00
   0.00000000   0.00091343   0.00000000            0.00      134.37        0.00
   0.00000000   0.00000000   0.00091343            0.00        0.00      134.37


     Writing all to output data dir ./TiFe.save/ :
     XML data file, charge density, pseudopotentials, collected wavefunctions

     init_run     :      2.60s CPU      2.73s WALL (       2 calls)
     electrons    :    181.27s CPU    191.84s WALL (       5 calls)
     update_pot   :      0.28s CPU      0.31s WALL (       3 calls)
     forces       :      1.60s CPU      1.76s WALL (       5 calls)
     stress       :      8.67s CPU      9.03s WALL (       5 calls)

     Called by init_run:
     wfcinit      :      1.34s CPU      1.38s WALL (       2 calls)
     potinit      :      0.47s CPU      0.49s WALL (       2 calls)
     hinit0       :      0.41s CPU      0.42s WALL (       2 calls)

     Called by electrons:
     c_bands      :    130.73s CPU    134.29s WALL (      92 calls)
     sum_band     :     30.91s CPU     35.15s WALL (      92 calls)
     v_of_rho     :      2.43s CPU      2.60s WALL (      95 calls)
     newd         :     12.26s CPU     14.82s WALL (      95 calls)
     PAW_pot      :      5.61s CPU      5.71s WALL (      98 calls)
     mix_rho      :      0.25s CPU      0.29s WALL (      92 calls)

     Called by c_bands:
     init_us_2    :      3.86s CPU      4.02s WALL (   23880 calls)
     cegterg      :    124.24s CPU    127.45s WALL (   11040 calls)

     Called by *egterg:
     cdiaghg      :     15.93s CPU     16.28s WALL (   43697 calls)
     h_psi        :     93.27s CPU     95.83s WALL (   44537 calls)
     s_psi        :      2.50s CPU      2.57s WALL (   44537 calls)
     g_psi        :      0.62s CPU      0.63s WALL (   33257 calls)

     Called by h_psi:
     h_psi:calbec :      3.67s CPU      3.77s WALL (   44537 calls)
     vloc_psi     :     86.43s CPU     88.81s WALL (   44537 calls)
     add_vuspsi   :      2.60s CPU      2.68s WALL (   44537 calls)

     General routines
     calbec       :      5.78s CPU      5.95s WALL (   66137 calls)
     fft          :      1.36s CPU      1.57s WALL (    1355 calls)
     ffts         :      0.30s CPU      0.31s WALL (     187 calls)
     fftw         :     72.53s CPU     74.40s WALL ( 1258680 calls)
     interpolate  :      0.40s CPU      0.42s WALL (      95 calls)

     Parallel routines

     PWSCF        :    195.51s CPU    207.17s WALL


   This run was terminated on:  17:38:29  27Oct2025            

=------------------------------------------------------------------------------=
   JOB DONE.
=------------------------------------------------------------------------------=
