
     Program PWSCF v.7.4 starts on 27Oct2025 at 17:46:18 

     This program is part of the open-source Quantum ESPRESSO suite
     for quantum simulation of materials; please cite
         "P. Giannozzi et al., J. Phys.:Condens. Matter 21 395502 (2009);
         "P. Giannozzi et al., J. Phys.:Condens. Matter 29 465901 (2017);
         "P. Giannozzi et al., J. Chem. Phys. 152 154105 (2020);
          URL http://www.quantum-espresso.org", 
     in publications or presentations arising from this work. More details at
     http://www.quantum-espresso.org/quote

     Parallel version (MPI & OpenMP), running on       8 processor cores
     Number of MPI processes:                 8
     Threads/MPI process:                     1

     MPI processes distributed on     1 nodes
     199975 MiB available memory on the printing compute node when the environment starts

     Reading input from TiFe_relaxed9.in

     Current dimensions of program PWSCF are:
     Max number of different atomic species (ntypx) = 10
     Max number of k-points (npk) =  40000
     Max angular momentum in pseudopotentials (lmaxx) =  4
     file Fe.pbe-spn-kjpaw_psl.0.2.1.UPF: wavefunction(s)  3D renormalized

     IMPORTANT: XC functional enforced from input :
     Exchange-correlation= PBE
                           (   1   4   3   4   0   0   0)
     Any further DFT definition will be discarded
     Please, verify this is what you really want

     Message from routine setup:
     using ibrav=0 with symmetry is DISCOURAGED, use correct ibrav instead

     R & G space division:  proc/nbgrp/npool/nimage =       8
     Subspace diagonalization in iterative solution of the eigenvalue problem:
     a serial algorithm will be used


     Parallelization info
     --------------------
     sticks:   dense  smooth     PW     G-vecs:    dense   smooth      PW
     Min         532     151     44                26154     3989     629
     Max         533     152     46                26155     3993     632
     Sum        4257    1209    357               209233    31919    5041

     Using Slab Decomposition



     bravais-lattice index     =            0
     lattice parameter (alat)  =       5.5533  a.u.
     unit-cell volume          =     171.2590 (a.u.)^3
     number of atoms/cell      =            2
     number of atomic types    =            2
     number of electrons       =        28.00
     number of Kohn-Sham states=           18
     kinetic-energy cutoff     =     124.0000  Ry
     charge density cutoff     =    1736.0000  Ry
     scf convergence threshold =      1.0E-08
     mixing beta               =       0.7000
     number of iterations used =            8  plain     mixing
     energy convergence thresh.=      1.0E-04
     force convergence thresh. =      1.0E-03
     press convergence thresh. =      5.0E-01
     Exchange-correlation= PBE
                           (   1   4   3   4   0   0   0)
     nstep                     =           50


     celldm(1)=   5.553300  celldm(2)=   0.000000  celldm(3)=   0.000000
     celldm(4)=   0.000000  celldm(5)=   0.000000  celldm(6)=   0.000000

     crystal axes: (cart. coord. in units of alat)
               a(1) = (   1.000000   0.000000   0.000000 )  
               a(2) = (   0.000000   1.000000   0.000000 )  
               a(3) = (   0.000000   0.000000   1.000000 )  

     reciprocal axes: (cart. coord. in units 2 pi/alat)
               b(1) = (  1.000000  0.000000  0.000000 )  
               b(2) = (  0.000000  1.000000  0.000000 )  
               b(3) = (  0.000000  0.000000  1.000000 )  


     PseudoPot. # 1 for Fe read from file:
     ../../pseudos/Fe.pbe-spn-kjpaw_psl.0.2.1.UPF
     MD5 check sum: e86618425769142926afa95317d90200
     Pseudo is Projector augmented-wave + core cor, Zval = 16.0
     Generated using "atomic" code by A. Dal Corso  v.5.0.99 svn rev. 10869
     Shape of augmentation charge: PSQ
     Using radial grid of 1191 points,  6 beta functions with: 
                l(1) =   0
                l(2) =   0
                l(3) =   1
                l(4) =   1
                l(5) =   2
                l(6) =   2
     Q(r) pseudized with 0 coefficients 


     PseudoPot. # 2 for Ti read from file:
     ../../pseudos/ti_pbe_v1.4.uspp.F.UPF
     MD5 check sum: 88a00a6731bd790ddea75d31a80cb452
     Pseudo is Ultrasoft + core correction, Zval = 12.0
     Generated by new atomic code, or converted to UPF format
     Using radial grid of  851 points,  6 beta functions with: 
                l(1) =   0
                l(2) =   0
                l(3) =   1
                l(4) =   1
                l(5) =   2
                l(6) =   2
     Q(r) pseudized with  6 coefficients,  rinner =    1.000   1.000   1.000
                                                       1.000   1.000

     atomic species   valence    mass     pseudopotential
     Fe               16.00    55.84500     Fe( 1.00)
     Ti               12.00    47.86700     Ti( 1.00)

     48 Sym. Ops., with inversion, found



   Cartesian axes

     site n.     atom                  positions (alat units)
         1        Fe     tau(   1) = (   0.5000000   0.5000000   0.5000000  )
         2        Ti     tau(   2) = (   0.0000000   0.0000000   0.0000000  )

     number of k points=   120  Marzari-Vanderbilt smearing, width (Ry)=  0.0050

     Number of k-points >= 100: set verbosity='high' to print them.

     Dense  grid:   209233 G-vectors     FFT dimensions: (  75,  75,  75)

     Smooth grid:    31919 G-vectors     FFT dimensions: (  40,  40,  40)

     Estimated max dynamical RAM per process >     125.80 MB

     Estimated total dynamical RAM >    1006.42 MB

     Check: negative core charge=   -0.000002

     Initial potential from superposition of free atoms

     starting charge      26.9995, renormalised to      28.0000

     negative rho (up, down):  1.347E-03 0.000E+00
     Starting wfcs are   23 randomized atomic wfcs
     Checking if some PAW data can be deallocated... 

     total cpu time spent up to now is        1.9 secs

     per-process dynamical memory:   151.6 Mb

     Self-consistent Calculation

     iteration #  1     ecut=   124.00 Ry     beta= 0.70
     Davidson diagonalization with overlap
     ethr =  1.00E-02,  avg # of iterations =  2.1

     negative rho (up, down):  8.075E-05 0.000E+00

     total cpu time spent up to now is        3.9 secs

     total energy              =    -434.88034974 Ry
     estimated scf accuracy    <      17.47740323 Ry

     iteration #  2     ecut=   124.00 Ry     beta= 0.70
     Davidson diagonalization with overlap
     ethr =  1.00E-02,  avg # of iterations =  6.1

     negative rho (up, down):  2.388E-05 0.000E+00

     total cpu time spent up to now is        7.2 secs

     total energy              =    -448.51195570 Ry
     estimated scf accuracy    <      66.14338935 Ry

     iteration #  3     ecut=   124.00 Ry     beta= 0.70
     Davidson diagonalization with overlap
     ethr =  1.00E-02,  avg # of iterations =  3.1

     negative rho (up, down):  2.384E-04 0.000E+00

     total cpu time spent up to now is        9.5 secs

     total energy              =    -448.59876074 Ry
     estimated scf accuracy    <      16.77187988 Ry

     iteration #  4     ecut=   124.00 Ry     beta= 0.70
     Davidson diagonalization with overlap
     ethr =  1.00E-02,  avg # of iterations =  2.1

     negative rho (up, down):  2.771E-04 0.000E+00

     total cpu time spent up to now is       11.5 secs

     total energy              =    -449.11451992 Ry
     estimated scf accuracy    <       4.73362336 Ry

     iteration #  5     ecut=   124.00 Ry     beta= 0.70
     Davidson diagonalization with overlap
     ethr =  1.00E-02,  avg # of iterations =  1.0

     negative rho (up, down):  3.233E-04 0.000E+00

     total cpu time spent up to now is       13.2 secs

     total energy              =    -449.12131532 Ry
     estimated scf accuracy    <       4.31212425 Ry

     iteration #  6     ecut=   124.00 Ry     beta= 0.70
     Davidson diagonalization with overlap
     ethr =  1.00E-02,  avg # of iterations =  1.0

     negative rho (up, down):  1.107E-03 0.000E+00

     total cpu time spent up to now is       14.8 secs

     total energy              =    -447.89389661 Ry
     estimated scf accuracy    <       4.51968901 Ry

     iteration #  7     ecut=   124.00 Ry     beta= 0.70
     Davidson diagonalization with overlap
     ethr =  1.00E-02,  avg # of iterations =  3.4

     negative rho (up, down):  1.008E-03 0.000E+00

     total cpu time spent up to now is       16.8 secs

     total energy              =    -448.58423346 Ry
     estimated scf accuracy    <       3.81978614 Ry

     iteration #  8     ecut=   124.00 Ry     beta= 0.70
     Davidson diagonalization with overlap
     ethr =  1.00E-02,  avg # of iterations =  1.0

     negative rho (up, down):  8.248E-04 0.000E+00

     total cpu time spent up to now is       18.5 secs

     total energy              =    -448.46846099 Ry
     estimated scf accuracy    <       1.21375717 Ry

     iteration #  9     ecut=   124.00 Ry     beta= 0.70
     Davidson diagonalization with overlap
     ethr =  4.33E-03,  avg # of iterations =  1.7

     negative rho (up, down):  8.317E-04 0.000E+00

     total cpu time spent up to now is       20.2 secs

     total energy              =    -448.59501092 Ry
     estimated scf accuracy    <       0.12585284 Ry

     iteration # 10     ecut=   124.00 Ry     beta= 0.70
     Davidson diagonalization with overlap
     ethr =  4.49E-04,  avg # of iterations =  2.3

     negative rho (up, down):  8.588E-04 0.000E+00

     total cpu time spent up to now is       22.0 secs

     total energy              =    -448.59602789 Ry
     estimated scf accuracy    <       0.14907511 Ry

     iteration # 11     ecut=   124.00 Ry     beta= 0.70
     Davidson diagonalization with overlap
     ethr =  4.49E-04,  avg # of iterations =  1.1

     negative rho (up, down):  1.121E-03 0.000E+00

     total cpu time spent up to now is       23.7 secs

     total energy              =    -448.56917534 Ry
     estimated scf accuracy    <       0.14868094 Ry

     iteration # 12     ecut=   124.00 Ry     beta= 0.70
     Davidson diagonalization with overlap
     ethr =  4.49E-04,  avg # of iterations =  4.3

     negative rho (up, down):  1.213E-03 0.000E+00

     total cpu time spent up to now is       26.1 secs

     total energy              =    -448.65391027 Ry
     estimated scf accuracy    <       0.18318038 Ry

     iteration # 13     ecut=   124.00 Ry     beta= 0.70
     Davidson diagonalization with overlap
     ethr =  4.49E-04,  avg # of iterations =  1.9

     negative rho (up, down):  2.114E-03 0.000E+00

     total cpu time spent up to now is       27.8 secs

     total energy              =    -449.03322661 Ry
     estimated scf accuracy    <       0.44442171 Ry

     iteration # 14     ecut=   124.00 Ry     beta= 0.70
     Davidson diagonalization with overlap
     ethr =  4.49E-04,  avg # of iterations =  6.2

     negative rho (up, down):  1.459E-03 0.000E+00

     total cpu time spent up to now is       30.8 secs

     total energy              =    -448.51932687 Ry
     estimated scf accuracy    <      26.98882259 Ry

     iteration # 15     ecut=   124.00 Ry     beta= 0.70
     Davidson diagonalization with overlap
     ethr =  4.49E-04,  avg # of iterations =  4.8

     negative rho (up, down):  1.137E-03 0.000E+00

     total cpu time spent up to now is       33.3 secs

     total energy              =    -448.49454823 Ry
     estimated scf accuracy    <       4.43870823 Ry

     iteration # 16     ecut=   124.00 Ry     beta= 0.70
     Davidson diagonalization with overlap
     ethr =  4.49E-04,  avg # of iterations =  4.3

     negative rho (up, down):  1.088E-03 0.000E+00

     total cpu time spent up to now is       35.7 secs

     total energy              =    -448.60519511 Ry
     estimated scf accuracy    <       0.36277654 Ry

     iteration # 17     ecut=   124.00 Ry     beta= 0.70
     Davidson diagonalization with overlap
     ethr =  4.49E-04,  avg # of iterations =  2.0

     negative rho (up, down):  1.022E-03 0.000E+00

     total cpu time spent up to now is       37.5 secs

     total energy              =    -448.58523807 Ry
     estimated scf accuracy    <       0.39566394 Ry

     iteration # 18     ecut=   124.00 Ry     beta= 0.70
     Davidson diagonalization with overlap
     ethr =  4.49E-04,  avg # of iterations =  1.2

     negative rho (up, down):  9.735E-04 0.000E+00

     total cpu time spent up to now is       39.2 secs

     total energy              =    -448.57914660 Ry
     estimated scf accuracy    <       0.10585198 Ry

     iteration # 19     ecut=   124.00 Ry     beta= 0.70
     Davidson diagonalization with overlap
     ethr =  3.78E-04,  avg # of iterations =  1.8

     negative rho (up, down):  9.827E-04 0.000E+00

     total cpu time spent up to now is       40.9 secs

     total energy              =    -448.58492275 Ry
     estimated scf accuracy    <       0.01167453 Ry

     iteration # 20     ecut=   124.00 Ry     beta= 0.70
     Davidson diagonalization with overlap
     ethr =  4.17E-05,  avg # of iterations =  4.3

     negative rho (up, down):  9.840E-04 0.000E+00

     total cpu time spent up to now is       43.1 secs

     total energy              =    -448.58662258 Ry
     estimated scf accuracy    <       0.00743011 Ry

     iteration # 21     ecut=   124.00 Ry     beta= 0.70
     Davidson diagonalization with overlap
     ethr =  2.65E-05,  avg # of iterations =  1.2

     negative rho (up, down):  9.783E-04 0.000E+00

     total cpu time spent up to now is       44.8 secs

     total energy              =    -448.58668664 Ry
     estimated scf accuracy    <       0.00779712 Ry

     iteration # 22     ecut=   124.00 Ry     beta= 0.70
     Davidson diagonalization with overlap
     ethr =  2.65E-05,  avg # of iterations =  1.0

     negative rho (up, down):  1.037E-03 0.000E+00

     total cpu time spent up to now is       46.4 secs

     total energy              =    -448.58737857 Ry
     estimated scf accuracy    <       0.00638001 Ry

     iteration # 23     ecut=   124.00 Ry     beta= 0.70
     Davidson diagonalization with overlap
     ethr =  2.28E-05,  avg # of iterations =  1.0

     negative rho (up, down):  1.004E-03 0.000E+00

     total cpu time spent up to now is       48.1 secs

     total energy              =    -448.58667571 Ry
     estimated scf accuracy    <       0.01401581 Ry

     iteration # 24     ecut=   124.00 Ry     beta= 0.70
     Davidson diagonalization with overlap
     ethr =  2.28E-05,  avg # of iterations =  1.0

     negative rho (up, down):  9.887E-04 0.000E+00

     total cpu time spent up to now is       49.8 secs

     total energy              =    -448.58663217 Ry
     estimated scf accuracy    <       0.00473461 Ry

     iteration # 25     ecut=   124.00 Ry     beta= 0.70
     Davidson diagonalization with overlap
     ethr =  1.69E-05,  avg # of iterations =  1.0

     negative rho (up, down):  9.662E-04 0.000E+00

     total cpu time spent up to now is       51.4 secs

     total energy              =    -448.58651421 Ry
     estimated scf accuracy    <       0.00172769 Ry

     iteration # 26     ecut=   124.00 Ry     beta= 0.70
     Davidson diagonalization with overlap
     ethr =  6.17E-06,  avg # of iterations =  1.7

     negative rho (up, down):  9.659E-04 0.000E+00

     total cpu time spent up to now is       53.2 secs

     total energy              =    -448.58655054 Ry
     estimated scf accuracy    <       0.00047004 Ry

     iteration # 27     ecut=   124.00 Ry     beta= 0.70
     Davidson diagonalization with overlap
     ethr =  1.68E-06,  avg # of iterations =  2.3

     negative rho (up, down):  9.621E-04 0.000E+00

     total cpu time spent up to now is       55.0 secs

     total energy              =    -448.58654470 Ry
     estimated scf accuracy    <       0.00023845 Ry

     iteration # 28     ecut=   124.00 Ry     beta= 0.70
     Davidson diagonalization with overlap
     ethr =  8.52E-07,  avg # of iterations =  1.7

     negative rho (up, down):  9.604E-04 0.000E+00

     total cpu time spent up to now is       56.7 secs

     total energy              =    -448.58653701 Ry
     estimated scf accuracy    <       0.00010746 Ry

     iteration # 29     ecut=   124.00 Ry     beta= 0.70
     Davidson diagonalization with overlap
     ethr =  3.84E-07,  avg # of iterations =  2.4

     negative rho (up, down):  9.615E-04 0.000E+00

     total cpu time spent up to now is       58.5 secs

     total energy              =    -448.58653629 Ry
     estimated scf accuracy    <       0.00003417 Ry

     iteration # 30     ecut=   124.00 Ry     beta= 0.70
     Davidson diagonalization with overlap
     ethr =  1.22E-07,  avg # of iterations =  3.3

     negative rho (up, down):  9.610E-04 0.000E+00

     total cpu time spent up to now is       60.5 secs

     total energy              =    -448.58654028 Ry
     estimated scf accuracy    <       0.00000540 Ry

     iteration # 31     ecut=   124.00 Ry     beta= 0.70
     Davidson diagonalization with overlap
     ethr =  1.93E-08,  avg # of iterations =  4.0

     negative rho (up, down):  9.613E-04 0.000E+00

     total cpu time spent up to now is       62.6 secs

     total energy              =    -448.58654137 Ry
     estimated scf accuracy    <       0.00000083 Ry

     iteration # 32     ecut=   124.00 Ry     beta= 0.70
     Davidson diagonalization with overlap
     ethr =  2.95E-09,  avg # of iterations =  3.0

     negative rho (up, down):  9.613E-04 0.000E+00

     total cpu time spent up to now is       64.6 secs

     total energy              =    -448.58654147 Ry
     estimated scf accuracy    <       0.00000005 Ry

     iteration # 33     ecut=   124.00 Ry     beta= 0.70
     Davidson diagonalization with overlap
     ethr =  1.74E-10,  avg # of iterations =  4.5

     negative rho (up, down):  9.615E-04 0.000E+00

     total cpu time spent up to now is       66.9 secs

     End of self-consistent calculation

     Number of k-points >= 100: set verbosity='high' to print the bands.

     the Fermi energy is    17.7222 ev

!    total energy              =    -448.58654149 Ry
     estimated scf accuracy    <          4.8E-09 Ry
     smearing contrib. (-TS)   =      -0.00001774 Ry
     internal energy E=F+TS    =    -448.58652375 Ry

     The total energy is F=E-TS. E is the sum of the following terms:
     one-electron contribution =    -151.35065372 Ry
     hartree contribution      =      91.62732609 Ry
     xc contribution           =     -52.88875636 Ry
     ewald contribution        =    -259.82070277 Ry
     one-center paw contrib.   =     -76.15373699 Ry

     convergence has been achieved in  33 iterations

     negative rho (up, down):  9.615E-04 0.000E+00

     Forces acting on atoms (cartesian axes, Ry/au):

     atom    1 type  1   force =     0.00000000    0.00000000    0.00000000
     atom    2 type  2   force =     0.00000000    0.00000000    0.00000000

     Total force =     0.000000     Total SCF correction =     0.000000


     Computing stress (Cartesian axis) and pressure


     negative rho (up, down):  9.615E-04 0.000E+00
          total   stress  (Ry/bohr**3)                   (kbar)     P=       29.45
   0.00020020   0.00000000   0.00000000           29.45        0.00        0.00
   0.00000000   0.00020020   0.00000000            0.00       29.45        0.00
   0.00000000   0.00000000   0.00020020            0.00        0.00       29.45


     BFGS Geometry Optimization
     Energy error            =      3.7E-02 Ry
     Gradient error          =      0.0E+00 Ry/Bohr
     Cell gradient error     =      2.4E+02 kbar

     number of scf cycles    =   1
     number of bfgs steps    =   0

     enthalpy           new  =    -448.2709969558 Ry

     new trust radius        =       0.1074607673 bohr
     new conv_thr            =       0.0000000100 Ry

     new unit-cell volume =    151.01883 a.u.^3 (    22.37868 Ang^3 )
     density =      7.69562 g/cm^3

CELL_PARAMETERS (alat=  5.55330037)
   0.958942434   0.000000000   0.000000000
   0.000000000   0.958942434   0.000000000
   0.000000000   0.000000000   0.958942434

ATOMIC_POSITIONS (crystal)
Fe               0.5000000000        0.5000000000        0.5000000000
Ti               0.0000000000        0.0000000000        0.0000000000



     Writing config-only to output data dir ./TiFe.save/ :
     XML data file
     NEW-OLD atomic charge density approx. for the potential
     New effective cutoffs (rho, wfc): 1887.70  134.84

     Check: negative core charge=   -0.000001

     negative rho (up, down):  8.741E-04 0.000E+00

     total cpu time spent up to now is       69.5 secs

     per-process dynamical memory:   161.7 Mb

     Self-consistent Calculation

     iteration #  1     ecut=   124.00 Ry     beta= 0.70
     Davidson diagonalization with overlap
     ethr =  1.00E-06,  avg # of iterations =  9.8

     negative rho (up, down):  9.149E-04 0.000E+00

     total cpu time spent up to now is       74.0 secs

     total energy              =    -448.56032749 Ry
     estimated scf accuracy    <       0.00146215 Ry

     iteration #  2     ecut=   124.00 Ry     beta= 0.70
     Davidson diagonalization with overlap
     ethr =  5.22E-06,  avg # of iterations =  4.1

     negative rho (up, down):  9.298E-04 0.000E+00

     total cpu time spent up to now is       76.4 secs

     total energy              =    -448.55628917 Ry
     estimated scf accuracy    <       0.06005582 Ry

     iteration #  3     ecut=   124.00 Ry     beta= 0.70
     Davidson diagonalization with overlap
     ethr =  5.22E-06,  avg # of iterations =  4.3

     negative rho (up, down):  9.240E-04 0.000E+00

     total cpu time spent up to now is       78.7 secs

     total energy              =    -448.56141999 Ry
     estimated scf accuracy    <       0.00291230 Ry

     iteration #  4     ecut=   124.00 Ry     beta= 0.70
     Davidson diagonalization with overlap
     ethr =  5.22E-06,  avg # of iterations =  1.7

     negative rho (up, down):  9.316E-04 0.000E+00

     total cpu time spent up to now is       80.4 secs

     total energy              =    -448.56158837 Ry
     estimated scf accuracy    <       0.00025467 Ry

     iteration #  5     ecut=   124.00 Ry     beta= 0.70
     Davidson diagonalization with overlap
     ethr =  9.10E-07,  avg # of iterations =  3.2

     negative rho (up, down):  9.323E-04 0.000E+00

     total cpu time spent up to now is       82.3 secs

     total energy              =    -448.56161801 Ry
     estimated scf accuracy    <       0.00001459 Ry

     iteration #  6     ecut=   124.00 Ry     beta= 0.70
     Davidson diagonalization with overlap
     ethr =  5.21E-08,  avg # of iterations =  4.0

     negative rho (up, down):  9.328E-04 0.000E+00

     total cpu time spent up to now is       84.3 secs

     total energy              =    -448.56162056 Ry
     estimated scf accuracy    <       0.00000107 Ry

     iteration #  7     ecut=   124.00 Ry     beta= 0.70
     Davidson diagonalization with overlap
     ethr =  3.82E-09,  avg # of iterations =  4.4

     negative rho (up, down):  9.329E-04 0.000E+00

     total cpu time spent up to now is       86.6 secs

     total energy              =    -448.56162121 Ry
     estimated scf accuracy    <       0.00000130 Ry

     iteration #  8     ecut=   124.00 Ry     beta= 0.70
     Davidson diagonalization with overlap
     ethr =  3.82E-09,  avg # of iterations =  1.4

     negative rho (up, down):  9.330E-04 0.000E+00

     total cpu time spent up to now is       88.3 secs

     End of self-consistent calculation

     Number of k-points >= 100: set verbosity='high' to print the bands.

     the Fermi energy is    20.4138 ev

!    total energy              =    -448.56162130 Ry
     estimated scf accuracy    <          3.5E-09 Ry
     smearing contrib. (-TS)   =       0.00002561 Ry
     internal energy E=F+TS    =    -448.56164691 Ry

     The total energy is F=E-TS. E is the sum of the following terms:
     one-electron contribution =    -134.31912798 Ry
     hartree contribution      =      85.98891036 Ry
     xc contribution           =     -53.12989162 Ry
     ewald contribution        =    -270.94504680 Ry
     one-center paw contrib.   =     -76.15649088 Ry

     convergence has been achieved in   8 iterations

     negative rho (up, down):  9.330E-04 0.000E+00

     Forces acting on atoms (cartesian axes, Ry/au):

     atom    1 type  1   force =     0.00000000    0.00000000    0.00000000
     atom    2 type  2   force =     0.00000000    0.00000000    0.00000000

     Total force =     0.000000     Total SCF correction =     0.000000


     Computing stress (Cartesian axis) and pressure


     negative rho (up, down):  9.330E-04 0.000E+00
          total   stress  (Ry/bohr**3)                   (kbar)     P=      366.37
   0.00249055   0.00000000   0.00000000          366.37        0.00        0.00
   0.00000000   0.00249055   0.00000000            0.00      366.37        0.00
   0.00000000   0.00000000   0.00249055            0.00        0.00      366.37

     Energy error            =      1.2E-02 Ry
     Gradient error          =      0.0E+00 Ry/Bohr
     Cell gradient error     =      9.5E+01 kbar

     number of scf cycles    =   2
     number of bfgs steps    =   1

     enthalpy           old  =    -448.2709969558 Ry
     enthalpy           new  =    -448.2833693093 Ry

     CASE: enthalpy          _new < enthalpy          _old

     new trust radius        =       0.0280178720 bohr
     new conv_thr            =            1.0E-10 Ry

     new unit-cell volume =    156.24259 a.u.^3 (    23.15276 Ang^3 )
     density =      7.43833 g/cm^3

CELL_PARAMETERS (alat=  5.55330037)
   0.969873994   0.000000000   0.000000000
   0.000000000   0.969873994   0.000000000
   0.000000000   0.000000000   0.969873994

ATOMIC_POSITIONS (crystal)
Fe               0.5000000000        0.5000000000        0.5000000000
Ti               0.0000000000        0.0000000000        0.0000000000



     Writing config-only to output data dir ./TiFe.save/ :
     XML data file
     NEW-OLD atomic charge density approx. for the potential
     New effective cutoffs (rho, wfc): 1845.38  131.82

     Check: negative core charge=   -0.000002

     negative rho (up, down):  9.531E-04 0.000E+00

     total cpu time spent up to now is       90.9 secs

     per-process dynamical memory:   161.7 Mb

     Self-consistent Calculation

     iteration #  1     ecut=   124.00 Ry     beta= 0.70
     Davidson diagonalization with overlap
     ethr =  1.00E-06,  avg # of iterations =  7.6

     negative rho (up, down):  9.439E-04 0.000E+00

     total cpu time spent up to now is       94.5 secs

     total energy              =    -448.57152765 Ry
     estimated scf accuracy    <       0.00065935 Ry

     iteration #  2     ecut=   124.00 Ry     beta= 0.70
     Davidson diagonalization with overlap
     ethr =  2.35E-06,  avg # of iterations =  5.0

     negative rho (up, down):  9.315E-04 0.000E+00

     total cpu time spent up to now is       97.0 secs

     total energy              =    -448.56935701 Ry
     estimated scf accuracy    <       0.05779284 Ry

     iteration #  3     ecut=   124.00 Ry     beta= 0.70
     Davidson diagonalization with overlap
     ethr =  2.35E-06,  avg # of iterations =  4.7

     negative rho (up, down):  9.375E-04 0.000E+00

     total cpu time spent up to now is       99.4 secs

     total energy              =    -448.57265473 Ry
     estimated scf accuracy    <       0.00010356 Ry

     iteration #  4     ecut=   124.00 Ry     beta= 0.70
     Davidson diagonalization with overlap
     ethr =  3.70E-07,  avg # of iterations =  2.1

     negative rho (up, down):  9.387E-04 0.000E+00

     total cpu time spent up to now is      101.4 secs

     total energy              =    -448.57268152 Ry
     estimated scf accuracy    <       0.00000782 Ry

     iteration #  5     ecut=   124.00 Ry     beta= 0.70
     Davidson diagonalization with overlap
     ethr =  2.79E-08,  avg # of iterations =  4.6

     negative rho (up, down):  9.371E-04 0.000E+00

     total cpu time spent up to now is      103.8 secs

     total energy              =    -448.57268642 Ry
     estimated scf accuracy    <       0.00000057 Ry

     iteration #  6     ecut=   124.00 Ry     beta= 0.70
     Davidson diagonalization with overlap
     ethr =  2.02E-09,  avg # of iterations =  3.7

     negative rho (up, down):  9.375E-04 0.000E+00

     total cpu time spent up to now is      106.2 secs

     total energy              =    -448.57268664 Ry
     estimated scf accuracy    <       0.00000055 Ry

     iteration #  7     ecut=   124.00 Ry     beta= 0.70
     Davidson diagonalization with overlap
     ethr =  1.98E-09,  avg # of iterations =  2.0

     negative rho (up, down):  9.377E-04 0.000E+00

     total cpu time spent up to now is      108.0 secs

     total energy              =    -448.57268670 Ry
     estimated scf accuracy    <       0.00000004 Ry

     iteration #  8     ecut=   124.00 Ry     beta= 0.70
     Davidson diagonalization with overlap
     ethr =  1.27E-10,  avg # of iterations =  4.3

     negative rho (up, down):  9.376E-04 0.000E+00

     total cpu time spent up to now is      110.4 secs

     total energy              =    -448.57268671 Ry
     estimated scf accuracy    <          1.1E-09 Ry

     iteration #  9     ecut=   124.00 Ry     beta= 0.70
     Davidson diagonalization with overlap
     ethr =  3.80E-12,  avg # of iterations =  4.6

     negative rho (up, down):  9.376E-04 0.000E+00

     total cpu time spent up to now is      112.7 secs

     total energy              =    -448.57268672 Ry
     estimated scf accuracy    <          2.9E-10 Ry

     iteration # 10     ecut=   124.00 Ry     beta= 0.70
     Davidson diagonalization with overlap
     ethr =  1.05E-12,  avg # of iterations =  2.2

     negative rho (up, down):  9.376E-04 0.000E+00

     total cpu time spent up to now is      114.6 secs

     End of self-consistent calculation

     Number of k-points >= 100: set verbosity='high' to print the bands.

     the Fermi energy is    19.6601 ev

!    total energy              =    -448.57268672 Ry
     estimated scf accuracy    <          3.3E-11 Ry
     smearing contrib. (-TS)   =       0.00002002 Ry
     internal energy E=F+TS    =    -448.57270674 Ry

     The total energy is F=E-TS. E is the sum of the following terms:
     one-electron contribution =    -138.97149899 Ry
     hartree contribution      =      87.50651465 Ry
     xc contribution           =     -53.06077639 Ry
     ewald contribution        =    -267.89119443 Ry
     one-center paw contrib.   =     -76.15575156 Ry

     convergence has been achieved in  10 iterations

     negative rho (up, down):  9.376E-04 0.000E+00

     Forces acting on atoms (cartesian axes, Ry/au):

     atom    1 type  1   force =     0.00000000    0.00000000    0.00000000
     atom    2 type  2   force =     0.00000000    0.00000000    0.00000000

     Total force =     0.000000     Total SCF correction =     0.000000


     Computing stress (Cartesian axis) and pressure


     negative rho (up, down):  9.376E-04 0.000E+00
          total   stress  (Ry/bohr**3)                   (kbar)     P=      259.19
   0.00176194   0.00000000   0.00000000          259.19        0.00        0.00
   0.00000000   0.00176194   0.00000000            0.00      259.19        0.00
   0.00000000   0.00000000   0.00176194            0.00        0.00      259.19

     Energy error            =      1.4E-03 Ry
     Gradient error          =      0.0E+00 Ry/Bohr
     Cell gradient error     =      1.2E+01 kbar

     number of scf cycles    =   3
     number of bfgs steps    =   2

     enthalpy           old  =    -448.2833693093 Ry
     enthalpy           new  =    -448.2848099541 Ry

     CASE: enthalpy          _new < enthalpy          _old

     new trust radius        =       0.0031786841 bohr
     new conv_thr            =            1.0E-10 Ry

     new unit-cell volume =    155.64736 a.u.^3 (    23.06456 Ang^3 )
     density =      7.46677 g/cm^3

CELL_PARAMETERS (alat=  5.55330037)
   0.968640796   0.000000000   0.000000000
   0.000000000   0.968640796   0.000000000
   0.000000000   0.000000000   0.968640796

ATOMIC_POSITIONS (crystal)
Fe               0.5000000000        0.5000000000        0.5000000000
Ti               0.0000000000        0.0000000000        0.0000000000



     Writing config-only to output data dir ./TiFe.save/ :
     XML data file
     NEW-OLD atomic charge density approx. for the potential
     New effective cutoffs (rho, wfc): 1850.08  132.16

     Check: negative core charge=   -0.000002

     negative rho (up, down):  9.336E-04 0.000E+00

     total cpu time spent up to now is      117.2 secs

     per-process dynamical memory:   161.7 Mb

     Self-consistent Calculation

     iteration #  1     ecut=   124.00 Ry     beta= 0.70
     Davidson diagonalization with overlap
     ethr =  1.00E-06,  avg # of iterations =  2.2

     Threshold (ethr) on eigenvalues was too large:
     Diagonalizing with lowered threshold

     Davidson diagonalization with overlap
     ethr =  3.15E-09,  avg # of iterations =  6.4

     negative rho (up, down):  9.362E-04 0.000E+00

     total cpu time spent up to now is      122.0 secs

     total energy              =    -448.57160449 Ry
     estimated scf accuracy    <       0.00000135 Ry

     iteration #  2     ecut=   124.00 Ry     beta= 0.70
     Davidson diagonalization with overlap
     ethr =  4.82E-09,  avg # of iterations =  4.1

     negative rho (up, down):  9.371E-04 0.000E+00

     total cpu time spent up to now is      124.3 secs

     total energy              =    -448.57160897 Ry
     estimated scf accuracy    <       0.00006241 Ry

     iteration #  3     ecut=   124.00 Ry     beta= 0.70
     Davidson diagonalization with overlap
     ethr =  4.82E-09,  avg # of iterations =  4.4

     negative rho (up, down):  9.370E-04 0.000E+00

     total cpu time spent up to now is      126.5 secs

     total energy              =    -448.57161476 Ry
     estimated scf accuracy    <       0.00000256 Ry

     iteration #  4     ecut=   124.00 Ry     beta= 0.70
     Davidson diagonalization with overlap
     ethr =  4.82E-09,  avg # of iterations =  1.5

     negative rho (up, down):  9.372E-04 0.000E+00

     total cpu time spent up to now is      128.2 secs

     total energy              =    -448.57161501 Ry
     estimated scf accuracy    <       0.00000030 Ry

     iteration #  5     ecut=   124.00 Ry     beta= 0.70
     Davidson diagonalization with overlap
     ethr =  1.06E-09,  avg # of iterations =  3.3

     negative rho (up, down):  9.372E-04 0.000E+00

     total cpu time spent up to now is      130.1 secs

     total energy              =    -448.57161506 Ry
     estimated scf accuracy    <       0.00000002 Ry

     iteration #  6     ecut=   124.00 Ry     beta= 0.70
     Davidson diagonalization with overlap
     ethr =  6.10E-11,  avg # of iterations =  3.9

     negative rho (up, down):  9.372E-04 0.000E+00

     total cpu time spent up to now is      132.1 secs

     total energy              =    -448.57161506 Ry
     estimated scf accuracy    <          1.5E-09 Ry

     iteration #  7     ecut=   124.00 Ry     beta= 0.70
     Davidson diagonalization with overlap
     ethr =  5.46E-12,  avg # of iterations =  4.4

     negative rho (up, down):  9.372E-04 0.000E+00

     total cpu time spent up to now is      134.4 secs

     total energy              =    -448.57161506 Ry
     estimated scf accuracy    <          7.7E-10 Ry

     iteration #  8     ecut=   124.00 Ry     beta= 0.70
     Davidson diagonalization with overlap
     ethr =  2.77E-12,  avg # of iterations =  2.9

     negative rho (up, down):  9.372E-04 0.000E+00

     total cpu time spent up to now is      136.3 secs

     total energy              =    -448.57161506 Ry
     estimated scf accuracy    <          2.2E-09 Ry

     iteration #  9     ecut=   124.00 Ry     beta= 0.70
     Davidson diagonalization with overlap
     ethr =  2.77E-12,  avg # of iterations =  4.0

     negative rho (up, down):  9.373E-04 0.000E+00

     total cpu time spent up to now is      138.7 secs

     total energy              =    -448.57161506 Ry
     estimated scf accuracy    <          5.5E-09 Ry

     iteration # 10     ecut=   124.00 Ry     beta= 0.70
     Davidson diagonalization with overlap
     ethr =  2.77E-12,  avg # of iterations =  3.0

     negative rho (up, down):  9.373E-04 0.000E+00

     total cpu time spent up to now is      140.6 secs

     total energy              =    -448.57161506 Ry
     estimated scf accuracy    <          4.6E-10 Ry

     iteration # 11     ecut=   124.00 Ry     beta= 0.70
     Davidson diagonalization with overlap
     ethr =  1.63E-12,  avg # of iterations =  2.7

     negative rho (up, down):  9.373E-04 0.000E+00

     total cpu time spent up to now is      142.6 secs

     total energy              =    -448.57161506 Ry
     estimated scf accuracy    <          3.5E-10 Ry

     iteration # 12     ecut=   124.00 Ry     beta= 0.70
     Davidson diagonalization with overlap
     ethr =  1.27E-12,  avg # of iterations =  1.0

     negative rho (up, down):  9.373E-04 0.000E+00

     total cpu time spent up to now is      144.3 secs

     End of self-consistent calculation

     Number of k-points >= 100: set verbosity='high' to print the bands.

     the Fermi energy is    19.7429 ev

!    total energy              =    -448.57161506 Ry
     estimated scf accuracy    <          2.5E-11 Ry
     smearing contrib. (-TS)   =       0.00002142 Ry
     internal energy E=F+TS    =    -448.57163648 Ry

     The total energy is F=E-TS. E is the sum of the following terms:
     one-electron contribution =    -138.45089233 Ry
     hartree contribution      =      87.33570076 Ry
     xc contribution           =     -53.06835529 Ry
     ewald contribution        =    -268.23225275 Ry
     one-center paw contrib.   =     -76.15583687 Ry

     convergence has been achieved in  12 iterations

     negative rho (up, down):  9.373E-04 0.000E+00

     Forces acting on atoms (cartesian axes, Ry/au):

     atom    1 type  1   force =     0.00000000    0.00000000    0.00000000
     atom    2 type  2   force =     0.00000000    0.00000000    0.00000000

     Total force =     0.000000     Total SCF correction =     0.000000


     Computing stress (Cartesian axis) and pressure


     negative rho (up, down):  9.373E-04 0.000E+00
          total   stress  (Ry/bohr**3)                   (kbar)     P=      270.59
   0.00183942   0.00000000   0.00000000          270.59        0.00        0.00
   0.00000000   0.00183942   0.00000000            0.00      270.59        0.00
   0.00000000   0.00000000   0.00183942            0.00        0.00      270.59

     Energy error            =      2.5E-05 Ry
     Gradient error          =      0.0E+00 Ry/Bohr
     Cell gradient error     =      4.5E-01 kbar

     bfgs converged in   4 scf cycles and   3 bfgs steps
     (criteria: energy <  1.0E-04 Ry, force <  1.0E-03 Ry/Bohr, cell <  5.0E-01 kbar)

     End of BFGS Geometry Optimization

     Final enthalpy           =    -448.2848350115 Ry

     File ./TiFe.bfgs deleted, as requested
Begin final coordinates
     new unit-cell volume =    155.64736 a.u.^3 (    23.06456 Ang^3 )
     density =      7.46677 g/cm^3

CELL_PARAMETERS (alat=  5.55330037)
   0.968640796   0.000000000   0.000000000
   0.000000000   0.968640796   0.000000000
   0.000000000   0.000000000   0.968640796

ATOMIC_POSITIONS (crystal)
Fe               0.5000000000        0.5000000000        0.5000000000
Ti               0.0000000000        0.0000000000        0.0000000000
End final coordinates



     Writing config-only to output data dir ./TiFe.save/ :
     XML data file

     Final scf calculation at the relaxed structure.
     The G-vectors are recalculated for the final unit cell
     Results may differ from those at the preceding step.

     Parallelization info
     --------------------
     sticks:   dense  smooth     PW     G-vecs:    dense   smooth      PW
     Min         499     142     42                23759     3622     578
     Max         500     143     44                23764     3625     579
     Sum        3993    1137    341               190079    28991    4625

     Using Slab Decomposition



     bravais-lattice index     =            0
     lattice parameter (alat)  =       5.5533  a.u.
     unit-cell volume          =     155.6474 (a.u.)^3
     number of atoms/cell      =            2
     number of atomic types    =            2
     number of electrons       =        28.00
     number of Kohn-Sham states=           18
     kinetic-energy cutoff     =     124.0000  Ry
     charge density cutoff     =    1736.0000  Ry
     scf convergence threshold =      1.0E-10
     mixing beta               =       0.7000
     number of iterations used =            8  plain     mixing
     press convergence thresh. =      5.0E-01
     Exchange-correlation= PBE
                           (   1   4   3   4   0   0   0)

     celldm(1)=   5.553300  celldm(2)=   0.000000  celldm(3)=   0.000000
     celldm(4)=   0.000000  celldm(5)=   0.000000  celldm(6)=   0.000000

     crystal axes: (cart. coord. in units of alat)
               a(1) = (   0.968641   0.000000   0.000000 )  
               a(2) = (   0.000000   0.968641   0.000000 )  
               a(3) = (   0.000000   0.000000   0.968641 )  

     reciprocal axes: (cart. coord. in units 2 pi/alat)
               b(1) = (  1.032374  0.000000  0.000000 )  
               b(2) = (  0.000000  1.032374  0.000000 )  
               b(3) = (  0.000000  0.000000  1.032374 )  


     PseudoPot. # 1 for Fe read from file:
     ../../pseudos/Fe.pbe-spn-kjpaw_psl.0.2.1.UPF
     MD5 check sum: e86618425769142926afa95317d90200
     Pseudo is Projector augmented-wave + core cor, Zval = 16.0
     Generated using "atomic" code by A. Dal Corso  v.5.0.99 svn rev. 10869
     Shape of augmentation charge: PSQ
     Using radial grid of 1191 points,  6 beta functions with: 
                l(1) =   0
                l(2) =   0
                l(3) =   1
                l(4) =   1
                l(5) =   2
                l(6) =   2
     Q(r) pseudized with 0 coefficients 


     PseudoPot. # 2 for Ti read from file:
     ../../pseudos/ti_pbe_v1.4.uspp.F.UPF
     MD5 check sum: 88a00a6731bd790ddea75d31a80cb452
     Pseudo is Ultrasoft + core correction, Zval = 12.0
     Generated by new atomic code, or converted to UPF format
     Using radial grid of  851 points,  6 beta functions with: 
                l(1) =   0
                l(2) =   0
                l(3) =   1
                l(4) =   1
                l(5) =   2
                l(6) =   2
     Q(r) pseudized with  6 coefficients,  rinner =    1.000   1.000   1.000
                                                       1.000   1.000

     atomic species   valence    mass     pseudopotential
     Fe               16.00    55.84500     Fe( 1.00)
     Ti               12.00    47.86700     Ti( 1.00)

     48 Sym. Ops., with inversion, found



   Cartesian axes

     site n.     atom                  positions (alat units)
         1        Fe     tau(   1) = (   0.4843204   0.4843204   0.4843204  )
         2        Ti     tau(   2) = (   0.0000000   0.0000000   0.0000000  )

     number of k points=   120  Marzari-Vanderbilt smearing, width (Ry)=  0.0050

     Number of k-points >= 100: set verbosity='high' to print them.

     Dense  grid:   190079 G-vectors     FFT dimensions: (  72,  72,  72)

     Smooth grid:    28991 G-vectors     FFT dimensions: (  40,  40,  40)

     Estimated max dynamical RAM per process >     115.60 MB

     Estimated total dynamical RAM >     924.77 MB

     Check: negative core charge=   -0.000002

     Initial potential from superposition of free atoms

     starting charge      26.9995, renormalised to      28.0000

     negative rho (up, down):  1.332E-03 0.000E+00
     Starting wfcs are   23 randomized atomic wfcs
     Checking if some PAW data can be deallocated... 

     total cpu time spent up to now is      148.0 secs

     per-process dynamical memory:   153.9 Mb

     Self-consistent Calculation

     iteration #  1     ecut=   124.00 Ry     beta= 0.70
     Davidson diagonalization with overlap
     c_bands:  1 eigenvalues not converged
     c_bands:  1 eigenvalues not converged
     c_bands:  1 eigenvalues not converged
     c_bands:  1 eigenvalues not converged
     c_bands:  1 eigenvalues not converged
     c_bands:  1 eigenvalues not converged
     c_bands:  1 eigenvalues not converged
     c_bands:  1 eigenvalues not converged
     c_bands:  1 eigenvalues not converged
     c_bands:  1 eigenvalues not converged
     c_bands:  1 eigenvalues not converged
     c_bands:  1 eigenvalues not converged
     c_bands:  1 eigenvalues not converged
     c_bands:  1 eigenvalues not converged
     c_bands:  1 eigenvalues not converged
     c_bands:  1 eigenvalues not converged
     c_bands:  1 eigenvalues not converged
     c_bands:  2 eigenvalues not converged
     c_bands:  1 eigenvalues not converged
     ethr =  1.00E-06,  avg # of iterations = 16.5

     negative rho (up, down):  6.268E-05 0.000E+00

     total cpu time spent up to now is      155.7 secs

     total energy              =    -436.65961440 Ry
     estimated scf accuracy    <      15.33058873 Ry

     iteration #  2     ecut=   124.00 Ry     beta= 0.70
     Davidson diagonalization with overlap
     ethr =  1.00E-02,  avg # of iterations =  6.2

     negative rho (up, down):  9.972E-05 0.000E+00

     total cpu time spent up to now is      158.8 secs

     total energy              =    -448.46992856 Ry
     estimated scf accuracy    <      59.36166393 Ry

     iteration #  3     ecut=   124.00 Ry     beta= 0.70
     Davidson diagonalization with overlap
     ethr =  1.00E-02,  avg # of iterations =  3.0

     negative rho (up, down):  3.636E-04 0.000E+00

     total cpu time spent up to now is      161.0 secs

     total energy              =    -448.50478568 Ry
     estimated scf accuracy    <      15.05891226 Ry

     iteration #  4     ecut=   124.00 Ry     beta= 0.70
     Davidson diagonalization with overlap
     ethr =  1.00E-02,  avg # of iterations =  2.1

     negative rho (up, down):  3.372E-04 0.000E+00

     total cpu time spent up to now is      162.9 secs

     total energy              =    -449.04248929 Ry
     estimated scf accuracy    <       4.09259017 Ry

     iteration #  5     ecut=   124.00 Ry     beta= 0.70
     Davidson diagonalization with overlap
     ethr =  1.00E-02,  avg # of iterations =  1.0

     negative rho (up, down):  5.560E-04 0.000E+00

     total cpu time spent up to now is      164.5 secs

     total energy              =    -448.44140200 Ry
     estimated scf accuracy    <       3.86284676 Ry

     iteration #  6     ecut=   124.00 Ry     beta= 0.70
     Davidson diagonalization with overlap
     ethr =  1.00E-02,  avg # of iterations =  1.5

     negative rho (up, down):  5.573E-04 0.000E+00

     total cpu time spent up to now is      166.1 secs

     total energy              =    -448.64526657 Ry
     estimated scf accuracy    <       0.43802754 Ry

     iteration #  7     ecut=   124.00 Ry     beta= 0.70
     Davidson diagonalization with overlap
     ethr =  1.56E-03,  avg # of iterations =  2.3

     negative rho (up, down):  5.499E-04 0.000E+00

     total cpu time spent up to now is      167.8 secs

     total energy              =    -448.66643448 Ry
     estimated scf accuracy    <       0.39566971 Ry

     iteration #  8     ecut=   124.00 Ry     beta= 0.70
     Davidson diagonalization with overlap
     ethr =  1.41E-03,  avg # of iterations =  1.0

     negative rho (up, down):  6.414E-04 0.000E+00

     total cpu time spent up to now is      169.4 secs

     total energy              =    -448.63326661 Ry
     estimated scf accuracy    <       0.37340162 Ry

     iteration #  9     ecut=   124.00 Ry     beta= 0.70
     Davidson diagonalization with overlap
     ethr =  1.33E-03,  avg # of iterations =  1.6

     negative rho (up, down):  1.053E-03 0.000E+00

     total cpu time spent up to now is      171.0 secs

     total energy              =    -448.46328048 Ry
     estimated scf accuracy    <       0.80930389 Ry

     iteration # 10     ecut=   124.00 Ry     beta= 0.70
     Davidson diagonalization with overlap
     ethr =  1.33E-03,  avg # of iterations =  2.8

     negative rho (up, down):  1.027E-03 0.000E+00

     total cpu time spent up to now is      172.9 secs

     total energy              =    -448.57428070 Ry
     estimated scf accuracy    <       0.18136370 Ry

     iteration # 11     ecut=   124.00 Ry     beta= 0.70
     Davidson diagonalization with overlap
     ethr =  6.48E-04,  avg # of iterations =  1.1

     negative rho (up, down):  6.105E-04 0.000E+00

     total cpu time spent up to now is      174.5 secs

     total energy              =    -448.58605317 Ry
     estimated scf accuracy    <       0.11254252 Ry

     iteration # 12     ecut=   124.00 Ry     beta= 0.70
     Davidson diagonalization with overlap
     ethr =  4.02E-04,  avg # of iterations =  2.0

     negative rho (up, down):  9.507E-04 0.000E+00

     total cpu time spent up to now is      176.3 secs

     total energy              =    -448.56212176 Ry
     estimated scf accuracy    <       0.15301270 Ry

     iteration # 13     ecut=   124.00 Ry     beta= 0.70
     Davidson diagonalization with overlap
     ethr =  4.02E-04,  avg # of iterations =  1.8

     negative rho (up, down):  7.782E-04 0.000E+00

     total cpu time spent up to now is      178.0 secs

     total energy              =    -448.56686393 Ry
     estimated scf accuracy    <       0.01379399 Ry

     iteration # 14     ecut=   124.00 Ry     beta= 0.70
     Davidson diagonalization with overlap
     ethr =  4.93E-05,  avg # of iterations =  5.6

     negative rho (up, down):  9.467E-04 0.000E+00

     total cpu time spent up to now is      180.4 secs

     total energy              =    -448.56952644 Ry
     estimated scf accuracy    <       0.38779082 Ry

     iteration # 15     ecut=   124.00 Ry     beta= 0.70
     Davidson diagonalization with overlap
     ethr =  4.93E-05,  avg # of iterations =  3.9

     negative rho (up, down):  1.075E-03 0.000E+00

     total cpu time spent up to now is      182.3 secs

     total energy              =    -448.57546425 Ry
     estimated scf accuracy    <       0.08548700 Ry

     iteration # 16     ecut=   124.00 Ry     beta= 0.70
     Davidson diagonalization with overlap
     ethr =  4.93E-05,  avg # of iterations =  1.5

     negative rho (up, down):  8.744E-04 0.000E+00

     total cpu time spent up to now is      184.0 secs

     total energy              =    -448.57428856 Ry
     estimated scf accuracy    <       0.05059583 Ry

     iteration # 17     ecut=   124.00 Ry     beta= 0.70
     Davidson diagonalization with overlap
     ethr =  4.93E-05,  avg # of iterations =  2.0

     negative rho (up, down):  9.738E-04 0.000E+00

     total cpu time spent up to now is      185.7 secs

     total energy              =    -448.56836658 Ry
     estimated scf accuracy    <       0.05706930 Ry

     iteration # 18     ecut=   124.00 Ry     beta= 0.70
     Davidson diagonalization with overlap
     ethr =  4.93E-05,  avg # of iterations =  2.9

     negative rho (up, down):  9.560E-04 0.000E+00

     total cpu time spent up to now is      187.5 secs

     total energy              =    -448.57132232 Ry
     estimated scf accuracy    <       0.00137475 Ry

     iteration # 19     ecut=   124.00 Ry     beta= 0.70
     Davidson diagonalization with overlap
     ethr =  4.91E-06,  avg # of iterations =  3.4

     negative rho (up, down):  9.573E-04 0.000E+00

     total cpu time spent up to now is      189.4 secs

     total energy              =    -448.57146800 Ry
     estimated scf accuracy    <       0.00018938 Ry

     iteration # 20     ecut=   124.00 Ry     beta= 0.70
     Davidson diagonalization with overlap
     ethr =  6.76E-07,  avg # of iterations =  2.4

     negative rho (up, down):  9.665E-04 0.000E+00

     total cpu time spent up to now is      191.2 secs

     total energy              =    -448.57145590 Ry
     estimated scf accuracy    <       0.00013720 Ry

     iteration # 21     ecut=   124.00 Ry     beta= 0.70
     Davidson diagonalization with overlap
     ethr =  4.90E-07,  avg # of iterations =  2.0

     negative rho (up, down):  9.646E-04 0.000E+00

     total cpu time spent up to now is      192.9 secs

     total energy              =    -448.57147223 Ry
     estimated scf accuracy    <       0.00000125 Ry

     iteration # 22     ecut=   124.00 Ry     beta= 0.70
     Davidson diagonalization with overlap
     ethr =  4.48E-09,  avg # of iterations =  6.5

     negative rho (up, down):  9.646E-04 0.000E+00

     total cpu time spent up to now is      196.0 secs

     total energy              =    -448.57147584 Ry
     estimated scf accuracy    <       0.00000036 Ry

     iteration # 23     ecut=   124.00 Ry     beta= 0.70
     Davidson diagonalization with overlap
     ethr =  1.29E-09,  avg # of iterations =  1.1

     negative rho (up, down):  9.648E-04 0.000E+00

     total cpu time spent up to now is      197.6 secs

     total energy              =    -448.57147582 Ry
     estimated scf accuracy    <       0.00000005 Ry

     iteration # 24     ecut=   124.00 Ry     beta= 0.70
     Davidson diagonalization with overlap
     ethr =  1.71E-10,  avg # of iterations =  3.0

     negative rho (up, down):  9.648E-04 0.000E+00

     total cpu time spent up to now is      199.6 secs

     total energy              =    -448.57147583 Ry
     estimated scf accuracy    <          4.3E-10 Ry

     iteration # 25     ecut=   124.00 Ry     beta= 0.70
     Davidson diagonalization with overlap
     ethr =  1.52E-12,  avg # of iterations =  6.2

     negative rho (up, down):  9.647E-04 0.000E+00

     total cpu time spent up to now is      202.4 secs

     total energy              =    -448.57147583 Ry
     estimated scf accuracy    <          2.4E-10 Ry

     iteration # 26     ecut=   124.00 Ry     beta= 0.70
     Davidson diagonalization with overlap
     ethr =  8.66E-13,  avg # of iterations =  2.0

     negative rho (up, down):  9.647E-04 0.000E+00

     total cpu time spent up to now is      204.2 secs

     End of self-consistent calculation

     Number of k-points >= 100: set verbosity='high' to print the bands.

     the Fermi energy is    19.7429 ev

!    total energy              =    -448.57147583 Ry
     estimated scf accuracy    <          4.1E-11 Ry
     smearing contrib. (-TS)   =       0.00002147 Ry
     internal energy E=F+TS    =    -448.57149730 Ry

     The total energy is F=E-TS. E is the sum of the following terms:
     one-electron contribution =    -138.45116734 Ry
     hartree contribution      =      87.33598277 Ry
     xc contribution           =     -53.06824144 Ry
     ewald contribution        =    -268.23225275 Ry
     one-center paw contrib.   =     -76.15581854 Ry

     convergence has been achieved in  26 iterations

     negative rho (up, down):  9.647E-04 0.000E+00

     Forces acting on atoms (cartesian axes, Ry/au):

     atom    1 type  1   force =     0.00000000    0.00000000    0.00000000
     atom    2 type  2   force =     0.00000000    0.00000000    0.00000000

     Total force =     0.000000     Total SCF correction =     0.000000


     Computing stress (Cartesian axis) and pressure


     negative rho (up, down):  9.647E-04 0.000E+00
          total   stress  (Ry/bohr**3)                   (kbar)     P=      269.81
   0.00183411   0.00000000   0.00000000          269.81        0.00        0.00
   0.00000000   0.00183411   0.00000000            0.00      269.81        0.00
   0.00000000   0.00000000   0.00183411            0.00        0.00      269.81


     Writing all to output data dir ./TiFe.save/ :
     XML data file, charge density, pseudopotentials, collected wavefunctions

     init_run     :      3.08s CPU      3.20s WALL (       2 calls)
     electrons    :    180.48s CPU    190.88s WALL (       5 calls)
     update_pot   :      0.29s CPU      0.31s WALL (       3 calls)
     forces       :      1.58s CPU      1.75s WALL (       5 calls)
     stress       :      8.57s CPU      8.93s WALL (       5 calls)

     Called by init_run:
     wfcinit      :      1.31s CPU      1.35s WALL (       2 calls)
     potinit      :      0.47s CPU      0.49s WALL (       2 calls)
     hinit0       :      0.93s CPU      0.94s WALL (       2 calls)

     Called by electrons:
     c_bands      :    131.12s CPU    134.68s WALL (      90 calls)
     sum_band     :     30.10s CPU     34.33s WALL (      90 calls)
     v_of_rho     :      2.28s CPU      2.45s WALL (      94 calls)
     newd         :     12.15s CPU     14.54s WALL (      94 calls)
     PAW_pot      :      5.53s CPU      5.65s WALL (      97 calls)
     mix_rho      :      0.24s CPU      0.26s WALL (      90 calls)

     Called by c_bands:
     init_us_2    :      3.74s CPU      3.89s WALL (   23400 calls)
     cegterg      :    124.85s CPU    128.06s WALL (   10800 calls)

     Called by *egterg:
     cdiaghg      :     16.37s CPU     16.71s WALL (   44765 calls)
     h_psi        :     93.06s CPU     95.64s WALL (   45485 calls)
     s_psi        :      2.53s CPU      2.60s WALL (   45485 calls)
     g_psi        :      0.63s CPU      0.65s WALL (   34445 calls)

     Called by h_psi:
     h_psi:calbec :      3.71s CPU      3.81s WALL (   45485 calls)
     vloc_psi     :     86.17s CPU     88.57s WALL (   45485 calls)
     add_vuspsi   :      2.62s CPU      2.69s WALL (   45485 calls)

     General routines
     calbec       :      5.76s CPU      5.93s WALL (   66845 calls)
     fft          :      1.79s CPU      1.98s WALL (    1341 calls)
     ffts         :      0.30s CPU      0.31s WALL (     184 calls)
     fftw         :     72.85s CPU     74.78s WALL ( 1265368 calls)
     interpolate  :      0.39s CPU      0.41s WALL (      94 calls)

     Parallel routines

     PWSCF        :    195.10s CPU    206.63s WALL


   This run was terminated on:  17:49:45  27Oct2025            

=------------------------------------------------------------------------------=
   JOB DONE.
=------------------------------------------------------------------------------=
