
     Program PWSCF v.7.4 starts on 27Oct2025 at 17:28:58 

     This program is part of the open-source Quantum ESPRESSO suite
     for quantum simulation of materials; please cite
         "P. Giannozzi et al., J. Phys.:Condens. Matter 21 395502 (2009);
         "P. Giannozzi et al., J. Phys.:Condens. Matter 29 465901 (2017);
         "P. Giannozzi et al., J. Chem. Phys. 152 154105 (2020);
          URL http://www.quantum-espresso.org", 
     in publications or presentations arising from this work. More details at
     http://www.quantum-espresso.org/quote

     Parallel version (MPI & OpenMP), running on       8 processor cores
     Number of MPI processes:                 8
     Threads/MPI process:                     1

     MPI processes distributed on     1 nodes
     200008 MiB available memory on the printing compute node when the environment starts

     Reading input from TiFe_relaxed4.in

     Current dimensions of program PWSCF are:
     Max number of different atomic species (ntypx) = 10
     Max number of k-points (npk) =  40000
     Max angular momentum in pseudopotentials (lmaxx) =  4
     file Fe.pbe-spn-kjpaw_psl.0.2.1.UPF: wavefunction(s)  3D renormalized

     IMPORTANT: XC functional enforced from input :
     Exchange-correlation= PBE
                           (   1   4   3   4   0   0   0)
     Any further DFT definition will be discarded
     Please, verify this is what you really want

     Message from routine setup:
     using ibrav=0 with symmetry is DISCOURAGED, use correct ibrav instead

     R & G space division:  proc/nbgrp/npool/nimage =       8
     Subspace diagonalization in iterative solution of the eigenvalue problem:
     a serial algorithm will be used


     Parallelization info
     --------------------
     sticks:   dense  smooth     PW     G-vecs:    dense   smooth      PW
     Min         532     151     44                26154     3989     629
     Max         533     152     46                26155     3993     632
     Sum        4257    1209    357               209233    31919    5041

     Using Slab Decomposition



     bravais-lattice index     =            0
     lattice parameter (alat)  =       5.5533  a.u.
     unit-cell volume          =     171.2590 (a.u.)^3
     number of atoms/cell      =            2
     number of atomic types    =            2
     number of electrons       =        28.00
     number of Kohn-Sham states=           18
     kinetic-energy cutoff     =     124.0000  Ry
     charge density cutoff     =    1736.0000  Ry
     scf convergence threshold =      1.0E-08
     mixing beta               =       0.7000
     number of iterations used =            8  plain     mixing
     energy convergence thresh.=      1.0E-04
     force convergence thresh. =      1.0E-03
     press convergence thresh. =      5.0E-01
     Exchange-correlation= PBE
                           (   1   4   3   4   0   0   0)
     nstep                     =           50


     celldm(1)=   5.553300  celldm(2)=   0.000000  celldm(3)=   0.000000
     celldm(4)=   0.000000  celldm(5)=   0.000000  celldm(6)=   0.000000

     crystal axes: (cart. coord. in units of alat)
               a(1) = (   1.000000   0.000000   0.000000 )  
               a(2) = (   0.000000   1.000000   0.000000 )  
               a(3) = (   0.000000   0.000000   1.000000 )  

     reciprocal axes: (cart. coord. in units 2 pi/alat)
               b(1) = (  1.000000  0.000000  0.000000 )  
               b(2) = (  0.000000  1.000000  0.000000 )  
               b(3) = (  0.000000  0.000000  1.000000 )  


     PseudoPot. # 1 for Fe read from file:
     ../../pseudos/Fe.pbe-spn-kjpaw_psl.0.2.1.UPF
     MD5 check sum: e86618425769142926afa95317d90200
     Pseudo is Projector augmented-wave + core cor, Zval = 16.0
     Generated using "atomic" code by A. Dal Corso  v.5.0.99 svn rev. 10869
     Shape of augmentation charge: PSQ
     Using radial grid of 1191 points,  6 beta functions with: 
                l(1) =   0
                l(2) =   0
                l(3) =   1
                l(4) =   1
                l(5) =   2
                l(6) =   2
     Q(r) pseudized with 0 coefficients 


     PseudoPot. # 2 for Ti read from file:
     ../../pseudos/ti_pbe_v1.4.uspp.F.UPF
     MD5 check sum: 88a00a6731bd790ddea75d31a80cb452
     Pseudo is Ultrasoft + core correction, Zval = 12.0
     Generated by new atomic code, or converted to UPF format
     Using radial grid of  851 points,  6 beta functions with: 
                l(1) =   0
                l(2) =   0
                l(3) =   1
                l(4) =   1
                l(5) =   2
                l(6) =   2
     Q(r) pseudized with  6 coefficients,  rinner =    1.000   1.000   1.000
                                                       1.000   1.000

     atomic species   valence    mass     pseudopotential
     Fe               16.00    55.84500     Fe( 1.00)
     Ti               12.00    47.86700     Ti( 1.00)

     48 Sym. Ops., with inversion, found



   Cartesian axes

     site n.     atom                  positions (alat units)
         1        Fe     tau(   1) = (   0.5000000   0.5000000   0.5000000  )
         2        Ti     tau(   2) = (   0.0000000   0.0000000   0.0000000  )

     number of k points=   120  Marzari-Vanderbilt smearing, width (Ry)=  0.0050

     Number of k-points >= 100: set verbosity='high' to print them.

     Dense  grid:   209233 G-vectors     FFT dimensions: (  75,  75,  75)

     Smooth grid:    31919 G-vectors     FFT dimensions: (  40,  40,  40)

     Estimated max dynamical RAM per process >     125.80 MB

     Estimated total dynamical RAM >    1006.42 MB

     Check: negative core charge=   -0.000002

     Initial potential from superposition of free atoms

     starting charge      26.9995, renormalised to      28.0000

     negative rho (up, down):  1.347E-03 0.000E+00
     Starting wfcs are   23 randomized atomic wfcs
     Checking if some PAW data can be deallocated... 

     total cpu time spent up to now is        1.9 secs

     per-process dynamical memory:   151.7 Mb

     Self-consistent Calculation

     iteration #  1     ecut=   124.00 Ry     beta= 0.70
     Davidson diagonalization with overlap
     ethr =  1.00E-02,  avg # of iterations =  2.1

     negative rho (up, down):  8.075E-05 0.000E+00

     total cpu time spent up to now is        3.9 secs

     total energy              =    -434.88034974 Ry
     estimated scf accuracy    <      17.47740323 Ry

     iteration #  2     ecut=   124.00 Ry     beta= 0.70
     Davidson diagonalization with overlap
     ethr =  1.00E-02,  avg # of iterations =  6.1

     negative rho (up, down):  2.388E-05 0.000E+00

     total cpu time spent up to now is        7.3 secs

     total energy              =    -448.51195570 Ry
     estimated scf accuracy    <      66.14338935 Ry

     iteration #  3     ecut=   124.00 Ry     beta= 0.70
     Davidson diagonalization with overlap
     ethr =  1.00E-02,  avg # of iterations =  3.1

     negative rho (up, down):  2.384E-04 0.000E+00

     total cpu time spent up to now is        9.6 secs

     total energy              =    -448.59876074 Ry
     estimated scf accuracy    <      16.77187988 Ry

     iteration #  4     ecut=   124.00 Ry     beta= 0.70
     Davidson diagonalization with overlap
     ethr =  1.00E-02,  avg # of iterations =  2.1

     negative rho (up, down):  2.771E-04 0.000E+00

     total cpu time spent up to now is       11.6 secs

     total energy              =    -449.11451992 Ry
     estimated scf accuracy    <       4.73362336 Ry

     iteration #  5     ecut=   124.00 Ry     beta= 0.70
     Davidson diagonalization with overlap
     ethr =  1.00E-02,  avg # of iterations =  1.0

     negative rho (up, down):  3.233E-04 0.000E+00

     total cpu time spent up to now is       13.3 secs

     total energy              =    -449.12131532 Ry
     estimated scf accuracy    <       4.31212425 Ry

     iteration #  6     ecut=   124.00 Ry     beta= 0.70
     Davidson diagonalization with overlap
     ethr =  1.00E-02,  avg # of iterations =  1.0

     negative rho (up, down):  1.107E-03 0.000E+00

     total cpu time spent up to now is       15.0 secs

     total energy              =    -447.89389661 Ry
     estimated scf accuracy    <       4.51968901 Ry

     iteration #  7     ecut=   124.00 Ry     beta= 0.70
     Davidson diagonalization with overlap
     ethr =  1.00E-02,  avg # of iterations =  3.4

     negative rho (up, down):  1.008E-03 0.000E+00

     total cpu time spent up to now is       17.1 secs

     total energy              =    -448.58423346 Ry
     estimated scf accuracy    <       3.81978614 Ry

     iteration #  8     ecut=   124.00 Ry     beta= 0.70
     Davidson diagonalization with overlap
     ethr =  1.00E-02,  avg # of iterations =  1.0

     negative rho (up, down):  8.248E-04 0.000E+00

     total cpu time spent up to now is       18.8 secs

     total energy              =    -448.46846099 Ry
     estimated scf accuracy    <       1.21375717 Ry

     iteration #  9     ecut=   124.00 Ry     beta= 0.70
     Davidson diagonalization with overlap
     ethr =  4.33E-03,  avg # of iterations =  1.7

     negative rho (up, down):  8.317E-04 0.000E+00

     total cpu time spent up to now is       20.5 secs

     total energy              =    -448.59501092 Ry
     estimated scf accuracy    <       0.12585284 Ry

     iteration # 10     ecut=   124.00 Ry     beta= 0.70
     Davidson diagonalization with overlap
     ethr =  4.49E-04,  avg # of iterations =  2.3

     negative rho (up, down):  8.588E-04 0.000E+00

     total cpu time spent up to now is       22.4 secs

     total energy              =    -448.59602789 Ry
     estimated scf accuracy    <       0.14907511 Ry

     iteration # 11     ecut=   124.00 Ry     beta= 0.70
     Davidson diagonalization with overlap
     ethr =  4.49E-04,  avg # of iterations =  1.1

     negative rho (up, down):  1.121E-03 0.000E+00

     total cpu time spent up to now is       24.1 secs

     total energy              =    -448.56917534 Ry
     estimated scf accuracy    <       0.14868094 Ry

     iteration # 12     ecut=   124.00 Ry     beta= 0.70
     Davidson diagonalization with overlap
     ethr =  4.49E-04,  avg # of iterations =  4.3

     negative rho (up, down):  1.213E-03 0.000E+00

     total cpu time spent up to now is       26.4 secs

     total energy              =    -448.65391027 Ry
     estimated scf accuracy    <       0.18318037 Ry

     iteration # 13     ecut=   124.00 Ry     beta= 0.70
     Davidson diagonalization with overlap
     ethr =  4.49E-04,  avg # of iterations =  1.9

     negative rho (up, down):  2.114E-03 0.000E+00

     total cpu time spent up to now is       28.2 secs

     total energy              =    -449.03322661 Ry
     estimated scf accuracy    <       0.44442168 Ry

     iteration # 14     ecut=   124.00 Ry     beta= 0.70
     Davidson diagonalization with overlap
     ethr =  4.49E-04,  avg # of iterations =  6.2

     negative rho (up, down):  1.459E-03 0.000E+00

     total cpu time spent up to now is       31.2 secs

     total energy              =    -448.51932691 Ry
     estimated scf accuracy    <      26.98882287 Ry

     iteration # 15     ecut=   124.00 Ry     beta= 0.70
     Davidson diagonalization with overlap
     ethr =  4.49E-04,  avg # of iterations =  4.8

     negative rho (up, down):  1.137E-03 0.000E+00

     total cpu time spent up to now is       33.7 secs

     total energy              =    -448.49454821 Ry
     estimated scf accuracy    <       4.43870870 Ry

     iteration # 16     ecut=   124.00 Ry     beta= 0.70
     Davidson diagonalization with overlap
     ethr =  4.49E-04,  avg # of iterations =  4.3

     negative rho (up, down):  1.088E-03 0.000E+00

     total cpu time spent up to now is       36.2 secs

     total energy              =    -448.60519511 Ry
     estimated scf accuracy    <       0.36277654 Ry

     iteration # 17     ecut=   124.00 Ry     beta= 0.70
     Davidson diagonalization with overlap
     ethr =  4.49E-04,  avg # of iterations =  2.0

     negative rho (up, down):  1.022E-03 0.000E+00

     total cpu time spent up to now is       38.0 secs

     total energy              =    -448.58523807 Ry
     estimated scf accuracy    <       0.39566391 Ry

     iteration # 18     ecut=   124.00 Ry     beta= 0.70
     Davidson diagonalization with overlap
     ethr =  4.49E-04,  avg # of iterations =  1.2

     negative rho (up, down):  9.735E-04 0.000E+00

     total cpu time spent up to now is       39.7 secs

     total energy              =    -448.57914660 Ry
     estimated scf accuracy    <       0.10585195 Ry

     iteration # 19     ecut=   124.00 Ry     beta= 0.70
     Davidson diagonalization with overlap
     ethr =  3.78E-04,  avg # of iterations =  1.8

     negative rho (up, down):  9.827E-04 0.000E+00

     total cpu time spent up to now is       41.5 secs

     total energy              =    -448.58492275 Ry
     estimated scf accuracy    <       0.01167453 Ry

     iteration # 20     ecut=   124.00 Ry     beta= 0.70
     Davidson diagonalization with overlap
     ethr =  4.17E-05,  avg # of iterations =  4.3

     negative rho (up, down):  9.840E-04 0.000E+00

     total cpu time spent up to now is       43.6 secs

     total energy              =    -448.58662258 Ry
     estimated scf accuracy    <       0.00743010 Ry

     iteration # 21     ecut=   124.00 Ry     beta= 0.70
     Davidson diagonalization with overlap
     ethr =  2.65E-05,  avg # of iterations =  1.2

     negative rho (up, down):  9.783E-04 0.000E+00

     total cpu time spent up to now is       45.4 secs

     total energy              =    -448.58668664 Ry
     estimated scf accuracy    <       0.00779712 Ry

     iteration # 22     ecut=   124.00 Ry     beta= 0.70
     Davidson diagonalization with overlap
     ethr =  2.65E-05,  avg # of iterations =  1.0

     negative rho (up, down):  1.037E-03 0.000E+00

     total cpu time spent up to now is       47.1 secs

     total energy              =    -448.58737858 Ry
     estimated scf accuracy    <       0.00638001 Ry

     iteration # 23     ecut=   124.00 Ry     beta= 0.70
     Davidson diagonalization with overlap
     ethr =  2.28E-05,  avg # of iterations =  1.0

     negative rho (up, down):  1.004E-03 0.000E+00

     total cpu time spent up to now is       48.7 secs

     total energy              =    -448.58667571 Ry
     estimated scf accuracy    <       0.01401585 Ry

     iteration # 24     ecut=   124.00 Ry     beta= 0.70
     Davidson diagonalization with overlap
     ethr =  2.28E-05,  avg # of iterations =  1.0

     negative rho (up, down):  9.887E-04 0.000E+00

     total cpu time spent up to now is       50.4 secs

     total energy              =    -448.58663217 Ry
     estimated scf accuracy    <       0.00473462 Ry

     iteration # 25     ecut=   124.00 Ry     beta= 0.70
     Davidson diagonalization with overlap
     ethr =  1.69E-05,  avg # of iterations =  1.0

     negative rho (up, down):  9.662E-04 0.000E+00

     total cpu time spent up to now is       52.1 secs

     total energy              =    -448.58651421 Ry
     estimated scf accuracy    <       0.00172769 Ry

     iteration # 26     ecut=   124.00 Ry     beta= 0.70
     Davidson diagonalization with overlap
     ethr =  6.17E-06,  avg # of iterations =  1.7

     negative rho (up, down):  9.659E-04 0.000E+00

     total cpu time spent up to now is       53.9 secs

     total energy              =    -448.58655054 Ry
     estimated scf accuracy    <       0.00047004 Ry

     iteration # 27     ecut=   124.00 Ry     beta= 0.70
     Davidson diagonalization with overlap
     ethr =  1.68E-06,  avg # of iterations =  2.3

     negative rho (up, down):  9.621E-04 0.000E+00

     total cpu time spent up to now is       55.7 secs

     total energy              =    -448.58654470 Ry
     estimated scf accuracy    <       0.00023845 Ry

     iteration # 28     ecut=   124.00 Ry     beta= 0.70
     Davidson diagonalization with overlap
     ethr =  8.52E-07,  avg # of iterations =  1.7

     negative rho (up, down):  9.604E-04 0.000E+00

     total cpu time spent up to now is       57.5 secs

     total energy              =    -448.58653701 Ry
     estimated scf accuracy    <       0.00010746 Ry

     iteration # 29     ecut=   124.00 Ry     beta= 0.70
     Davidson diagonalization with overlap
     ethr =  3.84E-07,  avg # of iterations =  2.4

     negative rho (up, down):  9.615E-04 0.000E+00

     total cpu time spent up to now is       59.3 secs

     total energy              =    -448.58653629 Ry
     estimated scf accuracy    <       0.00003417 Ry

     iteration # 30     ecut=   124.00 Ry     beta= 0.70
     Davidson diagonalization with overlap
     ethr =  1.22E-07,  avg # of iterations =  3.3

     negative rho (up, down):  9.610E-04 0.000E+00

     total cpu time spent up to now is       61.3 secs

     total energy              =    -448.58654028 Ry
     estimated scf accuracy    <       0.00000540 Ry

     iteration # 31     ecut=   124.00 Ry     beta= 0.70
     Davidson diagonalization with overlap
     ethr =  1.93E-08,  avg # of iterations =  4.0

     negative rho (up, down):  9.613E-04 0.000E+00

     total cpu time spent up to now is       63.5 secs

     total energy              =    -448.58654137 Ry
     estimated scf accuracy    <       0.00000083 Ry

     iteration # 32     ecut=   124.00 Ry     beta= 0.70
     Davidson diagonalization with overlap
     ethr =  2.95E-09,  avg # of iterations =  3.0

     negative rho (up, down):  9.613E-04 0.000E+00

     total cpu time spent up to now is       65.4 secs

     total energy              =    -448.58654147 Ry
     estimated scf accuracy    <       0.00000005 Ry

     iteration # 33     ecut=   124.00 Ry     beta= 0.70
     Davidson diagonalization with overlap
     ethr =  1.74E-10,  avg # of iterations =  4.5

     negative rho (up, down):  9.615E-04 0.000E+00

     total cpu time spent up to now is       67.8 secs

     End of self-consistent calculation

     Number of k-points >= 100: set verbosity='high' to print the bands.

     the Fermi energy is    17.7222 ev

!    total energy              =    -448.58654149 Ry
     estimated scf accuracy    <          4.8E-09 Ry
     smearing contrib. (-TS)   =      -0.00001774 Ry
     internal energy E=F+TS    =    -448.58652375 Ry

     The total energy is F=E-TS. E is the sum of the following terms:
     one-electron contribution =    -151.35065372 Ry
     hartree contribution      =      91.62732609 Ry
     xc contribution           =     -52.88875636 Ry
     ewald contribution        =    -259.82070277 Ry
     one-center paw contrib.   =     -76.15373699 Ry

     convergence has been achieved in  33 iterations

     negative rho (up, down):  9.615E-04 0.000E+00

     Forces acting on atoms (cartesian axes, Ry/au):

     atom    1 type  1   force =     0.00000000    0.00000000    0.00000000
     atom    2 type  2   force =     0.00000000    0.00000000    0.00000000

     Total force =     0.000000     Total SCF correction =     0.000000


     Computing stress (Cartesian axis) and pressure


     negative rho (up, down):  9.615E-04 0.000E+00
          total   stress  (Ry/bohr**3)                   (kbar)     P=       29.45
   0.00020020   0.00000000   0.00000000           29.45        0.00        0.00
   0.00000000   0.00020020   0.00000000            0.00       29.45        0.00
   0.00000000   0.00000000   0.00020020            0.00        0.00       29.45


     BFGS Geometry Optimization
     Energy error            =      1.2E-04 Ry
     Gradient error          =      0.0E+00 Ry/Bohr
     Cell gradient error     =      1.4E+01 kbar

     number of scf cycles    =   1
     number of bfgs steps    =   0

     enthalpy           new  =    -448.5355867850 Ry

     new trust radius        =       0.0063688540 bohr
     new conv_thr            =       0.0000000100 Ry

     new unit-cell volume =    170.01188 a.u.^3 (    25.19316 Ang^3 )
     density =      6.83590 g/cm^3

CELL_PARAMETERS (alat=  5.55330037)
   0.997566650   0.000000000   0.000000000
   0.000000000   0.997566650   0.000000000
   0.000000000   0.000000000   0.997566650

ATOMIC_POSITIONS (crystal)
Fe               0.5000000000        0.5000000000        0.5000000000
Ti               0.0000000000        0.0000000000        0.0000000000



     Writing config-only to output data dir ./TiFe.save/ :
     XML data file
     NEW-OLD atomic charge density approx. for the potential
     New effective cutoffs (rho, wfc): 1744.35  124.60

     Check: negative core charge=   -0.000002

     negative rho (up, down):  9.558E-04 0.000E+00

     total cpu time spent up to now is       70.4 secs

     per-process dynamical memory:   161.7 Mb

     Self-consistent Calculation

     iteration #  1     ecut=   124.00 Ry     beta= 0.70
     Davidson diagonalization with overlap
     ethr =  1.00E-06,  avg # of iterations =  3.1

     Threshold (ethr) on eigenvalues was too large:
     Diagonalizing with lowered threshold

     Davidson diagonalization with overlap
     ethr =  1.26E-08,  avg # of iterations =  5.1

     negative rho (up, down):  9.584E-04 0.000E+00

     total cpu time spent up to now is       75.3 secs

     total energy              =    -448.58619241 Ry
     estimated scf accuracy    <       0.00000696 Ry

     iteration #  2     ecut=   124.00 Ry     beta= 0.70
     Davidson diagonalization with overlap
     ethr =  2.49E-08,  avg # of iterations =  4.3

     negative rho (up, down):  9.596E-04 0.000E+00

     total cpu time spent up to now is       77.6 secs

     total energy              =    -448.58618934 Ry
     estimated scf accuracy    <       0.00044462 Ry

     iteration #  3     ecut=   124.00 Ry     beta= 0.70
     Davidson diagonalization with overlap
     ethr =  2.49E-08,  avg # of iterations =  4.8

     negative rho (up, down):  9.592E-04 0.000E+00

     total cpu time spent up to now is       79.9 secs

     total energy              =    -448.58622254 Ry
     estimated scf accuracy    <       0.00001075 Ry

     iteration #  4     ecut=   124.00 Ry     beta= 0.70
     Davidson diagonalization with overlap
     ethr =  2.49E-08,  avg # of iterations =  1.1

     negative rho (up, down):  9.597E-04 0.000E+00

     total cpu time spent up to now is       81.6 secs

     total energy              =    -448.58622330 Ry
     estimated scf accuracy    <       0.00000169 Ry

     iteration #  5     ecut=   124.00 Ry     beta= 0.70
     Davidson diagonalization with overlap
     ethr =  6.05E-09,  avg # of iterations =  3.4

     negative rho (up, down):  9.597E-04 0.000E+00

     total cpu time spent up to now is       83.5 secs

     total energy              =    -448.58622352 Ry
     estimated scf accuracy    <       0.00000013 Ry

     iteration #  6     ecut=   124.00 Ry     beta= 0.70
     Davidson diagonalization with overlap
     ethr =  4.65E-10,  avg # of iterations =  2.7

     negative rho (up, down):  9.597E-04 0.000E+00

     total cpu time spent up to now is       85.4 secs

     total energy              =    -448.58622353 Ry
     estimated scf accuracy    <       0.00000002 Ry

     iteration #  7     ecut=   124.00 Ry     beta= 0.70
     Davidson diagonalization with overlap
     ethr =  8.66E-11,  avg # of iterations =  3.7

     negative rho (up, down):  9.597E-04 0.000E+00

     total cpu time spent up to now is       87.5 secs

     End of self-consistent calculation

     Number of k-points >= 100: set verbosity='high' to print the bands.

     the Fermi energy is    17.8751 ev

!    total energy              =    -448.58622354 Ry
     estimated scf accuracy    <          4.3E-09 Ry
     smearing contrib. (-TS)   =      -0.00001345 Ry
     internal energy E=F+TS    =    -448.58621009 Ry

     The total energy is F=E-TS. E is the sum of the following terms:
     one-electron contribution =    -150.37397965 Ry
     hartree contribution      =      91.29793633 Ry
     xc contribution           =     -52.90178914 Ry
     ewald contribution        =    -260.45447964 Ry
     one-center paw contrib.   =     -76.15389799 Ry

     convergence has been achieved in   7 iterations

     negative rho (up, down):  9.597E-04 0.000E+00

     Forces acting on atoms (cartesian axes, Ry/au):

     atom    1 type  1   force =     0.00000000    0.00000000    0.00000000
     atom    2 type  2   force =     0.00000000    0.00000000    0.00000000

     Total force =     0.000000     Total SCF correction =     0.000000


     Computing stress (Cartesian axis) and pressure


     negative rho (up, down):  9.597E-04 0.000E+00
          total   stress  (Ry/bohr**3)                   (kbar)     P=       45.35
   0.00030827   0.00000000   0.00000000           45.35        0.00        0.00
   0.00000000   0.00030827   0.00000000            0.00       45.35        0.00
   0.00000000   0.00000000   0.00030827            0.00        0.00       45.35

     Energy error            =      5.3E-05 Ry
     Gradient error          =      0.0E+00 Ry/Bohr
     Cell gradient error     =      1.6E+00 kbar

     number of scf cycles    =   2
     number of bfgs steps    =   1

     enthalpy           old  =    -448.5355867850 Ry
     enthalpy           new  =    -448.5356398971 Ry

     CASE: enthalpy          _new < enthalpy          _old

     new trust radius        =       0.0006294895 bohr
     new conv_thr            =            1.0E-10 Ry

     new unit-cell volume =    170.13502 a.u.^3 (    25.21141 Ang^3 )
     density =      6.83095 g/cm^3

CELL_PARAMETERS (alat=  5.55330037)
   0.997807453   0.000000000   0.000000000
   0.000000000   0.997807453   0.000000000
   0.000000000   0.000000000   0.997807453

ATOMIC_POSITIONS (crystal)
Fe               0.5000000000        0.5000000000        0.5000000000
Ti               0.0000000000        0.0000000000        0.0000000000



     Writing config-only to output data dir ./TiFe.save/ :
     XML data file
     NEW-OLD atomic charge density approx. for the potential
     New effective cutoffs (rho, wfc): 1743.51  124.54

     Check: negative core charge=   -0.000002

     negative rho (up, down):  9.602E-04 0.000E+00

     total cpu time spent up to now is       90.1 secs

     per-process dynamical memory:   162.0 Mb

     Self-consistent Calculation

     iteration #  1     ecut=   124.00 Ry     beta= 0.70
     Davidson diagonalization with overlap
     ethr =  1.00E-06,  avg # of iterations =  2.0

     Threshold (ethr) on eigenvalues was too large:
     Diagonalizing with lowered threshold

     Davidson diagonalization with overlap
     ethr =  3.71E-09,  avg # of iterations =  2.8

     negative rho (up, down):  9.604E-04 0.000E+00

     total cpu time spent up to now is       94.0 secs

     total energy              =    -448.58625949 Ry
     estimated scf accuracy    <       0.00000124 Ry

     iteration #  2     ecut=   124.00 Ry     beta= 0.70
     Davidson diagonalization with overlap
     ethr =  4.44E-09,  avg # of iterations =  4.9

     negative rho (up, down):  9.599E-04 0.000E+00

     total cpu time spent up to now is       96.3 secs

     total energy              =    -448.58625334 Ry
     estimated scf accuracy    <       0.00012980 Ry

     iteration #  3     ecut=   124.00 Ry     beta= 0.70
     Davidson diagonalization with overlap
     ethr =  4.44E-09,  avg # of iterations =  4.8

     negative rho (up, down):  9.600E-04 0.000E+00

     total cpu time spent up to now is       98.7 secs

     total energy              =    -448.58626071 Ry
     estimated scf accuracy    <       0.00000009 Ry

     iteration #  4     ecut=   124.00 Ry     beta= 0.70
     Davidson diagonalization with overlap
     ethr =  3.29E-10,  avg # of iterations =  3.1

     negative rho (up, down):  9.599E-04 0.000E+00

     total cpu time spent up to now is      100.7 secs

     total energy              =    -448.58626072 Ry
     estimated scf accuracy    <       0.00000003 Ry

     iteration #  5     ecut=   124.00 Ry     beta= 0.70
     Davidson diagonalization with overlap
     ethr =  9.12E-11,  avg # of iterations =  2.4

     negative rho (up, down):  9.599E-04 0.000E+00

     total cpu time spent up to now is      102.6 secs

     total energy              =    -448.58626072 Ry
     estimated scf accuracy    <          5.7E-09 Ry

     iteration #  6     ecut=   124.00 Ry     beta= 0.70
     Davidson diagonalization with overlap
     ethr =  2.02E-11,  avg # of iterations =  3.2

     negative rho (up, down):  9.599E-04 0.000E+00

     total cpu time spent up to now is      104.6 secs

     End of self-consistent calculation

     Number of k-points >= 100: set verbosity='high' to print the bands.

     the Fermi energy is    17.8599 ev

!    total energy              =    -448.58626072 Ry
     estimated scf accuracy    <          4.4E-11 Ry
     smearing contrib. (-TS)   =      -0.00001391 Ry
     internal energy E=F+TS    =    -448.58624681 Ry

     The total energy is F=E-TS. E is the sum of the following terms:
     one-electron contribution =    -150.47136852 Ry
     hartree contribution      =      91.33117568 Ry
     xc contribution           =     -52.90055098 Ry
     ewald contribution        =    -260.39162376 Ry
     one-center paw contrib.   =     -76.15387924 Ry

     convergence has been achieved in   6 iterations

     negative rho (up, down):  9.599E-04 0.000E+00

     Forces acting on atoms (cartesian axes, Ry/au):

     atom    1 type  1   force =     0.00000000    0.00000000    0.00000000
     atom    2 type  2   force =     0.00000000    0.00000000    0.00000000

     Total force =     0.000000     Total SCF correction =     0.000000


     Computing stress (Cartesian axis) and pressure


     negative rho (up, down):  9.599E-04 0.000E+00
          total   stress  (Ry/bohr**3)                   (kbar)     P=       43.59
   0.00029632   0.00000000   0.00000000           43.59        0.00        0.00
   0.00000000   0.00029632   0.00000000            0.00       43.59        0.00
   0.00000000   0.00000000   0.00029632            0.00        0.00       43.59

     Energy error            =      5.5E-07 Ry
     Gradient error          =      0.0E+00 Ry/Bohr
     Cell gradient error     =      1.8E-01 kbar

     bfgs converged in   3 scf cycles and   2 bfgs steps
     (criteria: energy <  1.0E-04 Ry, force <  1.0E-03 Ry/Bohr, cell <  5.0E-01 kbar)

     End of BFGS Geometry Optimization

     Final enthalpy           =    -448.5356404431 Ry

     File ./TiFe.bfgs deleted, as requested
Begin final coordinates
     new unit-cell volume =    170.13502 a.u.^3 (    25.21141 Ang^3 )
     density =      6.83095 g/cm^3

CELL_PARAMETERS (alat=  5.55330037)
   0.997807453   0.000000000   0.000000000
   0.000000000   0.997807453   0.000000000
   0.000000000   0.000000000   0.997807453

ATOMIC_POSITIONS (crystal)
Fe               0.5000000000        0.5000000000        0.5000000000
Ti               0.0000000000        0.0000000000        0.0000000000
End final coordinates



     Writing config-only to output data dir ./TiFe.save/ :
     XML data file

     Final scf calculation at the relaxed structure.
     The G-vectors are recalculated for the final unit cell
     Results may differ from those at the preceding step.

     Parallelization info
     --------------------
     sticks:   dense  smooth     PW     G-vecs:    dense   smooth      PW
     Min         529     150     43                26019     3944     617
     Max         530     151     44                26022     3949     620
     Sum        4237    1201    349               208165    31559    4945

     Using Slab Decomposition



     bravais-lattice index     =            0
     lattice parameter (alat)  =       5.5533  a.u.
     unit-cell volume          =     170.1350 (a.u.)^3
     number of atoms/cell      =            2
     number of atomic types    =            2
     number of electrons       =        28.00
     number of Kohn-Sham states=           18
     kinetic-energy cutoff     =     124.0000  Ry
     charge density cutoff     =    1736.0000  Ry
     scf convergence threshold =      1.0E-10
     mixing beta               =       0.7000
     number of iterations used =            8  plain     mixing
     press convergence thresh. =      5.0E-01
     Exchange-correlation= PBE
                           (   1   4   3   4   0   0   0)

     celldm(1)=   5.553300  celldm(2)=   0.000000  celldm(3)=   0.000000
     celldm(4)=   0.000000  celldm(5)=   0.000000  celldm(6)=   0.000000

     crystal axes: (cart. coord. in units of alat)
               a(1) = (   0.997807   0.000000   0.000000 )  
               a(2) = (   0.000000   0.997807   0.000000 )  
               a(3) = (   0.000000   0.000000   0.997807 )  

     reciprocal axes: (cart. coord. in units 2 pi/alat)
               b(1) = (  1.002197  0.000000  0.000000 )  
               b(2) = (  0.000000  1.002197  0.000000 )  
               b(3) = (  0.000000  0.000000  1.002197 )  


     PseudoPot. # 1 for Fe read from file:
     ../../pseudos/Fe.pbe-spn-kjpaw_psl.0.2.1.UPF
     MD5 check sum: e86618425769142926afa95317d90200
     Pseudo is Projector augmented-wave + core cor, Zval = 16.0
     Generated using "atomic" code by A. Dal Corso  v.5.0.99 svn rev. 10869
     Shape of augmentation charge: PSQ
     Using radial grid of 1191 points,  6 beta functions with: 
                l(1) =   0
                l(2) =   0
                l(3) =   1
                l(4) =   1
                l(5) =   2
                l(6) =   2
     Q(r) pseudized with 0 coefficients 


     PseudoPot. # 2 for Ti read from file:
     ../../pseudos/ti_pbe_v1.4.uspp.F.UPF
     MD5 check sum: 88a00a6731bd790ddea75d31a80cb452
     Pseudo is Ultrasoft + core correction, Zval = 12.0
     Generated by new atomic code, or converted to UPF format
     Using radial grid of  851 points,  6 beta functions with: 
                l(1) =   0
                l(2) =   0
                l(3) =   1
                l(4) =   1
                l(5) =   2
                l(6) =   2
     Q(r) pseudized with  6 coefficients,  rinner =    1.000   1.000   1.000
                                                       1.000   1.000

     atomic species   valence    mass     pseudopotential
     Fe               16.00    55.84500     Fe( 1.00)
     Ti               12.00    47.86700     Ti( 1.00)

     48 Sym. Ops., with inversion, found



   Cartesian axes

     site n.     atom                  positions (alat units)
         1        Fe     tau(   1) = (   0.4989037   0.4989037   0.4989037  )
         2        Ti     tau(   2) = (   0.0000000   0.0000000   0.0000000  )

     number of k points=   120  Marzari-Vanderbilt smearing, width (Ry)=  0.0050

     Number of k-points >= 100: set verbosity='high' to print them.

     Dense  grid:   208165 G-vectors     FFT dimensions: (  75,  75,  75)

     Smooth grid:    31559 G-vectors     FFT dimensions: (  40,  40,  40)

     Estimated max dynamical RAM per process >     125.60 MB

     Estimated total dynamical RAM >    1004.83 MB

     Check: negative core charge=   -0.000002

     Initial potential from superposition of free atoms

     starting charge      26.9995, renormalised to      28.0000

     negative rho (up, down):  1.344E-03 0.000E+00
     Starting wfcs are   23 randomized atomic wfcs
     Checking if some PAW data can be deallocated... 

     total cpu time spent up to now is      107.8 secs

     per-process dynamical memory:   155.8 Mb

     Self-consistent Calculation

     iteration #  1     ecut=   124.00 Ry     beta= 0.70
     Davidson diagonalization with overlap
     c_bands:  1 eigenvalues not converged
     c_bands:  1 eigenvalues not converged
     c_bands:  1 eigenvalues not converged
     c_bands:  1 eigenvalues not converged
     c_bands:  1 eigenvalues not converged
     c_bands:  1 eigenvalues not converged
     c_bands:  1 eigenvalues not converged
     c_bands:  1 eigenvalues not converged
     c_bands:  1 eigenvalues not converged
     c_bands:  1 eigenvalues not converged
     c_bands:  1 eigenvalues not converged
     c_bands:  1 eigenvalues not converged
     c_bands:  1 eigenvalues not converged
     ethr =  1.00E-06,  avg # of iterations = 16.4

     negative rho (up, down):  9.169E-05 0.000E+00

     total cpu time spent up to now is      115.8 secs

     total energy              =    -435.10171619 Ry
     estimated scf accuracy    <      17.24065731 Ry

     iteration #  2     ecut=   124.00 Ry     beta= 0.70
     Davidson diagonalization with overlap
     ethr =  1.00E-02,  avg # of iterations =  6.4

     negative rho (up, down):  6.423E-05 0.000E+00

     total cpu time spent up to now is      119.2 secs

     total energy              =    -448.63194289 Ry
     estimated scf accuracy    <      65.26829644 Ry

     iteration #  3     ecut=   124.00 Ry     beta= 0.70
     Davidson diagonalization with overlap
     ethr =  1.00E-02,  avg # of iterations =  3.1

     negative rho (up, down):  3.111E-04 0.000E+00

     total cpu time spent up to now is      121.5 secs

     total energy              =    -448.61689690 Ry
     estimated scf accuracy    <      16.76531721 Ry

     iteration #  4     ecut=   124.00 Ry     beta= 0.70
     Davidson diagonalization with overlap
     ethr =  1.00E-02,  avg # of iterations =  2.2

     negative rho (up, down):  3.266E-04 0.000E+00

     total cpu time spent up to now is      123.5 secs

     total energy              =    -449.13579760 Ry
     estimated scf accuracy    <       4.96463998 Ry

     iteration #  5     ecut=   124.00 Ry     beta= 0.70
     Davidson diagonalization with overlap
     ethr =  1.00E-02,  avg # of iterations =  1.0

     negative rho (up, down):  3.268E-04 0.000E+00

     total cpu time spent up to now is      125.2 secs

     total energy              =    -448.94034525 Ry
     estimated scf accuracy    <       4.62505756 Ry

     iteration #  6     ecut=   124.00 Ry     beta= 0.70
     Davidson diagonalization with overlap
     ethr =  1.00E-02,  avg # of iterations =  1.0

     negative rho (up, down):  6.369E-04 0.000E+00

     total cpu time spent up to now is      126.9 secs

     total energy              =    -448.38004854 Ry
     estimated scf accuracy    <       2.68237663 Ry

     iteration #  7     ecut=   124.00 Ry     beta= 0.70
     Davidson diagonalization with overlap
     ethr =  9.58E-03,  avg # of iterations =  1.9

     negative rho (up, down):  9.171E-04 0.000E+00

     total cpu time spent up to now is      128.6 secs

     total energy              =    -448.58503052 Ry
     estimated scf accuracy    <       0.30692056 Ry

     iteration #  8     ecut=   124.00 Ry     beta= 0.70
     Davidson diagonalization with overlap
     ethr =  1.10E-03,  avg # of iterations =  4.6

     negative rho (up, down):  8.484E-04 0.000E+00

     total cpu time spent up to now is      130.9 secs

     total energy              =    -448.46731499 Ry
     estimated scf accuracy    <       2.06255126 Ry

     iteration #  9     ecut=   124.00 Ry     beta= 0.70
     Davidson diagonalization with overlap
     ethr =  1.10E-03,  avg # of iterations =  3.5

     negative rho (up, down):  9.769E-04 0.000E+00

     total cpu time spent up to now is      132.9 secs

     total energy              =    -448.60625502 Ry
     estimated scf accuracy    <       0.05249771 Ry

     iteration # 10     ecut=   124.00 Ry     beta= 0.70
     Davidson diagonalization with overlap
     ethr =  1.87E-04,  avg # of iterations =  3.4

     negative rho (up, down):  9.519E-04 0.000E+00

     total cpu time spent up to now is      135.0 secs

     total energy              =    -448.61475486 Ry
     estimated scf accuracy    <       0.23411352 Ry

     iteration # 11     ecut=   124.00 Ry     beta= 0.70
     Davidson diagonalization with overlap
     ethr =  1.87E-04,  avg # of iterations =  1.0

     negative rho (up, down):  6.126E-04 0.000E+00

     total cpu time spent up to now is      136.6 secs

     total energy              =    -448.54956359 Ry
     estimated scf accuracy    <       0.10384370 Ry

     iteration # 12     ecut=   124.00 Ry     beta= 0.70
     Davidson diagonalization with overlap
     ethr =  1.87E-04,  avg # of iterations =  4.9

     negative rho (up, down):  7.922E-04 0.000E+00

     total cpu time spent up to now is      139.1 secs

     total energy              =    -448.52759248 Ry
     estimated scf accuracy    <       1.50898032 Ry

     iteration # 13     ecut=   124.00 Ry     beta= 0.70
     Davidson diagonalization with overlap
     ethr =  1.87E-04,  avg # of iterations =  4.7

     negative rho (up, down):  8.039E-04 0.000E+00

     total cpu time spent up to now is      141.4 secs

     total energy              =    -448.58933931 Ry
     estimated scf accuracy    <       0.04734823 Ry

     iteration # 14     ecut=   124.00 Ry     beta= 0.70
     Davidson diagonalization with overlap
     ethr =  1.69E-04,  avg # of iterations =  1.0

     negative rho (up, down):  9.131E-04 0.000E+00

     total cpu time spent up to now is      143.1 secs

     total energy              =    -448.59016165 Ry
     estimated scf accuracy    <       0.03246155 Ry

     iteration # 15     ecut=   124.00 Ry     beta= 0.70
     Davidson diagonalization with overlap
     ethr =  1.16E-04,  avg # of iterations =  1.1

     negative rho (up, down):  1.579E-03 0.000E+00

     total cpu time spent up to now is      144.8 secs

     total energy              =    -448.55598798 Ry
     estimated scf accuracy    <       0.07275169 Ry

     iteration # 16     ecut=   124.00 Ry     beta= 0.70
     Davidson diagonalization with overlap
     ethr =  1.16E-04,  avg # of iterations =  5.7

     negative rho (up, down):  7.743E-04 0.000E+00

     total cpu time spent up to now is      147.5 secs

     total energy              =    -448.37783611 Ry
     estimated scf accuracy    <       2.39050191 Ry

     iteration # 17     ecut=   124.00 Ry     beta= 0.70
     Davidson diagonalization with overlap
     ethr =  1.16E-04,  avg # of iterations =  5.5

     negative rho (up, down):  8.136E-04 0.000E+00

     total cpu time spent up to now is      150.3 secs

     total energy              =    -448.59188571 Ry
     estimated scf accuracy    <       0.16284603 Ry

     iteration # 18     ecut=   124.00 Ry     beta= 0.70
     Davidson diagonalization with overlap
     ethr =  1.16E-04,  avg # of iterations =  1.0

     negative rho (up, down):  8.971E-04 0.000E+00

     total cpu time spent up to now is      151.9 secs

     total energy              =    -448.58467161 Ry
     estimated scf accuracy    <       0.08686371 Ry

     iteration # 19     ecut=   124.00 Ry     beta= 0.70
     Davidson diagonalization with overlap
     ethr =  1.16E-04,  avg # of iterations =  1.8

     negative rho (up, down):  9.571E-04 0.000E+00

     total cpu time spent up to now is      153.7 secs

     total energy              =    -448.58544125 Ry
     estimated scf accuracy    <       0.01125396 Ry

     iteration # 20     ecut=   124.00 Ry     beta= 0.70
     Davidson diagonalization with overlap
     ethr =  4.02E-05,  avg # of iterations =  2.1

     negative rho (up, down):  9.889E-04 0.000E+00

     total cpu time spent up to now is      155.5 secs

     total energy              =    -448.58593858 Ry
     estimated scf accuracy    <       0.00076716 Ry

     iteration # 21     ecut=   124.00 Ry     beta= 0.70
     Davidson diagonalization with overlap
     ethr =  2.74E-06,  avg # of iterations =  4.8

     negative rho (up, down):  9.556E-04 0.000E+00

     total cpu time spent up to now is      157.8 secs

     total energy              =    -448.58597272 Ry
     estimated scf accuracy    <       0.00304087 Ry

     iteration # 22     ecut=   124.00 Ry     beta= 0.70
     Davidson diagonalization with overlap
     ethr =  2.74E-06,  avg # of iterations =  3.6

     negative rho (up, down):  9.606E-04 0.000E+00

     total cpu time spent up to now is      159.9 secs

     total energy              =    -448.58624152 Ry
     estimated scf accuracy    <       0.00004117 Ry

     iteration # 23     ecut=   124.00 Ry     beta= 0.70
     Davidson diagonalization with overlap
     ethr =  1.47E-07,  avg # of iterations =  2.9

     negative rho (up, down):  9.606E-04 0.000E+00

     total cpu time spent up to now is      161.8 secs

     total energy              =    -448.58624790 Ry
     estimated scf accuracy    <       0.00000164 Ry

     iteration # 24     ecut=   124.00 Ry     beta= 0.70
     Davidson diagonalization with overlap
     ethr =  5.85E-09,  avg # of iterations =  4.4

     negative rho (up, down):  9.604E-04 0.000E+00

     total cpu time spent up to now is      164.1 secs

     total energy              =    -448.58624884 Ry
     estimated scf accuracy    <       0.00000210 Ry

     iteration # 25     ecut=   124.00 Ry     beta= 0.70
     Davidson diagonalization with overlap
     ethr =  5.85E-09,  avg # of iterations =  1.0

     negative rho (up, down):  9.596E-04 0.000E+00

     total cpu time spent up to now is      165.7 secs

     total energy              =    -448.58624864 Ry
     estimated scf accuracy    <       0.00000094 Ry

     iteration # 26     ecut=   124.00 Ry     beta= 0.70
     Davidson diagonalization with overlap
     ethr =  3.35E-09,  avg # of iterations =  2.6

     negative rho (up, down):  9.598E-04 0.000E+00

     total cpu time spent up to now is      167.6 secs

     total energy              =    -448.58624879 Ry
     estimated scf accuracy    <       0.00000013 Ry

     iteration # 27     ecut=   124.00 Ry     beta= 0.70
     Davidson diagonalization with overlap
     ethr =  4.54E-10,  avg # of iterations =  2.1

     negative rho (up, down):  9.598E-04 0.000E+00

     total cpu time spent up to now is      169.4 secs

     total energy              =    -448.58624879 Ry
     estimated scf accuracy    <       0.00000001 Ry

     iteration # 28     ecut=   124.00 Ry     beta= 0.70
     Davidson diagonalization with overlap
     ethr =  4.75E-11,  avg # of iterations =  3.4

     negative rho (up, down):  9.598E-04 0.000E+00

     total cpu time spent up to now is      171.5 secs

     total energy              =    -448.58624880 Ry
     estimated scf accuracy    <          2.4E-10 Ry

     iteration # 29     ecut=   124.00 Ry     beta= 0.70
     Davidson diagonalization with overlap
     ethr =  8.56E-13,  avg # of iterations =  5.5

     negative rho (up, down):  9.598E-04 0.000E+00

     total cpu time spent up to now is      174.3 secs

     total energy              =    -448.58624880 Ry
     estimated scf accuracy    <          2.9E-10 Ry

     iteration # 30     ecut=   124.00 Ry     beta= 0.70
     Davidson diagonalization with overlap
     ethr =  8.56E-13,  avg # of iterations =  2.2

     negative rho (up, down):  9.598E-04 0.000E+00

     total cpu time spent up to now is      176.2 secs

     End of self-consistent calculation

     Number of k-points >= 100: set verbosity='high' to print the bands.

     the Fermi energy is    17.8599 ev

!    total energy              =    -448.58624880 Ry
     estimated scf accuracy    <          2.1E-12 Ry
     smearing contrib. (-TS)   =      -0.00001390 Ry
     internal energy E=F+TS    =    -448.58623490 Ry

     The total energy is F=E-TS. E is the sum of the following terms:
     one-electron contribution =    -150.47138110 Ry
     hartree contribution      =      91.33119504 Ry
     xc contribution           =     -52.90054633 Ry
     ewald contribution        =    -260.39162376 Ry
     one-center paw contrib.   =     -76.15387875 Ry

     convergence has been achieved in  30 iterations

     negative rho (up, down):  9.598E-04 0.000E+00

     Forces acting on atoms (cartesian axes, Ry/au):

     atom    1 type  1   force =     0.00000000    0.00000000    0.00000000
     atom    2 type  2   force =     0.00000000    0.00000000    0.00000000

     Total force =     0.000000     Total SCF correction =     0.000000


     Computing stress (Cartesian axis) and pressure


     negative rho (up, down):  9.598E-04 0.000E+00
          total   stress  (Ry/bohr**3)                   (kbar)     P=       43.62
   0.00029651   0.00000000   0.00000000           43.62        0.00        0.00
   0.00000000   0.00029651   0.00000000            0.00       43.62        0.00
   0.00000000   0.00000000   0.00029651            0.00        0.00       43.62


     Writing all to output data dir ./TiFe.save/ :
     XML data file, charge density, pseudopotentials, collected wavefunctions

     init_run     :      2.63s CPU      2.75s WALL (       2 calls)
     electrons    :    156.77s CPU    165.89s WALL (       4 calls)
     update_pot   :      0.19s CPU      0.21s WALL (       2 calls)
     forces       :      1.31s CPU      1.42s WALL (       4 calls)
     stress       :      7.01s CPU      7.28s WALL (       4 calls)

     Called by init_run:
     wfcinit      :      1.35s CPU      1.39s WALL (       2 calls)
     potinit      :      0.48s CPU      0.50s WALL (       2 calls)
     hinit0       :      0.41s CPU      0.42s WALL (       2 calls)

     Called by electrons:
     c_bands      :    112.99s CPU    115.95s WALL (      78 calls)
     sum_band     :     26.91s CPU     30.66s WALL (      78 calls)
     v_of_rho     :      2.08s CPU      2.21s WALL (      80 calls)
     newd         :     10.57s CPU     12.82s WALL (      80 calls)
     PAW_pot      :      4.71s CPU      4.79s WALL (      82 calls)
     mix_rho      :      0.23s CPU      0.25s WALL (      78 calls)

     Called by c_bands:
     init_us_2    :      3.29s CPU      3.43s WALL (   20160 calls)
     cegterg      :    107.39s CPU    110.05s WALL (    9360 calls)

     Called by *egterg:
     cdiaghg      :     13.79s CPU     14.09s WALL (   37710 calls)
     h_psi        :     80.65s CPU     82.76s WALL (   38430 calls)
     s_psi        :      2.16s CPU      2.22s WALL (   38430 calls)
     g_psi        :      0.54s CPU      0.55s WALL (   28830 calls)

     Called by h_psi:
     h_psi:calbec :      3.25s CPU      3.33s WALL (   38430 calls)
     vloc_psi     :     74.62s CPU     76.57s WALL (   38430 calls)
     add_vuspsi   :      2.28s CPU      2.34s WALL (   38430 calls)

     General routines
     calbec       :      5.01s CPU      5.15s WALL (   56190 calls)
     fft          :      1.19s CPU      1.35s WALL (    1136 calls)
     ffts         :      0.30s CPU      0.30s WALL (     158 calls)
     fftw         :     63.04s CPU     64.61s WALL ( 1076400 calls)
     interpolate  :      0.37s CPU      0.40s WALL (      80 calls)

     Parallel routines

     PWSCF        :    168.75s CPU    178.84s WALL


   This run was terminated on:  17:31:57  27Oct2025            

=------------------------------------------------------------------------------=
   JOB DONE.
=------------------------------------------------------------------------------=
