
     Program PWSCF v.7.4 starts on 27Oct2025 at 17:22:29 

     This program is part of the open-source Quantum ESPRESSO suite
     for quantum simulation of materials; please cite
         "P. Giannozzi et al., J. Phys.:Condens. Matter 21 395502 (2009);
         "P. Giannozzi et al., J. Phys.:Condens. Matter 29 465901 (2017);
         "P. Giannozzi et al., J. Chem. Phys. 152 154105 (2020);
          URL http://www.quantum-espresso.org", 
     in publications or presentations arising from this work. More details at
     http://www.quantum-espresso.org/quote

     Parallel version (MPI & OpenMP), running on       8 processor cores
     Number of MPI processes:                 8
     Threads/MPI process:                     1

     MPI processes distributed on     1 nodes
     199977 MiB available memory on the printing compute node when the environment starts

     Reading input from TiFe_relaxed2.in

     Current dimensions of program PWSCF are:
     Max number of different atomic species (ntypx) = 10
     Max number of k-points (npk) =  40000
     Max angular momentum in pseudopotentials (lmaxx) =  4
     file Fe.pbe-spn-kjpaw_psl.0.2.1.UPF: wavefunction(s)  3D renormalized

     IMPORTANT: XC functional enforced from input :
     Exchange-correlation= PBE
                           (   1   4   3   4   0   0   0)
     Any further DFT definition will be discarded
     Please, verify this is what you really want

     Message from routine setup:
     using ibrav=0 with symmetry is DISCOURAGED, use correct ibrav instead

     R & G space division:  proc/nbgrp/npool/nimage =       8
     Subspace diagonalization in iterative solution of the eigenvalue problem:
     a serial algorithm will be used


     Parallelization info
     --------------------
     sticks:   dense  smooth     PW     G-vecs:    dense   smooth      PW
     Min         532     151     44                26154     3989     629
     Max         533     152     46                26155     3993     632
     Sum        4257    1209    357               209233    31919    5041

     Using Slab Decomposition



     bravais-lattice index     =            0
     lattice parameter (alat)  =       5.5533  a.u.
     unit-cell volume          =     171.2590 (a.u.)^3
     number of atoms/cell      =            2
     number of atomic types    =            2
     number of electrons       =        28.00
     number of Kohn-Sham states=           18
     kinetic-energy cutoff     =     124.0000  Ry
     charge density cutoff     =    1736.0000  Ry
     scf convergence threshold =      1.0E-08
     mixing beta               =       0.7000
     number of iterations used =            8  plain     mixing
     energy convergence thresh.=      1.0E-04
     force convergence thresh. =      1.0E-03
     press convergence thresh. =      5.0E-01
     Exchange-correlation= PBE
                           (   1   4   3   4   0   0   0)
     nstep                     =           50


     celldm(1)=   5.553300  celldm(2)=   0.000000  celldm(3)=   0.000000
     celldm(4)=   0.000000  celldm(5)=   0.000000  celldm(6)=   0.000000

     crystal axes: (cart. coord. in units of alat)
               a(1) = (   1.000000   0.000000   0.000000 )  
               a(2) = (   0.000000   1.000000   0.000000 )  
               a(3) = (   0.000000   0.000000   1.000000 )  

     reciprocal axes: (cart. coord. in units 2 pi/alat)
               b(1) = (  1.000000  0.000000  0.000000 )  
               b(2) = (  0.000000  1.000000  0.000000 )  
               b(3) = (  0.000000  0.000000  1.000000 )  


     PseudoPot. # 1 for Fe read from file:
     ../../pseudos/Fe.pbe-spn-kjpaw_psl.0.2.1.UPF
     MD5 check sum: e86618425769142926afa95317d90200
     Pseudo is Projector augmented-wave + core cor, Zval = 16.0
     Generated using "atomic" code by A. Dal Corso  v.5.0.99 svn rev. 10869
     Shape of augmentation charge: PSQ
     Using radial grid of 1191 points,  6 beta functions with: 
                l(1) =   0
                l(2) =   0
                l(3) =   1
                l(4) =   1
                l(5) =   2
                l(6) =   2
     Q(r) pseudized with 0 coefficients 


     PseudoPot. # 2 for Ti read from file:
     ../../pseudos/ti_pbe_v1.4.uspp.F.UPF
     MD5 check sum: 88a00a6731bd790ddea75d31a80cb452
     Pseudo is Ultrasoft + core correction, Zval = 12.0
     Generated by new atomic code, or converted to UPF format
     Using radial grid of  851 points,  6 beta functions with: 
                l(1) =   0
                l(2) =   0
                l(3) =   1
                l(4) =   1
                l(5) =   2
                l(6) =   2
     Q(r) pseudized with  6 coefficients,  rinner =    1.000   1.000   1.000
                                                       1.000   1.000

     atomic species   valence    mass     pseudopotential
     Fe               16.00    55.84500     Fe( 1.00)
     Ti               12.00    47.86700     Ti( 1.00)

     48 Sym. Ops., with inversion, found



   Cartesian axes

     site n.     atom                  positions (alat units)
         1        Fe     tau(   1) = (   0.5000000   0.5000000   0.5000000  )
         2        Ti     tau(   2) = (   0.0000000   0.0000000   0.0000000  )

     number of k points=   120  Marzari-Vanderbilt smearing, width (Ry)=  0.0050

     Number of k-points >= 100: set verbosity='high' to print them.

     Dense  grid:   209233 G-vectors     FFT dimensions: (  75,  75,  75)

     Smooth grid:    31919 G-vectors     FFT dimensions: (  40,  40,  40)

     Estimated max dynamical RAM per process >     125.80 MB

     Estimated total dynamical RAM >    1006.42 MB

     Check: negative core charge=   -0.000002

     Initial potential from superposition of free atoms

     starting charge      26.9995, renormalised to      28.0000

     negative rho (up, down):  1.347E-03 0.000E+00
     Starting wfcs are   23 randomized atomic wfcs
     Checking if some PAW data can be deallocated... 

     total cpu time spent up to now is        1.9 secs

     per-process dynamical memory:   151.7 Mb

     Self-consistent Calculation

     iteration #  1     ecut=   124.00 Ry     beta= 0.70
     Davidson diagonalization with overlap
     ethr =  1.00E-02,  avg # of iterations =  2.1

     negative rho (up, down):  8.075E-05 0.000E+00

     total cpu time spent up to now is        3.9 secs

     total energy              =    -434.88034974 Ry
     estimated scf accuracy    <      17.47740323 Ry

     iteration #  2     ecut=   124.00 Ry     beta= 0.70
     Davidson diagonalization with overlap
     ethr =  1.00E-02,  avg # of iterations =  6.1

     negative rho (up, down):  2.388E-05 0.000E+00

     total cpu time spent up to now is        7.2 secs

     total energy              =    -448.51195570 Ry
     estimated scf accuracy    <      66.14338935 Ry

     iteration #  3     ecut=   124.00 Ry     beta= 0.70
     Davidson diagonalization with overlap
     ethr =  1.00E-02,  avg # of iterations =  3.1

     negative rho (up, down):  2.384E-04 0.000E+00

     total cpu time spent up to now is        9.6 secs

     total energy              =    -448.59876074 Ry
     estimated scf accuracy    <      16.77187988 Ry

     iteration #  4     ecut=   124.00 Ry     beta= 0.70
     Davidson diagonalization with overlap
     ethr =  1.00E-02,  avg # of iterations =  2.1

     negative rho (up, down):  2.771E-04 0.000E+00

     total cpu time spent up to now is       11.6 secs

     total energy              =    -449.11451992 Ry
     estimated scf accuracy    <       4.73362336 Ry

     iteration #  5     ecut=   124.00 Ry     beta= 0.70
     Davidson diagonalization with overlap
     ethr =  1.00E-02,  avg # of iterations =  1.0

     negative rho (up, down):  3.233E-04 0.000E+00

     total cpu time spent up to now is       13.3 secs

     total energy              =    -449.12131532 Ry
     estimated scf accuracy    <       4.31212425 Ry

     iteration #  6     ecut=   124.00 Ry     beta= 0.70
     Davidson diagonalization with overlap
     ethr =  1.00E-02,  avg # of iterations =  1.0

     negative rho (up, down):  1.107E-03 0.000E+00

     total cpu time spent up to now is       15.0 secs

     total energy              =    -447.89389661 Ry
     estimated scf accuracy    <       4.51968901 Ry

     iteration #  7     ecut=   124.00 Ry     beta= 0.70
     Davidson diagonalization with overlap
     ethr =  1.00E-02,  avg # of iterations =  3.4

     negative rho (up, down):  1.008E-03 0.000E+00

     total cpu time spent up to now is       17.0 secs

     total energy              =    -448.58423346 Ry
     estimated scf accuracy    <       3.81978614 Ry

     iteration #  8     ecut=   124.00 Ry     beta= 0.70
     Davidson diagonalization with overlap
     ethr =  1.00E-02,  avg # of iterations =  1.0

     negative rho (up, down):  8.248E-04 0.000E+00

     total cpu time spent up to now is       18.7 secs

     total energy              =    -448.46846099 Ry
     estimated scf accuracy    <       1.21375717 Ry

     iteration #  9     ecut=   124.00 Ry     beta= 0.70
     Davidson diagonalization with overlap
     ethr =  4.33E-03,  avg # of iterations =  1.7

     negative rho (up, down):  8.317E-04 0.000E+00

     total cpu time spent up to now is       20.5 secs

     total energy              =    -448.59501092 Ry
     estimated scf accuracy    <       0.12585284 Ry

     iteration # 10     ecut=   124.00 Ry     beta= 0.70
     Davidson diagonalization with overlap
     ethr =  4.49E-04,  avg # of iterations =  2.3

     negative rho (up, down):  8.588E-04 0.000E+00

     total cpu time spent up to now is       22.3 secs

     total energy              =    -448.59602789 Ry
     estimated scf accuracy    <       0.14907511 Ry

     iteration # 11     ecut=   124.00 Ry     beta= 0.70
     Davidson diagonalization with overlap
     ethr =  4.49E-04,  avg # of iterations =  1.1

     negative rho (up, down):  1.121E-03 0.000E+00

     total cpu time spent up to now is       24.0 secs

     total energy              =    -448.56917534 Ry
     estimated scf accuracy    <       0.14868094 Ry

     iteration # 12     ecut=   124.00 Ry     beta= 0.70
     Davidson diagonalization with overlap
     ethr =  4.49E-04,  avg # of iterations =  4.3

     negative rho (up, down):  1.213E-03 0.000E+00

     total cpu time spent up to now is       26.4 secs

     total energy              =    -448.65391027 Ry
     estimated scf accuracy    <       0.18318037 Ry

     iteration # 13     ecut=   124.00 Ry     beta= 0.70
     Davidson diagonalization with overlap
     ethr =  4.49E-04,  avg # of iterations =  1.9

     negative rho (up, down):  2.114E-03 0.000E+00

     total cpu time spent up to now is       28.2 secs

     total energy              =    -449.03322660 Ry
     estimated scf accuracy    <       0.44442169 Ry

     iteration # 14     ecut=   124.00 Ry     beta= 0.70
     Davidson diagonalization with overlap
     ethr =  4.49E-04,  avg # of iterations =  6.2

     negative rho (up, down):  1.459E-03 0.000E+00

     total cpu time spent up to now is       31.1 secs

     total energy              =    -448.51932687 Ry
     estimated scf accuracy    <      26.98882210 Ry

     iteration # 15     ecut=   124.00 Ry     beta= 0.70
     Davidson diagonalization with overlap
     ethr =  4.49E-04,  avg # of iterations =  4.8

     negative rho (up, down):  1.137E-03 0.000E+00

     total cpu time spent up to now is       33.7 secs

     total energy              =    -448.49454824 Ry
     estimated scf accuracy    <       4.43870809 Ry

     iteration # 16     ecut=   124.00 Ry     beta= 0.70
     Davidson diagonalization with overlap
     ethr =  4.49E-04,  avg # of iterations =  4.3

     negative rho (up, down):  1.088E-03 0.000E+00

     total cpu time spent up to now is       36.1 secs

     total energy              =    -448.60519511 Ry
     estimated scf accuracy    <       0.36277655 Ry

     iteration # 17     ecut=   124.00 Ry     beta= 0.70
     Davidson diagonalization with overlap
     ethr =  4.49E-04,  avg # of iterations =  2.0

     negative rho (up, down):  1.022E-03 0.000E+00

     total cpu time spent up to now is       37.9 secs

     total energy              =    -448.58523807 Ry
     estimated scf accuracy    <       0.39566396 Ry

     iteration # 18     ecut=   124.00 Ry     beta= 0.70
     Davidson diagonalization with overlap
     ethr =  4.49E-04,  avg # of iterations =  1.2

     negative rho (up, down):  9.735E-04 0.000E+00

     total cpu time spent up to now is       39.6 secs

     total energy              =    -448.57914660 Ry
     estimated scf accuracy    <       0.10585199 Ry

     iteration # 19     ecut=   124.00 Ry     beta= 0.70
     Davidson diagonalization with overlap
     ethr =  3.78E-04,  avg # of iterations =  1.8

     negative rho (up, down):  9.827E-04 0.000E+00

     total cpu time spent up to now is       41.4 secs

     total energy              =    -448.58492275 Ry
     estimated scf accuracy    <       0.01167454 Ry

     iteration # 20     ecut=   124.00 Ry     beta= 0.70
     Davidson diagonalization with overlap
     ethr =  4.17E-05,  avg # of iterations =  4.3

     negative rho (up, down):  9.840E-04 0.000E+00

     total cpu time spent up to now is       43.6 secs

     total energy              =    -448.58662258 Ry
     estimated scf accuracy    <       0.00743011 Ry

     iteration # 21     ecut=   124.00 Ry     beta= 0.70
     Davidson diagonalization with overlap
     ethr =  2.65E-05,  avg # of iterations =  1.2

     negative rho (up, down):  9.783E-04 0.000E+00

     total cpu time spent up to now is       45.3 secs

     total energy              =    -448.58668664 Ry
     estimated scf accuracy    <       0.00779712 Ry

     iteration # 22     ecut=   124.00 Ry     beta= 0.70
     Davidson diagonalization with overlap
     ethr =  2.65E-05,  avg # of iterations =  1.0

     negative rho (up, down):  1.037E-03 0.000E+00

     total cpu time spent up to now is       47.0 secs

     total energy              =    -448.58737857 Ry
     estimated scf accuracy    <       0.00638001 Ry

     iteration # 23     ecut=   124.00 Ry     beta= 0.70
     Davidson diagonalization with overlap
     ethr =  2.28E-05,  avg # of iterations =  1.0

     negative rho (up, down):  1.004E-03 0.000E+00

     total cpu time spent up to now is       48.7 secs

     total energy              =    -448.58667571 Ry
     estimated scf accuracy    <       0.01401581 Ry

     iteration # 24     ecut=   124.00 Ry     beta= 0.70
     Davidson diagonalization with overlap
     ethr =  2.28E-05,  avg # of iterations =  1.0

     negative rho (up, down):  9.887E-04 0.000E+00

     total cpu time spent up to now is       50.4 secs

     total energy              =    -448.58663217 Ry
     estimated scf accuracy    <       0.00473461 Ry

     iteration # 25     ecut=   124.00 Ry     beta= 0.70
     Davidson diagonalization with overlap
     ethr =  1.69E-05,  avg # of iterations =  1.0

     negative rho (up, down):  9.662E-04 0.000E+00

     total cpu time spent up to now is       52.0 secs

     total energy              =    -448.58651421 Ry
     estimated scf accuracy    <       0.00172770 Ry

     iteration # 26     ecut=   124.00 Ry     beta= 0.70
     Davidson diagonalization with overlap
     ethr =  6.17E-06,  avg # of iterations =  1.7

     negative rho (up, down):  9.659E-04 0.000E+00

     total cpu time spent up to now is       53.8 secs

     total energy              =    -448.58655054 Ry
     estimated scf accuracy    <       0.00047004 Ry

     iteration # 27     ecut=   124.00 Ry     beta= 0.70
     Davidson diagonalization with overlap
     ethr =  1.68E-06,  avg # of iterations =  2.3

     negative rho (up, down):  9.621E-04 0.000E+00

     total cpu time spent up to now is       55.6 secs

     total energy              =    -448.58654469 Ry
     estimated scf accuracy    <       0.00023845 Ry

     iteration # 28     ecut=   124.00 Ry     beta= 0.70
     Davidson diagonalization with overlap
     ethr =  8.52E-07,  avg # of iterations =  1.7

     negative rho (up, down):  9.604E-04 0.000E+00

     total cpu time spent up to now is       57.4 secs

     total energy              =    -448.58653701 Ry
     estimated scf accuracy    <       0.00010746 Ry

     iteration # 29     ecut=   124.00 Ry     beta= 0.70
     Davidson diagonalization with overlap
     ethr =  3.84E-07,  avg # of iterations =  2.4

     negative rho (up, down):  9.615E-04 0.000E+00

     total cpu time spent up to now is       59.3 secs

     total energy              =    -448.58653629 Ry
     estimated scf accuracy    <       0.00003417 Ry

     iteration # 30     ecut=   124.00 Ry     beta= 0.70
     Davidson diagonalization with overlap
     ethr =  1.22E-07,  avg # of iterations =  3.3

     negative rho (up, down):  9.610E-04 0.000E+00

     total cpu time spent up to now is       61.3 secs

     total energy              =    -448.58654028 Ry
     estimated scf accuracy    <       0.00000540 Ry

     iteration # 31     ecut=   124.00 Ry     beta= 0.70
     Davidson diagonalization with overlap
     ethr =  1.93E-08,  avg # of iterations =  4.0

     negative rho (up, down):  9.613E-04 0.000E+00

     total cpu time spent up to now is       63.4 secs

     total energy              =    -448.58654137 Ry
     estimated scf accuracy    <       0.00000083 Ry

     iteration # 32     ecut=   124.00 Ry     beta= 0.70
     Davidson diagonalization with overlap
     ethr =  2.95E-09,  avg # of iterations =  3.0

     negative rho (up, down):  9.613E-04 0.000E+00

     total cpu time spent up to now is       65.4 secs

     total energy              =    -448.58654147 Ry
     estimated scf accuracy    <       0.00000005 Ry

     iteration # 33     ecut=   124.00 Ry     beta= 0.70
     Davidson diagonalization with overlap
     ethr =  1.74E-10,  avg # of iterations =  4.5

     negative rho (up, down):  9.615E-04 0.000E+00

     total cpu time spent up to now is       67.8 secs

     End of self-consistent calculation

     Number of k-points >= 100: set verbosity='high' to print the bands.

     the Fermi energy is    17.7222 ev

!    total energy              =    -448.58654149 Ry
     estimated scf accuracy    <          4.8E-09 Ry
     smearing contrib. (-TS)   =      -0.00001774 Ry
     internal energy E=F+TS    =    -448.58652375 Ry

     The total energy is F=E-TS. E is the sum of the following terms:
     one-electron contribution =    -151.35065371 Ry
     hartree contribution      =      91.62732608 Ry
     xc contribution           =     -52.88875636 Ry
     ewald contribution        =    -259.82070277 Ry
     one-center paw contrib.   =     -76.15373699 Ry

     convergence has been achieved in  33 iterations

     negative rho (up, down):  9.615E-04 0.000E+00

     Forces acting on atoms (cartesian axes, Ry/au):

     atom    1 type  1   force =     0.00000000    0.00000000    0.00000000
     atom    2 type  2   force =     0.00000000    0.00000000    0.00000000

     Total force =     0.000000     Total SCF correction =     0.000000


     Computing stress (Cartesian axis) and pressure


     negative rho (up, down):  9.615E-04 0.000E+00
          total   stress  (Ry/bohr**3)                   (kbar)     P=       29.45
   0.00020020   0.00000000   0.00000000           29.45        0.00        0.00
   0.00000000   0.00020020   0.00000000            0.00       29.45        0.00
   0.00000000   0.00000000   0.00020020            0.00        0.00       29.45


     BFGS Geometry Optimization
     Energy error            =      3.4E-03 Ry
     Gradient error          =      0.0E+00 Ry/Bohr
     Cell gradient error     =      7.7E+01 kbar

     number of scf cycles    =   1
     number of bfgs steps    =   0

     enthalpy           new  =    -448.6414227167 Ry

     new trust radius        =       0.0340679057 bohr
     new conv_thr            =       0.0000000100 Ry

     new unit-cell volume =    178.03395 a.u.^3 (    26.38191 Ang^3 )
     density =      6.52788 g/cm^3

CELL_PARAMETERS (alat=  5.55330037)
   1.013016334   0.000000000   0.000000000
   0.000000000   1.013016334   0.000000000
   0.000000000   0.000000000   1.013016334

ATOMIC_POSITIONS (crystal)
Fe               0.5000000000        0.5000000000        0.5000000000
Ti               0.0000000000        0.0000000000        0.0000000000



     Writing config-only to output data dir ./TiFe.save/ :
     XML data file
     NEW-OLD atomic charge density approx. for the potential
     New effective cutoffs (rho, wfc): 1691.55  120.83

     Check: negative core charge=   -0.000001

     negative rho (up, down):  1.003E-03 0.000E+00

     total cpu time spent up to now is       70.4 secs

     per-process dynamical memory:   161.7 Mb

     Self-consistent Calculation

     iteration #  1     ecut=   124.00 Ry     beta= 0.70
     Davidson diagonalization with overlap
     ethr =  1.00E-06,  avg # of iterations =  7.6

     negative rho (up, down):  9.795E-04 0.000E+00

     total cpu time spent up to now is       74.0 secs

     total energy              =    -448.58503883 Ry
     estimated scf accuracy    <       0.00085258 Ry

     iteration #  2     ecut=   124.00 Ry     beta= 0.70
     Davidson diagonalization with overlap
     ethr =  3.04E-06,  avg # of iterations =  5.3

     negative rho (up, down):  9.635E-04 0.000E+00

     total cpu time spent up to now is       76.6 secs

     total energy              =    -448.58119360 Ry
     estimated scf accuracy    <       0.09452254 Ry

     iteration #  3     ecut=   124.00 Ry     beta= 0.70
     Davidson diagonalization with overlap
     ethr =  3.04E-06,  avg # of iterations =  4.9

     negative rho (up, down):  9.699E-04 0.000E+00

     total cpu time spent up to now is       79.1 secs

     total energy              =    -448.58611116 Ry
     estimated scf accuracy    <       0.00027678 Ry

     iteration #  4     ecut=   124.00 Ry     beta= 0.70
     Davidson diagonalization with overlap
     ethr =  9.88E-07,  avg # of iterations =  2.0

     negative rho (up, down):  9.708E-04 0.000E+00

     total cpu time spent up to now is       81.0 secs

     total energy              =    -448.58615621 Ry
     estimated scf accuracy    <       0.00001352 Ry

     iteration #  5     ecut=   124.00 Ry     beta= 0.70
     Davidson diagonalization with overlap
     ethr =  4.83E-08,  avg # of iterations =  4.7

     negative rho (up, down):  9.685E-04 0.000E+00

     total cpu time spent up to now is       83.6 secs

     total energy              =    -448.58616470 Ry
     estimated scf accuracy    <       0.00000239 Ry

     iteration #  6     ecut=   124.00 Ry     beta= 0.70
     Davidson diagonalization with overlap
     ethr =  8.53E-09,  avg # of iterations =  3.3

     negative rho (up, down):  9.685E-04 0.000E+00

     total cpu time spent up to now is       85.7 secs

     total energy              =    -448.58616559 Ry
     estimated scf accuracy    <       0.00000102 Ry

     iteration #  7     ecut=   124.00 Ry     beta= 0.70
     Davidson diagonalization with overlap
     ethr =  3.64E-09,  avg # of iterations =  1.2

     negative rho (up, down):  9.687E-04 0.000E+00

     total cpu time spent up to now is       87.4 secs

     total energy              =    -448.58616561 Ry
     estimated scf accuracy    <       0.00000008 Ry

     iteration #  8     ecut=   124.00 Ry     beta= 0.70
     Davidson diagonalization with overlap
     ethr =  2.87E-10,  avg # of iterations =  4.0

     negative rho (up, down):  9.687E-04 0.000E+00

     total cpu time spent up to now is       89.7 secs

     End of self-consistent calculation

     Number of k-points >= 100: set verbosity='high' to print the bands.

     the Fermi energy is    16.9224 ev

!    total energy              =    -448.58616565 Ry
     estimated scf accuracy    <          1.3E-09 Ry
     smearing contrib. (-TS)   =      -0.00003035 Ry
     internal energy E=F+TS    =    -448.58613530 Ry

     The total energy is F=E-TS. E is the sum of the following terms:
     one-electron contribution =    -156.50874584 Ry
     hartree contribution      =      93.37982572 Ry
     xc contribution           =     -52.82207078 Ry
     ewald contribution        =    -256.48224413 Ry
     one-center paw contrib.   =     -76.15290027 Ry

     convergence has been achieved in   8 iterations

     negative rho (up, down):  9.687E-04 0.000E+00

     Forces acting on atoms (cartesian axes, Ry/au):

     atom    1 type  1   force =     0.00000000    0.00000000    0.00000000
     atom    2 type  2   force =     0.00000000    0.00000000    0.00000000

     Total force =     0.000000     Total SCF correction =     0.000000


     Computing stress (Cartesian axis) and pressure


     negative rho (up, down):  9.687E-04 0.000E+00
          total   stress  (Ry/bohr**3)                   (kbar)     P=      -43.76
  -0.00029747   0.00000000   0.00000000          -43.76        0.00        0.00
   0.00000000  -0.00029747   0.00000000            0.00      -43.76        0.00
   0.00000000   0.00000000  -0.00029747            0.00        0.00      -43.76

     Energy error            =      1.8E-03 Ry
     Gradient error          =      0.0E+00 Ry/Bohr
     Cell gradient error     =      3.4E+00 kbar

     number of scf cycles    =   2
     number of bfgs steps    =   1

     enthalpy           old  =    -448.6414227167 Ry
     enthalpy           new  =    -448.6432179429 Ry

     CASE: enthalpy          _new < enthalpy          _old

     new trust radius        =       0.0016274413 bohr
     new conv_thr            =            1.0E-10 Ry

     new unit-cell volume =    178.35988 a.u.^3 (    26.43021 Ang^3 )
     density =      6.51595 g/cm^3

CELL_PARAMETERS (alat=  5.55330037)
   1.013634124   0.000000000   0.000000000
   0.000000000   1.013634124   0.000000000
   0.000000000   0.000000000   1.013634124

ATOMIC_POSITIONS (crystal)
Fe               0.5000000000        0.5000000000        0.5000000000
Ti               0.0000000000        0.0000000000        0.0000000000



     Writing config-only to output data dir ./TiFe.save/ :
     XML data file
     NEW-OLD atomic charge density approx. for the potential
     New effective cutoffs (rho, wfc): 1689.49  120.68

     Check: negative core charge=   -0.000001

     negative rho (up, down):  9.702E-04 0.000E+00

     total cpu time spent up to now is       92.3 secs

     per-process dynamical memory:   161.7 Mb

     Self-consistent Calculation

     iteration #  1     ecut=   124.00 Ry     beta= 0.70
     Davidson diagonalization with overlap
     ethr =  1.00E-06,  avg # of iterations =  2.0

     Threshold (ethr) on eigenvalues was too large:
     Diagonalizing with lowered threshold

     Davidson diagonalization with overlap
     ethr =  7.80E-10,  avg # of iterations =  6.3

     negative rho (up, down):  9.690E-04 0.000E+00

     total cpu time spent up to now is       97.1 secs

     total energy              =    -448.58606355 Ry
     estimated scf accuracy    <       0.00000027 Ry

     iteration #  2     ecut=   124.00 Ry     beta= 0.70
     Davidson diagonalization with overlap
     ethr =  9.62E-10,  avg # of iterations =  3.9

     negative rho (up, down):  9.689E-04 0.000E+00

     total cpu time spent up to now is       99.5 secs

     total energy              =    -448.58606454 Ry
     estimated scf accuracy    <       0.00000327 Ry

     iteration #  3     ecut=   124.00 Ry     beta= 0.70
     Davidson diagonalization with overlap
     ethr =  9.62E-10,  avg # of iterations =  4.5

     negative rho (up, down):  9.691E-04 0.000E+00

     total cpu time spent up to now is      101.7 secs

     total energy              =    -448.58606497 Ry
     estimated scf accuracy    <       0.00000396 Ry

     iteration #  4     ecut=   124.00 Ry     beta= 0.70
     Davidson diagonalization with overlap
     ethr =  9.62E-10,  avg # of iterations =  4.1

     negative rho (up, down):  9.690E-04 0.000E+00

     total cpu time spent up to now is      103.7 secs

     total energy              =    -448.58606514 Ry
     estimated scf accuracy    <       0.00000005 Ry

     iteration #  5     ecut=   124.00 Ry     beta= 0.70
     Davidson diagonalization with overlap
     ethr =  1.78E-10,  avg # of iterations =  1.7

     negative rho (up, down):  9.690E-04 0.000E+00

     total cpu time spent up to now is      105.5 secs

     total energy              =    -448.58606514 Ry
     estimated scf accuracy    <          2.6E-10 Ry

     iteration #  6     ecut=   124.00 Ry     beta= 0.70
     Davidson diagonalization with overlap
     ethr =  9.41E-13,  avg # of iterations =  5.6

     negative rho (up, down):  9.690E-04 0.000E+00

     total cpu time spent up to now is      108.3 secs

     total energy              =    -448.58606515 Ry
     estimated scf accuracy    <          6.0E-10 Ry

     iteration #  7     ecut=   124.00 Ry     beta= 0.70
     Davidson diagonalization with overlap
     ethr =  9.41E-13,  avg # of iterations =  1.0

     negative rho (up, down):  9.690E-04 0.000E+00

     total cpu time spent up to now is      110.0 secs

     total energy              =    -448.58606515 Ry
     estimated scf accuracy    <          1.7E-10 Ry

     iteration #  8     ecut=   124.00 Ry     beta= 0.70
     Davidson diagonalization with overlap
     ethr =  6.22E-13,  avg # of iterations =  2.0

     negative rho (up, down):  9.690E-04 0.000E+00

     total cpu time spent up to now is      111.8 secs

     End of self-consistent calculation

     Number of k-points >= 100: set verbosity='high' to print the bands.

     the Fermi energy is    16.8853 ev

!    total energy              =    -448.58606515 Ry
     estimated scf accuracy    <          4.0E-12 Ry
     smearing contrib. (-TS)   =      -0.00003028 Ry
     internal energy E=F+TS    =    -448.58603487 Ry

     The total energy is F=E-TS. E is the sum of the following terms:
     one-electron contribution =    -156.75047179 Ry
     hartree contribution      =      93.46219101 Ry
     xc contribution           =     -52.81896949 Ry
     ewald contribution        =    -256.32592345 Ry
     one-center paw contrib.   =     -76.15286116 Ry

     convergence has been achieved in   8 iterations

     negative rho (up, down):  9.690E-04 0.000E+00

     Forces acting on atoms (cartesian axes, Ry/au):

     atom    1 type  1   force =     0.00000000    0.00000000    0.00000000
     atom    2 type  2   force =     0.00000000    0.00000000    0.00000000

     Total force =     0.000000     Total SCF correction =     0.000000


     Computing stress (Cartesian axis) and pressure


     negative rho (up, down):  9.690E-04 0.000E+00
          total   stress  (Ry/bohr**3)                   (kbar)     P=      -46.96
  -0.00031920   0.00000000   0.00000000          -46.96        0.00        0.00
   0.00000000  -0.00031920   0.00000000            0.00      -46.96        0.00
   0.00000000   0.00000000  -0.00031920            0.00        0.00      -46.96

     Energy error            =      3.9E-06 Ry
     Gradient error          =      0.0E+00 Ry/Bohr
     Cell gradient error     =      1.9E-01 kbar

     bfgs converged in   3 scf cycles and   2 bfgs steps
     (criteria: energy <  1.0E-04 Ry, force <  1.0E-03 Ry/Bohr, cell <  5.0E-01 kbar)

     End of BFGS Geometry Optimization

     Final enthalpy           =    -448.6432218862 Ry

     File ./TiFe.bfgs deleted, as requested
Begin final coordinates
     new unit-cell volume =    178.35988 a.u.^3 (    26.43021 Ang^3 )
     density =      6.51595 g/cm^3

CELL_PARAMETERS (alat=  5.55330037)
   1.013634124   0.000000000   0.000000000
   0.000000000   1.013634124   0.000000000
   0.000000000   0.000000000   1.013634124

ATOMIC_POSITIONS (crystal)
Fe               0.5000000000        0.5000000000        0.5000000000
Ti               0.0000000000        0.0000000000        0.0000000000
End final coordinates



     Writing config-only to output data dir ./TiFe.save/ :
     XML data file

     Final scf calculation at the relaxed structure.
     The G-vectors are recalculated for the final unit cell
     Results may differ from those at the preceding step.

     Parallelization info
     --------------------
     sticks:   dense  smooth     PW     G-vecs:    dense   smooth      PW
     Min         546     155     45                27206     4169     657
     Max         547     156     47                27209     4172     658
     Sum        4373    1245    365               217663    33371    5257

     Using Slab Decomposition



     bravais-lattice index     =            0
     lattice parameter (alat)  =       5.5533  a.u.
     unit-cell volume          =     178.3599 (a.u.)^3
     number of atoms/cell      =            2
     number of atomic types    =            2
     number of electrons       =        28.00
     number of Kohn-Sham states=           18
     kinetic-energy cutoff     =     124.0000  Ry
     charge density cutoff     =    1736.0000  Ry
     scf convergence threshold =      1.0E-10
     mixing beta               =       0.7000
     number of iterations used =            8  plain     mixing
     press convergence thresh. =      5.0E-01
     Exchange-correlation= PBE
                           (   1   4   3   4   0   0   0)

     celldm(1)=   5.553300  celldm(2)=   0.000000  celldm(3)=   0.000000
     celldm(4)=   0.000000  celldm(5)=   0.000000  celldm(6)=   0.000000

     crystal axes: (cart. coord. in units of alat)
               a(1) = (   1.013634   0.000000   0.000000 )  
               a(2) = (   0.000000   1.013634   0.000000 )  
               a(3) = (   0.000000   0.000000   1.013634 )  

     reciprocal axes: (cart. coord. in units 2 pi/alat)
               b(1) = (  0.986549  0.000000  0.000000 )  
               b(2) = (  0.000000  0.986549  0.000000 )  
               b(3) = (  0.000000  0.000000  0.986549 )  


     PseudoPot. # 1 for Fe read from file:
     ../../pseudos/Fe.pbe-spn-kjpaw_psl.0.2.1.UPF
     MD5 check sum: e86618425769142926afa95317d90200
     Pseudo is Projector augmented-wave + core cor, Zval = 16.0
     Generated using "atomic" code by A. Dal Corso  v.5.0.99 svn rev. 10869
     Shape of augmentation charge: PSQ
     Using radial grid of 1191 points,  6 beta functions with: 
                l(1) =   0
                l(2) =   0
                l(3) =   1
                l(4) =   1
                l(5) =   2
                l(6) =   2
     Q(r) pseudized with 0 coefficients 


     PseudoPot. # 2 for Ti read from file:
     ../../pseudos/ti_pbe_v1.4.uspp.F.UPF
     MD5 check sum: 88a00a6731bd790ddea75d31a80cb452
     Pseudo is Ultrasoft + core correction, Zval = 12.0
     Generated by new atomic code, or converted to UPF format
     Using radial grid of  851 points,  6 beta functions with: 
                l(1) =   0
                l(2) =   0
                l(3) =   1
                l(4) =   1
                l(5) =   2
                l(6) =   2
     Q(r) pseudized with  6 coefficients,  rinner =    1.000   1.000   1.000
                                                       1.000   1.000

     atomic species   valence    mass     pseudopotential
     Fe               16.00    55.84500     Fe( 1.00)
     Ti               12.00    47.86700     Ti( 1.00)

     48 Sym. Ops., with inversion, found



   Cartesian axes

     site n.     atom                  positions (alat units)
         1        Fe     tau(   1) = (   0.5068171   0.5068171   0.5068171  )
         2        Ti     tau(   2) = (   0.0000000   0.0000000   0.0000000  )

     number of k points=   120  Marzari-Vanderbilt smearing, width (Ry)=  0.0050

     Number of k-points >= 100: set verbosity='high' to print them.

     Dense  grid:   217663 G-vectors     FFT dimensions: (  75,  75,  75)

     Smooth grid:    33371 G-vectors     FFT dimensions: (  40,  40,  40)

     Estimated max dynamical RAM per process >     130.57 MB

     Estimated total dynamical RAM >       1.02 GB

     Check: negative core charge=   -0.000001

     Initial potential from superposition of free atoms

     starting charge      26.9995, renormalised to      28.0000

     negative rho (up, down):  1.366E-03 0.000E+00
     Starting wfcs are   23 randomized atomic wfcs
     Checking if some PAW data can be deallocated... 

     total cpu time spent up to now is      115.1 secs

     per-process dynamical memory:   154.0 Mb

     Self-consistent Calculation

     iteration #  1     ecut=   124.00 Ry     beta= 0.70
     Davidson diagonalization with overlap
     c_bands:  1 eigenvalues not converged
     c_bands:  1 eigenvalues not converged
     c_bands:  1 eigenvalues not converged
     c_bands:  1 eigenvalues not converged
     c_bands:  1 eigenvalues not converged
     c_bands:  1 eigenvalues not converged
     c_bands:  1 eigenvalues not converged
     c_bands:  1 eigenvalues not converged
     ethr =  1.00E-06,  avg # of iterations = 16.2

     negative rho (up, down):  1.181E-04 0.000E+00

     total cpu time spent up to now is      123.2 secs

     total energy              =    -434.23333494 Ry
     estimated scf accuracy    <      18.29251754 Ry

     iteration #  2     ecut=   124.00 Ry     beta= 0.70
     Davidson diagonalization with overlap
     ethr =  1.00E-02,  avg # of iterations =  6.5

     negative rho (up, down):  4.192E-05 0.000E+00

     total cpu time spent up to now is      126.7 secs

     total energy              =    -448.61101580 Ry
     estimated scf accuracy    <      68.80609706 Ry

     iteration #  3     ecut=   124.00 Ry     beta= 0.70
     Davidson diagonalization with overlap
     ethr =  1.00E-02,  avg # of iterations =  3.1

     negative rho (up, down):  2.693E-04 0.000E+00

     total cpu time spent up to now is      129.1 secs

     total energy              =    -448.70562850 Ry
     estimated scf accuracy    <      17.63743472 Ry

     iteration #  4     ecut=   124.00 Ry     beta= 0.70
     Davidson diagonalization with overlap
     ethr =  1.00E-02,  avg # of iterations =  2.2

     negative rho (up, down):  3.136E-04 0.000E+00

     total cpu time spent up to now is      131.1 secs

     total energy              =    -449.16847053 Ry
     estimated scf accuracy    <       5.58282439 Ry

     iteration #  5     ecut=   124.00 Ry     beta= 0.70
     Davidson diagonalization with overlap
     ethr =  1.00E-02,  avg # of iterations =  1.0

     negative rho (up, down):  3.878E-04 0.000E+00

     total cpu time spent up to now is      132.9 secs

     total energy              =    -449.16342485 Ry
     estimated scf accuracy    <       4.98164608 Ry

     iteration #  6     ecut=   124.00 Ry     beta= 0.70
     Davidson diagonalization with overlap
     ethr =  1.00E-02,  avg # of iterations =  1.1

     negative rho (up, down):  1.151E-03 0.000E+00

     total cpu time spent up to now is      134.6 secs

     total energy              =    -447.72672865 Ry
     estimated scf accuracy    <       5.29440949 Ry

     iteration #  7     ecut=   124.00 Ry     beta= 0.70
     Davidson diagonalization with overlap
     ethr =  1.00E-02,  avg # of iterations =  3.8

     negative rho (up, down):  1.067E-03 0.000E+00

     total cpu time spent up to now is      136.7 secs

     total energy              =    -448.70021359 Ry
     estimated scf accuracy    <       7.37354123 Ry

     iteration #  8     ecut=   124.00 Ry     beta= 0.70
     Davidson diagonalization with overlap
     ethr =  1.00E-02,  avg # of iterations =  1.0

     negative rho (up, down):  8.989E-04 0.000E+00

     total cpu time spent up to now is      138.4 secs

     total energy              =    -448.40148877 Ry
     estimated scf accuracy    <       3.88347048 Ry

     iteration #  9     ecut=   124.00 Ry     beta= 0.70
     Davidson diagonalization with overlap
     ethr =  1.00E-02,  avg # of iterations =  1.5

     negative rho (up, down):  7.848E-04 0.000E+00

     total cpu time spent up to now is      140.2 secs

     total energy              =    -448.57754853 Ry
     estimated scf accuracy    <       0.03744384 Ry

     iteration # 10     ecut=   124.00 Ry     beta= 0.70
     Davidson diagonalization with overlap
     ethr =  1.34E-04,  avg # of iterations =  5.0

     negative rho (up, down):  6.060E-04 0.000E+00

     total cpu time spent up to now is      142.6 secs

     total energy              =    -448.67955151 Ry
     estimated scf accuracy    <       0.06216426 Ry

     iteration # 11     ecut=   124.00 Ry     beta= 0.70
     Davidson diagonalization with overlap
     ethr =  1.34E-04,  avg # of iterations =  5.2

     negative rho (up, down):  5.335E-04 0.000E+00

     total cpu time spent up to now is      145.2 secs

     total energy              =    -448.77472575 Ry
     estimated scf accuracy    <       2.47604598 Ry

     iteration # 12     ecut=   124.00 Ry     beta= 0.70
     Davidson diagonalization with overlap
     ethr =  1.34E-04,  avg # of iterations =  3.3

     negative rho (up, down):  6.797E-04 0.000E+00

     total cpu time spent up to now is      147.7 secs

     total energy              =    -448.68068720 Ry
     estimated scf accuracy    <       1.19423984 Ry

     iteration # 13     ecut=   124.00 Ry     beta= 0.70
     Davidson diagonalization with overlap
     ethr =  1.34E-04,  avg # of iterations =  3.5

     negative rho (up, down):  6.558E-04 0.000E+00

     total cpu time spent up to now is      150.0 secs

     total energy              =    -448.72012171 Ry
     estimated scf accuracy    <       0.47723121 Ry

     iteration # 14     ecut=   124.00 Ry     beta= 0.70
     Davidson diagonalization with overlap
     ethr =  1.34E-04,  avg # of iterations =  1.0

     negative rho (up, down):  5.324E-04 0.000E+00

     total cpu time spent up to now is      151.7 secs

     total energy              =    -448.77059282 Ry
     estimated scf accuracy    <       0.51661176 Ry

     iteration # 15     ecut=   124.00 Ry     beta= 0.70
     Davidson diagonalization with overlap
     ethr =  1.34E-04,  avg # of iterations =  1.4

     negative rho (up, down):  3.137E-04 0.000E+00

     total cpu time spent up to now is      153.5 secs

     total energy              =    -448.99218306 Ry
     estimated scf accuracy    <       0.68275971 Ry

     iteration # 16     ecut=   124.00 Ry     beta= 0.70
     Davidson diagonalization with overlap
     ethr =  1.34E-04,  avg # of iterations =  3.5

     negative rho (up, down):  9.627E-04 0.000E+00

     total cpu time spent up to now is      156.0 secs

     total energy              =    -448.37016564 Ry
     estimated scf accuracy    <       1.45608674 Ry

     iteration # 17     ecut=   124.00 Ry     beta= 0.70
     Davidson diagonalization with overlap
     ethr =  1.34E-04,  avg # of iterations =  6.5

     negative rho (up, down):  1.103E-03 0.000E+00

     total cpu time spent up to now is      159.5 secs

     total energy              =    -448.58139703 Ry
     estimated scf accuracy    <       0.02380325 Ry

     iteration # 18     ecut=   124.00 Ry     beta= 0.70
     Davidson diagonalization with overlap
     ethr =  8.50E-05,  avg # of iterations =  4.0

     negative rho (up, down):  1.096E-03 0.000E+00

     total cpu time spent up to now is      161.7 secs

     total energy              =    -448.58902110 Ry
     estimated scf accuracy    <       0.04399904 Ry

     iteration # 19     ecut=   124.00 Ry     beta= 0.70
     Davidson diagonalization with overlap
     ethr =  8.50E-05,  avg # of iterations =  1.0

     negative rho (up, down):  1.093E-03 0.000E+00

     total cpu time spent up to now is      163.4 secs

     total energy              =    -448.58866261 Ry
     estimated scf accuracy    <       0.02862662 Ry

     iteration # 20     ecut=   124.00 Ry     beta= 0.70
     Davidson diagonalization with overlap
     ethr =  8.50E-05,  avg # of iterations =  1.0

     negative rho (up, down):  1.093E-03 0.000E+00

     total cpu time spent up to now is      165.1 secs

     total energy              =    -448.59058939 Ry
     estimated scf accuracy    <       0.01821042 Ry

     iteration # 21     ecut=   124.00 Ry     beta= 0.70
     Davidson diagonalization with overlap
     ethr =  6.50E-05,  avg # of iterations =  1.1

     negative rho (up, down):  1.189E-03 0.000E+00

     total cpu time spent up to now is      166.8 secs

     total energy              =    -448.59233437 Ry
     estimated scf accuracy    <       0.05246326 Ry

     iteration # 22     ecut=   124.00 Ry     beta= 0.70
     Davidson diagonalization with overlap
     ethr =  6.50E-05,  avg # of iterations =  1.1

     negative rho (up, down):  1.157E-03 0.000E+00

     total cpu time spent up to now is      168.6 secs

     total energy              =    -448.59412327 Ry
     estimated scf accuracy    <       0.03202809 Ry

     iteration # 23     ecut=   124.00 Ry     beta= 0.70
     Davidson diagonalization with overlap
     ethr =  6.50E-05,  avg # of iterations =  1.0

     negative rho (up, down):  1.073E-03 0.000E+00

     total cpu time spent up to now is      170.3 secs

     total energy              =    -448.59058935 Ry
     estimated scf accuracy    <       0.02713348 Ry

     iteration # 24     ecut=   124.00 Ry     beta= 0.70
     Davidson diagonalization with overlap
     ethr =  6.50E-05,  avg # of iterations =  1.4

     negative rho (up, down):  9.888E-04 0.000E+00

     total cpu time spent up to now is      172.1 secs

     total energy              =    -448.58315476 Ry
     estimated scf accuracy    <       0.02094182 Ry

     iteration # 25     ecut=   124.00 Ry     beta= 0.70
     Davidson diagonalization with overlap
     ethr =  6.50E-05,  avg # of iterations =  2.0

     negative rho (up, down):  9.576E-04 0.000E+00

     total cpu time spent up to now is      174.0 secs

     total energy              =    -448.58568338 Ry
     estimated scf accuracy    <       0.00072365 Ry

     iteration # 26     ecut=   124.00 Ry     beta= 0.70
     Davidson diagonalization with overlap
     ethr =  2.58E-06,  avg # of iterations =  5.2

     negative rho (up, down):  9.648E-04 0.000E+00

     total cpu time spent up to now is      176.7 secs

     total energy              =    -448.58613118 Ry
     estimated scf accuracy    <       0.00027603 Ry

     iteration # 27     ecut=   124.00 Ry     beta= 0.70
     Davidson diagonalization with overlap
     ethr =  9.86E-07,  avg # of iterations =  1.6

     negative rho (up, down):  9.665E-04 0.000E+00

     total cpu time spent up to now is      178.5 secs

     total energy              =    -448.58613989 Ry
     estimated scf accuracy    <       0.00006884 Ry

     iteration # 28     ecut=   124.00 Ry     beta= 0.70
     Davidson diagonalization with overlap
     ethr =  2.46E-07,  avg # of iterations =  2.3

     negative rho (up, down):  9.698E-04 0.000E+00

     total cpu time spent up to now is      180.4 secs

     total energy              =    -448.58613981 Ry
     estimated scf accuracy    <       0.00001536 Ry

     iteration # 29     ecut=   124.00 Ry     beta= 0.70
     Davidson diagonalization with overlap
     ethr =  5.48E-08,  avg # of iterations =  3.9

     negative rho (up, down):  9.695E-04 0.000E+00

     total cpu time spent up to now is      182.6 secs

     total energy              =    -448.58614417 Ry
     estimated scf accuracy    <       0.00000159 Ry

     iteration # 30     ecut=   124.00 Ry     beta= 0.70
     Davidson diagonalization with overlap
     ethr =  5.69E-09,  avg # of iterations =  4.2

     negative rho (up, down):  9.695E-04 0.000E+00

     total cpu time spent up to now is      184.7 secs

     total energy              =    -448.58614453 Ry
     estimated scf accuracy    <       0.00000016 Ry

     iteration # 31     ecut=   124.00 Ry     beta= 0.70
     Davidson diagonalization with overlap
     ethr =  5.83E-10,  avg # of iterations =  4.2

     negative rho (up, down):  9.695E-04 0.000E+00

     total cpu time spent up to now is      186.9 secs

     total energy              =    -448.58614454 Ry
     estimated scf accuracy    <       0.00000009 Ry

     iteration # 32     ecut=   124.00 Ry     beta= 0.70
     Davidson diagonalization with overlap
     ethr =  3.29E-10,  avg # of iterations =  1.7

     negative rho (up, down):  9.693E-04 0.000E+00

     total cpu time spent up to now is      188.7 secs

     total energy              =    -448.58614454 Ry
     estimated scf accuracy    <       0.00000004 Ry

     iteration # 33     ecut=   124.00 Ry     beta= 0.70
     Davidson diagonalization with overlap
     ethr =  1.40E-10,  avg # of iterations =  2.7

     negative rho (up, down):  9.693E-04 0.000E+00

     total cpu time spent up to now is      190.7 secs

     total energy              =    -448.58614454 Ry
     estimated scf accuracy    <          7.9E-10 Ry

     iteration # 34     ecut=   124.00 Ry     beta= 0.70
     Davidson diagonalization with overlap
     ethr =  2.83E-12,  avg # of iterations =  5.0

     negative rho (up, down):  9.694E-04 0.000E+00

     total cpu time spent up to now is      193.3 secs

     total energy              =    -448.58614454 Ry
     estimated scf accuracy    <          6.5E-10 Ry

     iteration # 35     ecut=   124.00 Ry     beta= 0.70
     Davidson diagonalization with overlap
     ethr =  2.32E-12,  avg # of iterations =  3.9

     negative rho (up, down):  9.694E-04 0.000E+00

     total cpu time spent up to now is      195.5 secs

     total energy              =    -448.58614454 Ry
     estimated scf accuracy    <          1.7E-09 Ry

     iteration # 36     ecut=   124.00 Ry     beta= 0.70
     Davidson diagonalization with overlap
     ethr =  2.32E-12,  avg # of iterations =  2.5

     negative rho (up, down):  9.693E-04 0.000E+00

     total cpu time spent up to now is      197.6 secs

     total energy              =    -448.58614454 Ry
     estimated scf accuracy    <          3.3E-09 Ry

     iteration # 37     ecut=   124.00 Ry     beta= 0.70
     Davidson diagonalization with overlap
     ethr =  2.32E-12,  avg # of iterations =  2.3

     negative rho (up, down):  9.693E-04 0.000E+00

     total cpu time spent up to now is      199.5 secs

     total energy              =    -448.58614454 Ry
     estimated scf accuracy    <          6.2E-10 Ry

     iteration # 38     ecut=   124.00 Ry     beta= 0.70
     Davidson diagonalization with overlap
     ethr =  2.23E-12,  avg # of iterations =  2.9

     negative rho (up, down):  9.693E-04 0.000E+00

     total cpu time spent up to now is      201.5 secs

     End of self-consistent calculation

     Number of k-points >= 100: set verbosity='high' to print the bands.

     the Fermi energy is    16.8852 ev

!    total energy              =    -448.58614454 Ry
     estimated scf accuracy    <          8.6E-13 Ry
     smearing contrib. (-TS)   =      -0.00003027 Ry
     internal energy E=F+TS    =    -448.58611428 Ry

     The total energy is F=E-TS. E is the sum of the following terms:
     one-electron contribution =    -156.75034377 Ry
     hartree contribution      =      93.46206338 Ry
     xc contribution           =     -52.81903614 Ry
     ewald contribution        =    -256.32592345 Ry
     one-center paw contrib.   =     -76.15287429 Ry

     convergence has been achieved in  38 iterations

     negative rho (up, down):  9.693E-04 0.000E+00

     Forces acting on atoms (cartesian axes, Ry/au):

     atom    1 type  1   force =     0.00000000    0.00000000    0.00000000
     atom    2 type  2   force =     0.00000000    0.00000000    0.00000000

     Total force =     0.000000     Total SCF correction =     0.000000


     Computing stress (Cartesian axis) and pressure


     negative rho (up, down):  9.693E-04 0.000E+00
          total   stress  (Ry/bohr**3)                   (kbar)     P=      -46.73
  -0.00031768   0.00000000   0.00000000          -46.73        0.00        0.00
   0.00000000  -0.00031768   0.00000000            0.00      -46.73        0.00
   0.00000000   0.00000000  -0.00031768            0.00        0.00      -46.73


     Writing all to output data dir ./TiFe.save/ :
     XML data file, charge density, pseudopotentials, collected wavefunctions

     init_run     :      2.64s CPU      2.79s WALL (       2 calls)
     electrons    :    180.52s CPU    191.12s WALL (       4 calls)
     update_pot   :      0.19s CPU      0.21s WALL (       2 calls)
     forces       :      1.31s CPU      1.47s WALL (       4 calls)
     stress       :      7.10s CPU      7.40s WALL (       4 calls)

     Called by init_run:
     wfcinit      :      1.35s CPU      1.40s WALL (       2 calls)
     potinit      :      0.48s CPU      0.50s WALL (       2 calls)
     hinit0       :      0.41s CPU      0.42s WALL (       2 calls)

     Called by electrons:
     c_bands      :    129.79s CPU    133.13s WALL (      88 calls)
     sum_band     :     30.83s CPU     35.27s WALL (      88 calls)
     v_of_rho     :      2.39s CPU      2.56s WALL (      91 calls)
     newd         :     12.58s CPU     15.19s WALL (      91 calls)
     PAW_pot      :      5.35s CPU      5.45s WALL (      93 calls)
     mix_rho      :      0.28s CPU      0.30s WALL (      88 calls)

     Called by c_bands:
     init_us_2    :      3.76s CPU      3.91s WALL (   22560 calls)
     cegterg      :    123.24s CPU    126.23s WALL (   10560 calls)

     Called by *egterg:
     cdiaghg      :     15.63s CPU     15.95s WALL (   42449 calls)
     h_psi        :     92.21s CPU     94.61s WALL (   43049 calls)
     s_psi        :      2.55s CPU      2.62s WALL (   43049 calls)
     g_psi        :      0.64s CPU      0.65s WALL (   32249 calls)

     Called by h_psi:
     h_psi:calbec :      3.71s CPU      3.81s WALL (   43049 calls)
     vloc_psi     :     85.24s CPU     87.46s WALL (   43049 calls)
     add_vuspsi   :      2.65s CPU      2.72s WALL (   43049 calls)

     General routines
     calbec       :      5.59s CPU      5.75s WALL (   62009 calls)
     fft          :      1.34s CPU      1.51s WALL (    1278 calls)
     ffts         :      0.30s CPU      0.31s WALL (     179 calls)
     fftw         :     71.52s CPU     73.28s WALL ( 1227542 calls)
     interpolate  :      0.40s CPU      0.41s WALL (      91 calls)

     Parallel routines

     PWSCF        :    192.64s CPU    204.20s WALL


   This run was terminated on:  17:25:54  27Oct2025            

=------------------------------------------------------------------------------=
   JOB DONE.
=------------------------------------------------------------------------------=
