
     Program PWSCF v.7.4 starts on 27Oct2025 at 17:53:27 

     This program is part of the open-source Quantum ESPRESSO suite
     for quantum simulation of materials; please cite
         "P. Giannozzi et al., J. Phys.:Condens. Matter 21 395502 (2009);
         "P. Giannozzi et al., J. Phys.:Condens. Matter 29 465901 (2017);
         "P. Giannozzi et al., J. Chem. Phys. 152 154105 (2020);
          URL http://www.quantum-espresso.org", 
     in publications or presentations arising from this work. More details at
     http://www.quantum-espresso.org/quote

     Parallel version (MPI & OpenMP), running on       8 processor cores
     Number of MPI processes:                 8
     Threads/MPI process:                     1

     MPI processes distributed on     1 nodes
     199872 MiB available memory on the printing compute node when the environment starts

     Reading input from TiFe_relaxed11.in

     Current dimensions of program PWSCF are:
     Max number of different atomic species (ntypx) = 10
     Max number of k-points (npk) =  40000
     Max angular momentum in pseudopotentials (lmaxx) =  4
     file Fe.pbe-spn-kjpaw_psl.0.2.1.UPF: wavefunction(s)  3D renormalized

     IMPORTANT: XC functional enforced from input :
     Exchange-correlation= PBE
                           (   1   4   3   4   0   0   0)
     Any further DFT definition will be discarded
     Please, verify this is what you really want

     Message from routine setup:
     using ibrav=0 with symmetry is DISCOURAGED, use correct ibrav instead

     R & G space division:  proc/nbgrp/npool/nimage =       8
     Subspace diagonalization in iterative solution of the eigenvalue problem:
     a serial algorithm will be used


     Parallelization info
     --------------------
     sticks:   dense  smooth     PW     G-vecs:    dense   smooth      PW
     Min         532     151     44                26154     3989     629
     Max         533     152     46                26155     3993     632
     Sum        4257    1209    357               209233    31919    5041

     Using Slab Decomposition



     bravais-lattice index     =            0
     lattice parameter (alat)  =       5.5533  a.u.
     unit-cell volume          =     171.2590 (a.u.)^3
     number of atoms/cell      =            2
     number of atomic types    =            2
     number of electrons       =        28.00
     number of Kohn-Sham states=           18
     kinetic-energy cutoff     =     124.0000  Ry
     charge density cutoff     =    1736.0000  Ry
     scf convergence threshold =      1.0E-08
     mixing beta               =       0.7000
     number of iterations used =            8  plain     mixing
     energy convergence thresh.=      1.0E-04
     force convergence thresh. =      1.0E-03
     press convergence thresh. =      5.0E-01
     Exchange-correlation= PBE
                           (   1   4   3   4   0   0   0)
     nstep                     =           50


     celldm(1)=   5.553300  celldm(2)=   0.000000  celldm(3)=   0.000000
     celldm(4)=   0.000000  celldm(5)=   0.000000  celldm(6)=   0.000000

     crystal axes: (cart. coord. in units of alat)
               a(1) = (   1.000000   0.000000   0.000000 )  
               a(2) = (   0.000000   1.000000   0.000000 )  
               a(3) = (   0.000000   0.000000   1.000000 )  

     reciprocal axes: (cart. coord. in units 2 pi/alat)
               b(1) = (  1.000000  0.000000  0.000000 )  
               b(2) = (  0.000000  1.000000  0.000000 )  
               b(3) = (  0.000000  0.000000  1.000000 )  


     PseudoPot. # 1 for Fe read from file:
     ../../pseudos/Fe.pbe-spn-kjpaw_psl.0.2.1.UPF
     MD5 check sum: e86618425769142926afa95317d90200
     Pseudo is Projector augmented-wave + core cor, Zval = 16.0
     Generated using "atomic" code by A. Dal Corso  v.5.0.99 svn rev. 10869
     Shape of augmentation charge: PSQ
     Using radial grid of 1191 points,  6 beta functions with: 
                l(1) =   0
                l(2) =   0
                l(3) =   1
                l(4) =   1
                l(5) =   2
                l(6) =   2
     Q(r) pseudized with 0 coefficients 


     PseudoPot. # 2 for Ti read from file:
     ../../pseudos/ti_pbe_v1.4.uspp.F.UPF
     MD5 check sum: 88a00a6731bd790ddea75d31a80cb452
     Pseudo is Ultrasoft + core correction, Zval = 12.0
     Generated by new atomic code, or converted to UPF format
     Using radial grid of  851 points,  6 beta functions with: 
                l(1) =   0
                l(2) =   0
                l(3) =   1
                l(4) =   1
                l(5) =   2
                l(6) =   2
     Q(r) pseudized with  6 coefficients,  rinner =    1.000   1.000   1.000
                                                       1.000   1.000

     atomic species   valence    mass     pseudopotential
     Fe               16.00    55.84500     Fe( 1.00)
     Ti               12.00    47.86700     Ti( 1.00)

     48 Sym. Ops., with inversion, found



   Cartesian axes

     site n.     atom                  positions (alat units)
         1        Fe     tau(   1) = (   0.5000000   0.5000000   0.5000000  )
         2        Ti     tau(   2) = (   0.0000000   0.0000000   0.0000000  )

     number of k points=   120  Marzari-Vanderbilt smearing, width (Ry)=  0.0050

     Number of k-points >= 100: set verbosity='high' to print them.

     Dense  grid:   209233 G-vectors     FFT dimensions: (  75,  75,  75)

     Smooth grid:    31919 G-vectors     FFT dimensions: (  40,  40,  40)

     Estimated max dynamical RAM per process >     125.80 MB

     Estimated total dynamical RAM >    1006.42 MB

     Check: negative core charge=   -0.000002

     Initial potential from superposition of free atoms

     starting charge      26.9995, renormalised to      28.0000

     negative rho (up, down):  1.347E-03 0.000E+00
     Starting wfcs are   23 randomized atomic wfcs
     Checking if some PAW data can be deallocated... 

     total cpu time spent up to now is        1.9 secs

     per-process dynamical memory:   151.6 Mb

     Self-consistent Calculation

     iteration #  1     ecut=   124.00 Ry     beta= 0.70
     Davidson diagonalization with overlap
     ethr =  1.00E-02,  avg # of iterations =  2.1

     negative rho (up, down):  8.075E-05 0.000E+00

     total cpu time spent up to now is        3.9 secs

     total energy              =    -434.88034974 Ry
     estimated scf accuracy    <      17.47740323 Ry

     iteration #  2     ecut=   124.00 Ry     beta= 0.70
     Davidson diagonalization with overlap
     ethr =  1.00E-02,  avg # of iterations =  6.1

     negative rho (up, down):  2.388E-05 0.000E+00

     total cpu time spent up to now is        7.2 secs

     total energy              =    -448.51195570 Ry
     estimated scf accuracy    <      66.14338935 Ry

     iteration #  3     ecut=   124.00 Ry     beta= 0.70
     Davidson diagonalization with overlap
     ethr =  1.00E-02,  avg # of iterations =  3.1

     negative rho (up, down):  2.384E-04 0.000E+00

     total cpu time spent up to now is        9.5 secs

     total energy              =    -448.59876074 Ry
     estimated scf accuracy    <      16.77187988 Ry

     iteration #  4     ecut=   124.00 Ry     beta= 0.70
     Davidson diagonalization with overlap
     ethr =  1.00E-02,  avg # of iterations =  2.1

     negative rho (up, down):  2.771E-04 0.000E+00

     total cpu time spent up to now is       11.5 secs

     total energy              =    -449.11451992 Ry
     estimated scf accuracy    <       4.73362336 Ry

     iteration #  5     ecut=   124.00 Ry     beta= 0.70
     Davidson diagonalization with overlap
     ethr =  1.00E-02,  avg # of iterations =  1.0

     negative rho (up, down):  3.233E-04 0.000E+00

     total cpu time spent up to now is       13.2 secs

     total energy              =    -449.12131532 Ry
     estimated scf accuracy    <       4.31212425 Ry

     iteration #  6     ecut=   124.00 Ry     beta= 0.70
     Davidson diagonalization with overlap
     ethr =  1.00E-02,  avg # of iterations =  1.0

     negative rho (up, down):  1.107E-03 0.000E+00

     total cpu time spent up to now is       14.9 secs

     total energy              =    -447.89389661 Ry
     estimated scf accuracy    <       4.51968901 Ry

     iteration #  7     ecut=   124.00 Ry     beta= 0.70
     Davidson diagonalization with overlap
     ethr =  1.00E-02,  avg # of iterations =  3.4

     negative rho (up, down):  1.008E-03 0.000E+00

     total cpu time spent up to now is       16.8 secs

     total energy              =    -448.58423346 Ry
     estimated scf accuracy    <       3.81978614 Ry

     iteration #  8     ecut=   124.00 Ry     beta= 0.70
     Davidson diagonalization with overlap
     ethr =  1.00E-02,  avg # of iterations =  1.0

     negative rho (up, down):  8.248E-04 0.000E+00

     total cpu time spent up to now is       18.5 secs

     total energy              =    -448.46846099 Ry
     estimated scf accuracy    <       1.21375717 Ry

     iteration #  9     ecut=   124.00 Ry     beta= 0.70
     Davidson diagonalization with overlap
     ethr =  4.33E-03,  avg # of iterations =  1.7

     negative rho (up, down):  8.317E-04 0.000E+00

     total cpu time spent up to now is       20.3 secs

     total energy              =    -448.59501092 Ry
     estimated scf accuracy    <       0.12585284 Ry

     iteration # 10     ecut=   124.00 Ry     beta= 0.70
     Davidson diagonalization with overlap
     ethr =  4.49E-04,  avg # of iterations =  2.3

     negative rho (up, down):  8.588E-04 0.000E+00

     total cpu time spent up to now is       22.1 secs

     total energy              =    -448.59602789 Ry
     estimated scf accuracy    <       0.14907511 Ry

     iteration # 11     ecut=   124.00 Ry     beta= 0.70
     Davidson diagonalization with overlap
     ethr =  4.49E-04,  avg # of iterations =  1.1

     negative rho (up, down):  1.121E-03 0.000E+00

     total cpu time spent up to now is       23.7 secs

     total energy              =    -448.56917534 Ry
     estimated scf accuracy    <       0.14868094 Ry

     iteration # 12     ecut=   124.00 Ry     beta= 0.70
     Davidson diagonalization with overlap
     ethr =  4.49E-04,  avg # of iterations =  4.3

     negative rho (up, down):  1.213E-03 0.000E+00

     total cpu time spent up to now is       26.1 secs

     total energy              =    -448.65391027 Ry
     estimated scf accuracy    <       0.18318038 Ry

     iteration # 13     ecut=   124.00 Ry     beta= 0.70
     Davidson diagonalization with overlap
     ethr =  4.49E-04,  avg # of iterations =  1.9

     negative rho (up, down):  2.114E-03 0.000E+00

     total cpu time spent up to now is       27.9 secs

     total energy              =    -449.03322661 Ry
     estimated scf accuracy    <       0.44442170 Ry

     iteration # 14     ecut=   124.00 Ry     beta= 0.70
     Davidson diagonalization with overlap
     ethr =  4.49E-04,  avg # of iterations =  6.2

     negative rho (up, down):  1.459E-03 0.000E+00

     total cpu time spent up to now is       30.8 secs

     total energy              =    -448.51932688 Ry
     estimated scf accuracy    <      26.98882260 Ry

     iteration # 15     ecut=   124.00 Ry     beta= 0.70
     Davidson diagonalization with overlap
     ethr =  4.49E-04,  avg # of iterations =  4.8

     negative rho (up, down):  1.137E-03 0.000E+00

     total cpu time spent up to now is       33.3 secs

     total energy              =    -448.49454823 Ry
     estimated scf accuracy    <       4.43870834 Ry

     iteration # 16     ecut=   124.00 Ry     beta= 0.70
     Davidson diagonalization with overlap
     ethr =  4.49E-04,  avg # of iterations =  4.3

     negative rho (up, down):  1.088E-03 0.000E+00

     total cpu time spent up to now is       35.7 secs

     total energy              =    -448.60519511 Ry
     estimated scf accuracy    <       0.36277654 Ry

     iteration # 17     ecut=   124.00 Ry     beta= 0.70
     Davidson diagonalization with overlap
     ethr =  4.49E-04,  avg # of iterations =  2.0

     negative rho (up, down):  1.022E-03 0.000E+00

     total cpu time spent up to now is       37.5 secs

     total energy              =    -448.58523807 Ry
     estimated scf accuracy    <       0.39566393 Ry

     iteration # 18     ecut=   124.00 Ry     beta= 0.70
     Davidson diagonalization with overlap
     ethr =  4.49E-04,  avg # of iterations =  1.2

     negative rho (up, down):  9.735E-04 0.000E+00

     total cpu time spent up to now is       39.2 secs

     total energy              =    -448.57914660 Ry
     estimated scf accuracy    <       0.10585197 Ry

     iteration # 19     ecut=   124.00 Ry     beta= 0.70
     Davidson diagonalization with overlap
     ethr =  3.78E-04,  avg # of iterations =  1.8

     negative rho (up, down):  9.827E-04 0.000E+00

     total cpu time spent up to now is       40.9 secs

     total energy              =    -448.58492275 Ry
     estimated scf accuracy    <       0.01167453 Ry

     iteration # 20     ecut=   124.00 Ry     beta= 0.70
     Davidson diagonalization with overlap
     ethr =  4.17E-05,  avg # of iterations =  4.3

     negative rho (up, down):  9.840E-04 0.000E+00

     total cpu time spent up to now is       43.1 secs

     total energy              =    -448.58662258 Ry
     estimated scf accuracy    <       0.00743011 Ry

     iteration # 21     ecut=   124.00 Ry     beta= 0.70
     Davidson diagonalization with overlap
     ethr =  2.65E-05,  avg # of iterations =  1.2

     negative rho (up, down):  9.783E-04 0.000E+00

     total cpu time spent up to now is       44.8 secs

     total energy              =    -448.58668664 Ry
     estimated scf accuracy    <       0.00779712 Ry

     iteration # 22     ecut=   124.00 Ry     beta= 0.70
     Davidson diagonalization with overlap
     ethr =  2.65E-05,  avg # of iterations =  1.0

     negative rho (up, down):  1.037E-03 0.000E+00

     total cpu time spent up to now is       46.4 secs

     total energy              =    -448.58737857 Ry
     estimated scf accuracy    <       0.00638001 Ry

     iteration # 23     ecut=   124.00 Ry     beta= 0.70
     Davidson diagonalization with overlap
     ethr =  2.28E-05,  avg # of iterations =  1.0

     negative rho (up, down):  1.004E-03 0.000E+00

     total cpu time spent up to now is       48.1 secs

     total energy              =    -448.58667571 Ry
     estimated scf accuracy    <       0.01401582 Ry

     iteration # 24     ecut=   124.00 Ry     beta= 0.70
     Davidson diagonalization with overlap
     ethr =  2.28E-05,  avg # of iterations =  1.0

     negative rho (up, down):  9.887E-04 0.000E+00

     total cpu time spent up to now is       49.8 secs

     total energy              =    -448.58663217 Ry
     estimated scf accuracy    <       0.00473461 Ry

     iteration # 25     ecut=   124.00 Ry     beta= 0.70
     Davidson diagonalization with overlap
     ethr =  1.69E-05,  avg # of iterations =  1.0

     negative rho (up, down):  9.662E-04 0.000E+00

     total cpu time spent up to now is       51.5 secs

     total energy              =    -448.58651421 Ry
     estimated scf accuracy    <       0.00172769 Ry

     iteration # 26     ecut=   124.00 Ry     beta= 0.70
     Davidson diagonalization with overlap
     ethr =  6.17E-06,  avg # of iterations =  1.7

     negative rho (up, down):  9.659E-04 0.000E+00

     total cpu time spent up to now is       53.2 secs

     total energy              =    -448.58655054 Ry
     estimated scf accuracy    <       0.00047004 Ry

     iteration # 27     ecut=   124.00 Ry     beta= 0.70
     Davidson diagonalization with overlap
     ethr =  1.68E-06,  avg # of iterations =  2.3

     negative rho (up, down):  9.621E-04 0.000E+00

     total cpu time spent up to now is       55.0 secs

     total energy              =    -448.58654470 Ry
     estimated scf accuracy    <       0.00023845 Ry

     iteration # 28     ecut=   124.00 Ry     beta= 0.70
     Davidson diagonalization with overlap
     ethr =  8.52E-07,  avg # of iterations =  1.7

     negative rho (up, down):  9.604E-04 0.000E+00

     total cpu time spent up to now is       56.7 secs

     total energy              =    -448.58653701 Ry
     estimated scf accuracy    <       0.00010746 Ry

     iteration # 29     ecut=   124.00 Ry     beta= 0.70
     Davidson diagonalization with overlap
     ethr =  3.84E-07,  avg # of iterations =  2.4

     negative rho (up, down):  9.615E-04 0.000E+00

     total cpu time spent up to now is       58.6 secs

     total energy              =    -448.58653629 Ry
     estimated scf accuracy    <       0.00003417 Ry

     iteration # 30     ecut=   124.00 Ry     beta= 0.70
     Davidson diagonalization with overlap
     ethr =  1.22E-07,  avg # of iterations =  3.3

     negative rho (up, down):  9.610E-04 0.000E+00

     total cpu time spent up to now is       60.6 secs

     total energy              =    -448.58654028 Ry
     estimated scf accuracy    <       0.00000540 Ry

     iteration # 31     ecut=   124.00 Ry     beta= 0.70
     Davidson diagonalization with overlap
     ethr =  1.93E-08,  avg # of iterations =  4.0

     negative rho (up, down):  9.613E-04 0.000E+00

     total cpu time spent up to now is       62.7 secs

     total energy              =    -448.58654137 Ry
     estimated scf accuracy    <       0.00000083 Ry

     iteration # 32     ecut=   124.00 Ry     beta= 0.70
     Davidson diagonalization with overlap
     ethr =  2.95E-09,  avg # of iterations =  3.0

     negative rho (up, down):  9.613E-04 0.000E+00

     total cpu time spent up to now is       64.6 secs

     total energy              =    -448.58654147 Ry
     estimated scf accuracy    <       0.00000005 Ry

     iteration # 33     ecut=   124.00 Ry     beta= 0.70
     Davidson diagonalization with overlap
     ethr =  1.74E-10,  avg # of iterations =  4.5

     negative rho (up, down):  9.615E-04 0.000E+00

     total cpu time spent up to now is       67.0 secs

     End of self-consistent calculation

     Number of k-points >= 100: set verbosity='high' to print the bands.

     the Fermi energy is    17.7222 ev

!    total energy              =    -448.58654149 Ry
     estimated scf accuracy    <          4.8E-09 Ry
     smearing contrib. (-TS)   =      -0.00001774 Ry
     internal energy E=F+TS    =    -448.58652375 Ry

     The total energy is F=E-TS. E is the sum of the following terms:
     one-electron contribution =    -151.35065372 Ry
     hartree contribution      =      91.62732608 Ry
     xc contribution           =     -52.88875636 Ry
     ewald contribution        =    -259.82070277 Ry
     one-center paw contrib.   =     -76.15373699 Ry

     convergence has been achieved in  33 iterations

     negative rho (up, down):  9.615E-04 0.000E+00

     Forces acting on atoms (cartesian axes, Ry/au):

     atom    1 type  1   force =     0.00000000    0.00000000    0.00000000
     atom    2 type  2   force =     0.00000000    0.00000000    0.00000000

     Total force =     0.000000     Total SCF correction =     0.000000


     Computing stress (Cartesian axis) and pressure


     negative rho (up, down):  9.615E-04 0.000E+00
          total   stress  (Ry/bohr**3)                   (kbar)     P=       29.45
   0.00020020   0.00000000   0.00000000           29.45        0.00        0.00
   0.00000000   0.00020020   0.00000000            0.00       29.45        0.00
   0.00000000   0.00000000   0.00020020            0.00        0.00       29.45


     BFGS Geometry Optimization
     Energy error            =      7.2E-02 Ry
     Gradient error          =      0.0E+00 Ry/Bohr
     Cell gradient error     =      3.3E+02 kbar

     number of scf cycles    =   1
     number of bfgs steps    =   0

     enthalpy           new  =    -448.1651610241 Ry

     new trust radius        =       0.1478975312 bohr
     new conv_thr            =       0.0000000100 Ry

     new unit-cell volume =    143.83653 a.u.^3 (    21.31437 Ang^3 )
     density =      8.07989 g/cm^3

CELL_PARAMETERS (alat=  5.55330037)
   0.943492749   0.000000000   0.000000000
   0.000000000   0.943492749   0.000000000
   0.000000000   0.000000000   0.943492749

ATOMIC_POSITIONS (crystal)
Fe               0.5000000000        0.5000000000        0.5000000000
Ti               0.0000000000        0.0000000000        0.0000000000



     Writing config-only to output data dir ./TiFe.save/ :
     XML data file
     NEW-OLD atomic charge density approx. for the potential
     New effective cutoffs (rho, wfc): 1950.02  139.29

     Check: negative core charge=   -0.000001

     negative rho (up, down):  8.546E-04 0.000E+00

     total cpu time spent up to now is       69.6 secs

     per-process dynamical memory:   161.6 Mb

     Self-consistent Calculation

     iteration #  1     ecut=   124.00 Ry     beta= 0.70
     Davidson diagonalization with overlap
     ethr =  1.00E-06,  avg # of iterations = 10.7

     negative rho (up, down):  8.999E-04 0.000E+00

     total cpu time spent up to now is       74.4 secs

     total energy              =    -448.53756208 Ry
     estimated scf accuracy    <       0.00217812 Ry

     iteration #  2     ecut=   124.00 Ry     beta= 0.70
     Davidson diagonalization with overlap
     ethr =  7.78E-06,  avg # of iterations =  4.0

     negative rho (up, down):  9.147E-04 0.000E+00

     total cpu time spent up to now is       76.7 secs

     total energy              =    -448.53213183 Ry
     estimated scf accuracy    <       0.07467321 Ry

     iteration #  3     ecut=   124.00 Ry     beta= 0.70
     Davidson diagonalization with overlap
     ethr =  7.78E-06,  avg # of iterations =  4.2

     negative rho (up, down):  9.086E-04 0.000E+00

     total cpu time spent up to now is       79.0 secs

     total energy              =    -448.53920321 Ry
     estimated scf accuracy    <       0.00480983 Ry

     iteration #  4     ecut=   124.00 Ry     beta= 0.70
     Davidson diagonalization with overlap
     ethr =  7.78E-06,  avg # of iterations =  1.8

     negative rho (up, down):  9.183E-04 0.000E+00

     total cpu time spent up to now is       80.7 secs

     total energy              =    -448.53949865 Ry
     estimated scf accuracy    <       0.00037008 Ry

     iteration #  5     ecut=   124.00 Ry     beta= 0.70
     Davidson diagonalization with overlap
     ethr =  1.32E-06,  avg # of iterations =  3.0

     negative rho (up, down):  9.192E-04 0.000E+00

     total cpu time spent up to now is       82.6 secs

     total energy              =    -448.53954019 Ry
     estimated scf accuracy    <       0.00001861 Ry

     iteration #  6     ecut=   124.00 Ry     beta= 0.70
     Davidson diagonalization with overlap
     ethr =  6.65E-08,  avg # of iterations =  3.7

     negative rho (up, down):  9.196E-04 0.000E+00

     total cpu time spent up to now is       84.6 secs

     total energy              =    -448.53954432 Ry
     estimated scf accuracy    <       0.00000034 Ry

     iteration #  7     ecut=   124.00 Ry     beta= 0.70
     Davidson diagonalization with overlap
     ethr =  1.22E-09,  avg # of iterations =  5.3

     negative rho (up, down):  9.197E-04 0.000E+00

     total cpu time spent up to now is       87.3 secs

     total energy              =    -448.53954491 Ry
     estimated scf accuracy    <       0.00000104 Ry

     iteration #  8     ecut=   124.00 Ry     beta= 0.70
     Davidson diagonalization with overlap
     ethr =  1.22E-09,  avg # of iterations =  2.1

     negative rho (up, down):  9.197E-04 0.000E+00

     total cpu time spent up to now is       89.1 secs

     End of self-consistent calculation

     Number of k-points >= 100: set verbosity='high' to print the bands.

     the Fermi energy is    21.5793 ev

!    total energy              =    -448.53954496 Ry
     estimated scf accuracy    <          5.5E-09 Ry
     smearing contrib. (-TS)   =      -0.00001492 Ry
     internal energy E=F+TS    =    -448.53953004 Ry

     The total energy is F=E-TS. E is the sum of the following terms:
     one-electron contribution =    -127.60268656 Ry
     hartree contribution      =      83.83864589 Ry
     xc contribution           =     -53.23633325 Ry
     ewald contribution        =    -275.38176963 Ry
     one-center paw contrib.   =     -76.15738649 Ry

     convergence has been achieved in   8 iterations

     negative rho (up, down):  9.197E-04 0.000E+00

     Forces acting on atoms (cartesian axes, Ry/au):

     atom    1 type  1   force =     0.00000000    0.00000000    0.00000000
     atom    2 type  2   force =     0.00000000    0.00000000    0.00000000

     Total force =     0.000000     Total SCF correction =     0.000000


     Computing stress (Cartesian axis) and pressure


     negative rho (up, down):  9.197E-04 0.000E+00
          total   stress  (Ry/bohr**3)                   (kbar)     P=      543.45
   0.00369432   0.00000000   0.00000000          543.45        0.00        0.00
   0.00000000   0.00369432   0.00000000            0.00      543.45        0.00
   0.00000000   0.00000000   0.00369432            0.00        0.00      543.45

     Energy error            =      2.0E-02 Ry
     Gradient error          =      0.0E+00 Ry/Bohr
     Cell gradient error     =      1.8E+02 kbar

     number of scf cycles    =   2
     number of bfgs steps    =   1

     enthalpy           old  =    -448.1651610241 Ry
     enthalpy           new  =    -448.1856371896 Ry

     CASE: enthalpy          _new < enthalpy          _old

     new trust radius        =       0.0469789899 bohr
     new conv_thr            =            1.0E-10 Ry

     new unit-cell volume =    152.45455 a.u.^3 (    22.59143 Ang^3 )
     density =      7.62315 g/cm^3

CELL_PARAMETERS (alat=  5.55330037)
   0.961971714   0.000000000   0.000000000
   0.000000000   0.961971714   0.000000000
   0.000000000   0.000000000   0.961971714

ATOMIC_POSITIONS (crystal)
Fe               0.5000000000        0.5000000000        0.5000000000
Ti               0.0000000000        0.0000000000        0.0000000000



     Writing config-only to output data dir ./TiFe.save/ :
     XML data file
     NEW-OLD atomic charge density approx. for the potential
     New effective cutoffs (rho, wfc): 1875.83  133.99

     Check: negative core charge=   -0.000002

     negative rho (up, down):  9.403E-04 0.000E+00

     total cpu time spent up to now is       91.7 secs

     per-process dynamical memory:   162.1 Mb

     Self-consistent Calculation

     iteration #  1     ecut=   124.00 Ry     beta= 0.70
     Davidson diagonalization with overlap
     ethr =  1.00E-06,  avg # of iterations =  8.5

     negative rho (up, down):  9.395E-04 0.000E+00

     total cpu time spent up to now is       95.6 secs

     total energy              =    -448.56319924 Ry
     estimated scf accuracy    <       0.00123067 Ry

     iteration #  2     ecut=   124.00 Ry     beta= 0.70
     Davidson diagonalization with overlap
     ethr =  4.40E-06,  avg # of iterations =  5.0

     negative rho (up, down):  9.261E-04 0.000E+00

     total cpu time spent up to now is       98.1 secs

     total energy              =    -448.55906391 Ry
     estimated scf accuracy    <       0.10124104 Ry

     iteration #  3     ecut=   124.00 Ry     beta= 0.70
     Davidson diagonalization with overlap
     ethr =  4.40E-06,  avg # of iterations =  4.5

     negative rho (up, down):  9.344E-04 0.000E+00

     total cpu time spent up to now is      100.5 secs

     total energy              =    -448.56498727 Ry
     estimated scf accuracy    <       0.00017641 Ry

     iteration #  4     ecut=   124.00 Ry     beta= 0.70
     Davidson diagonalization with overlap
     ethr =  6.30E-07,  avg # of iterations =  2.1

     negative rho (up, down):  9.362E-04 0.000E+00

     total cpu time spent up to now is      102.5 secs

     total energy              =    -448.56503862 Ry
     estimated scf accuracy    <       0.00001127 Ry

     iteration #  5     ecut=   124.00 Ry     beta= 0.70
     Davidson diagonalization with overlap
     ethr =  4.02E-08,  avg # of iterations =  5.2

     negative rho (up, down):  9.340E-04 0.000E+00

     total cpu time spent up to now is      105.1 secs

     total energy              =    -448.56504708 Ry
     estimated scf accuracy    <       0.00000244 Ry

     iteration #  6     ecut=   124.00 Ry     beta= 0.70
     Davidson diagonalization with overlap
     ethr =  8.71E-09,  avg # of iterations =  2.7

     negative rho (up, down):  9.345E-04 0.000E+00

     total cpu time spent up to now is      107.2 secs

     total energy              =    -448.56504780 Ry
     estimated scf accuracy    <       0.00000069 Ry

     iteration #  7     ecut=   124.00 Ry     beta= 0.70
     Davidson diagonalization with overlap
     ethr =  2.45E-09,  avg # of iterations =  2.5

     negative rho (up, down):  9.347E-04 0.000E+00

     total cpu time spent up to now is      109.2 secs

     total energy              =    -448.56504787 Ry
     estimated scf accuracy    <       0.00000006 Ry

     iteration #  8     ecut=   124.00 Ry     beta= 0.70
     Davidson diagonalization with overlap
     ethr =  2.31E-10,  avg # of iterations =  4.1

     negative rho (up, down):  9.347E-04 0.000E+00

     total cpu time spent up to now is      111.4 secs

     total energy              =    -448.56504790 Ry
     estimated scf accuracy    <          2.3E-09 Ry

     iteration #  9     ecut=   124.00 Ry     beta= 0.70
     Davidson diagonalization with overlap
     ethr =  8.20E-12,  avg # of iterations =  4.8

     negative rho (up, down):  9.346E-04 0.000E+00

     total cpu time spent up to now is      113.9 secs

     total energy              =    -448.56504790 Ry
     estimated scf accuracy    <          2.8E-10 Ry

     iteration # 10     ecut=   124.00 Ry     beta= 0.70
     Davidson diagonalization with overlap
     ethr =  9.98E-13,  avg # of iterations =  3.0

     negative rho (up, down):  9.346E-04 0.000E+00

     total cpu time spent up to now is      115.9 secs

     End of self-consistent calculation

     Number of k-points >= 100: set verbosity='high' to print the bands.

     the Fermi energy is    20.1992 ev

!    total energy              =    -448.56504790 Ry
     estimated scf accuracy    <          9.8E-12 Ry
     smearing contrib. (-TS)   =       0.00002744 Ry
     internal energy E=F+TS    =    -448.56507534 Ry

     The total energy is F=E-TS. E is the sum of the following terms:
     one-electron contribution =    -135.61679312 Ry
     hartree contribution      =      86.41015265 Ry
     xc contribution           =     -53.11030559 Ry
     ewald contribution        =    -270.09183223 Ry
     one-center paw contrib.   =     -76.15629706 Ry

     convergence has been achieved in  10 iterations

     negative rho (up, down):  9.346E-04 0.000E+00

     Forces acting on atoms (cartesian axes, Ry/au):

     atom    1 type  1   force =     0.00000000    0.00000000    0.00000000
     atom    2 type  2   force =     0.00000000    0.00000000    0.00000000

     Total force =     0.000000     Total SCF correction =     0.000000


     Computing stress (Cartesian axis) and pressure


     negative rho (up, down):  9.346E-04 0.000E+00
          total   stress  (Ry/bohr**3)                   (kbar)     P=      335.61
   0.00228145   0.00000000   0.00000000          335.61        0.00        0.00
   0.00000000   0.00228145   0.00000000            0.00      335.61        0.00
   0.00000000   0.00000000   0.00228145            0.00        0.00      335.61

     Energy error            =      4.3E-03 Ry
     Gradient error          =      0.0E+00 Ry/Bohr
     Cell gradient error     =      2.6E+01 kbar

     number of scf cycles    =   3
     number of bfgs steps    =   2

     enthalpy           old  =    -448.1856371896 Ry
     enthalpy           new  =    -448.1899356006 Ry

     CASE: enthalpy          _new < enthalpy          _old

     new trust radius        =       0.0062177306 bohr
     new conv_thr            =            1.0E-10 Ry

     new unit-cell volume =    151.30587 a.u.^3 (    22.42122 Ang^3 )
     density =      7.68102 g/cm^3

CELL_PARAMETERS (alat=  5.55330037)
   0.959549603   0.000000000   0.000000000
   0.000000000   0.959549603   0.000000000
   0.000000000   0.000000000   0.959549603

ATOMIC_POSITIONS (crystal)
Fe               0.5000000000        0.5000000000        0.5000000000
Ti               0.0000000000        0.0000000000        0.0000000000



     Writing config-only to output data dir ./TiFe.save/ :
     XML data file
     NEW-OLD atomic charge density approx. for the potential
     New effective cutoffs (rho, wfc): 1885.31  134.67

     Check: negative core charge=   -0.000002

     negative rho (up, down):  9.330E-04 0.000E+00

     total cpu time spent up to now is      118.5 secs

     per-process dynamical memory:   162.1 Mb

     Self-consistent Calculation

     iteration #  1     ecut=   124.00 Ry     beta= 0.70
     Davidson diagonalization with overlap
     ethr =  1.00E-06,  avg # of iterations =  3.9

     Threshold (ethr) on eigenvalues was too large:
     Diagonalizing with lowered threshold

     Davidson diagonalization with overlap
     ethr =  7.00E-09,  avg # of iterations =  5.7

     negative rho (up, down):  9.331E-04 0.000E+00

     total cpu time spent up to now is      123.4 secs

     total energy              =    -448.56228565 Ry
     estimated scf accuracy    <       0.00000286 Ry

     iteration #  2     ecut=   124.00 Ry     beta= 0.70
     Davidson diagonalization with overlap
     ethr =  1.02E-08,  avg # of iterations =  4.0

     negative rho (up, down):  9.333E-04 0.000E+00

     total cpu time spent up to now is      125.7 secs

     total energy              =    -448.56231701 Ry
     estimated scf accuracy    <       0.00009527 Ry

     iteration #  3     ecut=   124.00 Ry     beta= 0.70
     Davidson diagonalization with overlap
     ethr =  1.02E-08,  avg # of iterations =  4.2

     negative rho (up, down):  9.330E-04 0.000E+00

     total cpu time spent up to now is      127.8 secs

     total energy              =    -448.56232991 Ry
     estimated scf accuracy    <       0.00001007 Ry

     iteration #  4     ecut=   124.00 Ry     beta= 0.70
     Davidson diagonalization with overlap
     ethr =  1.02E-08,  avg # of iterations =  1.9

     negative rho (up, down):  9.333E-04 0.000E+00

     total cpu time spent up to now is      129.6 secs

     total energy              =    -448.56233074 Ry
     estimated scf accuracy    <       0.00000075 Ry

     iteration #  5     ecut=   124.00 Ry     beta= 0.70
     Davidson diagonalization with overlap
     ethr =  2.69E-09,  avg # of iterations =  2.9

     negative rho (up, down):  9.333E-04 0.000E+00

     total cpu time spent up to now is      131.4 secs

     total energy              =    -448.56233084 Ry
     estimated scf accuracy    <       0.00000003 Ry

     iteration #  6     ecut=   124.00 Ry     beta= 0.70
     Davidson diagonalization with overlap
     ethr =  1.08E-10,  avg # of iterations =  3.4

     negative rho (up, down):  9.333E-04 0.000E+00

     total cpu time spent up to now is      133.4 secs

     total energy              =    -448.56233085 Ry
     estimated scf accuracy    <          3.3E-10 Ry

     iteration #  7     ecut=   124.00 Ry     beta= 0.70
     Davidson diagonalization with overlap
     ethr =  1.19E-12,  avg # of iterations =  5.8

     negative rho (up, down):  9.333E-04 0.000E+00

     total cpu time spent up to now is      136.2 secs

     total energy              =    -448.56233085 Ry
     estimated scf accuracy    <          1.9E-09 Ry

     iteration #  8     ecut=   124.00 Ry     beta= 0.70
     Davidson diagonalization with overlap
     ethr =  1.19E-12,  avg # of iterations =  1.8

     negative rho (up, down):  9.333E-04 0.000E+00

     total cpu time spent up to now is      138.0 secs

     total energy              =    -448.56233085 Ry
     estimated scf accuracy    <          4.2E-10 Ry

     iteration #  9     ecut=   124.00 Ry     beta= 0.70
     Davidson diagonalization with overlap
     ethr =  1.19E-12,  avg # of iterations =  2.9

     negative rho (up, down):  9.333E-04 0.000E+00

     total cpu time spent up to now is      139.9 secs

     End of self-consistent calculation

     Number of k-points >= 100: set verbosity='high' to print the bands.

     the Fermi energy is    20.3703 ev

!    total energy              =    -448.56233085 Ry
     estimated scf accuracy    <          9.1E-11 Ry
     smearing contrib. (-TS)   =       0.00002623 Ry
     internal energy E=F+TS    =    -448.56235708 Ry

     The total energy is F=E-TS. E is the sum of the following terms:
     one-electron contribution =    -134.57996574 Ry
     hartree contribution      =      86.07365685 Ry
     xc contribution           =     -53.12598846 Ry
     ewald contribution        =    -270.77360245 Ry
     one-center paw contrib.   =     -76.15645727 Ry

     convergence has been achieved in   9 iterations

     negative rho (up, down):  9.333E-04 0.000E+00

     Forces acting on atoms (cartesian axes, Ry/au):

     atom    1 type  1   force =     0.00000000    0.00000000    0.00000000
     atom    2 type  2   force =     0.00000000    0.00000000    0.00000000

     Total force =     0.000000     Total SCF correction =     0.000000


     Computing stress (Cartesian axis) and pressure


     negative rho (up, down):  9.333E-04 0.000E+00
          total   stress  (Ry/bohr**3)                   (kbar)     P=      360.44
   0.00245020   0.00000000   0.00000000          360.44        0.00        0.00
   0.00000000   0.00245020   0.00000000            0.00      360.44        0.00
   0.00000000   0.00000000   0.00245020            0.00        0.00      360.44

     Energy error            =      1.1E-04 Ry
     Gradient error          =      0.0E+00 Ry/Bohr
     Cell gradient error     =      1.5E+00 kbar

     number of scf cycles    =   4
     number of bfgs steps    =   3

     enthalpy           old  =    -448.1899356006 Ry
     enthalpy           new  =    -448.1900448610 Ry

     CASE: enthalpy          _new < enthalpy          _old

     new trust radius        =       0.0003766216 bohr
     new conv_thr            =            1.0E-10 Ry

     new unit-cell volume =    151.23639 a.u.^3 (    22.41092 Ang^3 )
     density =      7.68455 g/cm^3

CELL_PARAMETERS (alat=  5.55330037)
   0.959402706   0.000000000   0.000000000
   0.000000000   0.959402706   0.000000000
   0.000000000   0.000000000   0.959402706

ATOMIC_POSITIONS (crystal)
Fe               0.5000000000        0.5000000000        0.5000000000
Ti               0.0000000000        0.0000000000        0.0000000000



     Writing config-only to output data dir ./TiFe.save/ :
     XML data file
     NEW-OLD atomic charge density approx. for the potential
     New effective cutoffs (rho, wfc): 1885.89  134.71

     Check: negative core charge=   -0.000002

     negative rho (up, down):  9.333E-04 0.000E+00

     total cpu time spent up to now is      142.4 secs

     per-process dynamical memory:   162.1 Mb

     Self-consistent Calculation

     iteration #  1     ecut=   124.00 Ry     beta= 0.70
     Davidson diagonalization with overlap
     ethr =  1.00E-06,  avg # of iterations =  2.0

     Threshold (ethr) on eigenvalues was too large:
     Diagonalizing with lowered threshold

     Davidson diagonalization with overlap
     ethr =  1.13E-10,  avg # of iterations =  6.7

     negative rho (up, down):  9.332E-04 0.000E+00

     total cpu time spent up to now is      147.1 secs

     total energy              =    -448.56216001 Ry
     estimated scf accuracy    <       0.00000007 Ry

     iteration #  2     ecut=   124.00 Ry     beta= 0.70
     Davidson diagonalization with overlap
     ethr =  2.38E-10,  avg # of iterations =  4.5

     negative rho (up, down):  9.333E-04 0.000E+00

     total cpu time spent up to now is      149.4 secs

     total energy              =    -448.56215988 Ry
     estimated scf accuracy    <       0.00000519 Ry

     iteration #  3     ecut=   124.00 Ry     beta= 0.70
     Davidson diagonalization with overlap
     ethr =  2.38E-10,  avg # of iterations =  4.6

     negative rho (up, down):  9.332E-04 0.000E+00

     total cpu time spent up to now is      151.7 secs

     total energy              =    -448.56216023 Ry
     estimated scf accuracy    <       0.00000001 Ry

     iteration #  4     ecut=   124.00 Ry     beta= 0.70
     Davidson diagonalization with overlap
     ethr =  4.97E-11,  avg # of iterations =  1.8

     negative rho (up, down):  9.332E-04 0.000E+00

     total cpu time spent up to now is      153.4 secs

     total energy              =    -448.56216024 Ry
     estimated scf accuracy    <          3.2E-09 Ry

     iteration #  5     ecut=   124.00 Ry     beta= 0.70
     Davidson diagonalization with overlap
     ethr =  1.16E-11,  avg # of iterations =  3.0

     negative rho (up, down):  9.333E-04 0.000E+00

     total cpu time spent up to now is      155.3 secs

     End of self-consistent calculation

     Number of k-points >= 100: set verbosity='high' to print the bands.

     the Fermi energy is    20.3808 ev

!    total energy              =    -448.56216024 Ry
     estimated scf accuracy    <          2.7E-11 Ry
     smearing contrib. (-TS)   =       0.00002608 Ry
     internal energy E=F+TS    =    -448.56218632 Ry

     The total energy is F=E-TS. E is the sum of the following terms:
     one-electron contribution =    -134.51688707 Ry
     hartree contribution      =      86.05317090 Ry
     xc contribution           =     -53.12694049 Ry
     ewald contribution        =    -270.81506158 Ry
     one-center paw contrib.   =     -76.15646809 Ry

     convergence has been achieved in   5 iterations

     negative rho (up, down):  9.333E-04 0.000E+00

     Forces acting on atoms (cartesian axes, Ry/au):

     atom    1 type  1   force =     0.00000000    0.00000000    0.00000000
     atom    2 type  2   force =     0.00000000    0.00000000    0.00000000

     Total force =     0.000000     Total SCF correction =     0.000000


     Computing stress (Cartesian axis) and pressure


     negative rho (up, down):  9.333E-04 0.000E+00
          total   stress  (Ry/bohr**3)                   (kbar)     P=      361.98
   0.00246069   0.00000000   0.00000000          361.98        0.00        0.00
   0.00000000   0.00246069   0.00000000            0.00      361.98        0.00
   0.00000000   0.00000000   0.00246069            0.00        0.00      361.98

     Energy error            =      3.4E-07 Ry
     Gradient error          =      0.0E+00 Ry/Bohr
     Cell gradient error     =      3.1E-02 kbar

     bfgs converged in   5 scf cycles and   4 bfgs steps
     (criteria: energy <  1.0E-04 Ry, force <  1.0E-03 Ry/Bohr, cell <  5.0E-01 kbar)

     End of BFGS Geometry Optimization

     Final enthalpy           =    -448.1900452015 Ry

     File ./TiFe.bfgs deleted, as requested
Begin final coordinates
     new unit-cell volume =    151.23639 a.u.^3 (    22.41092 Ang^3 )
     density =      7.68455 g/cm^3

CELL_PARAMETERS (alat=  5.55330037)
   0.959402706   0.000000000   0.000000000
   0.000000000   0.959402706   0.000000000
   0.000000000   0.000000000   0.959402706

ATOMIC_POSITIONS (crystal)
Fe               0.5000000000        0.5000000000        0.5000000000
Ti               0.0000000000        0.0000000000        0.0000000000
End final coordinates



     Writing config-only to output data dir ./TiFe.save/ :
     XML data file

     Final scf calculation at the relaxed structure.
     The G-vectors are recalculated for the final unit cell
     Results may differ from those at the preceding step.

     Parallelization info
     --------------------
     sticks:   dense  smooth     PW     G-vecs:    dense   smooth      PW
     Min         488     139     41                23042     3531     567
     Max         489     140     42                23047     3533     570
     Sum        3909    1117    333               184355    28257    4553

     Using Slab Decomposition



     bravais-lattice index     =            0
     lattice parameter (alat)  =       5.5533  a.u.
     unit-cell volume          =     151.2364 (a.u.)^3
     number of atoms/cell      =            2
     number of atomic types    =            2
     number of electrons       =        28.00
     number of Kohn-Sham states=           18
     kinetic-energy cutoff     =     124.0000  Ry
     charge density cutoff     =    1736.0000  Ry
     scf convergence threshold =      1.0E-10
     mixing beta               =       0.7000
     number of iterations used =            8  plain     mixing
     press convergence thresh. =      5.0E-01
     Exchange-correlation= PBE
                           (   1   4   3   4   0   0   0)

     celldm(1)=   5.553300  celldm(2)=   0.000000  celldm(3)=   0.000000
     celldm(4)=   0.000000  celldm(5)=   0.000000  celldm(6)=   0.000000

     crystal axes: (cart. coord. in units of alat)
               a(1) = (   0.959403   0.000000   0.000000 )  
               a(2) = (   0.000000   0.959403   0.000000 )  
               a(3) = (   0.000000   0.000000   0.959403 )  

     reciprocal axes: (cart. coord. in units 2 pi/alat)
               b(1) = (  1.042315  0.000000  0.000000 )  
               b(2) = (  0.000000  1.042315  0.000000 )  
               b(3) = (  0.000000  0.000000  1.042315 )  


     PseudoPot. # 1 for Fe read from file:
     ../../pseudos/Fe.pbe-spn-kjpaw_psl.0.2.1.UPF
     MD5 check sum: e86618425769142926afa95317d90200
     Pseudo is Projector augmented-wave + core cor, Zval = 16.0
     Generated using "atomic" code by A. Dal Corso  v.5.0.99 svn rev. 10869
     Shape of augmentation charge: PSQ
     Using radial grid of 1191 points,  6 beta functions with: 
                l(1) =   0
                l(2) =   0
                l(3) =   1
                l(4) =   1
                l(5) =   2
                l(6) =   2
     Q(r) pseudized with 0 coefficients 


     PseudoPot. # 2 for Ti read from file:
     ../../pseudos/ti_pbe_v1.4.uspp.F.UPF
     MD5 check sum: 88a00a6731bd790ddea75d31a80cb452
     Pseudo is Ultrasoft + core correction, Zval = 12.0
     Generated by new atomic code, or converted to UPF format
     Using radial grid of  851 points,  6 beta functions with: 
                l(1) =   0
                l(2) =   0
                l(3) =   1
                l(4) =   1
                l(5) =   2
                l(6) =   2
     Q(r) pseudized with  6 coefficients,  rinner =    1.000   1.000   1.000
                                                       1.000   1.000

     atomic species   valence    mass     pseudopotential
     Fe               16.00    55.84500     Fe( 1.00)
     Ti               12.00    47.86700     Ti( 1.00)

     48 Sym. Ops., with inversion, found



   Cartesian axes

     site n.     atom                  positions (alat units)
         1        Fe     tau(   1) = (   0.4797014   0.4797014   0.4797014  )
         2        Ti     tau(   2) = (   0.0000000   0.0000000   0.0000000  )

     number of k points=   120  Marzari-Vanderbilt smearing, width (Ry)=  0.0050

     Number of k-points >= 100: set verbosity='high' to print them.

     Dense  grid:   184355 G-vectors     FFT dimensions: (  72,  72,  72)

     Smooth grid:    28257 G-vectors     FFT dimensions: (  40,  40,  40)

     Estimated max dynamical RAM per process >     112.65 MB

     Estimated total dynamical RAM >     901.23 MB

     Check: negative core charge=   -0.000002

     Initial potential from superposition of free atoms

     starting charge      26.9995, renormalised to      28.0000

     negative rho (up, down):  1.320E-03 0.000E+00
     Starting wfcs are   23 randomized atomic wfcs
     Checking if some PAW data can be deallocated... 

     total cpu time spent up to now is      159.0 secs

     per-process dynamical memory:   154.0 Mb

     Self-consistent Calculation

     iteration #  1     ecut=   124.00 Ry     beta= 0.70
     Davidson diagonalization with overlap
     c_bands:  1 eigenvalues not converged
     c_bands:  1 eigenvalues not converged
     c_bands:  1 eigenvalues not converged
     c_bands:  1 eigenvalues not converged
     c_bands:  1 eigenvalues not converged
     c_bands:  1 eigenvalues not converged
     c_bands:  1 eigenvalues not converged
     c_bands:  1 eigenvalues not converged
     c_bands:  1 eigenvalues not converged
     c_bands:  2 eigenvalues not converged
     c_bands:  1 eigenvalues not converged
     c_bands:  1 eigenvalues not converged
     c_bands:  1 eigenvalues not converged
     c_bands:  1 eigenvalues not converged
     c_bands:  1 eigenvalues not converged
     c_bands:  1 eigenvalues not converged
     c_bands:  1 eigenvalues not converged
     c_bands:  1 eigenvalues not converged
     ethr =  1.00E-06,  avg # of iterations = 16.6

     negative rho (up, down):  5.993E-05 0.000E+00

     total cpu time spent up to now is      166.8 secs

     total energy              =    -437.10921123 Ry
     estimated scf accuracy    <      14.76966422 Ry

     iteration #  2     ecut=   124.00 Ry     beta= 0.70
     Davidson diagonalization with overlap
     ethr =  1.00E-02,  avg # of iterations =  6.2

     negative rho (up, down):  1.084E-04 0.000E+00

     total cpu time spent up to now is      169.8 secs

     total energy              =    -448.38226871 Ry
     estimated scf accuracy    <      57.69986542 Ry

     iteration #  3     ecut=   124.00 Ry     beta= 0.70
     Davidson diagonalization with overlap
     ethr =  1.00E-02,  avg # of iterations =  3.0

     negative rho (up, down):  3.782E-04 0.000E+00

     total cpu time spent up to now is      172.0 secs

     total energy              =    -448.47879476 Ry
     estimated scf accuracy    <      14.50632239 Ry

     iteration #  4     ecut=   124.00 Ry     beta= 0.70
     Davidson diagonalization with overlap
     ethr =  1.00E-02,  avg # of iterations =  2.1

     negative rho (up, down):  3.402E-04 0.000E+00

     total cpu time spent up to now is      173.8 secs

     total energy              =    -449.00932830 Ry
     estimated scf accuracy    <       3.87910959 Ry

     iteration #  5     ecut=   124.00 Ry     beta= 0.70
     Davidson diagonalization with overlap
     ethr =  1.00E-02,  avg # of iterations =  1.0

     negative rho (up, down):  6.287E-04 0.000E+00

     total cpu time spent up to now is      175.4 secs

     total energy              =    -448.35831003 Ry
     estimated scf accuracy    <       3.64654245 Ry

     iteration #  6     ecut=   124.00 Ry     beta= 0.70
     Davidson diagonalization with overlap
     ethr =  1.00E-02,  avg # of iterations =  1.6

     negative rho (up, down):  6.367E-04 0.000E+00

     total cpu time spent up to now is      177.0 secs

     total energy              =    -448.60373172 Ry
     estimated scf accuracy    <       0.25253807 Ry

     iteration #  7     ecut=   124.00 Ry     beta= 0.70
     Davidson diagonalization with overlap
     ethr =  9.02E-04,  avg # of iterations =  3.4

     negative rho (up, down):  7.260E-04 0.000E+00

     total cpu time spent up to now is      178.9 secs

     total energy              =    -448.59904170 Ry
     estimated scf accuracy    <       0.22268165 Ry

     iteration #  8     ecut=   124.00 Ry     beta= 0.70
     Davidson diagonalization with overlap
     ethr =  7.95E-04,  avg # of iterations =  1.1

     negative rho (up, down):  9.808E-04 0.000E+00

     total cpu time spent up to now is      180.5 secs

     total energy              =    -448.53118908 Ry
     estimated scf accuracy    <       0.16327619 Ry

     iteration #  9     ecut=   124.00 Ry     beta= 0.70
     Davidson diagonalization with overlap
     ethr =  5.83E-04,  avg # of iterations =  2.5

     negative rho (up, down):  1.119E-03 0.000E+00

     total cpu time spent up to now is      182.3 secs

     total energy              =    -448.56485868 Ry
     estimated scf accuracy    <       0.00340040 Ry

     iteration # 10     ecut=   124.00 Ry     beta= 0.70
     Davidson diagonalization with overlap
     ethr =  1.21E-05,  avg # of iterations =  8.4

     negative rho (up, down):  1.125E-03 0.000E+00

     total cpu time spent up to now is      185.9 secs

     total energy              =    -448.61700338 Ry
     estimated scf accuracy    <       0.76842495 Ry

     iteration # 11     ecut=   124.00 Ry     beta= 0.70
     Davidson diagonalization with overlap
     ethr =  1.21E-05,  avg # of iterations =  1.4

     negative rho (up, down):  9.212E-04 0.000E+00

     total cpu time spent up to now is      187.5 secs

     total energy              =    -448.55033758 Ry
     estimated scf accuracy    <       0.87345943 Ry

     iteration # 12     ecut=   124.00 Ry     beta= 0.70
     Davidson diagonalization with overlap
     ethr =  1.21E-05,  avg # of iterations =  5.6

     negative rho (up, down):  8.077E-04 0.000E+00

     total cpu time spent up to now is      190.1 secs

     total energy              =    -448.53461344 Ry
     estimated scf accuracy    <       0.13233563 Ry

     iteration # 13     ecut=   124.00 Ry     beta= 0.70
     Davidson diagonalization with overlap
     ethr =  1.21E-05,  avg # of iterations =  5.6

     negative rho (up, down):  8.436E-04 0.000E+00

     total cpu time spent up to now is      192.8 secs

     total energy              =    -448.57273948 Ry
     estimated scf accuracy    <       0.25258821 Ry

     iteration # 14     ecut=   124.00 Ry     beta= 0.70
     Davidson diagonalization with overlap
     ethr =  1.21E-05,  avg # of iterations =  2.7

     negative rho (up, down):  9.113E-04 0.000E+00

     total cpu time spent up to now is      194.5 secs

     total energy              =    -448.56296302 Ry
     estimated scf accuracy    <       0.15521149 Ry

     iteration # 15     ecut=   124.00 Ry     beta= 0.70
     Davidson diagonalization with overlap
     ethr =  1.21E-05,  avg # of iterations =  3.9

     negative rho (up, down):  1.018E-03 0.000E+00

     total cpu time spent up to now is      196.7 secs

     total energy              =    -448.55816856 Ry
     estimated scf accuracy    <       0.04570033 Ry

     iteration # 16     ecut=   124.00 Ry     beta= 0.70
     Davidson diagonalization with overlap
     ethr =  1.21E-05,  avg # of iterations =  4.4

     negative rho (up, down):  9.959E-04 0.000E+00

     total cpu time spent up to now is      199.0 secs

     total energy              =    -448.56223963 Ry
     estimated scf accuracy    <       0.00257809 Ry

     iteration # 17     ecut=   124.00 Ry     beta= 0.70
     Davidson diagonalization with overlap
     ethr =  9.21E-06,  avg # of iterations =  1.0

     negative rho (up, down):  9.605E-04 0.000E+00

     total cpu time spent up to now is      200.6 secs

     total energy              =    -448.56180407 Ry
     estimated scf accuracy    <       0.00131208 Ry

     iteration # 18     ecut=   124.00 Ry     beta= 0.70
     Davidson diagonalization with overlap
     ethr =  4.69E-06,  avg # of iterations =  2.0

     negative rho (up, down):  9.623E-04 0.000E+00

     total cpu time spent up to now is      202.3 secs

     total energy              =    -448.56199109 Ry
     estimated scf accuracy    <       0.00009329 Ry

     iteration # 19     ecut=   124.00 Ry     beta= 0.70
     Davidson diagonalization with overlap
     ethr =  3.33E-07,  avg # of iterations =  3.2

     negative rho (up, down):  9.586E-04 0.000E+00

     total cpu time spent up to now is      204.2 secs

     total energy              =    -448.56199103 Ry
     estimated scf accuracy    <       0.00007038 Ry

     iteration # 20     ecut=   124.00 Ry     beta= 0.70
     Davidson diagonalization with overlap
     ethr =  2.51E-07,  avg # of iterations =  1.6

     negative rho (up, down):  9.561E-04 0.000E+00

     total cpu time spent up to now is      205.8 secs

     total energy              =    -448.56199212 Ry
     estimated scf accuracy    <       0.00001486 Ry

     iteration # 21     ecut=   124.00 Ry     beta= 0.70
     Davidson diagonalization with overlap
     ethr =  5.31E-08,  avg # of iterations =  3.8

     negative rho (up, down):  9.559E-04 0.000E+00

     total cpu time spent up to now is      207.8 secs

     total energy              =    -448.56199503 Ry
     estimated scf accuracy    <       0.00000031 Ry

     iteration # 22     ecut=   124.00 Ry     beta= 0.70
     Davidson diagonalization with overlap
     ethr =  1.09E-09,  avg # of iterations =  5.1

     negative rho (up, down):  9.559E-04 0.000E+00

     total cpu time spent up to now is      210.2 secs

     total energy              =    -448.56199542 Ry
     estimated scf accuracy    <       0.00000027 Ry

     iteration # 23     ecut=   124.00 Ry     beta= 0.70
     Davidson diagonalization with overlap
     ethr =  9.53E-10,  avg # of iterations =  1.1

     negative rho (up, down):  9.559E-04 0.000E+00

     total cpu time spent up to now is      211.8 secs

     total energy              =    -448.56199543 Ry
     estimated scf accuracy    <       0.00000005 Ry

     iteration # 24     ecut=   124.00 Ry     beta= 0.70
     Davidson diagonalization with overlap
     ethr =  1.87E-10,  avg # of iterations =  1.8

     negative rho (up, down):  9.560E-04 0.000E+00

     total cpu time spent up to now is      213.4 secs

     total energy              =    -448.56199542 Ry
     estimated scf accuracy    <       0.00000006 Ry

     iteration # 25     ecut=   124.00 Ry     beta= 0.70
     Davidson diagonalization with overlap
     ethr =  1.87E-10,  avg # of iterations =  2.0

     negative rho (up, down):  9.560E-04 0.000E+00

     total cpu time spent up to now is      215.1 secs

     total energy              =    -448.56199542 Ry
     estimated scf accuracy    <          4.7E-09 Ry

     iteration # 26     ecut=   124.00 Ry     beta= 0.70
     Davidson diagonalization with overlap
     ethr =  1.69E-11,  avg # of iterations =  4.2

     negative rho (up, down):  9.560E-04 0.000E+00

     total cpu time spent up to now is      217.2 secs

     total energy              =    -448.56199542 Ry
     estimated scf accuracy    <          6.0E-09 Ry

     iteration # 27     ecut=   124.00 Ry     beta= 0.70
     Davidson diagonalization with overlap
     ethr =  1.69E-11,  avg # of iterations =  1.8

     negative rho (up, down):  9.560E-04 0.000E+00

     total cpu time spent up to now is      218.8 secs

     total energy              =    -448.56199542 Ry
     estimated scf accuracy    <          4.7E-10 Ry

     iteration # 28     ecut=   124.00 Ry     beta= 0.70
     Davidson diagonalization with overlap
     ethr =  1.69E-12,  avg # of iterations =  3.7

     negative rho (up, down):  9.560E-04 0.000E+00

     total cpu time spent up to now is      220.7 secs

     total energy              =    -448.56199542 Ry
     estimated scf accuracy    <          8.7E-10 Ry

     iteration # 29     ecut=   124.00 Ry     beta= 0.70
     Davidson diagonalization with overlap
     ethr =  1.69E-12,  avg # of iterations =  3.4

     negative rho (up, down):  9.560E-04 0.000E+00

     total cpu time spent up to now is      222.7 secs

     total energy              =    -448.56199542 Ry
     estimated scf accuracy    <          1.9E-10 Ry

     iteration # 30     ecut=   124.00 Ry     beta= 0.70
     Davidson diagonalization with overlap
     ethr =  6.75E-13,  avg # of iterations =  2.0

     negative rho (up, down):  9.560E-04 0.000E+00

     total cpu time spent up to now is      224.5 secs

     End of self-consistent calculation

     Number of k-points >= 100: set verbosity='high' to print the bands.

     the Fermi energy is    20.3808 ev

!    total energy              =    -448.56199542 Ry
     estimated scf accuracy    <          1.2E-11 Ry
     smearing contrib. (-TS)   =       0.00002607 Ry
     internal energy E=F+TS    =    -448.56202149 Ry

     The total energy is F=E-TS. E is the sum of the following terms:
     one-electron contribution =    -134.51707483 Ry
     hartree contribution      =      86.05334092 Ry
     xc contribution           =     -53.12677978 Ry
     ewald contribution        =    -270.81506158 Ry
     one-center paw contrib.   =     -76.15644623 Ry

     convergence has been achieved in  30 iterations

     negative rho (up, down):  9.560E-04 0.000E+00

     Forces acting on atoms (cartesian axes, Ry/au):

     atom    1 type  1   force =     0.00000000    0.00000000    0.00000000
     atom    2 type  2   force =     0.00000000    0.00000000    0.00000000

     Total force =     0.000000     Total SCF correction =     0.000000


     Computing stress (Cartesian axis) and pressure


     negative rho (up, down):  9.560E-04 0.000E+00
          total   stress  (Ry/bohr**3)                   (kbar)     P=      360.90
   0.00245337   0.00000000   0.00000000          360.90        0.00        0.00
   0.00000000   0.00245337   0.00000000            0.00      360.90        0.00
   0.00000000   0.00000000   0.00245337            0.00        0.00      360.90


     Writing all to output data dir ./TiFe.save/ :
     XML data file, charge density, pseudopotentials, collected wavefunctions

     init_run     :      3.08s CPU      3.20s WALL (       2 calls)
     electrons    :    197.69s CPU    208.67s WALL (       6 calls)
     update_pot   :      0.38s CPU      0.40s WALL (       4 calls)
     forces       :      1.90s CPU      2.08s WALL (       6 calls)
     stress       :     10.31s CPU     10.70s WALL (       6 calls)

     Called by init_run:
     wfcinit      :      1.31s CPU      1.35s WALL (       2 calls)
     potinit      :      0.48s CPU      0.49s WALL (       2 calls)
     hinit0       :      0.93s CPU      0.95s WALL (       2 calls)

     Called by electrons:
     c_bands      :    145.02s CPU    148.73s WALL (      97 calls)
     sum_band     :     32.32s CPU     36.73s WALL (      97 calls)
     v_of_rho     :      2.45s CPU      2.61s WALL (     101 calls)
     newd         :     12.81s CPU     15.50s WALL (     101 calls)
     PAW_pot      :      6.05s CPU      6.14s WALL (     105 calls)
     mix_rho      :      0.25s CPU      0.28s WALL (      97 calls)

     Called by c_bands:
     init_us_2    :      4.01s CPU      4.17s WALL (   25440 calls)
     cegterg      :    138.33s CPU    141.68s WALL (   11640 calls)

     Called by *egterg:
     cdiaghg      :     18.35s CPU     18.75s WALL (   50081 calls)
     h_psi        :    102.86s CPU    105.50s WALL (   51041 calls)
     s_psi        :      2.77s CPU      2.84s WALL (   51041 calls)
     g_psi        :      0.69s CPU      0.70s WALL (   39161 calls)

     Called by h_psi:
     h_psi:calbec :      4.09s CPU      4.19s WALL (   51041 calls)
     vloc_psi     :     95.26s CPU     97.71s WALL (   51041 calls)
     add_vuspsi   :      2.89s CPU      2.97s WALL (   51041 calls)

     General routines
     calbec       :      6.44s CPU      6.62s WALL (   75401 calls)
     fft          :      1.90s CPU      2.09s WALL (    1457 calls)
     ffts         :      0.30s CPU      0.31s WALL (     198 calls)
     fftw         :     80.14s CPU     82.10s WALL ( 1387896 calls)
     interpolate  :      0.40s CPU      0.42s WALL (     101 calls)

     Parallel routines

     PWSCF        :    214.70s CPU    226.83s WALL


   This run was terminated on:  17:57:14  27Oct2025            

=------------------------------------------------------------------------------=
   JOB DONE.
=------------------------------------------------------------------------------=
