
     Program PWSCF v.7.4 starts on  4Dec2025 at  3:47:34 

     This program is part of the open-source Quantum ESPRESSO suite
     for quantum simulation of materials; please cite
         "P. Giannozzi et al., J. Phys.:Condens. Matter 21 395502 (2009);
         "P. Giannozzi et al., J. Phys.:Condens. Matter 29 465901 (2017);
         "P. Giannozzi et al., J. Chem. Phys. 152 154105 (2020);
          URL http://www.quantum-espresso.org", 
     in publications or presentations arising from this work. More details at
     http://www.quantum-espresso.org/quote

     Parallel version (MPI & OpenMP), running on      16 processor cores
     Number of MPI processes:                16
     Threads/MPI process:                     1

     MPI processes distributed on     1 nodes
     317126 MiB available memory on the printing compute node when the environment starts

     Reading input from TiFe_octa12_1_2.in

     Current dimensions of program PWSCF are:
     Max number of different atomic species (ntypx) = 10
     Max number of k-points (npk) =  40000
     Max angular momentum in pseudopotentials (lmaxx) =  4
     file Fe.pbe-spn-kjpaw_psl.0.2.1.UPF: wavefunction(s)  3D renormalized

     IMPORTANT: XC functional enforced from input :
     Exchange-correlation= PBE
                           (   1   4   3   4   0   0   0)
     Any further DFT definition will be discarded
     Please, verify this is what you really want

     Found identity + ( -0.5000  0.0000  0.0000) symmetry
     This is a supercell, fractional translations are disabled
     Message from routine setup:
     using ibrav=0 with symmetry is DISCOURAGED, use correct ibrav instead

     R & G space division:  proc/nbgrp/npool/nimage =      16
     Subspace diagonalization in iterative solution of the eigenvalue problem:
     a serial algorithm will be used


     Parallelization info
     --------------------
     sticks:   dense  smooth     PW     G-vecs:    dense   smooth      PW
     Min        1075     307     84               106249    16243    2316
     Max        1077     308     85               106252    16246    2319
     Sum       17217    4921   1353              1700005   259911   37073

     Using Slab Decomposition



     bravais-lattice index     =            0
     lattice parameter (alat)  =       5.5824  a.u.
     unit-cell volume          =    1391.7400 (a.u.)^3
     number of atoms/cell      =           24
     number of atomic types    =            3
     number of electrons       =       232.00
     number of Kohn-Sham states=          139
     kinetic-energy cutoff     =     124.0000  Ry
     charge density cutoff     =    1736.0000  Ry
     scf convergence threshold =      1.0E-08
     mixing beta               =       0.7000
     number of iterations used =            8  plain     mixing
     energy convergence thresh.=      1.0E-04
     force convergence thresh. =      1.0E-03
     press convergence thresh. =      1.0E-01
     Exchange-correlation= PBE
                           (   1   4   3   4   0   0   0)
     nstep                     =           50


     celldm(1)=   5.582423  celldm(2)=   0.000000  celldm(3)=   0.000000
     celldm(4)=   0.000000  celldm(5)=   0.000000  celldm(6)=   0.000000

     crystal axes: (cart. coord. in units of alat)
               a(1) = (   2.000000   0.000000   0.000000 )  
               a(2) = (   0.000000   2.000000   0.000000 )  
               a(3) = (   0.000000   0.000000   2.000000 )  

     reciprocal axes: (cart. coord. in units 2 pi/alat)
               b(1) = (  0.500000  0.000000  0.000000 )  
               b(2) = (  0.000000  0.500000  0.000000 )  
               b(3) = (  0.000000  0.000000  0.500000 )  


     PseudoPot. # 1 for Fe read from file:
     ../../../../pseudos/Fe.pbe-spn-kjpaw_psl.0.2.1.UPF
     MD5 check sum: e86618425769142926afa95317d90200
     Pseudo is Projector augmented-wave + core cor, Zval = 16.0
     Generated using "atomic" code by A. Dal Corso  v.5.0.99 svn rev. 10869
     Shape of augmentation charge: PSQ
     Using radial grid of 1191 points,  6 beta functions with: 
                l(1) =   0
                l(2) =   0
                l(3) =   1
                l(4) =   1
                l(5) =   2
                l(6) =   2
     Q(r) pseudized with 0 coefficients 


     PseudoPot. # 2 for Ti read from file:
     ../../../../pseudos/ti_pbe_v1.4.uspp.F.UPF
     MD5 check sum: 88a00a6731bd790ddea75d31a80cb452
     Pseudo is Ultrasoft + core correction, Zval = 12.0
     Generated by new atomic code, or converted to UPF format
     Using radial grid of  851 points,  6 beta functions with: 
                l(1) =   0
                l(2) =   0
                l(3) =   1
                l(4) =   1
                l(5) =   2
                l(6) =   2
     Q(r) pseudized with  6 coefficients,  rinner =    1.000   1.000   1.000
                                                       1.000   1.000

     PseudoPot. # 3 for H  read from file:
     ../../../../pseudos/H.pbe-rrkjus_psl.1.0.0.UPF
     MD5 check sum: f52b6d4d1c606e5624b1dc7b2218f220
     Pseudo is Ultrasoft, Zval =  1.0
     Generated using "atomic" code by A. Dal Corso  v.5.1
     Using radial grid of  929 points,  2 beta functions with: 
                l(1) =   0
                l(2) =   0
     Q(r) pseudized with 0 coefficients 


     atomic species   valence    mass     pseudopotential
     Fe               16.00    55.84500     Fe( 1.00)
     Ti               12.00    47.86700     Ti( 1.00)
     H                 1.00     1.00784     H ( 1.00)

      8 Sym. Ops., with inversion, found



   Cartesian axes

     site n.     atom                  positions (alat units)
         1        Fe     tau(   1) = (   0.0000000   0.0000000   0.0000000  )
         2        Fe     tau(   2) = (   1.0000000   1.0000000   0.0000000  )
         3        Fe     tau(   3) = (   1.0000000   0.0000000   0.0000000  )
         4        Fe     tau(   4) = (   0.0000000   1.0000000   1.0000000  )
         5        Fe     tau(   5) = (   0.0000000   0.0000000   1.0000000  )
         6        Fe     tau(   6) = (   1.0000000   1.0000000   1.0000000  )
         7        Fe     tau(   7) = (   1.0000000   0.0000000   1.0000000  )
         8        Fe     tau(   8) = (   0.0000000   1.0000000   0.0000000  )
         9        Ti     tau(   9) = (   0.5000000   0.5000000   0.5000000  )
        10        Ti     tau(  10) = (   1.5000000   1.5000000   0.5000000  )
        11        Ti     tau(  11) = (   1.5000000   0.5000000   0.5000000  )
        12        Ti     tau(  12) = (   0.5000000   1.5000000   1.5000000  )
        13        Ti     tau(  13) = (   0.5000000   0.5000000   1.5000000  )
        14        Ti     tau(  14) = (   1.5000000   1.5000000   1.5000000  )
        15        Ti     tau(  15) = (   1.5000000   0.5000000   1.5000000  )
        16        Ti     tau(  16) = (   0.5000000   1.5000000   0.5000000  )
        17        H      tau(  17) = (   0.5000000   1.0000000   1.0000000  )
        18        H      tau(  18) = (   1.0000000   0.5000000   1.5000000  )
        19        H      tau(  19) = (   1.5000000   1.0000000   1.0000000  )
        20        H      tau(  20) = (   1.0000000   1.5000000   0.5000000  )
        21        H      tau(  21) = (   0.0000000   0.5000000   1.5000000  )
        22        H      tau(  22) = (   0.5000000   0.0000000   0.0000000  )
        23        H      tau(  23) = (   0.0000000   1.5000000   0.5000000  )
        24        H      tau(  24) = (   1.5000000   0.0000000   0.0000000  )

     number of k points=   105  Marzari-Vanderbilt smearing, width (Ry)=  0.0050

     Number of k-points >= 100: set verbosity='high' to print them.

     Dense  grid:  1700005 G-vectors     FFT dimensions: ( 150, 150, 150)

     Smooth grid:   259911 G-vectors     FFT dimensions: (  80,  80,  80)

     Estimated max dynamical RAM per process >     888.89 MB

     Estimated total dynamical RAM >      13.89 GB

     Check: negative core charge=   -0.000001

     Initial potential from superposition of free atoms

     starting charge     223.9961, renormalised to     232.0000

     negative rho (up, down):  1.090E-02 0.000E+00
     Starting wfcs are  192 randomized atomic wfcs
     Checking if some PAW data can be deallocated... 

     total cpu time spent up to now is       28.9 secs

     per-process dynamical memory:   672.5 Mb

     Self-consistent Calculation

     iteration #  1     ecut=   124.00 Ry     beta= 0.70
     Davidson diagonalization with overlap
     ethr =  1.00E-02,  avg # of iterations =  2.5

     negative rho (up, down):  5.021E-04 0.000E+00

     total cpu time spent up to now is       92.3 secs

     total energy              =   -3487.69842217 Ry
     estimated scf accuracy    <     139.23306359 Ry

     iteration #  2     ecut=   124.00 Ry     beta= 0.70
     Davidson diagonalization with overlap
     ethr =  1.00E-02,  avg # of iterations =  7.1

     negative rho (up, down):  2.855E-04 0.000E+00

     total cpu time spent up to now is      225.2 secs

     total energy              =   -3591.52889512 Ry
     estimated scf accuracy    <     547.11869708 Ry

     iteration #  3     ecut=   124.00 Ry     beta= 0.70
     Davidson diagonalization with overlap
     ethr =  1.00E-02,  avg # of iterations =  3.4

     negative rho (up, down):  1.423E-03 0.000E+00

     total cpu time spent up to now is      308.0 secs

     total energy              =   -3601.58004594 Ry
     estimated scf accuracy    <     130.46761841 Ry

     iteration #  4     ecut=   124.00 Ry     beta= 0.70
     Davidson diagonalization with overlap
     ethr =  1.00E-02,  avg # of iterations =  2.2

     negative rho (up, down):  1.885E-03 0.000E+00

     total cpu time spent up to now is      368.8 secs

     total energy              =   -3601.60754690 Ry
     estimated scf accuracy    <      54.07692259 Ry

     iteration #  5     ecut=   124.00 Ry     beta= 0.70
     Davidson diagonalization with overlap
     ethr =  1.00E-02,  avg # of iterations =  1.2

     negative rho (up, down):  2.041E-03 0.000E+00

     total cpu time spent up to now is      419.2 secs

     total energy              =   -3601.17557092 Ry
     estimated scf accuracy    <      39.95738217 Ry

     iteration #  6     ecut=   124.00 Ry     beta= 0.70
     Davidson diagonalization with overlap
     ethr =  1.00E-02,  avg # of iterations =  1.3

     negative rho (up, down):  4.996E-03 0.000E+00

     total cpu time spent up to now is      467.2 secs

     total energy              =   -3597.41419451 Ry
     estimated scf accuracy    <      35.53906717 Ry

     iteration #  7     ecut=   124.00 Ry     beta= 0.70
     Davidson diagonalization with overlap
     ethr =  1.00E-02,  avg # of iterations =  1.9

     negative rho (up, down):  7.725E-03 0.000E+00

     total cpu time spent up to now is      518.2 secs

     total energy              =   -3595.03866863 Ry
     estimated scf accuracy    <      14.86098861 Ry

     iteration #  8     ecut=   124.00 Ry     beta= 0.70
     Davidson diagonalization with overlap
     ethr =  6.41E-03,  avg # of iterations =  3.5

     negative rho (up, down):  7.508E-03 0.000E+00

     total cpu time spent up to now is      578.1 secs

     total energy              =   -3597.32820466 Ry
     estimated scf accuracy    <       4.78313024 Ry

     iteration #  9     ecut=   124.00 Ry     beta= 0.70
     Davidson diagonalization with overlap
     ethr =  2.06E-03,  avg # of iterations =  4.4

     negative rho (up, down):  7.232E-03 0.000E+00

     total cpu time spent up to now is      638.4 secs

     total energy              =   -3597.41997308 Ry
     estimated scf accuracy    <       4.80160577 Ry

     iteration # 10     ecut=   124.00 Ry     beta= 0.70
     Davidson diagonalization with overlap
     ethr =  2.06E-03,  avg # of iterations =  1.2

     negative rho (up, down):  9.282E-03 0.000E+00

     total cpu time spent up to now is      686.4 secs

     total energy              =   -3597.57728299 Ry
     estimated scf accuracy    <       3.36104004 Ry

     iteration # 11     ecut=   124.00 Ry     beta= 0.70
     Davidson diagonalization with overlap
     ethr =  1.45E-03,  avg # of iterations =  3.1

     negative rho (up, down):  8.577E-03 0.000E+00

     total cpu time spent up to now is      743.8 secs

     total energy              =   -3597.27313809 Ry
     estimated scf accuracy    <       9.39687466 Ry

     iteration # 12     ecut=   124.00 Ry     beta= 0.70
     Davidson diagonalization with overlap
     ethr =  1.45E-03,  avg # of iterations =  1.1

     negative rho (up, down):  7.426E-03 0.000E+00

     total cpu time spent up to now is      791.1 secs

     total energy              =   -3597.16749995 Ry
     estimated scf accuracy    <       3.72044850 Ry

     iteration # 13     ecut=   124.00 Ry     beta= 0.70
     Davidson diagonalization with overlap
     ethr =  1.45E-03,  avg # of iterations =  1.5

     negative rho (up, down):  6.421E-03 0.000E+00

     total cpu time spent up to now is      840.6 secs

     total energy              =   -3597.15633995 Ry
     estimated scf accuracy    <       0.71381116 Ry

     iteration # 14     ecut=   124.00 Ry     beta= 0.70
     Davidson diagonalization with overlap
     ethr =  3.08E-04,  avg # of iterations =  5.9

     negative rho (up, down):  6.669E-03 0.000E+00

     total cpu time spent up to now is      909.4 secs

     total energy              =   -3597.31488891 Ry
     estimated scf accuracy    <       0.98080125 Ry

     iteration # 15     ecut=   124.00 Ry     beta= 0.70
     Davidson diagonalization with overlap
     ethr =  3.08E-04,  avg # of iterations =  1.2

     negative rho (up, down):  7.413E-03 0.000E+00

     total cpu time spent up to now is      957.0 secs

     total energy              =   -3597.24583411 Ry
     estimated scf accuracy    <       0.69794012 Ry

     iteration # 16     ecut=   124.00 Ry     beta= 0.70
     Davidson diagonalization with overlap
     ethr =  3.01E-04,  avg # of iterations =  2.1

     negative rho (up, down):  7.251E-03 0.000E+00

     total cpu time spent up to now is     1011.0 secs

     total energy              =   -3597.22236961 Ry
     estimated scf accuracy    <       1.73008373 Ry

     iteration # 17     ecut=   124.00 Ry     beta= 0.70
     Davidson diagonalization with overlap
     ethr =  3.01E-04,  avg # of iterations =  1.0

     negative rho (up, down):  7.289E-03 0.000E+00

     total cpu time spent up to now is     1058.6 secs

     total energy              =   -3597.27786083 Ry
     estimated scf accuracy    <       0.05241294 Ry

     iteration # 18     ecut=   124.00 Ry     beta= 0.70
     Davidson diagonalization with overlap
     c_bands:  1 eigenvalues not converged
     c_bands:  1 eigenvalues not converged
     c_bands:  1 eigenvalues not converged
     c_bands:  1 eigenvalues not converged
     c_bands:  1 eigenvalues not converged
     ethr =  2.26E-05,  avg # of iterations = 10.1

     negative rho (up, down):  7.323E-03 0.000E+00

     total cpu time spent up to now is     1141.1 secs

     total energy              =   -3597.27174893 Ry
     estimated scf accuracy    <       0.34134408 Ry

     iteration # 19     ecut=   124.00 Ry     beta= 0.70
     Davidson diagonalization with overlap
     ethr =  2.26E-05,  avg # of iterations =  2.2

     negative rho (up, down):  7.455E-03 0.000E+00

     total cpu time spent up to now is     1196.3 secs

     total energy              =   -3597.28022957 Ry
     estimated scf accuracy    <       0.02361531 Ry

     iteration # 20     ecut=   124.00 Ry     beta= 0.70
     Davidson diagonalization with overlap
     ethr =  1.02E-05,  avg # of iterations =  2.7

     negative rho (up, down):  7.388E-03 0.000E+00

     total cpu time spent up to now is     1251.9 secs

     total energy              =   -3597.28097065 Ry
     estimated scf accuracy    <       0.01245406 Ry

     iteration # 21     ecut=   124.00 Ry     beta= 0.70
     Davidson diagonalization with overlap
     c_bands:  1 eigenvalues not converged
     c_bands:  1 eigenvalues not converged
     c_bands:  1 eigenvalues not converged
     c_bands:  1 eigenvalues not converged
     c_bands:  1 eigenvalues not converged
     ethr =  5.37E-06,  avg # of iterations =  6.4

     negative rho (up, down):  7.549E-03 0.000E+00

     total cpu time spent up to now is     1321.6 secs

     total energy              =   -3597.28037554 Ry
     estimated scf accuracy    <       0.02327039 Ry

     iteration # 22     ecut=   124.00 Ry     beta= 0.70
     Davidson diagonalization with overlap
     c_bands:  1 eigenvalues not converged
     c_bands:  1 eigenvalues not converged
     ethr =  5.37E-06,  avg # of iterations =  6.6

     negative rho (up, down):  7.450E-03 0.000E+00

     total cpu time spent up to now is     1399.8 secs

     total energy              =   -3597.27269091 Ry
     estimated scf accuracy    <       0.34047019 Ry

     iteration # 23     ecut=   124.00 Ry     beta= 0.70
     Davidson diagonalization with overlap
     ethr =  5.37E-06,  avg # of iterations =  4.5

     negative rho (up, down):  7.443E-03 0.000E+00

     total cpu time spent up to now is     1465.0 secs

     total energy              =   -3597.28198476 Ry
     estimated scf accuracy    <       0.00117526 Ry

     iteration # 24     ecut=   124.00 Ry     beta= 0.70
     Davidson diagonalization with overlap
     c_bands:  1 eigenvalues not converged
     c_bands:  1 eigenvalues not converged
     c_bands:  1 eigenvalues not converged
     c_bands:  1 eigenvalues not converged
     ethr =  5.07E-07,  avg # of iterations =  5.0

     negative rho (up, down):  7.450E-03 0.000E+00

     total cpu time spent up to now is     1528.5 secs

     total energy              =   -3597.28197001 Ry
     estimated scf accuracy    <       0.00032716 Ry

     iteration # 25     ecut=   124.00 Ry     beta= 0.70
     Davidson diagonalization with overlap
     ethr =  1.41E-07,  avg # of iterations =  5.8

     negative rho (up, down):  7.450E-03 0.000E+00

     total cpu time spent up to now is     1614.0 secs

     total energy              =   -3597.28105476 Ry
     estimated scf accuracy    <       0.03310194 Ry

     iteration # 26     ecut=   124.00 Ry     beta= 0.70
     Davidson diagonalization with overlap
     c_bands:  1 eigenvalues not converged
     ethr =  1.41E-07,  avg # of iterations =  5.6

     negative rho (up, down):  7.455E-03 0.000E+00

     total cpu time spent up to now is     1695.2 secs

     total energy              =   -3597.28211119 Ry
     estimated scf accuracy    <       0.00003538 Ry

     iteration # 27     ecut=   124.00 Ry     beta= 0.70
     Davidson diagonalization with overlap
     ethr =  1.53E-08,  avg # of iterations =  4.1

     negative rho (up, down):  7.454E-03 0.000E+00

     total cpu time spent up to now is     1761.7 secs

     total energy              =   -3597.28211052 Ry
     estimated scf accuracy    <       0.00009197 Ry

     iteration # 28     ecut=   124.00 Ry     beta= 0.70
     Davidson diagonalization with overlap
     ethr =  1.53E-08,  avg # of iterations =  2.8

     negative rho (up, down):  7.455E-03 0.000E+00

     total cpu time spent up to now is     1817.4 secs

     total energy              =   -3597.28211528 Ry
     estimated scf accuracy    <       0.00000231 Ry

     iteration # 29     ecut=   124.00 Ry     beta= 0.70
     Davidson diagonalization with overlap
     ethr =  9.96E-10,  avg # of iterations =  4.7

     negative rho (up, down):  7.455E-03 0.000E+00

     total cpu time spent up to now is     1900.1 secs

     total energy              =   -3597.28211597 Ry
     estimated scf accuracy    <       0.00000536 Ry

     iteration # 30     ecut=   124.00 Ry     beta= 0.70
     Davidson diagonalization with overlap
     ethr =  9.96E-10,  avg # of iterations =  1.3

     negative rho (up, down):  7.456E-03 0.000E+00

     total cpu time spent up to now is     1948.6 secs

     total energy              =   -3597.28211612 Ry
     estimated scf accuracy    <       0.00000099 Ry

     iteration # 31     ecut=   124.00 Ry     beta= 0.70
     Davidson diagonalization with overlap
     ethr =  4.26E-10,  avg # of iterations =  2.0

     negative rho (up, down):  7.456E-03 0.000E+00

     total cpu time spent up to now is     2004.4 secs

     total energy              =   -3597.28211611 Ry
     estimated scf accuracy    <       0.00000193 Ry

     iteration # 32     ecut=   124.00 Ry     beta= 0.70
     Davidson diagonalization with overlap
     ethr =  4.26E-10,  avg # of iterations =  1.2

     negative rho (up, down):  7.456E-03 0.000E+00

     total cpu time spent up to now is     2053.0 secs

     total energy              =   -3597.28211614 Ry
     estimated scf accuracy    <       0.00000136 Ry

     iteration # 33     ecut=   124.00 Ry     beta= 0.70
     Davidson diagonalization with overlap
     ethr =  4.26E-10,  avg # of iterations =  1.9

     negative rho (up, down):  7.456E-03 0.000E+00

     total cpu time spent up to now is     2105.8 secs

     total energy              =   -3597.28211610 Ry
     estimated scf accuracy    <       0.00000234 Ry

     iteration # 34     ecut=   124.00 Ry     beta= 0.70
     Davidson diagonalization with overlap
     ethr =  4.26E-10,  avg # of iterations =  1.0

     negative rho (up, down):  7.456E-03 0.000E+00

     total cpu time spent up to now is     2153.1 secs

     total energy              =   -3597.28211618 Ry
     estimated scf accuracy    <       0.00000017 Ry

     iteration # 35     ecut=   124.00 Ry     beta= 0.70
     Davidson diagonalization with overlap
     ethr =  7.51E-11,  avg # of iterations =  2.8

     negative rho (up, down):  7.456E-03 0.000E+00

     total cpu time spent up to now is     2211.6 secs

     total energy              =   -3597.28211615 Ry
     estimated scf accuracy    <       0.00000112 Ry

     iteration # 36     ecut=   124.00 Ry     beta= 0.70
     Davidson diagonalization with overlap
     ethr =  7.51E-11,  avg # of iterations =  2.2

     negative rho (up, down):  7.456E-03 0.000E+00

     total cpu time spent up to now is     2266.0 secs

     End of self-consistent calculation

     Number of k-points >= 100: set verbosity='high' to print the bands.

     the Fermi energy is    18.2394 ev

!    total energy              =   -3597.28211619 Ry
     estimated scf accuracy    <          7.7E-09 Ry
     smearing contrib. (-TS)   =      -0.00046849 Ry
     internal energy E=F+TS    =   -3597.28164770 Ry

     The total energy is F=E-TS. E is the sum of the following terms:
     one-electron contribution =   -1193.41316087 Ry
     hartree contribution      =     735.00272323 Ry
     xc contribution           =    -431.03775675 Ry
     ewald contribution        =   -2098.61420543 Ry
     one-center paw contrib.   =    -609.21924789 Ry

     convergence has been achieved in  36 iterations

     negative rho (up, down):  7.456E-03 0.000E+00

     Forces acting on atoms (cartesian axes, Ry/au):

     atom    1 type  1   force =     0.00000000    0.00000000    0.00000000
     atom    2 type  1   force =     0.00000000    0.00000000    0.00000000
     atom    3 type  1   force =     0.00000000    0.00000000    0.00000000
     atom    4 type  1   force =     0.00000000    0.00000000    0.00000000
     atom    5 type  1   force =     0.00000000    0.00000000    0.00000000
     atom    6 type  1   force =     0.00000000    0.00000000    0.00000000
     atom    7 type  1   force =     0.00000000    0.00000000    0.00000000
     atom    8 type  1   force =     0.00000000    0.00000000    0.00000000
     atom    9 type  2   force =    -0.00000177    0.00000060    0.00000060
     atom   10 type  2   force =     0.00000258   -0.00000050    0.00000050
     atom   11 type  2   force =     0.00000177    0.00000060    0.00000060
     atom   12 type  2   force =    -0.00000177   -0.00000060   -0.00000060
     atom   13 type  2   force =    -0.00000258    0.00000050   -0.00000050
     atom   14 type  2   force =     0.00000177   -0.00000060   -0.00000060
     atom   15 type  2   force =     0.00000258    0.00000050   -0.00000050
     atom   16 type  2   force =    -0.00000258   -0.00000050    0.00000050
     atom   17 type  3   force =    -0.00000468    0.00000000    0.00000000
     atom   18 type  3   force =     0.00000000   -0.00000037    0.00000037
     atom   19 type  3   force =     0.00000468    0.00000000    0.00000000
     atom   20 type  3   force =     0.00000000    0.00000037   -0.00000037
     atom   21 type  3   force =     0.00000000    0.00000016   -0.00000016
     atom   22 type  3   force =     0.00000304    0.00000000    0.00000000
     atom   23 type  3   force =     0.00000000   -0.00000016    0.00000016
     atom   24 type  3   force =    -0.00000304    0.00000000    0.00000000

     Total force =     0.000010     Total SCF correction =     0.000034
     SCF correction compared to forces is large: reduce conv_thr to get better values


     Computing stress (Cartesian axis) and pressure


     negative rho (up, down):  7.456E-03 0.000E+00
          total   stress  (Ry/bohr**3)                   (kbar)     P=      318.13
   0.00474890   0.00000000   0.00000000          698.59        0.00        0.00
   0.00000000   0.00086950  -0.00006606            0.00      127.91       -9.72
   0.00000000  -0.00006606   0.00086950            0.00       -9.72      127.91


     BFGS Geometry Optimization
     Energy error            =      5.1E-01 Ry
     Gradient error          =      4.7E-06 Ry/Bohr
     Cell gradient error     =      7.0E+02 kbar

     number of scf cycles    =   1
     number of bfgs steps    =   0

     enthalpy           new  =   -3597.2821161889 Ry

     new trust radius        =       0.5000000000 bohr
     new conv_thr            =       0.0000000100 Ry

     new unit-cell volume =   1521.66890 a.u.^3 (   225.48807 Ang^3 )
     density =      6.16942 g/cm^3

CELL_PARAMETERS (alat=  5.58242261)
   2.134026583   0.000000000   0.000000000
   0.000000000   2.024539655  -0.001864432
   0.000000000  -0.001864432   2.024539655

ATOMIC_POSITIONS (crystal)
Fe               0.0000000000        0.0000000000        0.0000000000
Fe               0.5000000000        0.5000000000       -0.0000000000
Fe               0.5000000000        0.0000000000        0.0000000000
Fe               0.0000000000        0.5000000000        0.5000000000
Fe               0.0000000000       -0.0000000000        0.5000000000
Fe               0.5000000000        0.5000000000        0.5000000000
Fe               0.5000000000       -0.0000000000        0.5000000000
Fe               0.0000000000        0.5000000000       -0.0000000000
Ti               0.2499999106        0.2500000304        0.2500000304
Ti               0.7500001306        0.7499999748        0.2500000252
Ti               0.7500000894        0.2500000304        0.2500000304
Ti               0.2499999106        0.7499999696        0.7499999696
Ti               0.2499998694        0.2500000252        0.7499999748
Ti               0.7500000894        0.7499999696        0.7499999696
Ti               0.7500001306        0.2500000252        0.7499999748
Ti               0.2499998694        0.7499999748        0.2500000252
H                0.2499997633        0.5000000000        0.5000000000
H                0.5000000000        0.2499999811        0.7500000189
H                0.7500002367        0.5000000000        0.5000000000
H                0.5000000000        0.7500000189        0.2499999811
H                0.0000000000        0.2500000083        0.7499999917
H                0.2500001536        0.0000000000        0.0000000000
H                0.0000000000        0.7499999917        0.2500000083
H                0.7499998464        0.0000000000        0.0000000000



     Writing config-only to output data dir ./TiFeH_supercell.save/ :
     XML data file     NEW-OLD atomic charge density approx. for the potential
     New effective cutoffs (rho, wfc): 1697.04  121.21

     negative rho (up, down):  7.864E-03 0.000E+00

     total cpu time spent up to now is     2310.6 secs

     per-process dynamical memory:   706.8 Mb

     Self-consistent Calculation

     iteration #  1     ecut=   124.00 Ry     beta= 0.70
     Davidson diagonalization with overlap
     c_bands:  1 eigenvalues not converged
     c_bands:  1 eigenvalues not converged
     c_bands:  1 eigenvalues not converged
     c_bands:  1 eigenvalues not converged
     c_bands:  1 eigenvalues not converged
     c_bands:  1 eigenvalues not converged
     c_bands:  1 eigenvalues not converged
     c_bands:  1 eigenvalues not converged
     c_bands:  1 eigenvalues not converged
     c_bands:  1 eigenvalues not converged
     c_bands:  1 eigenvalues not converged
     c_bands:  2 eigenvalues not converged
     c_bands:  1 eigenvalues not converged
     c_bands:  1 eigenvalues not converged
     c_bands:  1 eigenvalues not converged
     c_bands:  1 eigenvalues not converged
     c_bands:  2 eigenvalues not converged
     c_bands:  1 eigenvalues not converged
     c_bands:  1 eigenvalues not converged
     c_bands:  2 eigenvalues not converged
     ethr =  1.00E-06,  avg # of iterations = 14.9

     negative rho (up, down):  7.373E-03 0.000E+00

     total cpu time spent up to now is     2586.1 secs

     total energy              =   -3597.45935706 Ry
     estimated scf accuracy    <       0.17916065 Ry

     iteration #  2     ecut=   124.00 Ry     beta= 0.70
     Davidson diagonalization with overlap
     ethr =  7.72E-05,  avg # of iterations = 10.2

     negative rho (up, down):  7.057E-03 0.000E+00

     total cpu time spent up to now is     2704.0 secs

     total energy              =   -3596.21493124 Ry
     estimated scf accuracy    <      38.24309749 Ry

     iteration #  3     ecut=   124.00 Ry     beta= 0.70
     Davidson diagonalization with overlap
     ethr =  7.72E-05,  avg # of iterations =  6.8

     negative rho (up, down):  7.154E-03 0.000E+00

     total cpu time spent up to now is     2809.1 secs

     total energy              =   -3597.53104111 Ry
     estimated scf accuracy    <       0.47199747 Ry

     iteration #  4     ecut=   124.00 Ry     beta= 0.70
     Davidson diagonalization with overlap
     ethr =  7.72E-05,  avg # of iterations =  7.2

     negative rho (up, down):  7.388E-03 0.000E+00

     total cpu time spent up to now is     2895.8 secs

     total energy              =   -3597.57746444 Ry
     estimated scf accuracy    <       0.30504455 Ry

     iteration #  5     ecut=   124.00 Ry     beta= 0.70
     Davidson diagonalization with overlap
     ethr =  7.72E-05,  avg # of iterations =  2.6

     negative rho (up, down):  7.356E-03 0.000E+00

     total cpu time spent up to now is     2950.9 secs

     total energy              =   -3597.57954246 Ry
     estimated scf accuracy    <       0.22584252 Ry

     iteration #  6     ecut=   124.00 Ry     beta= 0.70
     Davidson diagonalization with overlap
     ethr =  7.72E-05,  avg # of iterations =  1.4

     negative rho (up, down):  7.333E-03 0.000E+00

     total cpu time spent up to now is     2999.9 secs

     total energy              =   -3597.58870055 Ry
     estimated scf accuracy    <       0.08296531 Ry

     iteration #  7     ecut=   124.00 Ry     beta= 0.70
     Davidson diagonalization with overlap
     ethr =  3.58E-05,  avg # of iterations =  2.1

     negative rho (up, down):  7.315E-03 0.000E+00

     total cpu time spent up to now is     3052.9 secs

     total energy              =   -3597.59143899 Ry
     estimated scf accuracy    <       0.04844614 Ry

     iteration #  8     ecut=   124.00 Ry     beta= 0.70
     Davidson diagonalization with overlap
     ethr =  2.09E-05,  avg # of iterations =  2.9

     negative rho (up, down):  7.307E-03 0.000E+00

     total cpu time spent up to now is     3109.1 secs

     total energy              =   -3597.58974112 Ry
     estimated scf accuracy    <       0.16297329 Ry

     iteration #  9     ecut=   124.00 Ry     beta= 0.70
     Davidson diagonalization with overlap
     ethr =  2.09E-05,  avg # of iterations =  1.1

     negative rho (up, down):  7.307E-03 0.000E+00

     total cpu time spent up to now is     3159.1 secs

     total energy              =   -3597.59394107 Ry
     estimated scf accuracy    <       0.00179925 Ry

     iteration # 10     ecut=   124.00 Ry     beta= 0.70
     Davidson diagonalization with overlap
     c_bands:  1 eigenvalues not converged
     ethr =  7.76E-07,  avg # of iterations =  7.8

     negative rho (up, down):  7.308E-03 0.000E+00

     total cpu time spent up to now is     3243.4 secs

     total energy              =   -3597.59391375 Ry
     estimated scf accuracy    <       0.01379151 Ry

     iteration # 11     ecut=   124.00 Ry     beta= 0.70
     Davidson diagonalization with overlap
     ethr =  7.76E-07,  avg # of iterations =  2.6

     negative rho (up, down):  7.310E-03 0.000E+00

     total cpu time spent up to now is     3298.6 secs

     total energy              =   -3597.59422774 Ry
     estimated scf accuracy    <       0.00111895 Ry

     iteration # 12     ecut=   124.00 Ry     beta= 0.70
     Davidson diagonalization with overlap
     ethr =  4.82E-07,  avg # of iterations =  2.4

     negative rho (up, down):  7.308E-03 0.000E+00

     total cpu time spent up to now is     3352.7 secs

     total energy              =   -3597.59419229 Ry
     estimated scf accuracy    <       0.00286094 Ry

     iteration # 13     ecut=   124.00 Ry     beta= 0.70
     Davidson diagonalization with overlap
     ethr =  4.82E-07,  avg # of iterations =  2.2

     negative rho (up, down):  7.310E-03 0.000E+00

     total cpu time spent up to now is     3405.1 secs

     total energy              =   -3597.59424571 Ry
     estimated scf accuracy    <       0.00026745 Ry

     iteration # 14     ecut=   124.00 Ry     beta= 0.70
     Davidson diagonalization with overlap
     ethr =  1.15E-07,  avg # of iterations =  3.5

     negative rho (up, down):  7.298E-03 0.000E+00

     total cpu time spent up to now is     3463.8 secs

     total energy              =   -3597.59422557 Ry
     estimated scf accuracy    <       0.00149767 Ry

     iteration # 15     ecut=   124.00 Ry     beta= 0.70
     Davidson diagonalization with overlap
     ethr =  1.15E-07,  avg # of iterations =  4.2

     negative rho (up, down):  7.303E-03 0.000E+00

     total cpu time spent up to now is     3527.2 secs

     total energy              =   -3597.59426891 Ry
     estimated scf accuracy    <       0.00019327 Ry

     iteration # 16     ecut=   124.00 Ry     beta= 0.70
     Davidson diagonalization with overlap
     ethr =  8.33E-08,  avg # of iterations =  1.8

     negative rho (up, down):  7.303E-03 0.000E+00

     total cpu time spent up to now is     3579.7 secs

     total energy              =   -3597.59427600 Ry
     estimated scf accuracy    <       0.00022620 Ry

     iteration # 17     ecut=   124.00 Ry     beta= 0.70
     Davidson diagonalization with overlap
     ethr =  8.33E-08,  avg # of iterations =  1.2

     negative rho (up, down):  7.303E-03 0.000E+00

     total cpu time spent up to now is     3629.3 secs

     total energy              =   -3597.59428293 Ry
     estimated scf accuracy    <       0.00003181 Ry

     iteration # 18     ecut=   124.00 Ry     beta= 0.70
     Davidson diagonalization with overlap
     ethr =  1.37E-08,  avg # of iterations =  2.4

     negative rho (up, down):  7.303E-03 0.000E+00

     total cpu time spent up to now is     3682.2 secs

     total energy              =   -3597.59428278 Ry
     estimated scf accuracy    <       0.00001243 Ry

     iteration # 19     ecut=   124.00 Ry     beta= 0.70
     Davidson diagonalization with overlap
     ethr =  5.36E-09,  avg # of iterations =  3.9

     negative rho (up, down):  7.303E-03 0.000E+00

     total cpu time spent up to now is     3742.3 secs

     total energy              =   -3597.59428364 Ry
     estimated scf accuracy    <       0.00000718 Ry

     iteration # 20     ecut=   124.00 Ry     beta= 0.70
     Davidson diagonalization with overlap
     ethr =  3.10E-09,  avg # of iterations =  1.5

     negative rho (up, down):  7.302E-03 0.000E+00

     total cpu time spent up to now is     3792.2 secs

     total energy              =   -3597.59428392 Ry
     estimated scf accuracy    <       0.00000328 Ry

     iteration # 21     ecut=   124.00 Ry     beta= 0.70
     Davidson diagonalization with overlap
     ethr =  1.41E-09,  avg # of iterations =  2.4

     negative rho (up, down):  7.302E-03 0.000E+00

     total cpu time spent up to now is     3847.9 secs

     total energy              =   -3597.59428393 Ry
     estimated scf accuracy    <       0.00000601 Ry

     iteration # 22     ecut=   124.00 Ry     beta= 0.70
     Davidson diagonalization with overlap
     ethr =  1.41E-09,  avg # of iterations =  1.0

     negative rho (up, down):  7.303E-03 0.000E+00

     total cpu time spent up to now is     3895.3 secs

     total energy              =   -3597.59428414 Ry
     estimated scf accuracy    <       0.00000086 Ry

     iteration # 23     ecut=   124.00 Ry     beta= 0.70
     Davidson diagonalization with overlap
     ethr =  3.71E-10,  avg # of iterations =  2.4

     negative rho (up, down):  7.303E-03 0.000E+00

     total cpu time spent up to now is     3949.7 secs

     total energy              =   -3597.59428417 Ry
     estimated scf accuracy    <       0.00000051 Ry

     iteration # 24     ecut=   124.00 Ry     beta= 0.70
     Davidson diagonalization with overlap
     ethr =  2.21E-10,  avg # of iterations =  2.4

     negative rho (up, down):  7.302E-03 0.000E+00

     total cpu time spent up to now is     4004.4 secs

     total energy              =   -3597.59428417 Ry
     estimated scf accuracy    <       0.00000080 Ry

     iteration # 25     ecut=   124.00 Ry     beta= 0.70
     Davidson diagonalization with overlap
     ethr =  2.21E-10,  avg # of iterations =  1.0

     negative rho (up, down):  7.302E-03 0.000E+00

     total cpu time spent up to now is     4051.8 secs

     total energy              =   -3597.59428421 Ry
     estimated scf accuracy    <       0.00000013 Ry

     iteration # 26     ecut=   124.00 Ry     beta= 0.70
     Davidson diagonalization with overlap
     ethr =  5.45E-11,  avg # of iterations =  2.5

     negative rho (up, down):  7.302E-03 0.000E+00

     total cpu time spent up to now is     4106.4 secs

     total energy              =   -3597.59428421 Ry
     estimated scf accuracy    <       0.00000003 Ry

     iteration # 27     ecut=   124.00 Ry     beta= 0.70
     Davidson diagonalization with overlap
     ethr =  1.14E-11,  avg # of iterations =  4.9

     negative rho (up, down):  7.302E-03 0.000E+00

     total cpu time spent up to now is     4178.8 secs

     total energy              =   -3597.59428421 Ry
     estimated scf accuracy    <       0.00000038 Ry

     iteration # 28     ecut=   124.00 Ry     beta= 0.70
     Davidson diagonalization with overlap
     ethr =  1.14E-11,  avg # of iterations =  2.9

     negative rho (up, down):  7.302E-03 0.000E+00

     total cpu time spent up to now is     4235.6 secs

     total energy              =   -3597.59428422 Ry
     estimated scf accuracy    <       0.00000001 Ry

     iteration # 29     ecut=   124.00 Ry     beta= 0.70
     Davidson diagonalization with overlap
     ethr =  5.86E-12,  avg # of iterations =  2.4

     negative rho (up, down):  7.302E-03 0.000E+00

     total cpu time spent up to now is     4290.1 secs

     End of self-consistent calculation

     Number of k-points >= 100: set verbosity='high' to print the bands.

     the Fermi energy is    16.4993 ev

!    total energy              =   -3597.59428421 Ry
     estimated scf accuracy    <          6.7E-09 Ry
     smearing contrib. (-TS)   =      -0.00065565 Ry
     internal energy E=F+TS    =   -3597.59362856 Ry

     The total energy is F=E-TS. E is the sum of the following terms:
     one-electron contribution =   -1285.62768894 Ry
     hartree contribution      =     765.77402281 Ry
     xc contribution           =    -429.45015221 Ry
     ewald contribution        =   -2039.08748440 Ry
     one-center paw contrib.   =    -609.20232582 Ry

     convergence has been achieved in  29 iterations

     negative rho (up, down):  7.302E-03 0.000E+00

     Forces acting on atoms (cartesian axes, Ry/au):

     atom    1 type  1   force =     0.00000000    0.00000000    0.00000000
     atom    2 type  1   force =    -0.00000000    0.00000000    0.00000000
     atom    3 type  1   force =     0.00000000    0.00000000    0.00000000
     atom    4 type  1   force =     0.00000000    0.00000000    0.00000000
     atom    5 type  1   force =     0.00000000    0.00000000    0.00000000
     atom    6 type  1   force =     0.00000000    0.00000000    0.00000000
     atom    7 type  1   force =     0.00000000    0.00000000    0.00000000
     atom    8 type  1   force =     0.00000000    0.00000000    0.00000000
     atom    9 type  2   force =    -0.00000074    0.00000214    0.00000214
     atom   10 type  2   force =     0.00000039   -0.00000209    0.00000209
     atom   11 type  2   force =     0.00000074    0.00000214    0.00000214
     atom   12 type  2   force =    -0.00000074   -0.00000214   -0.00000214
     atom   13 type  2   force =    -0.00000039    0.00000209   -0.00000209
     atom   14 type  2   force =     0.00000074   -0.00000214   -0.00000214
     atom   15 type  2   force =     0.00000039    0.00000209   -0.00000209
     atom   16 type  2   force =    -0.00000039   -0.00000209    0.00000209
     atom   17 type  3   force =     0.00000159    0.00000000    0.00000000
     atom   18 type  3   force =     0.00000000   -0.00000010    0.00000010
     atom   19 type  3   force =    -0.00000159    0.00000000    0.00000000
     atom   20 type  3   force =     0.00000000    0.00000010   -0.00000010
     atom   21 type  3   force =    -0.00000000   -0.00000015    0.00000015
     atom   22 type  3   force =     0.00000249    0.00000000    0.00000000
     atom   23 type  3   force =    -0.00000000    0.00000015   -0.00000015
     atom   24 type  3   force =    -0.00000249    0.00000000    0.00000000

     Total force =     0.000010     Total SCF correction =     0.000103
     SCF correction compared to forces is large: reduce conv_thr to get better values


     Computing stress (Cartesian axis) and pressure


     negative rho (up, down):  7.302E-03 0.000E+00
          total   stress  (Ry/bohr**3)                   (kbar)     P=       67.07
   0.00197229   0.00000000   0.00000000          290.13        0.00        0.00
   0.00000000  -0.00030225  -0.00004620            0.00      -44.46       -6.80
   0.00000000  -0.00004620  -0.00030225            0.00       -6.80      -44.46

     Energy error            =      3.1E-01 Ry
     Gradient error          =      2.5E-06 Ry/Bohr
     Cell gradient error     =      2.9E+02 kbar

     number of scf cycles    =   2
     number of bfgs steps    =   1

     enthalpy           old  =   -3597.2821161889 Ry
     enthalpy           new  =   -3597.5942842127 Ry

     CASE: enthalpy          _new < enthalpy          _old

     new trust radius        =       0.4483833943 bohr
     new conv_thr            =            1.0E-10 Ry

     new unit-cell volume =   1556.61327 a.u.^3 (   230.66629 Ang^3 )
     density =      6.03092 g/cm^3

CELL_PARAMETERS (alat=  5.58242261)
   2.256674243   0.000000000   0.000000000
   0.000000000   1.991239152  -0.005338274
   0.000000000  -0.005338274   1.991239152

ATOMIC_POSITIONS (crystal)
Fe               0.0000000000        0.0000000000        0.0000000000
Fe               0.5000000000        0.5000000000       -0.0000000000
Fe               0.5000000000        0.0000000000        0.0000000000
Fe               0.0000000000        0.5000000000        0.5000000000
Fe               0.0000000000       -0.0000000000        0.5000000000
Fe               0.5000000000        0.5000000000        0.5000000000
Fe               0.5000000000       -0.0000000000        0.5000000000
Fe               0.0000000000        0.5000000000       -0.0000000000
Ti               0.2499998233        0.2500003312        0.2500003312
Ti               0.7500001525        0.7499996787        0.2500003213
Ti               0.7500001767        0.2500003312        0.2500003312
Ti               0.2499998233        0.7499996688        0.7499996688
Ti               0.2499998475        0.2500003213        0.7499996787
Ti               0.7500001767        0.7499996688        0.7499996688
Ti               0.7500001525        0.2500003213        0.7499996787
Ti               0.2499998475        0.7499996787        0.2500003213
H                0.2500000764        0.5000000000        0.5000000000
H                0.5000000000        0.2499999728        0.7500000272
H                0.7499999236        0.5000000000        0.5000000000
H                0.5000000000        0.7500000272        0.2499999728
H               -0.0000000000        0.2499999837        0.7500000163
H                0.2500004901        0.0000000000        0.0000000000
H               -0.0000000000        0.7500000163        0.2499999837
H                0.7499995099        0.0000000000        0.0000000000



     Writing config-only to output data dir ./TiFeH_supercell.save/ :
     XML data file     NEW-OLD atomic charge density approx. for the potential
     New effective cutoffs (rho, wfc): 1760.27  125.73

     Check: negative core charge=   -0.000002

     negative rho (up, down):  7.298E-03 0.000E+00

     total cpu time spent up to now is     4335.5 secs

     per-process dynamical memory:   706.8 Mb

     Self-consistent Calculation

     iteration #  1     ecut=   124.00 Ry     beta= 0.70
     Davidson diagonalization with overlap
     c_bands:  1 eigenvalues not converged
     c_bands:  1 eigenvalues not converged
     c_bands:  2 eigenvalues not converged
     c_bands:  2 eigenvalues not converged
     c_bands:  1 eigenvalues not converged
     c_bands:  1 eigenvalues not converged
     c_bands:  1 eigenvalues not converged
     c_bands:  1 eigenvalues not converged
     c_bands:  1 eigenvalues not converged
     c_bands:  3 eigenvalues not converged
     ethr =  1.00E-06,  avg # of iterations = 14.5

     negative rho (up, down):  6.858E-03 0.000E+00

     total cpu time spent up to now is     4581.3 secs

     total energy              =   -3597.67523508 Ry
     estimated scf accuracy    <       0.10749388 Ry

     iteration #  2     ecut=   124.00 Ry     beta= 0.70
     Davidson diagonalization with overlap
     ethr =  4.63E-05,  avg # of iterations =  7.9

     negative rho (up, down):  6.879E-03 0.000E+00

     total cpu time spent up to now is     4692.0 secs

     total energy              =   -3597.20253047 Ry
     estimated scf accuracy    <      13.42625485 Ry

     iteration #  3     ecut=   124.00 Ry     beta= 0.70
     Davidson diagonalization with overlap
     ethr =  4.63E-05,  avg # of iterations =  6.4

     negative rho (up, down):  7.073E-03 0.000E+00

     total cpu time spent up to now is     4787.2 secs

     total energy              =   -3597.66013989 Ry
     estimated scf accuracy    <       1.13086476 Ry

     iteration #  4     ecut=   124.00 Ry     beta= 0.70
     Davidson diagonalization with overlap
     ethr =  4.63E-05,  avg # of iterations =  7.2

     negative rho (up, down):  7.006E-03 0.000E+00

     total cpu time spent up to now is     4877.6 secs

     total energy              =   -3597.71524426 Ry
     estimated scf accuracy    <       0.29376549 Ry

     iteration #  5     ecut=   124.00 Ry     beta= 0.70
     Davidson diagonalization with overlap
     ethr =  4.63E-05,  avg # of iterations =  5.9

     negative rho (up, down):  7.134E-03 0.000E+00

     total cpu time spent up to now is     4952.0 secs

     total energy              =   -3597.73058210 Ry
     estimated scf accuracy    <       0.20293564 Ry

     iteration #  6     ecut=   124.00 Ry     beta= 0.70
     Davidson diagonalization with overlap
     ethr =  4.63E-05,  avg # of iterations =  3.3

     negative rho (up, down):  7.148E-03 0.000E+00

     total cpu time spent up to now is     5010.0 secs

     total energy              =   -3597.73395397 Ry
     estimated scf accuracy    <       0.30104894 Ry

     iteration #  7     ecut=   124.00 Ry     beta= 0.70
     Davidson diagonalization with overlap
     ethr =  4.63E-05,  avg # of iterations =  1.7

     negative rho (up, down):  7.132E-03 0.000E+00

     total cpu time spent up to now is     5061.6 secs

     total energy              =   -3597.74308282 Ry
     estimated scf accuracy    <       0.00496942 Ry

     iteration #  8     ecut=   124.00 Ry     beta= 0.70
     Davidson diagonalization with overlap
     c_bands:  1 eigenvalues not converged
     ethr =  2.14E-06,  avg # of iterations =  9.2

     negative rho (up, down):  7.117E-03 0.000E+00

     total cpu time spent up to now is     5157.8 secs

     total energy              =   -3597.74088613 Ry
     estimated scf accuracy    <       0.13879092 Ry

     iteration #  9     ecut=   124.00 Ry     beta= 0.70
     Davidson diagonalization with overlap
     ethr =  2.14E-06,  avg # of iterations =  5.1

     negative rho (up, down):  7.117E-03 0.000E+00

     total cpu time spent up to now is     5226.9 secs

     total energy              =   -3597.74467046 Ry
     estimated scf accuracy    <       0.00246494 Ry

     iteration # 10     ecut=   124.00 Ry     beta= 0.70
     Davidson diagonalization with overlap
     ethr =  1.06E-06,  avg # of iterations =  2.4

     negative rho (up, down):  7.118E-03 0.000E+00

     total cpu time spent up to now is     5282.2 secs

     total energy              =   -3597.74452030 Ry
     estimated scf accuracy    <       0.00791423 Ry

     iteration # 11     ecut=   124.00 Ry     beta= 0.70
     Davidson diagonalization with overlap
     ethr =  1.06E-06,  avg # of iterations =  1.6

     negative rho (up, down):  7.115E-03 0.000E+00

     total cpu time spent up to now is     5332.9 secs

     total energy              =   -3597.74474334 Ry
     estimated scf accuracy    <       0.00017759 Ry

     iteration # 12     ecut=   124.00 Ry     beta= 0.70
     Davidson diagonalization with overlap
     ethr =  7.65E-08,  avg # of iterations =  5.2

     negative rho (up, down):  7.116E-03 0.000E+00

     total cpu time spent up to now is     5407.4 secs

     total energy              =   -3597.74472782 Ry
     estimated scf accuracy    <       0.00179592 Ry

     iteration # 13     ecut=   124.00 Ry     beta= 0.70
     Davidson diagonalization with overlap
     ethr =  7.65E-08,  avg # of iterations =  4.2

     negative rho (up, down):  7.115E-03 0.000E+00

     total cpu time spent up to now is     5469.2 secs

     total energy              =   -3597.74478479 Ry
     estimated scf accuracy    <       0.00009763 Ry

     iteration # 14     ecut=   124.00 Ry     beta= 0.70
     Davidson diagonalization with overlap
     ethr =  4.21E-08,  avg # of iterations =  1.6

     negative rho (up, down):  7.116E-03 0.000E+00

     total cpu time spent up to now is     5520.3 secs

     total energy              =   -3597.74478502 Ry
     estimated scf accuracy    <       0.00003605 Ry

     iteration # 15     ecut=   124.00 Ry     beta= 0.70
     Davidson diagonalization with overlap
     ethr =  1.55E-08,  avg # of iterations =  4.2

     negative rho (up, down):  7.116E-03 0.000E+00

     total cpu time spent up to now is     5584.0 secs

     total energy              =   -3597.74478176 Ry
     estimated scf accuracy    <       0.00013961 Ry

     iteration # 16     ecut=   124.00 Ry     beta= 0.70
     Davidson diagonalization with overlap
     ethr =  1.55E-08,  avg # of iterations =  2.6

     negative rho (up, down):  7.116E-03 0.000E+00

     total cpu time spent up to now is     5639.7 secs

     total energy              =   -3597.74478719 Ry
     estimated scf accuracy    <       0.00000842 Ry

     iteration # 17     ecut=   124.00 Ry     beta= 0.70
     Davidson diagonalization with overlap
     ethr =  3.63E-09,  avg # of iterations =  3.5

     negative rho (up, down):  7.117E-03 0.000E+00

     total cpu time spent up to now is     5701.2 secs

     total energy              =   -3597.74478744 Ry
     estimated scf accuracy    <       0.00001348 Ry

     iteration # 18     ecut=   124.00 Ry     beta= 0.70
     Davidson diagonalization with overlap
     ethr =  3.63E-09,  avg # of iterations =  2.1

     negative rho (up, down):  7.116E-03 0.000E+00

     total cpu time spent up to now is     5755.5 secs

     total energy              =   -3597.74478790 Ry
     estimated scf accuracy    <       0.00000236 Ry

     iteration # 19     ecut=   124.00 Ry     beta= 0.70
     Davidson diagonalization with overlap
     ethr =  1.02E-09,  avg # of iterations =  2.0

     negative rho (up, down):  7.116E-03 0.000E+00

     total cpu time spent up to now is     5810.0 secs

     total energy              =   -3597.74478803 Ry
     estimated scf accuracy    <       0.00000282 Ry

     iteration # 20     ecut=   124.00 Ry     beta= 0.70
     Davidson diagonalization with overlap
     ethr =  1.02E-09,  avg # of iterations =  1.6

     negative rho (up, down):  7.116E-03 0.000E+00

     total cpu time spent up to now is     5861.1 secs

     total energy              =   -3597.74478810 Ry
     estimated scf accuracy    <       0.00000112 Ry

     iteration # 21     ecut=   124.00 Ry     beta= 0.70
     Davidson diagonalization with overlap
     ethr =  4.85E-10,  avg # of iterations =  1.3

     negative rho (up, down):  7.116E-03 0.000E+00

     total cpu time spent up to now is     5910.1 secs

     total energy              =   -3597.74478815 Ry
     estimated scf accuracy    <       0.00000031 Ry

     iteration # 22     ecut=   124.00 Ry     beta= 0.70
     Davidson diagonalization with overlap
     ethr =  1.34E-10,  avg # of iterations =  2.0

     negative rho (up, down):  7.116E-03 0.000E+00

     total cpu time spent up to now is     5963.5 secs

     total energy              =   -3597.74478815 Ry
     estimated scf accuracy    <       0.00000018 Ry

     iteration # 23     ecut=   124.00 Ry     beta= 0.70
     Davidson diagonalization with overlap
     ethr =  7.60E-11,  avg # of iterations =  1.6

     negative rho (up, down):  7.116E-03 0.000E+00

     total cpu time spent up to now is     6013.8 secs

     total energy              =   -3597.74478816 Ry
     estimated scf accuracy    <       0.00000002 Ry

     iteration # 24     ecut=   124.00 Ry     beta= 0.70
     Davidson diagonalization with overlap
     ethr =  8.62E-12,  avg # of iterations =  5.2

     negative rho (up, down):  7.116E-03 0.000E+00

     total cpu time spent up to now is     6102.8 secs

     total energy              =   -3597.74478815 Ry
     estimated scf accuracy    <       0.00000039 Ry

     iteration # 25     ecut=   124.00 Ry     beta= 0.70
     Davidson diagonalization with overlap
     ethr =  8.62E-12,  avg # of iterations =  5.1

     negative rho (up, down):  7.116E-03 0.000E+00

     total cpu time spent up to now is     6174.5 secs

     total energy              =   -3597.74478817 Ry
     estimated scf accuracy    <          5.3E-09 Ry

     iteration # 26     ecut=   124.00 Ry     beta= 0.70
     Davidson diagonalization with overlap
     ethr =  2.27E-12,  avg # of iterations =  3.5

     negative rho (up, down):  7.116E-03 0.000E+00

     total cpu time spent up to now is     6233.6 secs

     total energy              =   -3597.74478817 Ry
     estimated scf accuracy    <          5.0E-09 Ry

     iteration # 27     ecut=   124.00 Ry     beta= 0.70
     Davidson diagonalization with overlap
     ethr =  2.16E-12,  avg # of iterations =  2.3

     negative rho (up, down):  7.116E-03 0.000E+00

     total cpu time spent up to now is     6288.7 secs

     total energy              =   -3597.74478817 Ry
     estimated scf accuracy    <       0.00000002 Ry

     iteration # 28     ecut=   124.00 Ry     beta= 0.70
     Davidson diagonalization with overlap
     ethr =  2.16E-12,  avg # of iterations =  1.8

     negative rho (up, down):  7.116E-03 0.000E+00

     total cpu time spent up to now is     6340.9 secs

     total energy              =   -3597.74478817 Ry
     estimated scf accuracy    <          3.0E-10 Ry

     iteration # 29     ecut=   124.00 Ry     beta= 0.70
     Davidson diagonalization with overlap
     ethr =  1.30E-13,  avg # of iterations =  4.9

     negative rho (up, down):  7.116E-03 0.000E+00

     total cpu time spent up to now is     6413.0 secs

     total energy              =   -3597.74478817 Ry
     estimated scf accuracy    <          1.3E-09 Ry

     iteration # 30     ecut=   124.00 Ry     beta= 0.70
     Davidson diagonalization with overlap
     ethr =  1.30E-13,  avg # of iterations =  3.7

     negative rho (up, down):  7.116E-03 0.000E+00

     total cpu time spent up to now is     6474.0 secs

     total energy              =   -3597.74478817 Ry
     estimated scf accuracy    <          1.4E-09 Ry

     iteration # 31     ecut=   124.00 Ry     beta= 0.70
     Davidson diagonalization with overlap
     ethr =  1.30E-13,  avg # of iterations =  2.0

     negative rho (up, down):  7.116E-03 0.000E+00

     total cpu time spent up to now is     6527.3 secs

     End of self-consistent calculation

     Number of k-points >= 100: set verbosity='high' to print the bands.

     the Fermi energy is    16.0303 ev

!    total energy              =   -3597.74478817 Ry
     estimated scf accuracy    <          8.6E-11 Ry
     smearing contrib. (-TS)   =       0.00037666 Ry
     internal energy E=F+TS    =   -3597.74516482 Ry

     The total energy is F=E-TS. E is the sum of the following terms:
     one-electron contribution =   -1306.73374015 Ry
     hartree contribution      =     772.68054689 Ry
     xc contribution           =    -428.92397640 Ry
     ewald contribution        =   -2025.56812332 Ry
     one-center paw contrib.   =    -609.19987184 Ry

     convergence has been achieved in  31 iterations

     negative rho (up, down):  7.116E-03 0.000E+00

     Forces acting on atoms (cartesian axes, Ry/au):

     atom    1 type  1   force =     0.00000000    0.00000000    0.00000000
     atom    2 type  1   force =     0.00000000    0.00000000    0.00000000
     atom    3 type  1   force =     0.00000000    0.00000000    0.00000000
     atom    4 type  1   force =     0.00000000    0.00000000    0.00000000
     atom    5 type  1   force =     0.00000000    0.00000000    0.00000000
     atom    6 type  1   force =     0.00000000    0.00000000    0.00000000
     atom    7 type  1   force =     0.00000000    0.00000000    0.00000000
     atom    8 type  1   force =     0.00000000    0.00000000    0.00000000
     atom    9 type  2   force =     0.00000023   -0.00000133   -0.00000133
     atom   10 type  2   force =    -0.00000070    0.00000112   -0.00000112
     atom   11 type  2   force =    -0.00000023   -0.00000133   -0.00000133
     atom   12 type  2   force =     0.00000023    0.00000133    0.00000133
     atom   13 type  2   force =     0.00000070   -0.00000112    0.00000112
     atom   14 type  2   force =    -0.00000023    0.00000133    0.00000133
     atom   15 type  2   force =    -0.00000070   -0.00000112    0.00000112
     atom   16 type  2   force =     0.00000070    0.00000112   -0.00000112
     atom   17 type  3   force =    -0.00000021    0.00000000    0.00000000
     atom   18 type  3   force =    -0.00000000   -0.00000043    0.00000043
     atom   19 type  3   force =     0.00000021    0.00000000    0.00000000
     atom   20 type  3   force =    -0.00000000    0.00000043   -0.00000043
     atom   21 type  3   force =     0.00000000   -0.00000039    0.00000039
     atom   22 type  3   force =    -0.00000127    0.00000000    0.00000000
     atom   23 type  3   force =     0.00000000    0.00000039   -0.00000039
     atom   24 type  3   force =     0.00000127    0.00000000    0.00000000

     Total force =     0.000006     Total SCF correction =     0.000002
     SCF correction compared to forces is large: reduce conv_thr to get better values


     Computing stress (Cartesian axis) and pressure


     negative rho (up, down):  7.116E-03 0.000E+00
          total   stress  (Ry/bohr**3)                   (kbar)     P=       -9.75
   0.00090941   0.00000000   0.00000000          133.78        0.00        0.00
   0.00000000  -0.00055411  -0.00000551            0.00      -81.51       -0.81
   0.00000000  -0.00000551  -0.00055411            0.00       -0.81      -81.51

     Energy error            =      1.5E-01 Ry
     Gradient error          =      1.3E-06 Ry/Bohr
     Cell gradient error     =      1.3E+02 kbar

     number of scf cycles    =   3
     number of bfgs steps    =   2

     enthalpy           old  =   -3597.5942842127 Ry
     enthalpy           new  =   -3597.7447881669 Ry

     CASE: enthalpy          _new < enthalpy          _old

     new trust radius        =       0.6414236760 bohr
     new conv_thr            =            1.0E-10 Ry

     new unit-cell volume =   1533.66594 a.u.^3 (   227.26584 Ang^3 )
     density =      6.12116 g/cm^3

CELL_PARAMETERS (alat=  5.58242261)
   2.440114013   0.000000000   0.000000000
   0.000000000   1.900774207  -0.008428485
   0.000000000  -0.008428485   1.900774207

ATOMIC_POSITIONS (crystal)
Fe               0.0000000000        0.0000000000        0.0000000000
Fe               0.5000000000        0.5000000000       -0.0000000000
Fe               0.5000000000        0.0000000000        0.0000000000
Fe               0.0000000000        0.5000000000        0.5000000000
Fe               0.0000000000       -0.0000000000        0.5000000000
Fe               0.5000000000        0.5000000000        0.5000000000
Fe               0.5000000000       -0.0000000000        0.5000000000
Fe               0.0000000000        0.5000000000       -0.0000000000
Ti               0.2499998185        0.2500002444        0.2500002444
Ti               0.7500000098        0.7499997262        0.2500002738
Ti               0.7500001815        0.2500002444        0.2500002444
Ti               0.2499998185        0.7499997556        0.7499997556
Ti               0.2499999902        0.2500002738        0.7499997262
Ti               0.7500001815        0.7499997556        0.7499997556
Ti               0.7500000098        0.2500002738        0.7499997262
Ti               0.2499999902        0.7499997262        0.2500002738
H                0.2500002075        0.5000000000        0.5000000000
H                0.5000000000        0.2499998792        0.7500001208
H                0.7499997925        0.5000000000        0.5000000000
H                0.5000000000        0.7500001208        0.2499998792
H                0.0000000000        0.2499998899        0.7500001101
H                0.2500004078        0.0000000000        0.0000000000
H                0.0000000000        0.7500001101        0.2499998899
H                0.7499995922        0.0000000000        0.0000000000



     Writing config-only to output data dir ./TiFeH_supercell.save/ :
     XML data file     NEW-OLD atomic charge density approx. for the potential
     New effective cutoffs (rho, wfc): 1938.39  138.45

     Check: negative core charge=   -0.000002

     negative rho (up, down):  7.058E-03 0.000E+00

     total cpu time spent up to now is     6571.8 secs

     per-process dynamical memory:   711.7 Mb

     Self-consistent Calculation

     iteration #  1     ecut=   124.00 Ry     beta= 0.70
     Davidson diagonalization with overlap
     c_bands:  1 eigenvalues not converged
     c_bands:  3 eigenvalues not converged
     c_bands:  2 eigenvalues not converged
     c_bands:  2 eigenvalues not converged
     c_bands:  2 eigenvalues not converged
     c_bands:  1 eigenvalues not converged
     c_bands:  1 eigenvalues not converged
     c_bands:  1 eigenvalues not converged
     c_bands:  1 eigenvalues not converged
     c_bands:  3 eigenvalues not converged
     c_bands:  3 eigenvalues not converged
     c_bands:  2 eigenvalues not converged
     c_bands:  1 eigenvalues not converged
     c_bands:  2 eigenvalues not converged
     c_bands:  1 eigenvalues not converged
     c_bands:  1 eigenvalues not converged
     c_bands:  1 eigenvalues not converged
     c_bands:  4 eigenvalues not converged
     c_bands:  4 eigenvalues not converged
     c_bands:  1 eigenvalues not converged
     c_bands:  1 eigenvalues not converged
     c_bands:  1 eigenvalues not converged
     c_bands:  1 eigenvalues not converged
     c_bands:  2 eigenvalues not converged
     c_bands:  1 eigenvalues not converged
     c_bands:  1 eigenvalues not converged
     c_bands:  1 eigenvalues not converged
     c_bands:  1 eigenvalues not converged
     c_bands:  1 eigenvalues not converged
     c_bands:  1 eigenvalues not converged
     c_bands:  2 eigenvalues not converged
     c_bands:  2 eigenvalues not converged
     c_bands:  2 eigenvalues not converged
     c_bands:  2 eigenvalues not converged
     c_bands:  1 eigenvalues not converged
     c_bands:  1 eigenvalues not converged
     c_bands:  1 eigenvalues not converged
     c_bands:  1 eigenvalues not converged
     c_bands:  1 eigenvalues not converged
     c_bands:  1 eigenvalues not converged
     c_bands:  2 eigenvalues not converged
     c_bands:  1 eigenvalues not converged
     c_bands:  2 eigenvalues not converged
     c_bands:  1 eigenvalues not converged
     c_bands:  2 eigenvalues not converged
     c_bands:  3 eigenvalues not converged
     c_bands:  2 eigenvalues not converged
     c_bands:  5 eigenvalues not converged
     c_bands:  1 eigenvalues not converged
     c_bands:  3 eigenvalues not converged
     c_bands:  1 eigenvalues not converged
     c_bands:  4 eigenvalues not converged
     ethr =  1.00E-06,  avg # of iterations = 18.7

     negative rho (up, down):  6.285E-03 0.000E+00

     total cpu time spent up to now is     6861.6 secs

     total energy              =   -3597.65765464 Ry
     estimated scf accuracy    <       0.21690239 Ry

     iteration #  2     ecut=   124.00 Ry     beta= 0.70
     Davidson diagonalization with overlap
     ethr =  9.35E-05,  avg # of iterations =  7.1

     negative rho (up, down):  6.760E-03 0.000E+00

     total cpu time spent up to now is     6971.5 secs

     total energy              =   -3596.92754925 Ry
     estimated scf accuracy    <      16.51090044 Ry

     iteration #  3     ecut=   124.00 Ry     beta= 0.70
     Davidson diagonalization with overlap
     ethr =  9.35E-05,  avg # of iterations =  6.1

     negative rho (up, down):  6.882E-03 0.000E+00

     total cpu time spent up to now is     7062.8 secs

     total energy              =   -3597.76281248 Ry
     estimated scf accuracy    <       0.20032609 Ry

     iteration #  4     ecut=   124.00 Ry     beta= 0.70
     Davidson diagonalization with overlap
     ethr =  8.63E-05,  avg # of iterations =  6.2

     negative rho (up, down):  6.899E-03 0.000E+00

     total cpu time spent up to now is     7135.0 secs

     total energy              =   -3597.74532362 Ry
     estimated scf accuracy    <       1.17875169 Ry

     iteration #  5     ecut=   124.00 Ry     beta= 0.70
     Davidson diagonalization with overlap
     ethr =  8.63E-05,  avg # of iterations =  4.2

     negative rho (up, down):  6.987E-03 0.000E+00

     total cpu time spent up to now is     7193.8 secs

     total energy              =   -3597.78912783 Ry
     estimated scf accuracy    <       0.26881808 Ry

     iteration #  6     ecut=   124.00 Ry     beta= 0.70
     Davidson diagonalization with overlap
     ethr =  8.63E-05,  avg # of iterations =  2.3

     negative rho (up, down):  6.958E-03 0.000E+00

     total cpu time spent up to now is     7244.6 secs

     total energy              =   -3597.80404726 Ry
     estimated scf accuracy    <       0.00231933 Ry

     iteration #  7     ecut=   124.00 Ry     beta= 0.70
     Davidson diagonalization with overlap
     c_bands:  1 eigenvalues not converged
     c_bands:  1 eigenvalues not converged
     c_bands:  1 eigenvalues not converged
     c_bands:  1 eigenvalues not converged
     c_bands:  1 eigenvalues not converged
     ethr =  1.00E-06,  avg # of iterations = 11.4

     negative rho (up, down):  6.957E-03 0.000E+00

     total cpu time spent up to now is     7355.9 secs

     total energy              =   -3597.80583485 Ry
     estimated scf accuracy    <       0.04295642 Ry

     iteration #  8     ecut=   124.00 Ry     beta= 0.70
     Davidson diagonalization with overlap
     ethr =  1.00E-06,  avg # of iterations =  4.1

     negative rho (up, down):  6.960E-03 0.000E+00

     total cpu time spent up to now is     7414.3 secs

     total energy              =   -3597.80638779 Ry
     estimated scf accuracy    <       0.00407208 Ry

     iteration #  9     ecut=   124.00 Ry     beta= 0.70
     Davidson diagonalization with overlap
     ethr =  1.00E-06,  avg # of iterations =  3.3

     negative rho (up, down):  6.961E-03 0.000E+00

     total cpu time spent up to now is     7469.4 secs

     total energy              =   -3597.80646791 Ry
     estimated scf accuracy    <       0.00271550 Ry

     iteration # 10     ecut=   124.00 Ry     beta= 0.70
     Davidson diagonalization with overlap
     ethr =  1.00E-06,  avg # of iterations =  1.1

     negative rho (up, down):  6.965E-03 0.000E+00

     total cpu time spent up to now is     7514.8 secs

     total energy              =   -3597.80653215 Ry
     estimated scf accuracy    <       0.00057194 Ry

     iteration # 11     ecut=   124.00 Ry     beta= 0.70
     Davidson diagonalization with overlap
     ethr =  2.47E-07,  avg # of iterations =  4.8

     negative rho (up, down):  6.966E-03 0.000E+00

     total cpu time spent up to now is     7577.0 secs

     total energy              =   -3597.80656847 Ry
     estimated scf accuracy    <       0.00091135 Ry

     iteration # 12     ecut=   124.00 Ry     beta= 0.70
     Davidson diagonalization with overlap
     ethr =  2.47E-07,  avg # of iterations =  1.2

     negative rho (up, down):  6.966E-03 0.000E+00

     total cpu time spent up to now is     7623.0 secs

     total energy              =   -3597.80660033 Ry
     estimated scf accuracy    <       0.00006411 Ry

     iteration # 13     ecut=   124.00 Ry     beta= 0.70
     Davidson diagonalization with overlap
     ethr =  2.76E-08,  avg # of iterations =  4.3

     negative rho (up, down):  6.966E-03 0.000E+00

     total cpu time spent up to now is     7684.0 secs

     total energy              =   -3597.80659967 Ry
     estimated scf accuracy    <       0.00022986 Ry

     iteration # 14     ecut=   124.00 Ry     beta= 0.70
     Davidson diagonalization with overlap
     ethr =  2.76E-08,  avg # of iterations =  2.4

     negative rho (up, down):  6.968E-03 0.000E+00

     total cpu time spent up to now is     7736.8 secs

     total energy              =   -3597.80660365 Ry
     estimated scf accuracy    <       0.00010265 Ry

     iteration # 15     ecut=   124.00 Ry     beta= 0.70
     Davidson diagonalization with overlap
     ethr =  2.76E-08,  avg # of iterations =  1.8

     negative rho (up, down):  6.967E-03 0.000E+00

     total cpu time spent up to now is     7786.8 secs

     total energy              =   -3597.80660639 Ry
     estimated scf accuracy    <       0.00004790 Ry

     iteration # 16     ecut=   124.00 Ry     beta= 0.70
     Davidson diagonalization with overlap
     ethr =  2.06E-08,  avg # of iterations =  1.1

     negative rho (up, down):  6.968E-03 0.000E+00

     total cpu time spent up to now is     7832.3 secs

     total energy              =   -3597.80660722 Ry
     estimated scf accuracy    <       0.00000486 Ry

     iteration # 17     ecut=   124.00 Ry     beta= 0.70
     Davidson diagonalization with overlap
     ethr =  2.10E-09,  avg # of iterations =  5.1

     negative rho (up, down):  6.967E-03 0.000E+00

     total cpu time spent up to now is     7902.6 secs

     total energy              =   -3597.80660673 Ry
     estimated scf accuracy    <       0.00006163 Ry

     iteration # 18     ecut=   124.00 Ry     beta= 0.70
     Davidson diagonalization with overlap
     ethr =  2.10E-09,  avg # of iterations =  4.1

     negative rho (up, down):  6.967E-03 0.000E+00

     total cpu time spent up to now is     7961.4 secs

     total energy              =   -3597.80660859 Ry
     estimated scf accuracy    <       0.00000319 Ry

     iteration # 19     ecut=   124.00 Ry     beta= 0.70
     Davidson diagonalization with overlap
     ethr =  1.38E-09,  avg # of iterations =  1.2

     negative rho (up, down):  6.967E-03 0.000E+00

     total cpu time spent up to now is     8007.0 secs

     total energy              =   -3597.80660867 Ry
     estimated scf accuracy    <       0.00000072 Ry

     iteration # 20     ecut=   124.00 Ry     beta= 0.70
     Davidson diagonalization with overlap
     ethr =  3.12E-10,  avg # of iterations =  3.4

     negative rho (up, down):  6.967E-03 0.000E+00

     total cpu time spent up to now is     8063.4 secs

     total energy              =   -3597.80660869 Ry
     estimated scf accuracy    <       0.00000072 Ry

     iteration # 21     ecut=   124.00 Ry     beta= 0.70
     Davidson diagonalization with overlap
     ethr =  3.11E-10,  avg # of iterations =  1.2

     negative rho (up, down):  6.967E-03 0.000E+00

     total cpu time spent up to now is     8109.4 secs

     total energy              =   -3597.80660872 Ry
     estimated scf accuracy    <       0.00000007 Ry

     iteration # 22     ecut=   124.00 Ry     beta= 0.70
     Davidson diagonalization with overlap
     ethr =  2.85E-11,  avg # of iterations =  5.2

     negative rho (up, down):  6.967E-03 0.000E+00

     total cpu time spent up to now is     8178.9 secs

     total energy              =   -3597.80660874 Ry
     estimated scf accuracy    <       0.00000018 Ry

     iteration # 23     ecut=   124.00 Ry     beta= 0.70
     Davidson diagonalization with overlap
     ethr =  2.85E-11,  avg # of iterations =  1.4

     negative rho (up, down):  6.967E-03 0.000E+00

     total cpu time spent up to now is     8227.1 secs

     total energy              =   -3597.80660874 Ry
     estimated scf accuracy    <       0.00000001 Ry

     iteration # 24     ecut=   124.00 Ry     beta= 0.70
     Davidson diagonalization with overlap
     ethr =  6.12E-12,  avg # of iterations =  3.5

     negative rho (up, down):  6.967E-03 0.000E+00

     total cpu time spent up to now is     8279.6 secs

     total energy              =   -3597.80660874 Ry
     estimated scf accuracy    <          6.0E-09 Ry

     iteration # 25     ecut=   124.00 Ry     beta= 0.70
     Davidson diagonalization with overlap
     ethr =  2.60E-12,  avg # of iterations =  3.5

     negative rho (up, down):  6.967E-03 0.000E+00

     total cpu time spent up to now is     8331.9 secs

     total energy              =   -3597.80660874 Ry
     estimated scf accuracy    <       0.00000001 Ry

     iteration # 26     ecut=   124.00 Ry     beta= 0.70
     Davidson diagonalization with overlap
     ethr =  2.60E-12,  avg # of iterations =  3.5

     negative rho (up, down):  6.967E-03 0.000E+00

     total cpu time spent up to now is     8384.4 secs

     total energy              =   -3597.80660875 Ry
     estimated scf accuracy    <          7.8E-09 Ry

     iteration # 27     ecut=   124.00 Ry     beta= 0.70
     Davidson diagonalization with overlap
     ethr =  2.60E-12,  avg # of iterations =  1.0

     negative rho (up, down):  6.967E-03 0.000E+00

     total cpu time spent up to now is     8426.5 secs

     total energy              =   -3597.80660875 Ry
     estimated scf accuracy    <          1.9E-10 Ry

     iteration # 28     ecut=   124.00 Ry     beta= 0.70
     Davidson diagonalization with overlap
     ethr =  1.00E-13,  avg # of iterations =  5.0

     negative rho (up, down):  6.967E-03 0.000E+00

     total cpu time spent up to now is     8501.2 secs

     total energy              =   -3597.80660875 Ry
     estimated scf accuracy    <          3.7E-10 Ry

     iteration # 29     ecut=   124.00 Ry     beta= 0.70
     Davidson diagonalization with overlap
     c_bands:  1 eigenvalues not converged
     ethr =  1.00E-13,  avg # of iterations =  5.0

     negative rho (up, down):  6.967E-03 0.000E+00

     total cpu time spent up to now is     8560.6 secs

     total energy              =   -3597.80660875 Ry
     estimated scf accuracy    <          6.5E-09 Ry

     iteration # 30     ecut=   124.00 Ry     beta= 0.70
     Davidson diagonalization with overlap
     ethr =  1.00E-13,  avg # of iterations =  4.4

     negative rho (up, down):  6.967E-03 0.000E+00

     total cpu time spent up to now is     8618.1 secs

     total energy              =   -3597.80660875 Ry
     estimated scf accuracy    <          6.2E-10 Ry

     iteration # 31     ecut=   124.00 Ry     beta= 0.70
     Davidson diagonalization with overlap
     ethr =  1.00E-13,  avg # of iterations =  2.3

     negative rho (up, down):  6.967E-03 0.000E+00

     total cpu time spent up to now is     8666.1 secs

     total energy              =   -3597.80660875 Ry
     estimated scf accuracy    <          1.7E-10 Ry

     iteration # 32     ecut=   124.00 Ry     beta= 0.70
     Davidson diagonalization with overlap
     ethr =  1.00E-13,  avg # of iterations =  1.4

     negative rho (up, down):  6.967E-03 0.000E+00

     total cpu time spent up to now is     8709.8 secs

     End of self-consistent calculation

     Number of k-points >= 100: set verbosity='high' to print the bands.

     the Fermi energy is    16.0921 ev

!    total energy              =   -3597.80660875 Ry
     estimated scf accuracy    <          2.5E-11 Ry
     smearing contrib. (-TS)   =       0.00030544 Ry
     internal energy E=F+TS    =   -3597.80691418 Ry

     The total energy is F=E-TS. E is the sum of the following terms:
     one-electron contribution =   -1289.37865694 Ry
     hartree contribution      =     766.74548488 Ry
     xc contribution           =    -428.97300560 Ry
     ewald contribution        =   -2036.99579384 Ry
     one-center paw contrib.   =    -609.20494268 Ry

     convergence has been achieved in  32 iterations

     negative rho (up, down):  6.967E-03 0.000E+00

     Forces acting on atoms (cartesian axes, Ry/au):

     atom    1 type  1   force =     0.00000000    0.00000000    0.00000000
     atom    2 type  1   force =     0.00000000    0.00000000    0.00000000
     atom    3 type  1   force =     0.00000000    0.00000000    0.00000000
     atom    4 type  1   force =     0.00000000    0.00000000    0.00000000
     atom    5 type  1   force =     0.00000000    0.00000000    0.00000000
     atom    6 type  1   force =     0.00000000    0.00000000    0.00000000
     atom    7 type  1   force =     0.00000000    0.00000000    0.00000000
     atom    8 type  1   force =     0.00000000    0.00000000    0.00000000
     atom    9 type  2   force =     0.00000013   -0.00000160   -0.00000160
     atom   10 type  2   force =    -0.00000004    0.00000151   -0.00000151
     atom   11 type  2   force =    -0.00000013   -0.00000160   -0.00000160
     atom   12 type  2   force =     0.00000013    0.00000160    0.00000160
     atom   13 type  2   force =     0.00000004   -0.00000151    0.00000151
     atom   14 type  2   force =    -0.00000013    0.00000160    0.00000160
     atom   15 type  2   force =    -0.00000004   -0.00000151    0.00000151
     atom   16 type  2   force =     0.00000004    0.00000151   -0.00000151
     atom   17 type  3   force =    -0.00000015    0.00000000    0.00000000
     atom   18 type  3   force =    -0.00000000   -0.00000024    0.00000024
     atom   19 type  3   force =     0.00000015    0.00000000    0.00000000
     atom   20 type  3   force =    -0.00000000    0.00000024   -0.00000024
     atom   21 type  3   force =     0.00000000   -0.00000024    0.00000024
     atom   22 type  3   force =    -0.00000025    0.00000000    0.00000000
     atom   23 type  3   force =     0.00000000    0.00000024   -0.00000024
     atom   24 type  3   force =     0.00000025    0.00000000    0.00000000

     Total force =     0.000006     Total SCF correction =     0.000014
     SCF correction compared to forces is large: reduce conv_thr to get better values


     Computing stress (Cartesian axis) and pressure


     negative rho (up, down):  6.967E-03 0.000E+00
          total   stress  (Ry/bohr**3)                   (kbar)     P=      -11.02
  -0.00040611   0.00000000   0.00000000          -59.74        0.00        0.00
   0.00000000   0.00009064   0.00001690            0.00       13.33        2.49
   0.00000000   0.00001690   0.00009064            0.00        2.49       13.33

     Energy error            =      6.2E-02 Ry
     Gradient error          =      1.6E-06 Ry/Bohr
     Cell gradient error     =      6.0E+01 kbar

     number of scf cycles    =   4
     number of bfgs steps    =   3

     enthalpy           old  =   -3597.7447881669 Ry
     enthalpy           new  =   -3597.8066087456 Ry

     CASE: enthalpy          _new < enthalpy          _old

     new trust radius        =       0.1463406201 bohr
     new conv_thr            =            1.0E-10 Ry

     new unit-cell volume =   1536.23835 a.u.^3 (   227.64704 Ang^3 )
     density =      6.11091 g/cm^3

CELL_PARAMETERS (alat=  5.58242261)
   2.394522960   0.000000000   0.000000000
   0.000000000   1.920386527  -0.007040680
   0.000000000  -0.007040680   1.920386527

ATOMIC_POSITIONS (crystal)
Fe               0.0000000000        0.0000000000        0.0000000000
Fe               0.5000000000        0.5000000000       -0.0000000000
Fe               0.5000000000        0.0000000000        0.0000000000
Fe               0.0000000000        0.5000000000        0.5000000000
Fe               0.0000000000       -0.0000000000        0.5000000000
Fe               0.5000000000        0.5000000000        0.5000000000
Fe               0.5000000000       -0.0000000000        0.5000000000
Fe               0.0000000000        0.5000000000       -0.0000000000
Ti               0.2499998334        0.2500001362        0.2500001362
Ti               0.7500000284        0.7499998347        0.2500001653
Ti               0.7500001666        0.2500001362        0.2500001362
Ti               0.2499998334        0.7499998638        0.7499998638
Ti               0.2499999716        0.2500001653        0.7499998347
Ti               0.7500001666        0.7499998638        0.7499998638
Ti               0.7500000284        0.2500001653        0.7499998347
Ti               0.2499999716        0.7499998347        0.2500001653
H                0.2500001535        0.5000000000        0.5000000000
H                0.5000000000        0.2499998773        0.7500001227
H                0.7499998465        0.5000000000        0.5000000000
H                0.5000000000        0.7500001227        0.2499998773
H                0.0000000000        0.2499998894        0.7500001106
H                0.2500003820        0.0000000000        0.0000000000
H                0.0000000000        0.7500001106        0.2499998894
H                0.7499996180        0.0000000000        0.0000000000



     Writing config-only to output data dir ./TiFeH_supercell.save/ :
     XML data file     NEW-OLD atomic charge density approx. for the potential
     New effective cutoffs (rho, wfc): 1896.16  135.43

     Check: negative core charge=   -0.000002

     negative rho (up, down):  6.882E-03 0.000E+00

     total cpu time spent up to now is     8751.1 secs

     per-process dynamical memory:   711.7 Mb

     Self-consistent Calculation

     iteration #  1     ecut=   124.00 Ry     beta= 0.70
     Davidson diagonalization with overlap
     ethr =  1.00E-06,  avg # of iterations = 11.0

     negative rho (up, down):  7.170E-03 0.000E+00

     total cpu time spent up to now is     8912.4 secs

     total energy              =   -3597.79115873 Ry
     estimated scf accuracy    <       0.02778227 Ry

     iteration #  2     ecut=   124.00 Ry     beta= 0.70
     Davidson diagonalization with overlap
     c_bands:  1 eigenvalues not converged
     ethr =  1.20E-05,  avg # of iterations =  8.3

     negative rho (up, down):  6.891E-03 0.000E+00

     total cpu time spent up to now is     9015.3 secs

     total energy              =   -3597.58943843 Ry
     estimated scf accuracy    <       5.17780595 Ry

     iteration #  3     ecut=   124.00 Ry     beta= 0.70
     Davidson diagonalization with overlap
     c_bands:  1 eigenvalues not converged
     ethr =  1.20E-05,  avg # of iterations =  7.0

     negative rho (up, down):  6.901E-03 0.000E+00

     total cpu time spent up to now is     9109.8 secs

     total energy              =   -3597.81371711 Ry
     estimated scf accuracy    <       0.00364619 Ry

     iteration #  4     ecut=   124.00 Ry     beta= 0.70
     Davidson diagonalization with overlap
     ethr =  1.57E-06,  avg # of iterations =  6.2

     negative rho (up, down):  6.914E-03 0.000E+00

     total cpu time spent up to now is     9186.7 secs

     total energy              =   -3597.81100281 Ry
     estimated scf accuracy    <       0.11554007 Ry

     iteration #  5     ecut=   124.00 Ry     beta= 0.70
     Davidson diagonalization with overlap
     ethr =  1.57E-06,  avg # of iterations =  5.8

     negative rho (up, down):  6.914E-03 0.000E+00

     total cpu time spent up to now is     9252.3 secs

     total energy              =   -3597.81475709 Ry
     estimated scf accuracy    <       0.00612082 Ry

     iteration #  6     ecut=   124.00 Ry     beta= 0.70
     Davidson diagonalization with overlap
     ethr =  1.57E-06,  avg # of iterations =  3.8

     negative rho (up, down):  6.914E-03 0.000E+00

     total cpu time spent up to now is     9305.4 secs

     total energy              =   -3597.81513086 Ry
     estimated scf accuracy    <       0.00092913 Ry

     iteration #  7     ecut=   124.00 Ry     beta= 0.70
     Davidson diagonalization with overlap
     ethr =  4.00E-07,  avg # of iterations =  3.7

     negative rho (up, down):  6.915E-03 0.000E+00

     total cpu time spent up to now is     9358.6 secs

     total energy              =   -3597.81519630 Ry
     estimated scf accuracy    <       0.00202617 Ry

     iteration #  8     ecut=   124.00 Ry     beta= 0.70
     Davidson diagonalization with overlap
     ethr =  4.00E-07,  avg # of iterations =  1.7

     negative rho (up, down):  6.916E-03 0.000E+00

     total cpu time spent up to now is     9405.2 secs

     total energy              =   -3597.81521537 Ry
     estimated scf accuracy    <       0.00114883 Ry

     iteration #  9     ecut=   124.00 Ry     beta= 0.70
     Davidson diagonalization with overlap
     ethr =  4.00E-07,  avg # of iterations =  1.2

     negative rho (up, down):  6.921E-03 0.000E+00

     total cpu time spent up to now is     9448.7 secs

     total energy              =   -3597.81526303 Ry
     estimated scf accuracy    <       0.00008649 Ry

     iteration # 10     ecut=   124.00 Ry     beta= 0.70
     Davidson diagonalization with overlap
     ethr =  3.73E-08,  avg # of iterations =  2.4

     negative rho (up, down):  6.921E-03 0.000E+00

     total cpu time spent up to now is     9498.8 secs

     total energy              =   -3597.81526236 Ry
     estimated scf accuracy    <       0.00013554 Ry

     iteration # 11     ecut=   124.00 Ry     beta= 0.70
     Davidson diagonalization with overlap
     ethr =  3.73E-08,  avg # of iterations =  1.2

     negative rho (up, down):  6.921E-03 0.000E+00

     total cpu time spent up to now is     9541.4 secs

     total energy              =   -3597.81526683 Ry
     estimated scf accuracy    <       0.00003309 Ry

     iteration # 12     ecut=   124.00 Ry     beta= 0.70
     Davidson diagonalization with overlap
     ethr =  1.43E-08,  avg # of iterations =  3.1

     negative rho (up, down):  6.921E-03 0.000E+00

     total cpu time spent up to now is     9593.4 secs

     total energy              =   -3597.81526474 Ry
     estimated scf accuracy    <       0.00013700 Ry

     iteration # 13     ecut=   124.00 Ry     beta= 0.70
     Davidson diagonalization with overlap
     ethr =  1.43E-08,  avg # of iterations =  1.6

     negative rho (up, down):  6.922E-03 0.000E+00

     total cpu time spent up to now is     9638.3 secs

     total energy              =   -3597.81526920 Ry
     estimated scf accuracy    <       0.00000181 Ry

     iteration # 14     ecut=   124.00 Ry     beta= 0.70
     Davidson diagonalization with overlap
     ethr =  7.82E-10,  avg # of iterations =  6.2

     negative rho (up, down):  6.921E-03 0.000E+00

     total cpu time spent up to now is     9716.4 secs

     total energy              =   -3597.81526906 Ry
     estimated scf accuracy    <       0.00002681 Ry

     iteration # 15     ecut=   124.00 Ry     beta= 0.70
     Davidson diagonalization with overlap
     ethr =  7.82E-10,  avg # of iterations =  4.8

     negative rho (up, down):  6.921E-03 0.000E+00

     total cpu time spent up to now is     9778.5 secs

     total energy              =   -3597.81526929 Ry
     estimated scf accuracy    <       0.00002039 Ry

     iteration # 16     ecut=   124.00 Ry     beta= 0.70
     Davidson diagonalization with overlap
     ethr =  7.82E-10,  avg # of iterations =  4.3

     negative rho (up, down):  6.921E-03 0.000E+00

     total cpu time spent up to now is     9836.9 secs

     total energy              =   -3597.81527008 Ry
     estimated scf accuracy    <       0.00000028 Ry

     iteration # 17     ecut=   124.00 Ry     beta= 0.70
     Davidson diagonalization with overlap
     ethr =  1.19E-10,  avg # of iterations =  4.4

     negative rho (up, down):  6.921E-03 0.000E+00

     total cpu time spent up to now is     9895.5 secs

     total energy              =   -3597.81527009 Ry
     estimated scf accuracy    <       0.00000061 Ry

     iteration # 18     ecut=   124.00 Ry     beta= 0.70
     Davidson diagonalization with overlap
     ethr =  1.19E-10,  avg # of iterations =  3.1

     negative rho (up, down):  6.921E-03 0.000E+00

     total cpu time spent up to now is     9946.9 secs

     total energy              =   -3597.81527008 Ry
     estimated scf accuracy    <       0.00000070 Ry

     iteration # 19     ecut=   124.00 Ry     beta= 0.70
     Davidson diagonalization with overlap
     ethr =  1.19E-10,  avg # of iterations =  2.3

     negative rho (up, down):  6.921E-03 0.000E+00

     total cpu time spent up to now is     9995.7 secs

     total energy              =   -3597.81527011 Ry
     estimated scf accuracy    <       0.00000072 Ry

     iteration # 20     ecut=   124.00 Ry     beta= 0.70
     Davidson diagonalization with overlap
     ethr =  1.19E-10,  avg # of iterations =  1.2

     negative rho (up, down):  6.921E-03 0.000E+00

     total cpu time spent up to now is    10038.6 secs

     total energy              =   -3597.81527013 Ry
     estimated scf accuracy    <       0.00000005 Ry

     iteration # 21     ecut=   124.00 Ry     beta= 0.70
     Davidson diagonalization with overlap
     ethr =  1.99E-11,  avg # of iterations =  4.0

     negative rho (up, down):  6.921E-03 0.000E+00

     total cpu time spent up to now is    10094.0 secs

     total energy              =   -3597.81527012 Ry
     estimated scf accuracy    <       0.00000038 Ry

     iteration # 22     ecut=   124.00 Ry     beta= 0.70
     Davidson diagonalization with overlap
     ethr =  1.99E-11,  avg # of iterations =  2.8

     negative rho (up, down):  6.921E-03 0.000E+00

     total cpu time spent up to now is    10143.3 secs

     total energy              =   -3597.81527014 Ry
     estimated scf accuracy    <          9.1E-09 Ry

     iteration # 23     ecut=   124.00 Ry     beta= 0.70
     Davidson diagonalization with overlap
     ethr =  3.91E-12,  avg # of iterations =  4.0

     negative rho (up, down):  6.921E-03 0.000E+00

     total cpu time spent up to now is    10198.1 secs

     total energy              =   -3597.81527014 Ry
     estimated scf accuracy    <          7.4E-10 Ry

     iteration # 24     ecut=   124.00 Ry     beta= 0.70
     Davidson diagonalization with overlap
     ethr =  3.17E-13,  avg # of iterations =  5.0

     negative rho (up, down):  6.921E-03 0.000E+00

     total cpu time spent up to now is    10269.9 secs

     total energy              =   -3597.81527014 Ry
     estimated scf accuracy    <          5.0E-10 Ry

     iteration # 25     ecut=   124.00 Ry     beta= 0.70
     Davidson diagonalization with overlap
     ethr =  2.15E-13,  avg # of iterations =  3.4

     negative rho (up, down):  6.921E-03 0.000E+00

     total cpu time spent up to now is    10321.4 secs

     total energy              =   -3597.81527014 Ry
     estimated scf accuracy    <          2.4E-09 Ry

     iteration # 26     ecut=   124.00 Ry     beta= 0.70
     Davidson diagonalization with overlap
     ethr =  2.15E-13,  avg # of iterations =  2.4

     negative rho (up, down):  6.921E-03 0.000E+00

     total cpu time spent up to now is    10369.6 secs

     total energy              =   -3597.81527014 Ry
     estimated scf accuracy    <          1.3E-10 Ry

     iteration # 27     ecut=   124.00 Ry     beta= 0.70
     Davidson diagonalization with overlap
     ethr =  1.00E-13,  avg # of iterations =  2.0

     negative rho (up, down):  6.921E-03 0.000E+00

     total cpu time spent up to now is    10416.4 secs

     End of self-consistent calculation

     Number of k-points >= 100: set verbosity='high' to print the bands.

     the Fermi energy is    16.1193 ev

!    total energy              =   -3597.81527014 Ry
     estimated scf accuracy    <          6.5E-11 Ry
     smearing contrib. (-TS)   =       0.00001876 Ry
     internal energy E=F+TS    =   -3597.81528890 Ry

     The total energy is F=E-TS. E is the sum of the following terms:
     one-electron contribution =   -1291.24653915 Ry
     hartree contribution      =     767.34659034 Ry
     xc contribution           =    -428.97700425 Ry
     ewald contribution        =   -2035.73440382 Ry
     one-center paw contrib.   =    -609.20393202 Ry

     convergence has been achieved in  27 iterations

     negative rho (up, down):  6.921E-03 0.000E+00

     Forces acting on atoms (cartesian axes, Ry/au):

     atom    1 type  1   force =     0.00000000    0.00000000    0.00000000
     atom    2 type  1   force =     0.00000000    0.00000000    0.00000000
     atom    3 type  1   force =     0.00000000    0.00000000    0.00000000
     atom    4 type  1   force =     0.00000000    0.00000000    0.00000000
     atom    5 type  1   force =     0.00000000    0.00000000    0.00000000
     atom    6 type  1   force =     0.00000000    0.00000000    0.00000000
     atom    7 type  1   force =     0.00000000    0.00000000    0.00000000
     atom    8 type  1   force =     0.00000000    0.00000000    0.00000000
     atom    9 type  2   force =    -0.00000061   -0.00000071   -0.00000071
     atom   10 type  2   force =     0.00000058    0.00000063   -0.00000063
     atom   11 type  2   force =     0.00000061   -0.00000071   -0.00000071
     atom   12 type  2   force =    -0.00000061    0.00000071    0.00000071
     atom   13 type  2   force =    -0.00000058   -0.00000063    0.00000063
     atom   14 type  2   force =     0.00000061    0.00000071    0.00000071
     atom   15 type  2   force =     0.00000058   -0.00000063    0.00000063
     atom   16 type  2   force =    -0.00000058    0.00000063   -0.00000063
     atom   17 type  3   force =    -0.00000010    0.00000000    0.00000000
     atom   18 type  3   force =     0.00000000   -0.00000018    0.00000018
     atom   19 type  3   force =     0.00000010    0.00000000    0.00000000
     atom   20 type  3   force =     0.00000000    0.00000018   -0.00000018
     atom   21 type  3   force =     0.00000000   -0.00000020    0.00000020
     atom   22 type  3   force =    -0.00000031    0.00000000    0.00000000
     atom   23 type  3   force =     0.00000000    0.00000020   -0.00000020
     atom   24 type  3   force =     0.00000031    0.00000000    0.00000000

     Total force =     0.000003     Total SCF correction =     0.000032
     SCF correction compared to forces is large: reduce conv_thr to get better values


     Computing stress (Cartesian axis) and pressure


     negative rho (up, down):  6.921E-03 0.000E+00
          total   stress  (Ry/bohr**3)                   (kbar)     P=      -10.89
  -0.00011654   0.00000000   0.00000000          -17.14        0.00        0.00
   0.00000000  -0.00005273   0.00001576            0.00       -7.76        2.32
   0.00000000   0.00001576  -0.00005273            0.00        2.32       -7.76

     Energy error            =      8.7E-03 Ry
     Gradient error          =      7.1E-07 Ry/Bohr
     Cell gradient error     =      1.7E+01 kbar

     number of scf cycles    =   5
     number of bfgs steps    =   4

     enthalpy           old  =   -3597.8066087456 Ry
     enthalpy           new  =   -3597.8152701374 Ry

     CASE: enthalpy          _new < enthalpy          _old

     new trust radius        =       0.0298431272 bohr
     new conv_thr            =            1.0E-10 Ry

     new unit-cell volume =   1531.37716 a.u.^3 (   226.92668 Ang^3 )
     density =      6.13031 g/cm^3

CELL_PARAMETERS (alat=  5.58242261)
   2.385406966   0.000000000   0.000000000
   0.000000000   1.921002206  -0.005957454
   0.000000000  -0.005957454   1.921002206

ATOMIC_POSITIONS (crystal)
Fe               0.0000000000        0.0000000000        0.0000000000
Fe               0.5000000000        0.5000000000       -0.0000000000
Fe               0.5000000000        0.0000000000        0.0000000000
Fe               0.0000000000        0.5000000000        0.5000000000
Fe               0.0000000000       -0.0000000000        0.5000000000
Fe               0.5000000000        0.5000000000        0.5000000000
Fe               0.5000000000       -0.0000000000        0.5000000000
Fe               0.0000000000        0.5000000000       -0.0000000000
Ti               0.2499997562        0.2500000705        0.2500000705
Ti               0.7500001081        0.7499998945        0.2500001055
Ti               0.7500002438        0.2500000705        0.2500000705
Ti               0.2499997562        0.7499999295        0.7499999295
Ti               0.2499998919        0.2500001055        0.7499998945
Ti               0.7500002438        0.7499999295        0.7499999295
Ti               0.7500001081        0.2500001055        0.7499998945
Ti               0.2499998919        0.7499998945        0.2500001055
H                0.2500001285        0.5000000000        0.5000000000
H                0.5000000000        0.2499998621        0.7500001379
H                0.7499998715        0.5000000000        0.5000000000
H                0.5000000000        0.7500001379        0.2499998621
H                0.0000000000        0.2499998740        0.7500001260
H                0.2500003506        0.0000000000        0.0000000000
H                0.0000000000        0.7500001260        0.2499998740
H                0.7499996494        0.0000000000        0.0000000000



     Writing config-only to output data dir ./TiFeH_supercell.save/ :
     XML data file     NEW-OLD atomic charge density approx. for the potential
     New effective cutoffs (rho, wfc): 1892.86  135.19

     Check: negative core charge=   -0.000002

     negative rho (up, down):  6.906E-03 0.000E+00

     total cpu time spent up to now is    10457.7 secs

     per-process dynamical memory:   711.7 Mb

     Self-consistent Calculation

     iteration #  1     ecut=   124.00 Ry     beta= 0.70
     Davidson diagonalization with overlap
     ethr =  1.00E-06,  avg # of iterations =  5.0

     negative rho (up, down):  6.954E-03 0.000E+00

     total cpu time spent up to now is    10543.4 secs

     total energy              =   -3597.81537151 Ry
     estimated scf accuracy    <       0.00029762 Ry

     iteration #  2     ecut=   124.00 Ry     beta= 0.70
     Davidson diagonalization with overlap
     ethr =  1.28E-07,  avg # of iterations =  6.2

     negative rho (up, down):  6.931E-03 0.000E+00

     total cpu time spent up to now is    10641.3 secs

     total energy              =   -3597.81384448 Ry
     estimated scf accuracy    <       0.03947065 Ry

     iteration #  3     ecut=   124.00 Ry     beta= 0.70
     Davidson diagonalization with overlap
     ethr =  1.28E-07,  avg # of iterations =  5.8

     negative rho (up, down):  6.926E-03 0.000E+00

     total cpu time spent up to now is    10719.5 secs

     total energy              =   -3597.81552286 Ry
     estimated scf accuracy    <       0.00144246 Ry

     iteration #  4     ecut=   124.00 Ry     beta= 0.70
     Davidson diagonalization with overlap
     ethr =  1.28E-07,  avg # of iterations =  4.4

     negative rho (up, down):  6.922E-03 0.000E+00

     total cpu time spent up to now is    10776.6 secs

     total energy              =   -3597.81559258 Ry
     estimated scf accuracy    <       0.00117328 Ry

     iteration #  5     ecut=   124.00 Ry     beta= 0.70
     Davidson diagonalization with overlap
     ethr =  1.28E-07,  avg # of iterations =  4.2

     negative rho (up, down):  6.922E-03 0.000E+00

     total cpu time spent up to now is    10832.5 secs

     total energy              =   -3597.81562034 Ry
     estimated scf accuracy    <       0.00047582 Ry

     iteration #  6     ecut=   124.00 Ry     beta= 0.70
     Davidson diagonalization with overlap
     ethr =  1.28E-07,  avg # of iterations =  2.0

     negative rho (up, down):  6.922E-03 0.000E+00

     total cpu time spent up to now is    10879.8 secs

     total energy              =   -3597.81562783 Ry
     estimated scf accuracy    <       0.00062995 Ry

     iteration #  7     ecut=   124.00 Ry     beta= 0.70
     Davidson diagonalization with overlap
     ethr =  1.28E-07,  avg # of iterations =  1.7

     negative rho (up, down):  6.924E-03 0.000E+00

     total cpu time spent up to now is    10924.8 secs

     total energy              =   -3597.81564950 Ry
     estimated scf accuracy    <       0.00000428 Ry

     iteration #  8     ecut=   124.00 Ry     beta= 0.70
     Davidson diagonalization with overlap
     ethr =  1.85E-09,  avg # of iterations =  5.5

     negative rho (up, down):  6.925E-03 0.000E+00

     total cpu time spent up to now is    10999.7 secs

     total energy              =   -3597.81564792 Ry
     estimated scf accuracy    <       0.00012275 Ry

     iteration #  9     ecut=   124.00 Ry     beta= 0.70
     Davidson diagonalization with overlap
     ethr =  1.85E-09,  avg # of iterations =  4.9

     negative rho (up, down):  6.925E-03 0.000E+00

     total cpu time spent up to now is    11061.8 secs

     total energy              =   -3597.81565188 Ry
     estimated scf accuracy    <       0.00000227 Ry

     iteration # 10     ecut=   124.00 Ry     beta= 0.70
     Davidson diagonalization with overlap
     ethr =  9.77E-10,  avg # of iterations =  4.5

     negative rho (up, down):  6.925E-03 0.000E+00

     total cpu time spent up to now is    11120.5 secs

     total energy              =   -3597.81565085 Ry
     estimated scf accuracy    <       0.00004391 Ry

     iteration # 11     ecut=   124.00 Ry     beta= 0.70
     Davidson diagonalization with overlap
     ethr =  9.77E-10,  avg # of iterations =  4.4

     negative rho (up, down):  6.926E-03 0.000E+00

     total cpu time spent up to now is    11177.4 secs

     total energy              =   -3597.81565223 Ry
     estimated scf accuracy    <       0.00000006 Ry

     iteration # 12     ecut=   124.00 Ry     beta= 0.70
     Davidson diagonalization with overlap
     ethr =  2.72E-11,  avg # of iterations =  5.2

     negative rho (up, down):  6.926E-03 0.000E+00

     total cpu time spent up to now is    11256.4 secs

     total energy              =   -3597.81565222 Ry
     estimated scf accuracy    <       0.00000086 Ry

     iteration # 13     ecut=   124.00 Ry     beta= 0.70
     Davidson diagonalization with overlap
     ethr =  2.72E-11,  avg # of iterations =  4.7

     negative rho (up, down):  6.926E-03 0.000E+00

     total cpu time spent up to now is    11317.9 secs

     total energy              =   -3597.81565226 Ry
     estimated scf accuracy    <       0.00000009 Ry

     iteration # 14     ecut=   124.00 Ry     beta= 0.70
     Davidson diagonalization with overlap
     ethr =  2.72E-11,  avg # of iterations =  5.0

     negative rho (up, down):  6.926E-03 0.000E+00

     total cpu time spent up to now is    11380.1 secs

     total energy              =   -3597.81565222 Ry
     estimated scf accuracy    <       0.00000178 Ry

     iteration # 15     ecut=   124.00 Ry     beta= 0.70
     Davidson diagonalization with overlap
     ethr =  2.72E-11,  avg # of iterations =  4.8

     negative rho (up, down):  6.926E-03 0.000E+00

     total cpu time spent up to now is    11439.9 secs

     total energy              =   -3597.81565227 Ry
     estimated scf accuracy    <          6.2E-09 Ry

     iteration # 16     ecut=   124.00 Ry     beta= 0.70
     Davidson diagonalization with overlap
     ethr =  2.65E-12,  avg # of iterations =  4.5

     negative rho (up, down):  6.926E-03 0.000E+00

     total cpu time spent up to now is    11500.0 secs

     total energy              =   -3597.81565227 Ry
     estimated scf accuracy    <       0.00000011 Ry

     iteration # 17     ecut=   124.00 Ry     beta= 0.70
     Davidson diagonalization with overlap
     ethr =  2.65E-12,  avg # of iterations =  4.4

     negative rho (up, down):  6.926E-03 0.000E+00

     total cpu time spent up to now is    11556.4 secs

     total energy              =   -3597.81565228 Ry
     estimated scf accuracy    <       0.00000001 Ry

     iteration # 18     ecut=   124.00 Ry     beta= 0.70
     Davidson diagonalization with overlap
     ethr =  2.65E-12,  avg # of iterations =  1.6

     negative rho (up, down):  6.926E-03 0.000E+00

     total cpu time spent up to now is    11601.5 secs

     total energy              =   -3597.81565228 Ry
     estimated scf accuracy    <          2.7E-09 Ry

     iteration # 19     ecut=   124.00 Ry     beta= 0.70
     Davidson diagonalization with overlap
     ethr =  1.16E-12,  avg # of iterations =  2.1

     negative rho (up, down):  6.926E-03 0.000E+00

     total cpu time spent up to now is    11649.4 secs

     total energy              =   -3597.81565228 Ry
     estimated scf accuracy    <          2.4E-09 Ry

     iteration # 20     ecut=   124.00 Ry     beta= 0.70
     Davidson diagonalization with overlap
     ethr =  1.04E-12,  avg # of iterations =  1.1

     negative rho (up, down):  6.926E-03 0.000E+00

     total cpu time spent up to now is    11691.9 secs

     total energy              =   -3597.81565228 Ry
     estimated scf accuracy    <          6.3E-10 Ry

     iteration # 21     ecut=   124.00 Ry     beta= 0.70
     Davidson diagonalization with overlap
     ethr =  2.70E-13,  avg # of iterations =  2.6

     negative rho (up, down):  6.926E-03 0.000E+00

     total cpu time spent up to now is    11740.3 secs

     total energy              =   -3597.81565228 Ry
     estimated scf accuracy    <          1.5E-10 Ry

     iteration # 22     ecut=   124.00 Ry     beta= 0.70
     Davidson diagonalization with overlap
     ethr =  1.00E-13,  avg # of iterations =  2.1

     negative rho (up, down):  6.926E-03 0.000E+00

     total cpu time spent up to now is    11789.4 secs

     total energy              =   -3597.81565228 Ry
     estimated scf accuracy    <          2.4E-10 Ry

     iteration # 23     ecut=   124.00 Ry     beta= 0.70
     Davidson diagonalization with overlap
     ethr =  1.00E-13,  avg # of iterations =  1.3

     negative rho (up, down):  6.926E-03 0.000E+00

     total cpu time spent up to now is    11832.4 secs

     End of self-consistent calculation

     Number of k-points >= 100: set verbosity='high' to print the bands.

     the Fermi energy is    16.1900 ev

!    total energy              =   -3597.81565228 Ry
     estimated scf accuracy    <          5.2E-11 Ry
     smearing contrib. (-TS)   =      -0.00012045 Ry
     internal energy E=F+TS    =   -3597.81553183 Ry

     The total energy is F=E-TS. E is the sum of the following terms:
     one-electron contribution =   -1287.92683820 Ry
     hartree contribution      =     766.20306301 Ry
     xc contribution           =    -429.02820492 Ry
     ewald contribution        =   -2037.85908064 Ry
     one-center paw contrib.   =    -609.20447109 Ry

     convergence has been achieved in  23 iterations

     negative rho (up, down):  6.926E-03 0.000E+00

     Forces acting on atoms (cartesian axes, Ry/au):

     atom    1 type  1   force =     0.00000000    0.00000000    0.00000000
     atom    2 type  1   force =     0.00000000    0.00000000    0.00000000
     atom    3 type  1   force =     0.00000000    0.00000000    0.00000000
     atom    4 type  1   force =     0.00000000    0.00000000    0.00000000
     atom    5 type  1   force =     0.00000000    0.00000000    0.00000000
     atom    6 type  1   force =     0.00000000    0.00000000    0.00000000
     atom    7 type  1   force =     0.00000000    0.00000000    0.00000000
     atom    8 type  1   force =     0.00000000    0.00000000    0.00000000
     atom    9 type  2   force =    -0.00000005   -0.00000033   -0.00000033
     atom   10 type  2   force =    -0.00000018    0.00000032   -0.00000032
     atom   11 type  2   force =     0.00000005   -0.00000033   -0.00000033
     atom   12 type  2   force =    -0.00000005    0.00000033    0.00000033
     atom   13 type  2   force =     0.00000018   -0.00000032    0.00000032
     atom   14 type  2   force =     0.00000005    0.00000033    0.00000033
     atom   15 type  2   force =    -0.00000018   -0.00000032    0.00000032
     atom   16 type  2   force =     0.00000018    0.00000032   -0.00000032
     atom   17 type  3   force =    -0.00000006    0.00000000    0.00000000
     atom   18 type  3   force =    -0.00000000   -0.00000015    0.00000015
     atom   19 type  3   force =     0.00000006    0.00000000    0.00000000
     atom   20 type  3   force =    -0.00000000    0.00000015   -0.00000015
     atom   21 type  3   force =     0.00000000   -0.00000016    0.00000016
     atom   22 type  3   force =    -0.00000036    0.00000000    0.00000000
     atom   23 type  3   force =     0.00000000    0.00000016   -0.00000016
     atom   24 type  3   force =     0.00000036    0.00000000    0.00000000

     Total force =     0.000002     Total SCF correction =     0.000016
     SCF correction compared to forces is large: reduce conv_thr to get better values


     Computing stress (Cartesian axis) and pressure


     negative rho (up, down):  6.926E-03 0.000E+00
          total   stress  (Ry/bohr**3)                   (kbar)     P=       -4.54
  -0.00002055   0.00000000   0.00000000           -3.02        0.00        0.00
   0.00000000  -0.00003606   0.00001316            0.00       -5.30        1.94
   0.00000000   0.00001316  -0.00003606            0.00        1.94       -5.30

     Energy error            =      3.8E-04 Ry
     Gradient error          =      3.6E-07 Ry/Bohr
     Cell gradient error     =      5.3E+00 kbar

     number of scf cycles    =   6
     number of bfgs steps    =   5

     enthalpy           old  =   -3597.8152701374 Ry
     enthalpy           new  =   -3597.8156522792 Ry

     CASE: enthalpy          _new < enthalpy          _old

     new trust radius        =       0.0086442107 bohr
     new conv_thr            =            1.0E-10 Ry

     new unit-cell volume =   1527.86511 a.u.^3 (   226.40625 Ang^3 )
     density =      6.14440 g/cm^3

CELL_PARAMETERS (alat=  5.58242261)
   2.384541229   0.000000000   0.000000000
   0.000000000   1.919143508  -0.004922784
   0.000000000  -0.004922784   1.919143508

ATOMIC_POSITIONS (crystal)
Fe               0.0000000000        0.0000000000        0.0000000000
Fe               0.5000000000        0.5000000000       -0.0000000000
Fe               0.5000000000        0.0000000000        0.0000000000
Fe               0.0000000000        0.5000000000        0.5000000000
Fe               0.0000000000       -0.0000000000        0.5000000000
Fe               0.5000000000        0.5000000000        0.5000000000
Fe               0.5000000000       -0.0000000000        0.5000000000
Fe               0.0000000000        0.5000000000       -0.0000000000
Ti               0.2499997378        0.2500000257        0.2500000257
Ti               0.7500000989        0.7499999374        0.2500000626
Ti               0.7500002622        0.2500000257        0.2500000257
Ti               0.2499997378        0.7499999743        0.7499999743
Ti               0.2499999011        0.2500000626        0.7499999374
Ti               0.7500002622        0.7499999743        0.7499999743
Ti               0.7500000989        0.2500000626        0.7499999374
Ti               0.2499999011        0.7499999374        0.2500000626
H                0.2500001153        0.5000000000        0.5000000000
H                0.5000000000        0.2499998440        0.7500001560
H                0.7499998847        0.5000000000        0.5000000000
H                0.5000000000        0.7500001560        0.2499998440
H                0.0000000000        0.2499998553        0.7500001447
H                0.2500003035        0.0000000000        0.0000000000
H                0.0000000000        0.7500001447        0.2499998553
H                0.7499996965        0.0000000000        0.0000000000



     Writing config-only to output data dir ./TiFeH_supercell.save/ :
     XML data file     NEW-OLD atomic charge density approx. for the potential
     New effective cutoffs (rho, wfc): 1894.54  135.31

     Check: negative core charge=   -0.000002

     negative rho (up, down):  6.917E-03 0.000E+00

     total cpu time spent up to now is    11873.6 secs

     per-process dynamical memory:   711.7 Mb

     Self-consistent Calculation

     iteration #  1     ecut=   124.00 Ry     beta= 0.70
     Davidson diagonalization with overlap
     ethr =  1.00E-06,  avg # of iterations =  2.5

     Threshold (ethr) on eigenvalues was too large:
     Diagonalizing with lowered threshold

     Davidson diagonalization with overlap
     ethr =  4.03E-09,  avg # of iterations =  7.1

     negative rho (up, down):  6.923E-03 0.000E+00

     total cpu time spent up to now is    12055.2 secs

     total energy              =   -3597.81568856 Ry
     estimated scf accuracy    <       0.00002273 Ry

     iteration #  2     ecut=   124.00 Ry     beta= 0.70
     Davidson diagonalization with overlap
     ethr =  9.80E-09,  avg # of iterations =  6.3

     negative rho (up, down):  6.929E-03 0.000E+00

     total cpu time spent up to now is    12136.4 secs

     total energy              =   -3597.81560495 Ry
     estimated scf accuracy    <       0.00251491 Ry

     iteration #  3     ecut=   124.00 Ry     beta= 0.70
     Davidson diagonalization with overlap
     ethr =  9.80E-09,  avg # of iterations =  5.4

     negative rho (up, down):  6.929E-03 0.000E+00

     total cpu time spent up to now is    12213.1 secs

     total energy              =   -3597.81572677 Ry
     estimated scf accuracy    <       0.00014027 Ry

     iteration #  4     ecut=   124.00 Ry     beta= 0.70
     Davidson diagonalization with overlap
     ethr =  9.80E-09,  avg # of iterations =  4.2

     negative rho (up, down):  6.926E-03 0.000E+00

     total cpu time spent up to now is    12270.7 secs

     total energy              =   -3597.81573306 Ry
     estimated scf accuracy    <       0.00012778 Ry

     iteration #  5     ecut=   124.00 Ry     beta= 0.70
     Davidson diagonalization with overlap
     ethr =  9.80E-09,  avg # of iterations =  4.0

     negative rho (up, down):  6.926E-03 0.000E+00

     total cpu time spent up to now is    12324.3 secs

     total energy              =   -3597.81573608 Ry
     estimated scf accuracy    <       0.00003957 Ry

     iteration #  6     ecut=   124.00 Ry     beta= 0.70
     Davidson diagonalization with overlap
     ethr =  9.80E-09,  avg # of iterations =  1.8

     negative rho (up, down):  6.926E-03 0.000E+00

     total cpu time spent up to now is    12370.1 secs

     total energy              =   -3597.81573732 Ry
     estimated scf accuracy    <       0.00001993 Ry

     iteration #  7     ecut=   124.00 Ry     beta= 0.70
     Davidson diagonalization with overlap
     ethr =  8.59E-09,  avg # of iterations =  1.7

     negative rho (up, down):  6.927E-03 0.000E+00

     total cpu time spent up to now is    12415.3 secs

     total energy              =   -3597.81573793 Ry
     estimated scf accuracy    <       0.00000483 Ry

     iteration #  8     ecut=   124.00 Ry     beta= 0.70
     Davidson diagonalization with overlap
     ethr =  2.08E-09,  avg # of iterations =  2.8

     negative rho (up, down):  6.927E-03 0.000E+00

     total cpu time spent up to now is    12465.6 secs

     total energy              =   -3597.81573830 Ry
     estimated scf accuracy    <       0.00000926 Ry

     iteration #  9     ecut=   124.00 Ry     beta= 0.70
     Davidson diagonalization with overlap
     ethr =  2.08E-09,  avg # of iterations =  1.0

     negative rho (up, down):  6.927E-03 0.000E+00

     total cpu time spent up to now is    12507.8 secs

     total energy              =   -3597.81573858 Ry
     estimated scf accuracy    <       0.00000024 Ry

     iteration # 10     ecut=   124.00 Ry     beta= 0.70
     Davidson diagonalization with overlap
     ethr =  1.04E-10,  avg # of iterations =  4.7

     negative rho (up, down):  6.927E-03 0.000E+00

     total cpu time spent up to now is    12566.6 secs

     total energy              =   -3597.81573861 Ry
     estimated scf accuracy    <       0.00000103 Ry

     iteration # 11     ecut=   124.00 Ry     beta= 0.70
     Davidson diagonalization with overlap
     ethr =  1.04E-10,  avg # of iterations =  2.2

     negative rho (up, down):  6.928E-03 0.000E+00

     total cpu time spent up to now is    12614.9 secs

     total energy              =   -3597.81573864 Ry
     estimated scf accuracy    <       0.00000016 Ry

     iteration # 12     ecut=   124.00 Ry     beta= 0.70
     Davidson diagonalization with overlap
     ethr =  6.99E-11,  avg # of iterations =  2.0

     negative rho (up, down):  6.928E-03 0.000E+00

     total cpu time spent up to now is    12662.6 secs

     total energy              =   -3597.81573865 Ry
     estimated scf accuracy    <       0.00000011 Ry

     iteration # 13     ecut=   124.00 Ry     beta= 0.70
     Davidson diagonalization with overlap
     ethr =  4.87E-11,  avg # of iterations =  1.0

     negative rho (up, down):  6.928E-03 0.000E+00

     total cpu time spent up to now is    12704.2 secs

     total energy              =   -3597.81573865 Ry
     estimated scf accuracy    <       0.00000001 Ry

     iteration # 14     ecut=   124.00 Ry     beta= 0.70
     Davidson diagonalization with overlap
     ethr =  4.50E-12,  avg # of iterations =  5.0

     negative rho (up, down):  6.928E-03 0.000E+00

     total cpu time spent up to now is    12768.2 secs

     total energy              =   -3597.81573865 Ry
     estimated scf accuracy    <       0.00000024 Ry

     iteration # 15     ecut=   124.00 Ry     beta= 0.70
     Davidson diagonalization with overlap
     ethr =  4.50E-12,  avg # of iterations =  4.3

     negative rho (up, down):  6.928E-03 0.000E+00

     total cpu time spent up to now is    12826.0 secs

     total energy              =   -3597.81573866 Ry
     estimated scf accuracy    <          9.8E-10 Ry

     iteration # 16     ecut=   124.00 Ry     beta= 0.70
     Davidson diagonalization with overlap
     ethr =  4.23E-13,  avg # of iterations =  4.8

     negative rho (up, down):  6.928E-03 0.000E+00

     total cpu time spent up to now is    12888.5 secs

     total energy              =   -3597.81573866 Ry
     estimated scf accuracy    <          2.6E-09 Ry

     iteration # 17     ecut=   124.00 Ry     beta= 0.70
     Davidson diagonalization with overlap
     ethr =  4.23E-13,  avg # of iterations =  2.8

     negative rho (up, down):  6.928E-03 0.000E+00

     total cpu time spent up to now is    12939.8 secs

     total energy              =   -3597.81573866 Ry
     estimated scf accuracy    <          3.1E-09 Ry

     iteration # 18     ecut=   124.00 Ry     beta= 0.70
     Davidson diagonalization with overlap
     ethr =  4.23E-13,  avg # of iterations =  2.0

     negative rho (up, down):  6.928E-03 0.000E+00

     total cpu time spent up to now is    12987.7 secs

     total energy              =   -3597.81573866 Ry
     estimated scf accuracy    <          1.4E-09 Ry

     iteration # 19     ecut=   124.00 Ry     beta= 0.70
     Davidson diagonalization with overlap
     ethr =  4.23E-13,  avg # of iterations =  1.0

     negative rho (up, down):  6.928E-03 0.000E+00

     total cpu time spent up to now is    13029.3 secs

     total energy              =   -3597.81573867 Ry
     estimated scf accuracy    <          1.0E-10 Ry

     iteration # 20     ecut=   124.00 Ry     beta= 0.70
     Davidson diagonalization with overlap
     ethr =  1.00E-13,  avg # of iterations =  1.3

     negative rho (up, down):  6.928E-03 0.000E+00

     total cpu time spent up to now is    13072.5 secs

     End of self-consistent calculation

     Number of k-points >= 100: set verbosity='high' to print the bands.

     the Fermi energy is    16.2323 ev

!    total energy              =   -3597.81573867 Ry
     estimated scf accuracy    <          3.0E-11 Ry
     smearing contrib. (-TS)   =      -0.00008884 Ry
     internal energy E=F+TS    =   -3597.81564983 Ry

     The total energy is F=E-TS. E is the sum of the following terms:
     one-electron contribution =   -1285.49549743 Ry
     hartree contribution      =     765.37025372 Ry
     xc contribution           =    -429.06153387 Ry
     ewald contribution        =   -2039.42393553 Ry
     one-center paw contrib.   =    -609.20493671 Ry

     convergence has been achieved in  20 iterations

     negative rho (up, down):  6.928E-03 0.000E+00

     Forces acting on atoms (cartesian axes, Ry/au):

     atom    1 type  1   force =     0.00000000    0.00000000    0.00000000
     atom    2 type  1   force =     0.00000000    0.00000000    0.00000000
     atom    3 type  1   force =     0.00000000    0.00000000    0.00000000
     atom    4 type  1   force =     0.00000000    0.00000000    0.00000000
     atom    5 type  1   force =     0.00000000    0.00000000    0.00000000
     atom    6 type  1   force =     0.00000000    0.00000000    0.00000000
     atom    7 type  1   force =     0.00000000    0.00000000    0.00000000
     atom    8 type  1   force =     0.00000000    0.00000000    0.00000000
     atom    9 type  2   force =     0.00000034   -0.00000030   -0.00000030
     atom   10 type  2   force =    -0.00000053    0.00000029   -0.00000029
     atom   11 type  2   force =    -0.00000034   -0.00000030   -0.00000030
     atom   12 type  2   force =     0.00000034    0.00000030    0.00000030
     atom   13 type  2   force =     0.00000053   -0.00000029    0.00000029
     atom   14 type  2   force =    -0.00000034    0.00000030    0.00000030
     atom   15 type  2   force =    -0.00000053   -0.00000029    0.00000029
     atom   16 type  2   force =     0.00000053    0.00000029   -0.00000029
     atom   17 type  3   force =    -0.00000006    0.00000000    0.00000000
     atom   18 type  3   force =     0.00000000   -0.00000012    0.00000012
     atom   19 type  3   force =     0.00000006    0.00000000    0.00000000
     atom   20 type  3   force =     0.00000000    0.00000012   -0.00000012
     atom   21 type  3   force =     0.00000000   -0.00000012    0.00000012
     atom   22 type  3   force =    -0.00000033    0.00000000    0.00000000
     atom   23 type  3   force =     0.00000000    0.00000012   -0.00000012
     atom   24 type  3   force =     0.00000033    0.00000000    0.00000000

     Total force =     0.000002     Total SCF correction =     0.000008
     SCF correction compared to forces is large: reduce conv_thr to get better values


     Computing stress (Cartesian axis) and pressure


     negative rho (up, down):  6.928E-03 0.000E+00
          total   stress  (Ry/bohr**3)                   (kbar)     P=       -0.43
   0.00000286   0.00000000   0.00000000            0.42        0.00        0.00
   0.00000000  -0.00000577   0.00001101            0.00       -0.85        1.62
   0.00000000   0.00001101  -0.00000577            0.00        1.62       -0.85

     Energy error            =      8.6E-05 Ry
     Gradient error          =      5.3E-07 Ry/Bohr
     Cell gradient error     =      1.6E+00 kbar

     number of scf cycles    =   7
     number of bfgs steps    =   6

     enthalpy           old  =   -3597.8156522792 Ry
     enthalpy           new  =   -3597.8157386653 Ry

     CASE: enthalpy          _new < enthalpy          _old

     new trust radius        =       0.0048827949 bohr
     new conv_thr            =            1.0E-10 Ry

     new unit-cell volume =   1526.90910 a.u.^3 (   226.26458 Ang^3 )
     density =      6.14825 g/cm^3

CELL_PARAMETERS (alat=  5.58242261)
   2.384822663   0.000000000   0.000000000
   0.000000000   1.918427555  -0.003957742
   0.000000000  -0.003957742   1.918427555

ATOMIC_POSITIONS (crystal)
Fe               0.0000000000        0.0000000000        0.0000000000
Fe               0.5000000000        0.5000000000       -0.0000000000
Fe               0.5000000000        0.0000000000        0.0000000000
Fe               0.0000000000        0.5000000000        0.5000000000
Fe               0.0000000000       -0.0000000000        0.5000000000
Fe               0.5000000000        0.5000000000        0.5000000000
Fe               0.5000000000       -0.0000000000        0.5000000000
Fe               0.0000000000        0.5000000000       -0.0000000000
Ti               0.2499997798        0.2499999839        0.2499999839
Ti               0.7500000269        0.7499999780        0.2500000220
Ti               0.7500002202        0.2499999839        0.2499999839
Ti               0.2499997798        0.7500000161        0.7500000161
Ti               0.2499999731        0.2500000220        0.7499999780
Ti               0.7500002202        0.7500000161        0.7500000161
Ti               0.7500000269        0.2500000220        0.7499999780
Ti               0.2499999731        0.7499999780        0.2500000220
H                0.2500001051        0.5000000000        0.5000000000
H                0.5000000000        0.2499998272        0.7500001728
H                0.7499998949        0.5000000000        0.5000000000
H                0.5000000000        0.7500001728        0.2499998272
H                0.0000000000        0.2499998384        0.7500001616
H                0.2500002521        0.0000000000        0.0000000000
H                0.0000000000        0.7500001616        0.2499998384
H                0.7499997479        0.0000000000        0.0000000000



     Writing config-only to output data dir ./TiFeH_supercell.save/ :
     XML data file     NEW-OLD atomic charge density approx. for the potential
     New effective cutoffs (rho, wfc): 1894.10  135.28

     Check: negative core charge=   -0.000002

     negative rho (up, down):  6.925E-03 0.000E+00

     total cpu time spent up to now is    13113.7 secs

     per-process dynamical memory:   711.7 Mb

     Self-consistent Calculation

     iteration #  1     ecut=   124.00 Ry     beta= 0.70
     Davidson diagonalization with overlap
     ethr =  1.00E-06,  avg # of iterations =  2.0

     Threshold (ethr) on eigenvalues was too large:
     Diagonalizing with lowered threshold

     Davidson diagonalization with overlap
     ethr =  1.97E-09,  avg # of iterations =  6.0

     negative rho (up, down):  6.924E-03 0.000E+00

     total cpu time spent up to now is    13274.3 secs

     total energy              =   -3597.81574303 Ry
     estimated scf accuracy    <       0.00000704 Ry

     iteration #  2     ecut=   124.00 Ry     beta= 0.70
     Davidson diagonalization with overlap
     ethr =  3.03E-09,  avg # of iterations =  6.0

     negative rho (up, down):  6.928E-03 0.000E+00

     total cpu time spent up to now is    13354.1 secs

     total energy              =   -3597.81571628 Ry
     estimated scf accuracy    <       0.00074717 Ry

     iteration #  3     ecut=   124.00 Ry     beta= 0.70
     Davidson diagonalization with overlap
     ethr =  3.03E-09,  avg # of iterations =  5.1

     negative rho (up, down):  6.928E-03 0.000E+00

     total cpu time spent up to now is    13429.2 secs

     total energy              =   -3597.81575331 Ry
     estimated scf accuracy    <       0.00001007 Ry

     iteration #  4     ecut=   124.00 Ry     beta= 0.70
     Davidson diagonalization with overlap
     ethr =  3.03E-09,  avg # of iterations =  4.4

     negative rho (up, down):  6.927E-03 0.000E+00

     total cpu time spent up to now is    13486.5 secs

     total energy              =   -3597.81575228 Ry
     estimated scf accuracy    <       0.00009874 Ry

     iteration #  5     ecut=   124.00 Ry     beta= 0.70
     Davidson diagonalization with overlap
     ethr =  3.03E-09,  avg # of iterations =  4.3

     negative rho (up, down):  6.927E-03 0.000E+00

     total cpu time spent up to now is    13542.2 secs

     total energy              =   -3597.81575446 Ry
     estimated scf accuracy    <       0.00001422 Ry

     iteration #  6     ecut=   124.00 Ry     beta= 0.70
     Davidson diagonalization with overlap
     ethr =  3.03E-09,  avg # of iterations =  1.9

     negative rho (up, down):  6.928E-03 0.000E+00

     total cpu time spent up to now is    13588.6 secs

     total energy              =   -3597.81575491 Ry
     estimated scf accuracy    <       0.00000547 Ry

     iteration #  7     ecut=   124.00 Ry     beta= 0.70
     Davidson diagonalization with overlap
     ethr =  2.36E-09,  avg # of iterations =  1.7

     negative rho (up, down):  6.928E-03 0.000E+00

     total cpu time spent up to now is    13633.0 secs

     total energy              =   -3597.81575515 Ry
     estimated scf accuracy    <       0.00000023 Ry

     iteration #  8     ecut=   124.00 Ry     beta= 0.70
     Davidson diagonalization with overlap
     ethr =  9.97E-11,  avg # of iterations =  5.0

     negative rho (up, down):  6.928E-03 0.000E+00

     total cpu time spent up to now is    13699.8 secs

     total energy              =   -3597.81575509 Ry
     estimated scf accuracy    <       0.00000477 Ry

     iteration #  9     ecut=   124.00 Ry     beta= 0.70
     Davidson diagonalization with overlap
     ethr =  9.97E-11,  avg # of iterations =  4.4

     negative rho (up, down):  6.928E-03 0.000E+00

     total cpu time spent up to now is    13758.8 secs

     total energy              =   -3597.81575524 Ry
     estimated scf accuracy    <       0.00000014 Ry

     iteration # 10     ecut=   124.00 Ry     beta= 0.70
     Davidson diagonalization with overlap
     ethr =  6.04E-11,  avg # of iterations =  2.2

     negative rho (up, down):  6.928E-03 0.000E+00

     total cpu time spent up to now is    13807.0 secs

     total energy              =   -3597.81575524 Ry
     estimated scf accuracy    <       0.00000022 Ry

     iteration # 11     ecut=   124.00 Ry     beta= 0.70
     Davidson diagonalization with overlap
     ethr =  6.04E-11,  avg # of iterations =  1.4

     negative rho (up, down):  6.928E-03 0.000E+00

     total cpu time spent up to now is    13850.8 secs

     total energy              =   -3597.81575525 Ry
     estimated scf accuracy    <          2.6E-09 Ry

     iteration # 12     ecut=   124.00 Ry     beta= 0.70
     Davidson diagonalization with overlap
     ethr =  1.13E-12,  avg # of iterations =  6.2

     negative rho (up, down):  6.928E-03 0.000E+00

     total cpu time spent up to now is    13928.4 secs

     total energy              =   -3597.81575525 Ry
     estimated scf accuracy    <       0.00000004 Ry

     iteration # 13     ecut=   124.00 Ry     beta= 0.70
     Davidson diagonalization with overlap
     ethr =  1.13E-12,  avg # of iterations =  4.2

     negative rho (up, down):  6.928E-03 0.000E+00

     total cpu time spent up to now is    13984.2 secs

     total energy              =   -3597.81575525 Ry
     estimated scf accuracy    <          3.2E-09 Ry

     iteration # 14     ecut=   124.00 Ry     beta= 0.70
     Davidson diagonalization with overlap
     ethr =  1.13E-12,  avg # of iterations =  4.1

     negative rho (up, down):  6.928E-03 0.000E+00

     total cpu time spent up to now is    14038.9 secs

     total energy              =   -3597.81575525 Ry
     estimated scf accuracy    <          2.1E-09 Ry

     iteration # 15     ecut=   124.00 Ry     beta= 0.70
     Davidson diagonalization with overlap
     ethr =  9.03E-13,  avg # of iterations =  1.8

     negative rho (up, down):  6.928E-03 0.000E+00

     total cpu time spent up to now is    14084.3 secs

     total energy              =   -3597.81575525 Ry
     estimated scf accuracy    <          1.3E-09 Ry

     iteration # 16     ecut=   124.00 Ry     beta= 0.70
     Davidson diagonalization with overlap
     ethr =  5.57E-13,  avg # of iterations =  4.8

     negative rho (up, down):  6.928E-03 0.000E+00

     total cpu time spent up to now is    14144.7 secs

     total energy              =   -3597.81575525 Ry
     estimated scf accuracy    <       0.00000004 Ry

     iteration # 17     ecut=   124.00 Ry     beta= 0.70
     Davidson diagonalization with overlap
     ethr =  5.57E-13,  avg # of iterations =  4.8

     negative rho (up, down):  6.928E-03 0.000E+00

     total cpu time spent up to now is    14203.2 secs

     total energy              =   -3597.81575525 Ry
     estimated scf accuracy    <          1.1E-09 Ry

     iteration # 18     ecut=   124.00 Ry     beta= 0.70
     Davidson diagonalization with overlap
     ethr =  4.54E-13,  avg # of iterations =  1.3

     negative rho (up, down):  6.928E-03 0.000E+00

     total cpu time spent up to now is    14246.5 secs

     total energy              =   -3597.81575525 Ry
     estimated scf accuracy    <          4.6E-10 Ry

     iteration # 19     ecut=   124.00 Ry     beta= 0.70
     Davidson diagonalization with overlap
     ethr =  1.97E-13,  avg # of iterations =  1.4

     negative rho (up, down):  6.928E-03 0.000E+00

     total cpu time spent up to now is    14290.4 secs

     End of self-consistent calculation

     Number of k-points >= 100: set verbosity='high' to print the bands.

     the Fermi energy is    16.2431 ev

!    total energy              =   -3597.81575525 Ry
     estimated scf accuracy    <          1.1E-11 Ry
     smearing contrib. (-TS)   =      -0.00006444 Ry
     internal energy E=F+TS    =   -3597.81569081 Ry

     The total energy is F=E-TS. E is the sum of the following terms:
     one-electron contribution =   -1284.83043219 Ry
     hartree contribution      =     765.14306468 Ry
     xc contribution           =    -429.07027785 Ry
     ewald contribution        =   -2039.85297472 Ry
     one-center paw contrib.   =    -609.20507073 Ry

     convergence has been achieved in  19 iterations

     negative rho (up, down):  6.928E-03 0.000E+00

     Forces acting on atoms (cartesian axes, Ry/au):

     atom    1 type  1   force =     0.00000000    0.00000000    0.00000000
     atom    2 type  1   force =     0.00000000    0.00000000    0.00000000
     atom    3 type  1   force =     0.00000000    0.00000000    0.00000000
     atom    4 type  1   force =     0.00000000    0.00000000    0.00000000
     atom    5 type  1   force =     0.00000000    0.00000000    0.00000000
     atom    6 type  1   force =     0.00000000    0.00000000    0.00000000
     atom    7 type  1   force =     0.00000000    0.00000000    0.00000000
     atom    8 type  1   force =     0.00000000    0.00000000    0.00000000
     atom    9 type  2   force =     0.00000048    0.00000006    0.00000006
     atom   10 type  2   force =    -0.00000046   -0.00000005    0.00000005
     atom   11 type  2   force =    -0.00000048    0.00000006    0.00000006
     atom   12 type  2   force =     0.00000048   -0.00000006   -0.00000006
     atom   13 type  2   force =     0.00000046    0.00000005   -0.00000005
     atom   14 type  2   force =    -0.00000048   -0.00000006   -0.00000006
     atom   15 type  2   force =    -0.00000046    0.00000005   -0.00000005
     atom   16 type  2   force =     0.00000046   -0.00000005    0.00000005
     atom   17 type  3   force =    -0.00000005    0.00000000    0.00000000
     atom   18 type  3   force =     0.00000000   -0.00000008    0.00000008
     atom   19 type  3   force =     0.00000005    0.00000000    0.00000000
     atom   20 type  3   force =     0.00000000    0.00000008   -0.00000008
     atom   21 type  3   force =    -0.00000000   -0.00000011    0.00000011
     atom   22 type  3   force =    -0.00000025    0.00000000    0.00000000
     atom   23 type  3   force =    -0.00000000    0.00000011   -0.00000011
     atom   24 type  3   force =     0.00000025    0.00000000    0.00000000

     Total force =     0.000001     Total SCF correction =     0.000002
     SCF correction compared to forces is large: reduce conv_thr to get better values


     Computing stress (Cartesian axis) and pressure


     negative rho (up, down):  6.928E-03 0.000E+00
          total   stress  (Ry/bohr**3)                   (kbar)     P=        0.65
   0.00000502   0.00000000   0.00000000            0.74        0.00        0.00
   0.00000000   0.00000413   0.00000888            0.00        0.61        1.31
   0.00000000   0.00000888   0.00000413            0.00        1.31        0.61

     Energy error            =      1.7E-05 Ry
     Gradient error          =      4.8E-07 Ry/Bohr
     Cell gradient error     =      1.3E+00 kbar

     number of scf cycles    =   8
     number of bfgs steps    =   7

     enthalpy           old  =   -3597.8157386653 Ry
     enthalpy           new  =   -3597.8157552517 Ry

     CASE: enthalpy          _new < enthalpy          _old

     new trust radius        =       0.0061625744 bohr
     new conv_thr            =            1.0E-10 Ry

     new unit-cell volume =   1526.54848 a.u.^3 (   226.21115 Ang^3 )
     density =      6.14970 g/cm^3

CELL_PARAMETERS (alat=  5.58242261)
   2.385076999   0.000000000   0.000000000
   0.000000000   1.918096244  -0.002480347
   0.000000000  -0.002480347   1.918096244

ATOMIC_POSITIONS (crystal)
Fe               0.0000000000        0.0000000000        0.0000000000
Fe               0.5000000000        0.5000000000       -0.0000000000
Fe               0.5000000000        0.0000000000        0.0000000000
Fe               0.0000000000        0.5000000000        0.5000000000
Fe               0.0000000000       -0.0000000000        0.5000000000
Fe               0.5000000000        0.5000000000        0.5000000000
Fe               0.5000000000       -0.0000000000        0.5000000000
Fe               0.0000000000        0.5000000000       -0.0000000000
Ti               0.2499998875        0.2499999662        0.2499999662
Ti               0.7499999045        0.7499999967        0.2500000033
Ti               0.7500001125        0.2499999662        0.2499999662
Ti               0.2499998875        0.7500000338        0.7500000338
Ti               0.2500000955        0.2500000033        0.7499999967
Ti               0.7500001125        0.7500000338        0.7500000338
Ti               0.7499999045        0.2500000033        0.7499999967
Ti               0.2500000955        0.7499999967        0.2500000033
H                0.2500000892        0.5000000000        0.5000000000
H                0.5000000000        0.2499998046        0.7500001954
H                0.7499999108        0.5000000000        0.5000000000
H                0.5000000000        0.7500001954        0.2499998046
H                0.0000000000        0.2499998109        0.7500001891
H                0.2500001754        0.0000000000        0.0000000000
H                0.0000000000        0.7500001891        0.2499998109
H                0.7499998246        0.0000000000        0.0000000000



     Writing config-only to output data dir ./TiFeH_supercell.save/ :
     XML data file     NEW-OLD atomic charge density approx. for the potential
     New effective cutoffs (rho, wfc): 1891.91  135.12

     Check: negative core charge=   -0.000002

     negative rho (up, down):  6.927E-03 0.000E+00

     total cpu time spent up to now is    14331.6 secs

     per-process dynamical memory:   711.7 Mb

     Self-consistent Calculation

     iteration #  1     ecut=   124.00 Ry     beta= 0.70
     Davidson diagonalization with overlap
     ethr =  1.00E-06,  avg # of iterations =  2.7

     Threshold (ethr) on eigenvalues was too large:
     Diagonalizing with lowered threshold

     Davidson diagonalization with overlap
     ethr =  1.74E-09,  avg # of iterations =  6.9

     negative rho (up, down):  6.926E-03 0.000E+00

     total cpu time spent up to now is    14503.0 secs

     total energy              =   -3597.81575771 Ry
     estimated scf accuracy    <       0.00000451 Ry

     iteration #  2     ecut=   124.00 Ry     beta= 0.70
     Davidson diagonalization with overlap
     ethr =  1.94E-09,  avg # of iterations =  5.0

     negative rho (up, down):  6.928E-03 0.000E+00

     total cpu time spent up to now is    14578.8 secs

     total energy              =   -3597.81575478 Ry
     estimated scf accuracy    <       0.00022478 Ry

     iteration #  3     ecut=   124.00 Ry     beta= 0.70
     Davidson diagonalization with overlap
     ethr =  1.94E-09,  avg # of iterations =  5.0

     negative rho (up, down):  6.928E-03 0.000E+00

     total cpu time spent up to now is    14650.7 secs

     total energy              =   -3597.81576697 Ry
     estimated scf accuracy    <       0.00001360 Ry

     iteration #  4     ecut=   124.00 Ry     beta= 0.70
     Davidson diagonalization with overlap
     ethr =  1.94E-09,  avg # of iterations =  5.0

     negative rho (up, down):  6.927E-03 0.000E+00

     total cpu time spent up to now is    14718.0 secs

     total energy              =   -3597.81576392 Ry
     estimated scf accuracy    <       0.00014926 Ry

     iteration #  5     ecut=   124.00 Ry     beta= 0.70
     Davidson diagonalization with overlap
     ethr =  1.94E-09,  avg # of iterations =  5.0

     negative rho (up, down):  6.927E-03 0.000E+00

     total cpu time spent up to now is    14785.1 secs

     total energy              =   -3597.81576708 Ry
     estimated scf accuracy    <       0.00003790 Ry

     iteration #  6     ecut=   124.00 Ry     beta= 0.70
     Davidson diagonalization with overlap
     ethr =  1.94E-09,  avg # of iterations =  4.6

     negative rho (up, down):  6.928E-03 0.000E+00

     total cpu time spent up to now is    14845.0 secs

     total energy              =   -3597.81576770 Ry
     estimated scf accuracy    <       0.00004284 Ry

     iteration #  7     ecut=   124.00 Ry     beta= 0.70
     Davidson diagonalization with overlap
     ethr =  1.94E-09,  avg # of iterations =  4.2

     negative rho (up, down):  6.928E-03 0.000E+00

     total cpu time spent up to now is    14900.4 secs

     total energy              =   -3597.81576907 Ry
     estimated scf accuracy    <       0.00000043 Ry

     iteration #  8     ecut=   124.00 Ry     beta= 0.70
     Davidson diagonalization with overlap
     ethr =  1.84E-10,  avg # of iterations =  4.9

     negative rho (up, down):  6.928E-03 0.000E+00

     total cpu time spent up to now is    14965.4 secs

     total energy              =   -3597.81576909 Ry
     estimated scf accuracy    <       0.00000419 Ry

     iteration #  9     ecut=   124.00 Ry     beta= 0.70
     Davidson diagonalization with overlap
     ethr =  1.84E-10,  avg # of iterations =  3.1

     negative rho (up, down):  6.928E-03 0.000E+00

     total cpu time spent up to now is    15016.6 secs

     total energy              =   -3597.81576921 Ry
     estimated scf accuracy    <       0.00000011 Ry

     iteration # 10     ecut=   124.00 Ry     beta= 0.70
     Davidson diagonalization with overlap
     ethr =  4.95E-11,  avg # of iterations =  4.2

     negative rho (up, down):  6.928E-03 0.000E+00

     total cpu time spent up to now is    15071.0 secs

     total energy              =   -3597.81576920 Ry
     estimated scf accuracy    <       0.00000049 Ry

     iteration # 11     ecut=   124.00 Ry     beta= 0.70
     Davidson diagonalization with overlap
     ethr =  4.95E-11,  avg # of iterations =  2.0

     negative rho (up, down):  6.928E-03 0.000E+00

     total cpu time spent up to now is    15118.3 secs

     total energy              =   -3597.81576921 Ry
     estimated scf accuracy    <       0.00000002 Ry

     iteration # 12     ecut=   124.00 Ry     beta= 0.70
     Davidson diagonalization with overlap
     ethr =  9.74E-12,  avg # of iterations =  4.3

     negative rho (up, down):  6.928E-03 0.000E+00

     total cpu time spent up to now is    15174.3 secs

     total energy              =   -3597.81576921 Ry
     estimated scf accuracy    <       0.00000005 Ry

     iteration # 13     ecut=   124.00 Ry     beta= 0.70
     Davidson diagonalization with overlap
     ethr =  9.74E-12,  avg # of iterations =  2.1

     negative rho (up, down):  6.928E-03 0.000E+00

     total cpu time spent up to now is    15222.0 secs

     total energy              =   -3597.81576921 Ry
     estimated scf accuracy    <          5.1E-09 Ry

     iteration # 14     ecut=   124.00 Ry     beta= 0.70
     Davidson diagonalization with overlap
     ethr =  2.21E-12,  avg # of iterations =  4.8

     negative rho (up, down):  6.928E-03 0.000E+00

     total cpu time spent up to now is    15284.9 secs

     total energy              =   -3597.81576921 Ry
     estimated scf accuracy    <       0.00000006 Ry

     iteration # 15     ecut=   124.00 Ry     beta= 0.70
     Davidson diagonalization with overlap
     ethr =  2.21E-12,  avg # of iterations =  5.0

     negative rho (up, down):  6.928E-03 0.000E+00

     total cpu time spent up to now is    15352.1 secs

     total energy              =   -3597.81576921 Ry
     estimated scf accuracy    <       0.00000019 Ry

     iteration # 16     ecut=   124.00 Ry     beta= 0.70
     Davidson diagonalization with overlap
     ethr =  2.21E-12,  avg # of iterations =  5.0

     negative rho (up, down):  6.928E-03 0.000E+00

     total cpu time spent up to now is    15415.0 secs

     total energy              =   -3597.81576921 Ry
     estimated scf accuracy    <          3.9E-09 Ry

     iteration # 17     ecut=   124.00 Ry     beta= 0.70
     Davidson diagonalization with overlap
     ethr =  1.68E-12,  avg # of iterations =  1.0

     negative rho (up, down):  6.928E-03 0.000E+00

     total cpu time spent up to now is    15456.8 secs

     total energy              =   -3597.81576921 Ry
     estimated scf accuracy    <          4.4E-10 Ry

     iteration # 18     ecut=   124.00 Ry     beta= 0.70
     Davidson diagonalization with overlap
     ethr =  1.89E-13,  avg # of iterations =  2.5

     negative rho (up, down):  6.928E-03 0.000E+00

     total cpu time spent up to now is    15509.2 secs

     End of self-consistent calculation

     Number of k-points >= 100: set verbosity='high' to print the bands.

     the Fermi energy is    16.2469 ev

!    total energy              =   -3597.81576921 Ry
     estimated scf accuracy    <          5.6E-11 Ry
     smearing contrib. (-TS)   =      -0.00004766 Ry
     internal energy E=F+TS    =   -3597.81572155 Ry

     The total energy is F=E-TS. E is the sum of the following terms:
     one-electron contribution =   -1284.57984034 Ry
     hartree contribution      =     765.05792475 Ry
     xc contribution           =    -429.07348589 Ry
     ewald contribution        =   -2040.01519680 Ry
     one-center paw contrib.   =    -609.20512327 Ry

     convergence has been achieved in  18 iterations

     negative rho (up, down):  6.928E-03 0.000E+00

     Forces acting on atoms (cartesian axes, Ry/au):

     atom    1 type  1   force =     0.00000000    0.00000000    0.00000000
     atom    2 type  1   force =     0.00000000    0.00000000    0.00000000
     atom    3 type  1   force =     0.00000000    0.00000000    0.00000000
     atom    4 type  1   force =     0.00000000    0.00000000    0.00000000
     atom    5 type  1   force =     0.00000000    0.00000000    0.00000000
     atom    6 type  1   force =     0.00000000    0.00000000    0.00000000
     atom    7 type  1   force =     0.00000000    0.00000000    0.00000000
     atom    8 type  1   force =     0.00000000    0.00000000    0.00000000
     atom    9 type  2   force =     0.00000090    0.00000063    0.00000063
     atom   10 type  2   force =    -0.00000037   -0.00000059    0.00000059
     atom   11 type  2   force =    -0.00000090    0.00000063    0.00000063
     atom   12 type  2   force =     0.00000090   -0.00000063   -0.00000063
     atom   13 type  2   force =     0.00000037    0.00000059   -0.00000059
     atom   14 type  2   force =    -0.00000090   -0.00000063   -0.00000063
     atom   15 type  2   force =    -0.00000037    0.00000059   -0.00000059
     atom   16 type  2   force =     0.00000037   -0.00000059    0.00000059
     atom   17 type  3   force =    -0.00000012    0.00000000    0.00000000
     atom   18 type  3   force =    -0.00000000   -0.00000009    0.00000009
     atom   19 type  3   force =     0.00000012    0.00000000    0.00000000
     atom   20 type  3   force =    -0.00000000    0.00000009   -0.00000009
     atom   21 type  3   force =     0.00000000   -0.00000010    0.00000010
     atom   22 type  3   force =    -0.00000016    0.00000000    0.00000000
     atom   23 type  3   force =     0.00000000    0.00000010   -0.00000010
     atom   24 type  3   force =     0.00000016    0.00000000    0.00000000

     Total force =     0.000003     Total SCF correction =     0.000023
     SCF correction compared to forces is large: reduce conv_thr to get better values


     Computing stress (Cartesian axis) and pressure


     negative rho (up, down):  6.928E-03 0.000E+00
          total   stress  (Ry/bohr**3)                   (kbar)     P=        1.04
   0.00000470   0.00000000   0.00000000            0.69        0.00        0.00
   0.00000000   0.00000828   0.00000551            0.00        1.22        0.81
   0.00000000   0.00000551   0.00000828            0.00        0.81        1.22

     Energy error            =      1.4E-05 Ry
     Gradient error          =      9.0E-07 Ry/Bohr
     Cell gradient error     =      1.2E+00 kbar

     number of scf cycles    =   9
     number of bfgs steps    =   8

     enthalpy           old  =   -3597.8157552517 Ry
     enthalpy           new  =   -3597.8157692135 Ry

     CASE: enthalpy          _new < enthalpy          _old

     new trust radius        =       0.0075992729 bohr
     new conv_thr            =            1.0E-10 Ry

     new unit-cell volume =   1526.80926 a.u.^3 (   226.24979 Ang^3 )
     density =      6.14865 g/cm^3

CELL_PARAMETERS (alat=  5.58242261)
   2.385245573   0.000000000   0.000000000
   0.000000000   1.918190780  -0.000617657
   0.000000000  -0.000617657   1.918190780

ATOMIC_POSITIONS (crystal)
Fe               0.0000000000        0.0000000000        0.0000000000
Fe               0.5000000000        0.5000000000       -0.0000000000
Fe               0.5000000000        0.0000000000        0.0000000000
Fe               0.0000000000        0.5000000000        0.5000000000
Fe               0.0000000000       -0.0000000000        0.5000000000
Fe               0.5000000000        0.5000000000        0.5000000000
Fe               0.5000000000       -0.0000000000        0.5000000000
Fe               0.0000000000        0.5000000000       -0.0000000000
Ti               0.2500001464        0.2500000392        0.2500000392
Ti               0.7499997297        0.7499999295        0.2500000705
Ti               0.7499998536        0.2500000392        0.2500000392
Ti               0.2500001464        0.7499999608        0.7499999608
Ti               0.2500002703        0.2500000705        0.7499999295
Ti               0.7499998536        0.7499999608        0.7499999608
Ti               0.7499997297        0.2500000705        0.7499999295
Ti               0.2500002703        0.7499999295        0.2500000705
H                0.2500000521        0.5000000000        0.5000000000
H                0.5000000000        0.2499997701        0.7500002299
H                0.7499999479        0.5000000000        0.5000000000
H                0.5000000000        0.7500002299        0.2499997701
H                0.0000000000        0.2499997726        0.7500002274
H                0.2500000751        0.0000000000        0.0000000000
H                0.0000000000        0.7500002274        0.2499997726
H                0.7499999249        0.0000000000        0.0000000000



     Writing config-only to output data dir ./TiFeH_supercell.save/ :
     XML data file     NEW-OLD atomic charge density approx. for the potential
     New effective cutoffs (rho, wfc): 1888.14  134.88

     Check: negative core charge=   -0.000002

     negative rho (up, down):  6.928E-03 0.000E+00

     total cpu time spent up to now is    15551.3 secs

     per-process dynamical memory:   711.7 Mb

     Self-consistent Calculation

     iteration #  1     ecut=   124.00 Ry     beta= 0.70
     Davidson diagonalization with overlap
     ethr =  1.00E-06,  avg # of iterations =  3.0

     Threshold (ethr) on eigenvalues was too large:
     Diagonalizing with lowered threshold

     Davidson diagonalization with overlap
     ethr =  1.93E-09,  avg # of iterations =  7.1

     negative rho (up, down):  6.927E-03 0.000E+00

     total cpu time spent up to now is    15732.2 secs

     total energy              =   -3597.81576461 Ry
     estimated scf accuracy    <       0.00000475 Ry

     iteration #  2     ecut=   124.00 Ry     beta= 0.70
     Davidson diagonalization with overlap
     ethr =  2.05E-09,  avg # of iterations =  4.9

     negative rho (up, down):  6.927E-03 0.000E+00

     total cpu time spent up to now is    15796.9 secs

     total energy              =   -3597.81577252 Ry
     estimated scf accuracy    <       0.00006219 Ry

     iteration #  3     ecut=   124.00 Ry     beta= 0.70
     Davidson diagonalization with overlap
     ethr =  2.05E-09,  avg # of iterations =  5.0

     negative rho (up, down):  6.927E-03 0.000E+00

     total cpu time spent up to now is    15865.8 secs

     total energy              =   -3597.81577467 Ry
     estimated scf accuracy    <       0.00011743 Ry

     iteration #  4     ecut=   124.00 Ry     beta= 0.70
     Davidson diagonalization with overlap
     ethr =  2.05E-09,  avg # of iterations =  5.1

     negative rho (up, down):  6.928E-03 0.000E+00

     total cpu time spent up to now is    15938.5 secs

     total energy              =   -3597.81577456 Ry
     estimated scf accuracy    <       0.00010473 Ry

     iteration #  5     ecut=   124.00 Ry     beta= 0.70
     Davidson diagonalization with overlap
     ethr =  2.05E-09,  avg # of iterations =  5.0

     negative rho (up, down):  6.928E-03 0.000E+00

     total cpu time spent up to now is    16006.2 secs

     total energy              =   -3597.81577620 Ry
     estimated scf accuracy    <       0.00009691 Ry

     iteration #  6     ecut=   124.00 Ry     beta= 0.70
     Davidson diagonalization with overlap
     ethr =  2.05E-09,  avg # of iterations =  5.0

     negative rho (up, down):  6.928E-03 0.000E+00

     total cpu time spent up to now is    16071.9 secs

     total energy              =   -3597.81577915 Ry
     estimated scf accuracy    <       0.00001792 Ry

     iteration #  7     ecut=   124.00 Ry     beta= 0.70
     Davidson diagonalization with overlap
     ethr =  2.05E-09,  avg # of iterations =  2.5

     negative rho (up, down):  6.928E-03 0.000E+00

     total cpu time spent up to now is    16121.7 secs

     total energy              =   -3597.81577978 Ry
     estimated scf accuracy    <       0.00000232 Ry

     iteration #  8     ecut=   124.00 Ry     beta= 0.70
     Davidson diagonalization with overlap
     ethr =  9.99E-10,  avg # of iterations =  3.8

     negative rho (up, down):  6.927E-03 0.000E+00

     total cpu time spent up to now is    16174.0 secs

     total energy              =   -3597.81577996 Ry
     estimated scf accuracy    <       0.00000170 Ry

     iteration #  9     ecut=   124.00 Ry     beta= 0.70
     Davidson diagonalization with overlap
     ethr =  7.32E-10,  avg # of iterations =  1.1

     negative rho (up, down):  6.927E-03 0.000E+00

     total cpu time spent up to now is    16216.0 secs

     total energy              =   -3597.81578002 Ry
     estimated scf accuracy    <       0.00000015 Ry

     iteration # 10     ecut=   124.00 Ry     beta= 0.70
     Davidson diagonalization with overlap
     ethr =  6.47E-11,  avg # of iterations =  4.8

     negative rho (up, down):  6.927E-03 0.000E+00

     total cpu time spent up to now is    16275.8 secs

     total energy              =   -3597.81578004 Ry
     estimated scf accuracy    <       0.00000063 Ry

     iteration # 11     ecut=   124.00 Ry     beta= 0.70
     Davidson diagonalization with overlap
     ethr =  6.47E-11,  avg # of iterations =  2.1

     negative rho (up, down):  6.927E-03 0.000E+00

     total cpu time spent up to now is    16323.2 secs

     total energy              =   -3597.81578005 Ry
     estimated scf accuracy    <       0.00000010 Ry

     iteration # 12     ecut=   124.00 Ry     beta= 0.70
     Davidson diagonalization with overlap
     ethr =  4.23E-11,  avg # of iterations =  1.4

     negative rho (up, down):  6.927E-03 0.000E+00

     total cpu time spent up to now is    16366.9 secs

     total energy              =   -3597.81578005 Ry
     estimated scf accuracy    <       0.00000004 Ry

     iteration # 13     ecut=   124.00 Ry     beta= 0.70
     Davidson diagonalization with overlap
     ethr =  1.60E-11,  avg # of iterations =  2.0

     negative rho (up, down):  6.927E-03 0.000E+00

     total cpu time spent up to now is    16414.4 secs

     total energy              =   -3597.81578006 Ry
     estimated scf accuracy    <       0.00000002 Ry

     iteration # 14     ecut=   124.00 Ry     beta= 0.70
     Davidson diagonalization with overlap
     ethr =  8.35E-12,  avg # of iterations =  2.8

     negative rho (up, down):  6.927E-03 0.000E+00

     total cpu time spent up to now is    16466.4 secs

     total energy              =   -3597.81578005 Ry
     estimated scf accuracy    <          7.0E-09 Ry

     iteration # 15     ecut=   124.00 Ry     beta= 0.70
     Davidson diagonalization with overlap
     ethr =  3.03E-12,  avg # of iterations =  5.2

     negative rho (up, down):  6.927E-03 0.000E+00

     total cpu time spent up to now is    16538.8 secs

     total energy              =   -3597.81578003 Ry
     estimated scf accuracy    <       0.00000078 Ry

     iteration # 16     ecut=   124.00 Ry     beta= 0.70
     Davidson diagonalization with overlap
     ethr =  3.03E-12,  avg # of iterations =  5.3

     negative rho (up, down):  6.927E-03 0.000E+00

     total cpu time spent up to now is    16614.5 secs

     total energy              =   -3597.81578005 Ry
     estimated scf accuracy    <       0.00000007 Ry

     iteration # 17     ecut=   124.00 Ry     beta= 0.70
     Davidson diagonalization with overlap
     ethr =  3.03E-12,  avg # of iterations =  4.7

     negative rho (up, down):  6.927E-03 0.000E+00

     total cpu time spent up to now is    16676.0 secs

     total energy              =   -3597.81578006 Ry
     estimated scf accuracy    <          6.7E-10 Ry

     iteration # 18     ecut=   124.00 Ry     beta= 0.70
     Davidson diagonalization with overlap
     ethr =  2.90E-13,  avg # of iterations =  4.2

     negative rho (up, down):  6.927E-03 0.000E+00

     total cpu time spent up to now is    16732.5 secs

     total energy              =   -3597.81578006 Ry
     estimated scf accuracy    <          2.9E-10 Ry

     iteration # 19     ecut=   124.00 Ry     beta= 0.70
     Davidson diagonalization with overlap
     ethr =  1.26E-13,  avg # of iterations =  1.8

     negative rho (up, down):  6.927E-03 0.000E+00

     total cpu time spent up to now is    16778.8 secs

     End of self-consistent calculation

     Number of k-points >= 100: set verbosity='high' to print the bands.

     the Fermi energy is    16.2437 ev

!    total energy              =   -3597.81578006 Ry
     estimated scf accuracy    <          8.7E-11 Ry
     smearing contrib. (-TS)   =      -0.00004220 Ry
     internal energy E=F+TS    =   -3597.81573786 Ry

     The total energy is F=E-TS. E is the sum of the following terms:
     one-electron contribution =   -1284.76310159 Ry
     hartree contribution      =     765.12143520 Ry
     xc contribution           =    -429.07096369 Ry
     ewald contribution        =   -2039.89801735 Ry
     one-center paw contrib.   =    -609.20509042 Ry

     convergence has been achieved in  19 iterations

     negative rho (up, down):  6.927E-03 0.000E+00

     Forces acting on atoms (cartesian axes, Ry/au):

     atom    1 type  1   force =     0.00000000    0.00000000    0.00000000
     atom    2 type  1   force =     0.00000000    0.00000000    0.00000000
     atom    3 type  1   force =     0.00000000    0.00000000    0.00000000
     atom    4 type  1   force =     0.00000000    0.00000000    0.00000000
     atom    5 type  1   force =     0.00000000    0.00000000    0.00000000
     atom    6 type  1   force =     0.00000000    0.00000000    0.00000000
     atom    7 type  1   force =     0.00000000    0.00000000    0.00000000
     atom    8 type  1   force =     0.00000000    0.00000000    0.00000000
     atom    9 type  2   force =     0.00000044   -0.00000022   -0.00000022
     atom   10 type  2   force =     0.00000049    0.00000020   -0.00000020
     atom   11 type  2   force =    -0.00000044   -0.00000022   -0.00000022
     atom   12 type  2   force =     0.00000044    0.00000022    0.00000022
     atom   13 type  2   force =    -0.00000049   -0.00000020    0.00000020
     atom   14 type  2   force =    -0.00000044    0.00000022    0.00000022
     atom   15 type  2   force =     0.00000049   -0.00000020    0.00000020
     atom   16 type  2   force =    -0.00000049    0.00000020   -0.00000020
     atom   17 type  3   force =    -0.00000015    0.00000000    0.00000000
     atom   18 type  3   force =     0.00000000   -0.00000018    0.00000018
     atom   19 type  3   force =     0.00000015    0.00000000    0.00000000
     atom   20 type  3   force =     0.00000000    0.00000018   -0.00000018
     atom   21 type  3   force =     0.00000000   -0.00000017    0.00000017
     atom   22 type  3   force =    -0.00000005    0.00000000    0.00000000
     atom   23 type  3   force =     0.00000000    0.00000017   -0.00000017
     atom   24 type  3   force =     0.00000005    0.00000000    0.00000000

     Total force =     0.000002     Total SCF correction =     0.000025
     SCF correction compared to forces is large: reduce conv_thr to get better values


     Computing stress (Cartesian axis) and pressure


     negative rho (up, down):  6.927E-03 0.000E+00
          total   stress  (Ry/bohr**3)                   (kbar)     P=        0.72
   0.00000233   0.00000000   0.00000000            0.34        0.00        0.00
   0.00000000   0.00000622   0.00000122            0.00        0.92        0.18
   0.00000000   0.00000122   0.00000622            0.00        0.18        0.92

     Energy error            =      1.1E-05 Ry
     Gradient error          =      4.9E-07 Ry/Bohr
     Cell gradient error     =      9.2E-01 kbar

     number of scf cycles    =  10
     number of bfgs steps    =   9

     enthalpy           old  =   -3597.8157692135 Ry
     enthalpy           new  =   -3597.8157800562 Ry

     CASE: enthalpy          _new < enthalpy          _old

     new trust radius        =       0.0025987024 bohr
     new conv_thr            =            1.0E-10 Ry

     new unit-cell volume =   1527.26214 a.u.^3 (   226.31690 Ang^3 )
     density =      6.14683 g/cm^3

CELL_PARAMETERS (alat=  5.58242261)
   2.385229331   0.000000000   0.000000000
   0.000000000   1.918481678  -0.000050178
   0.000000000  -0.000050178   1.918481678

ATOMIC_POSITIONS (crystal)
Fe               0.0000000000        0.0000000000        0.0000000000
Fe               0.5000000000        0.5000000000       -0.0000000000
Fe               0.5000000000        0.0000000000        0.0000000000
Fe               0.0000000000        0.5000000000        0.5000000000
Fe               0.0000000000       -0.0000000000        0.5000000000
Fe               0.5000000000        0.5000000000        0.5000000000
Fe               0.5000000000       -0.0000000000        0.5000000000
Fe               0.0000000000        0.5000000000       -0.0000000000
Ti               0.2500002575        0.2500000155        0.2500000155
Ti               0.7499997584        0.7499999516        0.2500000484
Ti               0.7499997425        0.2500000155        0.2500000155
Ti               0.2500002575        0.7499999845        0.7499999845
Ti               0.2500002416        0.2500000484        0.7499999516
Ti               0.7499997425        0.7499999845        0.7499999845
Ti               0.7499997584        0.2500000484        0.7499999516
Ti               0.2500002416        0.7499999516        0.2500000484
H                0.2500000232        0.5000000000        0.5000000000
H                0.5000000000        0.2499997409        0.7500002591
H                0.7499999768        0.5000000000        0.5000000000
H                0.5000000000        0.7500002591        0.2499997409
H                0.0000000000        0.2499997437        0.7500002563
H                0.2500000416        0.0000000000        0.0000000000
H                0.0000000000        0.7500002563        0.2499997437
H                0.7499999584        0.0000000000        0.0000000000



     Writing config-only to output data dir ./TiFeH_supercell.save/ :
     XML data file     NEW-OLD atomic charge density approx. for the potential
     New effective cutoffs (rho, wfc): 1886.48  134.77

     Check: negative core charge=   -0.000002

     negative rho (up, down):  6.929E-03 0.000E+00

     total cpu time spent up to now is    16820.8 secs

     per-process dynamical memory:   711.7 Mb

     Self-consistent Calculation

     iteration #  1     ecut=   124.00 Ry     beta= 0.70
     Davidson diagonalization with overlap
     ethr =  1.00E-06,  avg # of iterations =  2.0

     Threshold (ethr) on eigenvalues was too large:
     Diagonalizing with lowered threshold

     Davidson diagonalization with overlap
     ethr =  3.68E-10,  avg # of iterations =  6.8

     negative rho (up, down):  6.929E-03 0.000E+00

     total cpu time spent up to now is    16991.0 secs

     total energy              =   -3597.81577949 Ry
     estimated scf accuracy    <       0.00000129 Ry

     iteration #  2     ecut=   124.00 Ry     beta= 0.70
     Davidson diagonalization with overlap
     ethr =  5.57E-10,  avg # of iterations =  6.9

     negative rho (up, down):  6.927E-03 0.000E+00

     total cpu time spent up to now is    17073.3 secs

     total energy              =   -3597.81577564 Ry
     estimated scf accuracy    <       0.00013178 Ry

     iteration #  3     ecut=   124.00 Ry     beta= 0.70
     Davidson diagonalization with overlap
     ethr =  5.57E-10,  avg # of iterations =  5.1

     negative rho (up, down):  6.927E-03 0.000E+00

     total cpu time spent up to now is    17149.0 secs

     total energy              =   -3597.81578138 Ry
     estimated scf accuracy    <       0.00001325 Ry

     iteration #  4     ecut=   124.00 Ry     beta= 0.70
     Davidson diagonalization with overlap
     ethr =  5.57E-10,  avg # of iterations =  4.7

     negative rho (up, down):  6.927E-03 0.000E+00

     total cpu time spent up to now is    17209.4 secs

     total energy              =   -3597.81578191 Ry
     estimated scf accuracy    <       0.00000633 Ry

     iteration #  5     ecut=   124.00 Ry     beta= 0.70
     Davidson diagonalization with overlap
     ethr =  5.57E-10,  avg # of iterations =  4.8

     negative rho (up, down):  6.927E-03 0.000E+00

     total cpu time spent up to now is    17270.0 secs

     total energy              =   -3597.81578175 Ry
     estimated scf accuracy    <       0.00000964 Ry

     iteration #  6     ecut=   124.00 Ry     beta= 0.70
     Davidson diagonalization with overlap
     ethr =  5.57E-10,  avg # of iterations =  4.1

     negative rho (up, down):  6.928E-03 0.000E+00

     total cpu time spent up to now is    17325.3 secs

     total energy              =   -3597.81578198 Ry
     estimated scf accuracy    <       0.00000502 Ry

     iteration #  7     ecut=   124.00 Ry     beta= 0.70
     Davidson diagonalization with overlap
     ethr =  5.57E-10,  avg # of iterations =  3.7

     negative rho (up, down):  6.928E-03 0.000E+00

     total cpu time spent up to now is    17378.2 secs

     total energy              =   -3597.81578211 Ry
     estimated scf accuracy    <       0.00000219 Ry

     iteration #  8     ecut=   124.00 Ry     beta= 0.70
     Davidson diagonalization with overlap
     ethr =  5.57E-10,  avg # of iterations =  1.3

     negative rho (up, down):  6.927E-03 0.000E+00

     total cpu time spent up to now is    17423.8 secs

     total energy              =   -3597.81578219 Ry
     estimated scf accuracy    <       0.00000009 Ry

     iteration #  9     ecut=   124.00 Ry     beta= 0.70
     Davidson diagonalization with overlap
     ethr =  4.02E-11,  avg # of iterations =  4.6

     negative rho (up, down):  6.927E-03 0.000E+00

     total cpu time spent up to now is    17482.5 secs

     total energy              =   -3597.81578220 Ry
     estimated scf accuracy    <       0.00000016 Ry

     iteration # 10     ecut=   124.00 Ry     beta= 0.70
     Davidson diagonalization with overlap
     ethr =  4.02E-11,  avg # of iterations =  1.6

     negative rho (up, down):  6.927E-03 0.000E+00

     total cpu time spent up to now is    17527.4 secs

     total energy              =   -3597.81578221 Ry
     estimated scf accuracy    <       0.00000001 Ry

     iteration # 11     ecut=   124.00 Ry     beta= 0.70
     Davidson diagonalization with overlap
     ethr =  5.07E-12,  avg # of iterations =  4.5

     negative rho (up, down):  6.927E-03 0.000E+00

     total cpu time spent up to now is    17585.8 secs

     total energy              =   -3597.81578220 Ry
     estimated scf accuracy    <       0.00000012 Ry

     iteration # 12     ecut=   124.00 Ry     beta= 0.70
     Davidson diagonalization with overlap
     ethr =  5.07E-12,  avg # of iterations =  3.6

     negative rho (up, down):  6.927E-03 0.000E+00

     total cpu time spent up to now is    17638.0 secs

     total energy              =   -3597.81578221 Ry
     estimated scf accuracy    <          1.8E-09 Ry

     iteration # 13     ecut=   124.00 Ry     beta= 0.70
     Davidson diagonalization with overlap
     ethr =  7.78E-13,  avg # of iterations =  4.3

     negative rho (up, down):  6.927E-03 0.000E+00

     total cpu time spent up to now is    17693.2 secs

     total energy              =   -3597.81578221 Ry
     estimated scf accuracy    <          5.0E-10 Ry

     iteration # 14     ecut=   124.00 Ry     beta= 0.70
     Davidson diagonalization with overlap
     ethr =  2.14E-13,  avg # of iterations =  4.4

     negative rho (up, down):  6.927E-03 0.000E+00

     total cpu time spent up to now is    17751.4 secs

     total energy              =   -3597.81578221 Ry
     estimated scf accuracy    <          3.5E-09 Ry

     iteration # 15     ecut=   124.00 Ry     beta= 0.70
     Davidson diagonalization with overlap
     ethr =  2.14E-13,  avg # of iterations =  4.8

     negative rho (up, down):  6.927E-03 0.000E+00

     total cpu time spent up to now is    17813.0 secs

     total energy              =   -3597.81578221 Ry
     estimated scf accuracy    <          2.4E-09 Ry

     iteration # 16     ecut=   124.00 Ry     beta= 0.70
     Davidson diagonalization with overlap
     ethr =  2.14E-13,  avg # of iterations =  3.5

     negative rho (up, down):  6.927E-03 0.000E+00

     total cpu time spent up to now is    17865.8 secs

     total energy              =   -3597.81578221 Ry
     estimated scf accuracy    <          6.8E-10 Ry

     iteration # 17     ecut=   124.00 Ry     beta= 0.70
     Davidson diagonalization with overlap
     ethr =  2.14E-13,  avg # of iterations =  1.9

     negative rho (up, down):  6.927E-03 0.000E+00

     total cpu time spent up to now is    17912.7 secs

     End of self-consistent calculation

     Number of k-points >= 100: set verbosity='high' to print the bands.

     the Fermi energy is    16.2385 ev

!    total energy              =   -3597.81578221 Ry
     estimated scf accuracy    <          3.5E-11 Ry
     smearing contrib. (-TS)   =      -0.00004795 Ry
     internal energy E=F+TS    =   -3597.81573425 Ry

     The total energy is F=E-TS. E is the sum of the following terms:
     one-electron contribution =   -1285.07909155 Ry
     hartree contribution      =     765.22990959 Ry
     xc contribution           =    -429.06677287 Ry
     ewald contribution        =   -2039.69475079 Ry
     one-center paw contrib.   =    -609.20502863 Ry

     convergence has been achieved in  17 iterations

     negative rho (up, down):  6.927E-03 0.000E+00

     Forces acting on atoms (cartesian axes, Ry/au):

     atom    1 type  1   force =     0.00000000    0.00000000    0.00000000
     atom    2 type  1   force =     0.00000000    0.00000000    0.00000000
     atom    3 type  1   force =     0.00000000    0.00000000    0.00000000
     atom    4 type  1   force =     0.00000000    0.00000000    0.00000000
     atom    5 type  1   force =     0.00000000    0.00000000    0.00000000
     atom    6 type  1   force =     0.00000000    0.00000000    0.00000000
     atom    7 type  1   force =    -0.00000000    0.00000000    0.00000000
     atom    8 type  1   force =     0.00000000    0.00000000    0.00000000
     atom    9 type  2   force =    -0.00000093   -0.00000014   -0.00000014
     atom   10 type  2   force =     0.00000175    0.00000011   -0.00000011
     atom   11 type  2   force =     0.00000093   -0.00000014   -0.00000014
     atom   12 type  2   force =    -0.00000093    0.00000014    0.00000014
     atom   13 type  2   force =    -0.00000175   -0.00000011    0.00000011
     atom   14 type  2   force =     0.00000093    0.00000014    0.00000014
     atom   15 type  2   force =     0.00000175   -0.00000011    0.00000011
     atom   16 type  2   force =    -0.00000175    0.00000011   -0.00000011
     atom   17 type  3   force =    -0.00000007    0.00000000    0.00000000
     atom   18 type  3   force =    -0.00000000   -0.00000018    0.00000018
     atom   19 type  3   force =     0.00000007    0.00000000    0.00000000
     atom   20 type  3   force =    -0.00000000    0.00000018   -0.00000018
     atom   21 type  3   force =     0.00000000   -0.00000017    0.00000017
     atom   22 type  3   force =    -0.00000007    0.00000000    0.00000000
     atom   23 type  3   force =     0.00000000    0.00000017   -0.00000017
     atom   24 type  3   force =     0.00000007    0.00000000    0.00000000

     Total force =     0.000004     Total SCF correction =     0.000011
     SCF correction compared to forces is large: reduce conv_thr to get better values


     Computing stress (Cartesian axis) and pressure


     negative rho (up, down):  6.927E-03 0.000E+00
          total   stress  (Ry/bohr**3)                   (kbar)     P=        0.20
   0.00000050   0.00000000   0.00000000            0.07        0.00        0.00
   0.00000000   0.00000182  -0.00000010            0.00        0.27       -0.01
   0.00000000  -0.00000010   0.00000182            0.00       -0.01        0.27

     Energy error            =      2.2E-06 Ry
     Gradient error          =      1.7E-06 Ry/Bohr
     Cell gradient error     =      2.7E-01 kbar

     number of scf cycles    =  11
     number of bfgs steps    =  10

     enthalpy           old  =   -3597.8157800562 Ry
     enthalpy           new  =   -3597.8157822077 Ry

     CASE: enthalpy          _new < enthalpy          _old

     new trust radius        =       0.0004769041 bohr
     new conv_thr            =            1.0E-10 Ry

     new unit-cell volume =   1527.42765 a.u.^3 (   226.34143 Ang^3 )
     density =      6.14616 g/cm^3

CELL_PARAMETERS (alat=  5.58242261)
   2.385199096   0.000000000   0.000000000
   0.000000000   1.918597789  -0.000065045
   0.000000000  -0.000065045   1.918597789

ATOMIC_POSITIONS (crystal)
Fe               0.0000000000        0.0000000000        0.0000000000
Fe               0.5000000000        0.5000000000       -0.0000000000
Fe               0.5000000000        0.0000000000        0.0000000000
Fe               0.0000000000        0.5000000000        0.5000000000
Fe               0.0000000000       -0.0000000000        0.5000000000
Fe               0.5000000000        0.5000000000        0.5000000000
Fe               0.5000000000       -0.0000000000        0.5000000000
Fe               0.0000000000        0.5000000000       -0.0000000000
Ti               0.2500001349        0.2499999977        0.2499999977
Ti               0.7499999920        0.7499999658        0.2500000342
Ti               0.7499998651        0.2499999977        0.2499999977
Ti               0.2500001349        0.7500000023        0.7500000023
Ti               0.2500000080        0.2500000342        0.7499999658
Ti               0.7499998651        0.7500000023        0.7500000023
Ti               0.7499999920        0.2500000342        0.7499999658
Ti               0.2500000080        0.7499999658        0.2500000342
H                0.2500000137        0.5000000000        0.5000000000
H                0.5000000000        0.2499997216        0.7500002784
H                0.7499999863        0.5000000000        0.5000000000
H                0.5000000000        0.7500002784        0.2499997216
H                0.0000000000        0.2499997256        0.7500002744
H                0.2500000325        0.0000000000        0.0000000000
H                0.0000000000        0.7500002744        0.2499997256
H                0.7499999675        0.0000000000        0.0000000000



     Writing config-only to output data dir ./TiFeH_supercell.save/ :
     XML data file     NEW-OLD atomic charge density approx. for the potential
     New effective cutoffs (rho, wfc): 1886.28  134.75

     Check: negative core charge=   -0.000002

     negative rho (up, down):  6.928E-03 0.000E+00

     total cpu time spent up to now is    17954.1 secs

     per-process dynamical memory:   711.7 Mb

     Self-consistent Calculation

     iteration #  1     ecut=   124.00 Ry     beta= 0.70
     Davidson diagonalization with overlap
     ethr =  1.00E-06,  avg # of iterations =  2.0

     Threshold (ethr) on eigenvalues was too large:
     Diagonalizing with lowered threshold

     Davidson diagonalization with overlap
     ethr =  3.55E-11,  avg # of iterations =  5.8

     negative rho (up, down):  6.928E-03 0.000E+00

     total cpu time spent up to now is    18106.9 secs

     total energy              =   -3597.81578219 Ry
     estimated scf accuracy    <       0.00000014 Ry

     iteration #  2     ecut=   124.00 Ry     beta= 0.70
     Davidson diagonalization with overlap
     ethr =  6.22E-11,  avg # of iterations =  6.3

     negative rho (up, down):  6.927E-03 0.000E+00

     total cpu time spent up to now is    18188.8 secs

     total energy              =   -3597.81578131 Ry
     estimated scf accuracy    <       0.00002567 Ry

     iteration #  3     ecut=   124.00 Ry     beta= 0.70
     Davidson diagonalization with overlap
     ethr =  6.22E-11,  avg # of iterations =  5.6

     negative rho (up, down):  6.927E-03 0.000E+00

     total cpu time spent up to now is    18267.5 secs

     total energy              =   -3597.81578225 Ry
     estimated scf accuracy    <       0.00000433 Ry

     iteration #  4     ecut=   124.00 Ry     beta= 0.70
     Davidson diagonalization with overlap
     ethr =  6.22E-11,  avg # of iterations =  4.8

     negative rho (up, down):  6.927E-03 0.000E+00

     total cpu time spent up to now is    18331.4 secs

     total energy              =   -3597.81578239 Ry
     estimated scf accuracy    <       0.00000011 Ry

     iteration #  5     ecut=   124.00 Ry     beta= 0.70
     Davidson diagonalization with overlap
     ethr =  4.93E-11,  avg # of iterations =  4.0

     negative rho (up, down):  6.927E-03 0.000E+00

     total cpu time spent up to now is    18387.6 secs

     total energy              =   -3597.81578236 Ry
     estimated scf accuracy    <       0.00000110 Ry

     iteration #  6     ecut=   124.00 Ry     beta= 0.70
     Davidson diagonalization with overlap
     ethr =  4.93E-11,  avg # of iterations =  3.4

     negative rho (up, down):  6.927E-03 0.000E+00

     total cpu time spent up to now is    18440.3 secs

     total energy              =   -3597.81578239 Ry
     estimated scf accuracy    <       0.00000002 Ry

     iteration #  7     ecut=   124.00 Ry     beta= 0.70
     Davidson diagonalization with overlap
     ethr =  1.07E-11,  avg # of iterations =  3.8

     negative rho (up, down):  6.927E-03 0.000E+00

     total cpu time spent up to now is    18493.0 secs

     total energy              =   -3597.81578239 Ry
     estimated scf accuracy    <       0.00000005 Ry

     iteration #  8     ecut=   124.00 Ry     beta= 0.70
     Davidson diagonalization with overlap
     ethr =  1.07E-11,  avg # of iterations =  1.7

     negative rho (up, down):  6.927E-03 0.000E+00

     total cpu time spent up to now is    18538.8 secs

     total energy              =   -3597.81578239 Ry
     estimated scf accuracy    <          2.1E-09 Ry

     iteration #  9     ecut=   124.00 Ry     beta= 0.70
     Davidson diagonalization with overlap
     ethr =  9.26E-13,  avg # of iterations =  4.6

     negative rho (up, down):  6.927E-03 0.000E+00

     total cpu time spent up to now is    18598.3 secs

     total energy              =   -3597.81578239 Ry
     estimated scf accuracy    <       0.00000002 Ry

     iteration # 10     ecut=   124.00 Ry     beta= 0.70
     Davidson diagonalization with overlap
     ethr =  9.26E-13,  avg # of iterations =  2.9

     negative rho (up, down):  6.927E-03 0.000E+00

     total cpu time spent up to now is    18648.0 secs

     total energy              =   -3597.81578239 Ry
     estimated scf accuracy    <          3.6E-10 Ry

     iteration # 11     ecut=   124.00 Ry     beta= 0.70
     Davidson diagonalization with overlap
     ethr =  1.54E-13,  avg # of iterations =  5.0

     negative rho (up, down):  6.927E-03 0.000E+00

     total cpu time spent up to now is    18711.5 secs

     total energy              =   -3597.81578239 Ry
     estimated scf accuracy    <          6.8E-09 Ry

     iteration # 12     ecut=   124.00 Ry     beta= 0.70
     Davidson diagonalization with overlap
     ethr =  1.54E-13,  avg # of iterations =  4.1

     negative rho (up, down):  6.927E-03 0.000E+00

     total cpu time spent up to now is    18768.8 secs

     total energy              =   -3597.81578239 Ry
     estimated scf accuracy    <          1.8E-10 Ry

     iteration # 13     ecut=   124.00 Ry     beta= 0.70
     Davidson diagonalization with overlap
     ethr =  1.00E-13,  avg # of iterations =  1.8

     negative rho (up, down):  6.927E-03 0.000E+00

     total cpu time spent up to now is    18814.8 secs

     total energy              =   -3597.81578239 Ry
     estimated scf accuracy    <          2.1E-10 Ry

     iteration # 14     ecut=   124.00 Ry     beta= 0.70
     Davidson diagonalization with overlap
     ethr =  1.00E-13,  avg # of iterations =  1.0

     negative rho (up, down):  6.927E-03 0.000E+00

     total cpu time spent up to now is    18856.4 secs

     End of self-consistent calculation

     Number of k-points >= 100: set verbosity='high' to print the bands.

     the Fermi energy is    16.2366 ev

!    total energy              =   -3597.81578239 Ry
     estimated scf accuracy    <          9.0E-12 Ry
     smearing contrib. (-TS)   =      -0.00005109 Ry
     internal energy E=F+TS    =   -3597.81573129 Ry

     The total energy is F=E-TS. E is the sum of the following terms:
     one-electron contribution =   -1285.19415572 Ry
     hartree contribution      =     765.26926401 Ry
     xc contribution           =    -429.06524448 Ry
     ewald contribution        =   -2039.62058951 Ry
     one-center paw contrib.   =    -609.20500560 Ry

     convergence has been achieved in  14 iterations

     negative rho (up, down):  6.927E-03 0.000E+00

     Forces acting on atoms (cartesian axes, Ry/au):

     atom    1 type  1   force =     0.00000000    0.00000000    0.00000000
     atom    2 type  1   force =     0.00000000    0.00000000    0.00000000
     atom    3 type  1   force =     0.00000000    0.00000000    0.00000000
     atom    4 type  1   force =     0.00000000    0.00000000    0.00000000
     atom    5 type  1   force =     0.00000000    0.00000000    0.00000000
     atom    6 type  1   force =     0.00000000    0.00000000    0.00000000
     atom    7 type  1   force =     0.00000000    0.00000000    0.00000000
     atom    8 type  1   force =     0.00000000    0.00000000    0.00000000
     atom    9 type  2   force =    -0.00000045   -0.00000021   -0.00000021
     atom   10 type  2   force =     0.00000038    0.00000018   -0.00000018
     atom   11 type  2   force =     0.00000045   -0.00000021   -0.00000021
     atom   12 type  2   force =    -0.00000045    0.00000021    0.00000021
     atom   13 type  2   force =    -0.00000038   -0.00000018    0.00000018
     atom   14 type  2   force =     0.00000045    0.00000021    0.00000021
     atom   15 type  2   force =     0.00000038   -0.00000018    0.00000018
     atom   16 type  2   force =    -0.00000038    0.00000018   -0.00000018
     atom   17 type  3   force =    -0.00000003    0.00000000    0.00000000
     atom   18 type  3   force =    -0.00000000   -0.00000017    0.00000017
     atom   19 type  3   force =     0.00000003    0.00000000    0.00000000
     atom   20 type  3   force =    -0.00000000    0.00000017   -0.00000017
     atom   21 type  3   force =     0.00000000   -0.00000016    0.00000016
     atom   22 type  3   force =    -0.00000005    0.00000000    0.00000000
     atom   23 type  3   force =     0.00000000    0.00000016   -0.00000016
     atom   24 type  3   force =     0.00000005    0.00000000    0.00000000

     Total force =     0.000002     Total SCF correction =     0.000012
     SCF correction compared to forces is large: reduce conv_thr to get better values


     Computing stress (Cartesian axis) and pressure


     negative rho (up, down):  6.927E-03 0.000E+00
          total   stress  (Ry/bohr**3)                   (kbar)     P=        0.01
  -0.00000001   0.00000000   0.00000000           -0.00        0.00        0.00
   0.00000000   0.00000013  -0.00000007            0.00        0.02       -0.01
   0.00000000  -0.00000007   0.00000013            0.00       -0.01        0.02

     Energy error            =      1.8E-07 Ry
     Gradient error          =      4.5E-07 Ry/Bohr
     Cell gradient error     =      1.9E-02 kbar

     bfgs converged in  12 scf cycles and  11 bfgs steps
     (criteria: energy <  1.0E-04 Ry, force <  1.0E-03 Ry/Bohr, cell <  1.0E-01 kbar)

     End of BFGS Geometry Optimization

     Final enthalpy           =   -3597.8157823857 Ry

     File ./TiFeH_supercell.bfgs deleted, as requested
Begin final coordinates
     new unit-cell volume =   1527.42765 a.u.^3 (   226.34143 Ang^3 )
     density =      6.14616 g/cm^3

CELL_PARAMETERS (alat=  5.58242261)
   2.385199096   0.000000000   0.000000000
   0.000000000   1.918597789  -0.000065045
   0.000000000  -0.000065045   1.918597789

ATOMIC_POSITIONS (crystal)
Fe               0.0000000000        0.0000000000        0.0000000000
Fe               0.5000000000        0.5000000000       -0.0000000000
Fe               0.5000000000        0.0000000000        0.0000000000
Fe               0.0000000000        0.5000000000        0.5000000000
Fe               0.0000000000       -0.0000000000        0.5000000000
Fe               0.5000000000        0.5000000000        0.5000000000
Fe               0.5000000000       -0.0000000000        0.5000000000
Fe               0.0000000000        0.5000000000       -0.0000000000
Ti               0.2500001349        0.2499999977        0.2499999977
Ti               0.7499999920        0.7499999658        0.2500000342
Ti               0.7499998651        0.2499999977        0.2499999977
Ti               0.2500001349        0.7500000023        0.7500000023
Ti               0.2500000080        0.2500000342        0.7499999658
Ti               0.7499998651        0.7500000023        0.7500000023
Ti               0.7499999920        0.2500000342        0.7499999658
Ti               0.2500000080        0.7499999658        0.2500000342
H                0.2500000137        0.5000000000        0.5000000000
H                0.5000000000        0.2499997216        0.7500002784
H                0.7499999863        0.5000000000        0.5000000000
H                0.5000000000        0.7500002784        0.2499997216
H                0.0000000000        0.2499997256        0.7500002744
H                0.2500000325        0.0000000000        0.0000000000
H                0.0000000000        0.7500002744        0.2499997256
H                0.7499999675        0.0000000000        0.0000000000
End final coordinates



     Writing config-only to output data dir ./TiFeH_supercell.save/ :
     XML data file
     Final scf calculation at the relaxed structure.
     The G-vectors are recalculated for the final unit cell
     Results may differ from those at the preceding step.

     Parallelization info
     --------------------
     sticks:   dense  smooth     PW     G-vecs:    dense   smooth      PW
     Min        1231     351     95               116603    17801    2527
     Max        1232     352     97               116605    17805    2528
     Sum       19711    5621   1531              1865661   284835   40441

     Using Slab Decomposition



     bravais-lattice index     =            0
     lattice parameter (alat)  =       5.5824  a.u.
     unit-cell volume          =    1527.4276 (a.u.)^3
     number of atoms/cell      =           24
     number of atomic types    =            3
     number of electrons       =       232.00
     number of Kohn-Sham states=          139
     kinetic-energy cutoff     =     124.0000  Ry
     charge density cutoff     =    1736.0000  Ry
     scf convergence threshold =      1.0E-10
     mixing beta               =       0.7000
     number of iterations used =            8  plain     mixing
     press convergence thresh. =      1.0E-01
     Exchange-correlation= PBE
                           (   1   4   3   4   0   0   0)

     celldm(1)=   5.582423  celldm(2)=   0.000000  celldm(3)=   0.000000
     celldm(4)=   0.000000  celldm(5)=   0.000000  celldm(6)=   0.000000

     crystal axes: (cart. coord. in units of alat)
               a(1) = (   2.385199   0.000000   0.000000 )  
               a(2) = (   0.000000   1.918598  -0.000065 )  
               a(3) = (   0.000000  -0.000065   1.918598 )  

     reciprocal axes: (cart. coord. in units 2 pi/alat)
               b(1) = (  0.419252 -0.000000 -0.000000 )  
               b(2) = ( -0.000000  0.521214  0.000018 )  
               b(3) = ( -0.000000  0.000018  0.521214 )  


     PseudoPot. # 1 for Fe read from file:
     ../../../../pseudos/Fe.pbe-spn-kjpaw_psl.0.2.1.UPF
     MD5 check sum: e86618425769142926afa95317d90200
     Pseudo is Projector augmented-wave + core cor, Zval = 16.0
     Generated using "atomic" code by A. Dal Corso  v.5.0.99 svn rev. 10869
     Shape of augmentation charge: PSQ
     Using radial grid of 1191 points,  6 beta functions with: 
                l(1) =   0
                l(2) =   0
                l(3) =   1
                l(4) =   1
                l(5) =   2
                l(6) =   2
     Q(r) pseudized with 0 coefficients 


     PseudoPot. # 2 for Ti read from file:
     ../../../../pseudos/ti_pbe_v1.4.uspp.F.UPF
     MD5 check sum: 88a00a6731bd790ddea75d31a80cb452
     Pseudo is Ultrasoft + core correction, Zval = 12.0
     Generated by new atomic code, or converted to UPF format
     Using radial grid of  851 points,  6 beta functions with: 
                l(1) =   0
                l(2) =   0
                l(3) =   1
                l(4) =   1
                l(5) =   2
                l(6) =   2
     Q(r) pseudized with  6 coefficients,  rinner =    1.000   1.000   1.000
                                                       1.000   1.000

     PseudoPot. # 3 for H  read from file:
     ../../../../pseudos/H.pbe-rrkjus_psl.1.0.0.UPF
     MD5 check sum: f52b6d4d1c606e5624b1dc7b2218f220
     Pseudo is Ultrasoft, Zval =  1.0
     Generated using "atomic" code by A. Dal Corso  v.5.1
     Using radial grid of  929 points,  2 beta functions with: 
                l(1) =   0
                l(2) =   0
     Q(r) pseudized with 0 coefficients 


     atomic species   valence    mass     pseudopotential
     Fe               16.00    55.84500     Fe( 1.00)
     Ti               12.00    47.86700     Ti( 1.00)
     H                 1.00     1.00784     H ( 1.00)

      8 Sym. Ops., with inversion, found



   Cartesian axes

     site n.     atom                  positions (alat units)
         1        Fe     tau(   1) = (   0.0000000   0.0000000   0.0000000  )
         2        Fe     tau(   2) = (   1.1925995   0.9592989  -0.0000325  )
         3        Fe     tau(   3) = (   1.1925995   0.0000000   0.0000000  )
         4        Fe     tau(   4) = (   0.0000000   0.9592664   0.9592664  )
         5        Fe     tau(   5) = (   0.0000000  -0.0000325   0.9592989  )
         6        Fe     tau(   6) = (   1.1925995   0.9592664   0.9592664  )
         7        Fe     tau(   7) = (   1.1925995  -0.0000325   0.9592989  )
         8        Fe     tau(   8) = (   0.0000000   0.9592989  -0.0000325  )
         9        Ti     tau(   9) = (   0.5963001   0.4796332   0.4796332  )
        10        Ti     tau(  10) = (   1.7888993   1.4389320   0.4796007  )
        11        Ti     tau(  11) = (   1.7888990   0.4796332   0.4796332  )
        12        Ti     tau(  12) = (   0.5963001   1.4388996   1.4388996  )
        13        Ti     tau(  13) = (   0.5962998   0.4796007   1.4389320  )
        14        Ti     tau(  14) = (   1.7888990   1.4388996   1.4388996  )
        15        Ti     tau(  15) = (   1.7888993   0.4796007   1.4389320  )
        16        Ti     tau(  16) = (   0.5962998   1.4389320   0.4796007  )
        17        H      tau(  17) = (   0.5962998   0.9592664   0.9592664  )
        18        H      tau(  18) = (   1.1925995   0.4796001   1.4389326  )
        19        H      tau(  19) = (   1.7888993   0.9592664   0.9592664  )
        20        H      tau(  20) = (   1.1925995   1.4389326   0.4796001  )
        21        H      tau(  21) = (   0.0000000   0.4796001   1.4389326  )
        22        H      tau(  22) = (   0.5962999   0.0000000   0.0000000  )
        23        H      tau(  23) = (   0.0000000   1.4389326   0.4796001  )
        24        H      tau(  24) = (   1.7888992   0.0000000   0.0000000  )

     number of k points=   105  Marzari-Vanderbilt smearing, width (Ry)=  0.0050

     Number of k-points >= 100: set verbosity='high' to print them.

     Dense  grid:  1865661 G-vectors     FFT dimensions: ( 180, 144, 144)

     Smooth grid:   284835 G-vectors     FFT dimensions: (  96,  75,  75)

     Estimated max dynamical RAM per process >     975.12 MB

     Estimated total dynamical RAM >      15.24 GB

     Check: negative core charge=   -0.000001

     Initial potential from superposition of free atoms

     starting charge     223.9961, renormalised to     232.0000

     negative rho (up, down):  1.082E-02 0.000E+00
     Starting wfcs are  192 randomized atomic wfcs
     Checking if some PAW data can be deallocated... 

     total cpu time spent up to now is    18924.2 secs

     per-process dynamical memory:   723.8 Mb

     Self-consistent Calculation

     iteration #  1     ecut=   124.00 Ry     beta= 0.70
     Davidson diagonalization with overlap
     c_bands:  2 eigenvalues not converged
     c_bands:  1 eigenvalues not converged
     c_bands:  1 eigenvalues not converged
     c_bands:  1 eigenvalues not converged
     c_bands:  5 eigenvalues not converged
     c_bands:  1 eigenvalues not converged
     c_bands:  2 eigenvalues not converged
     c_bands:  5 eigenvalues not converged
     c_bands:  2 eigenvalues not converged
     c_bands:  5 eigenvalues not converged
     c_bands:  5 eigenvalues not converged
     c_bands:  3 eigenvalues not converged
     c_bands:  5 eigenvalues not converged
     c_bands:  1 eigenvalues not converged
     c_bands:  2 eigenvalues not converged
     c_bands:  3 eigenvalues not converged
     c_bands:  5 eigenvalues not converged
     c_bands:  3 eigenvalues not converged
     c_bands:  4 eigenvalues not converged
     c_bands:  5 eigenvalues not converged
     c_bands:  4 eigenvalues not converged
     c_bands:  1 eigenvalues not converged
     c_bands:  4 eigenvalues not converged
     c_bands:  5 eigenvalues not converged
     c_bands:  5 eigenvalues not converged
     c_bands:  1 eigenvalues not converged
     c_bands:  1 eigenvalues not converged
     c_bands:  4 eigenvalues not converged
     c_bands:  1 eigenvalues not converged
     c_bands:  4 eigenvalues not converged
     c_bands:  3 eigenvalues not converged
     c_bands:  1 eigenvalues not converged
     c_bands:  1 eigenvalues not converged
     c_bands:  5 eigenvalues not converged
     c_bands:  3 eigenvalues not converged
     c_bands:  1 eigenvalues not converged
     c_bands:  2 eigenvalues not converged
     c_bands:  2 eigenvalues not converged
     c_bands:  3 eigenvalues not converged
     c_bands:  2 eigenvalues not converged
     c_bands:  2 eigenvalues not converged
     c_bands:  5 eigenvalues not converged
     c_bands:  4 eigenvalues not converged
     c_bands:  4 eigenvalues not converged
     c_bands:  1 eigenvalues not converged
     c_bands:  4 eigenvalues not converged
     c_bands:  5 eigenvalues not converged
     c_bands:  4 eigenvalues not converged
     c_bands:  3 eigenvalues not converged
     c_bands:  4 eigenvalues not converged
     c_bands:  3 eigenvalues not converged
     c_bands:  1 eigenvalues not converged
     c_bands:  1 eigenvalues not converged
     c_bands:  2 eigenvalues not converged
     c_bands:  1 eigenvalues not converged
     c_bands:  1 eigenvalues not converged
     c_bands:  3 eigenvalues not converged
     c_bands:  3 eigenvalues not converged
     c_bands:  4 eigenvalues not converged
     c_bands:  3 eigenvalues not converged
     c_bands:  5 eigenvalues not converged
     c_bands:  5 eigenvalues not converged
     c_bands:  1 eigenvalues not converged
     c_bands:  2 eigenvalues not converged
     c_bands:  2 eigenvalues not converged
     c_bands:  4 eigenvalues not converged
     c_bands:  4 eigenvalues not converged
     c_bands:  5 eigenvalues not converged
     c_bands:  4 eigenvalues not converged
     c_bands:  4 eigenvalues not converged
     c_bands:  5 eigenvalues not converged
     c_bands:  4 eigenvalues not converged
     c_bands:  4 eigenvalues not converged
     c_bands:  3 eigenvalues not converged
     c_bands:  3 eigenvalues not converged
     c_bands:  5 eigenvalues not converged
     c_bands:  1 eigenvalues not converged
     c_bands:  3 eigenvalues not converged
     c_bands:  3 eigenvalues not converged
     c_bands:  1 eigenvalues not converged
     c_bands:  2 eigenvalues not converged
     c_bands:  3 eigenvalues not converged
     c_bands:  2 eigenvalues not converged
     c_bands:  3 eigenvalues not converged
     c_bands:  5 eigenvalues not converged
     c_bands:  5 eigenvalues not converged
     c_bands:  5 eigenvalues not converged
     c_bands:  3 eigenvalues not converged
     c_bands:  4 eigenvalues not converged
     c_bands:  3 eigenvalues not converged
     c_bands:  3 eigenvalues not converged
     c_bands:  4 eigenvalues not converged
     c_bands:  3 eigenvalues not converged
     c_bands:  3 eigenvalues not converged
     ethr =  1.00E-06,  avg # of iterations = 21.8

     negative rho (up, down):  9.534E-04 0.000E+00

     total cpu time spent up to now is    19318.1 secs

     total energy              =   -3459.19188700 Ry
     estimated scf accuracy    <     174.64544265 Ry

     iteration #  2     ecut=   124.00 Ry     beta= 0.70
     Davidson diagonalization with overlap
     ethr =  1.00E-02,  avg # of iterations =  8.6

     negative rho (up, down):  6.610E-05 0.000E+00

     total cpu time spent up to now is    19470.1 secs

     total energy              =   -3565.30383358 Ry
     estimated scf accuracy    <     772.07024764 Ry

     iteration #  3     ecut=   124.00 Ry     beta= 0.70
     Davidson diagonalization with overlap
     ethr =  1.00E-02,  avg # of iterations =  3.4

     negative rho (up, down):  6.621E-04 0.000E+00

     total cpu time spent up to now is    19551.5 secs

     total energy              =   -3608.72643726 Ry
     estimated scf accuracy    <     157.26627432 Ry

     iteration #  4     ecut=   124.00 Ry     beta= 0.70
     Davidson diagonalization with overlap
     ethr =  1.00E-02,  avg # of iterations =  2.2

     negative rho (up, down):  1.895E-03 0.000E+00

     total cpu time spent up to now is    19610.3 secs

     total energy              =   -3601.08156046 Ry
     estimated scf accuracy    <      85.70092384 Ry

     iteration #  5     ecut=   124.00 Ry     beta= 0.70
     Davidson diagonalization with overlap
     ethr =  1.00E-02,  avg # of iterations =  2.2

     negative rho (up, down):  3.138E-03 0.000E+00

     total cpu time spent up to now is    19663.9 secs

     total energy              =   -3600.24096900 Ry
     estimated scf accuracy    <      42.00860460 Ry

     iteration #  6     ecut=   124.00 Ry     beta= 0.70
     Davidson diagonalization with overlap
     ethr =  1.00E-02,  avg # of iterations =  1.4

     negative rho (up, down):  4.155E-03 0.000E+00

     total cpu time spent up to now is    19712.8 secs

     total energy              =   -3598.89156490 Ry
     estimated scf accuracy    <      31.92026021 Ry

     iteration #  7     ecut=   124.00 Ry     beta= 0.70
     Davidson diagonalization with overlap
     ethr =  1.00E-02,  avg # of iterations =  1.2

     negative rho (up, down):  6.243E-03 0.000E+00

     total cpu time spent up to now is    19761.0 secs

     total energy              =   -3597.23031320 Ry
     estimated scf accuracy    <      20.39005001 Ry

     iteration #  8     ecut=   124.00 Ry     beta= 0.70
     Davidson diagonalization with overlap
     ethr =  8.79E-03,  avg # of iterations =  1.7

     negative rho (up, down):  6.592E-03 0.000E+00

     total cpu time spent up to now is    19811.0 secs

     total energy              =   -3597.59867309 Ry
     estimated scf accuracy    <       5.39887561 Ry

     iteration #  9     ecut=   124.00 Ry     beta= 0.70
     Davidson diagonalization with overlap
     ethr =  2.33E-03,  avg # of iterations =  2.9

     negative rho (up, down):  6.570E-03 0.000E+00

     total cpu time spent up to now is    19866.3 secs

     total energy              =   -3597.89578818 Ry
     estimated scf accuracy    <       3.27265515 Ry

     iteration # 10     ecut=   124.00 Ry     beta= 0.70
     Davidson diagonalization with overlap
     ethr =  1.41E-03,  avg # of iterations =  2.6

     negative rho (up, down):  1.022E-02 0.000E+00

     total cpu time spent up to now is    19919.4 secs

     total energy              =   -3596.80740533 Ry
     estimated scf accuracy    <       4.86255725 Ry

     iteration # 11     ecut=   124.00 Ry     beta= 0.70
     Davidson diagonalization with overlap
     ethr =  1.41E-03,  avg # of iterations =  6.2

     negative rho (up, down):  8.743E-03 0.000E+00

     total cpu time spent up to now is    20004.1 secs

     total energy              =   -3597.76322509 Ry
     estimated scf accuracy    <      25.99233180 Ry

     iteration # 12     ecut=   124.00 Ry     beta= 0.70
     Davidson diagonalization with overlap
     ethr =  1.41E-03,  avg # of iterations =  1.6

     negative rho (up, down):  8.251E-03 0.000E+00

     total cpu time spent up to now is    20054.3 secs

     total energy              =   -3597.94652431 Ry
     estimated scf accuracy    <       8.14612642 Ry

     iteration # 13     ecut=   124.00 Ry     beta= 0.70
     Davidson diagonalization with overlap
     ethr =  1.41E-03,  avg # of iterations =  1.1

     negative rho (up, down):  7.992E-03 0.000E+00

     total cpu time spent up to now is    20101.8 secs

     total energy              =   -3597.79040087 Ry
     estimated scf accuracy    <       6.78348687 Ry

     iteration # 14     ecut=   124.00 Ry     beta= 0.70
     Davidson diagonalization with overlap
     ethr =  1.41E-03,  avg # of iterations =  1.4

     negative rho (up, down):  6.769E-03 0.000E+00

     total cpu time spent up to now is    20151.3 secs

     total energy              =   -3597.55062031 Ry
     estimated scf accuracy    <       2.59804551 Ry

     iteration # 15     ecut=   124.00 Ry     beta= 0.70
     Davidson diagonalization with overlap
     ethr =  1.12E-03,  avg # of iterations =  3.3

     negative rho (up, down):  6.905E-03 0.000E+00

     total cpu time spent up to now is    20208.8 secs

     total energy              =   -3597.80493380 Ry
     estimated scf accuracy    <       0.19997705 Ry

     iteration # 16     ecut=   124.00 Ry     beta= 0.70
     Davidson diagonalization with overlap
     ethr =  8.62E-05,  avg # of iterations =  8.4

     negative rho (up, down):  7.078E-03 0.000E+00

     total cpu time spent up to now is    20292.2 secs

     total energy              =   -3597.79944641 Ry
     estimated scf accuracy    <       0.87468337 Ry

     iteration # 17     ecut=   124.00 Ry     beta= 0.70
     Davidson diagonalization with overlap
     ethr =  8.62E-05,  avg # of iterations =  1.7

     negative rho (up, down):  7.042E-03 0.000E+00

     total cpu time spent up to now is    20342.7 secs

     total energy              =   -3597.81531194 Ry
     estimated scf accuracy    <       0.14920294 Ry

     iteration # 18     ecut=   124.00 Ry     beta= 0.70
     Davidson diagonalization with overlap
     ethr =  6.43E-05,  avg # of iterations =  1.7

     negative rho (up, down):  7.172E-03 0.000E+00

     total cpu time spent up to now is    20393.6 secs

     total energy              =   -3597.81414790 Ry
     estimated scf accuracy    <       0.10320939 Ry

     iteration # 19     ecut=   124.00 Ry     beta= 0.70
     Davidson diagonalization with overlap
     ethr =  4.45E-05,  avg # of iterations =  2.0

     negative rho (up, down):  7.156E-03 0.000E+00

     total cpu time spent up to now is    20445.2 secs

     total energy              =   -3597.81589345 Ry
     estimated scf accuracy    <       0.05778212 Ry

     iteration # 20     ecut=   124.00 Ry     beta= 0.70
     Davidson diagonalization with overlap
     ethr =  2.49E-05,  avg # of iterations =  1.2

     negative rho (up, down):  7.218E-03 0.000E+00

     total cpu time spent up to now is    20492.9 secs

     total energy              =   -3597.81633321 Ry
     estimated scf accuracy    <       0.02192969 Ry

     iteration # 21     ecut=   124.00 Ry     beta= 0.70
     Davidson diagonalization with overlap
     c_bands:  1 eigenvalues not converged
     ethr =  9.45E-06,  avg # of iterations =  3.7

     negative rho (up, down):  7.265E-03 0.000E+00

     total cpu time spent up to now is    20550.2 secs

     total energy              =   -3597.81568288 Ry
     estimated scf accuracy    <       0.02404284 Ry

     iteration # 22     ecut=   124.00 Ry     beta= 0.70
     Davidson diagonalization with overlap
     ethr =  9.45E-06,  avg # of iterations =  2.0

     negative rho (up, down):  7.266E-03 0.000E+00

     total cpu time spent up to now is    20603.8 secs

     total energy              =   -3597.81685684 Ry
     estimated scf accuracy    <       0.00378286 Ry

     iteration # 23     ecut=   124.00 Ry     beta= 0.70
     Davidson diagonalization with overlap
     c_bands:  1 eigenvalues not converged
     c_bands:  1 eigenvalues not converged
     c_bands:  1 eigenvalues not converged
     c_bands:  2 eigenvalues not converged
     c_bands:  1 eigenvalues not converged
     ethr =  1.63E-06,  avg # of iterations = 10.0

     negative rho (up, down):  7.267E-03 0.000E+00

     total cpu time spent up to now is    20688.4 secs

     total energy              =   -3597.81676454 Ry
     estimated scf accuracy    <       0.02297479 Ry

     iteration # 24     ecut=   124.00 Ry     beta= 0.70
     Davidson diagonalization with overlap
     c_bands:  2 eigenvalues not converged
     ethr =  1.63E-06,  avg # of iterations =  3.4

     negative rho (up, down):  7.248E-03 0.000E+00

     total cpu time spent up to now is    20745.9 secs

     total energy              =   -3597.81714595 Ry
     estimated scf accuracy    <       0.00417902 Ry

     iteration # 25     ecut=   124.00 Ry     beta= 0.70
     Davidson diagonalization with overlap
     ethr =  1.63E-06,  avg # of iterations =  1.4

     negative rho (up, down):  7.239E-03 0.000E+00

     total cpu time spent up to now is    20795.1 secs

     total energy              =   -3597.81729305 Ry
     estimated scf accuracy    <       0.00043508 Ry

     iteration # 26     ecut=   124.00 Ry     beta= 0.70
     Davidson diagonalization with overlap
     ethr =  1.88E-07,  avg # of iterations =  4.7

     negative rho (up, down):  7.241E-03 0.000E+00

     total cpu time spent up to now is    20859.8 secs

     total energy              =   -3597.81734921 Ry
     estimated scf accuracy    <       0.00007414 Ry

     iteration # 27     ecut=   124.00 Ry     beta= 0.70
     Davidson diagonalization with overlap
     ethr =  3.20E-08,  avg # of iterations =  4.5

     negative rho (up, down):  7.239E-03 0.000E+00

     total cpu time spent up to now is    20927.9 secs

     total energy              =   -3597.81734848 Ry
     estimated scf accuracy    <       0.00018861 Ry

     iteration # 28     ecut=   124.00 Ry     beta= 0.70
     Davidson diagonalization with overlap
     ethr =  3.20E-08,  avg # of iterations =  2.5

     negative rho (up, down):  7.238E-03 0.000E+00

     total cpu time spent up to now is    20983.8 secs

     total energy              =   -3597.81735846 Ry
     estimated scf accuracy    <       0.00006174 Ry

     iteration # 29     ecut=   124.00 Ry     beta= 0.70
     Davidson diagonalization with overlap
     ethr =  2.66E-08,  avg # of iterations =  1.0

     negative rho (up, down):  7.239E-03 0.000E+00

     total cpu time spent up to now is    21030.8 secs

     total energy              =   -3597.81736076 Ry
     estimated scf accuracy    <       0.00001033 Ry

     iteration # 30     ecut=   124.00 Ry     beta= 0.70
     Davidson diagonalization with overlap
     ethr =  4.45E-09,  avg # of iterations =  2.6

     negative rho (up, down):  7.238E-03 0.000E+00

     total cpu time spent up to now is    21086.9 secs

     total energy              =   -3597.81736067 Ry
     estimated scf accuracy    <       0.00001626 Ry

     iteration # 31     ecut=   124.00 Ry     beta= 0.70
     Davidson diagonalization with overlap
     ethr =  4.45E-09,  avg # of iterations =  2.4

     negative rho (up, down):  7.239E-03 0.000E+00

     total cpu time spent up to now is    21143.0 secs

     total energy              =   -3597.81736040 Ry
     estimated scf accuracy    <       0.00004144 Ry

     iteration # 32     ecut=   124.00 Ry     beta= 0.70
     Davidson diagonalization with overlap
     ethr =  4.45E-09,  avg # of iterations =  1.7

     negative rho (up, down):  7.239E-03 0.000E+00

     total cpu time spent up to now is    21193.8 secs

     total energy              =   -3597.81736160 Ry
     estimated scf accuracy    <       0.00000454 Ry

     iteration # 33     ecut=   124.00 Ry     beta= 0.70
     Davidson diagonalization with overlap
     ethr =  1.96E-09,  avg # of iterations =  1.1

     negative rho (up, down):  7.239E-03 0.000E+00

     total cpu time spent up to now is    21241.9 secs

     total energy              =   -3597.81736170 Ry
     estimated scf accuracy    <       0.00000154 Ry

     iteration # 34     ecut=   124.00 Ry     beta= 0.70
     Davidson diagonalization with overlap
     ethr =  6.65E-10,  avg # of iterations =  2.3

     negative rho (up, down):  7.239E-03 0.000E+00

     total cpu time spent up to now is    21301.2 secs

     total energy              =   -3597.81736175 Ry
     estimated scf accuracy    <       0.00000263 Ry

     iteration # 35     ecut=   124.00 Ry     beta= 0.70
     Davidson diagonalization with overlap
     ethr =  6.65E-10,  avg # of iterations =  2.0

     negative rho (up, down):  7.239E-03 0.000E+00

     total cpu time spent up to now is    21354.5 secs

     total energy              =   -3597.81736180 Ry
     estimated scf accuracy    <       0.00000163 Ry

     iteration # 36     ecut=   124.00 Ry     beta= 0.70
     Davidson diagonalization with overlap
     ethr =  6.65E-10,  avg # of iterations =  1.1

     negative rho (up, down):  7.239E-03 0.000E+00

     total cpu time spent up to now is    21401.7 secs

     total energy              =   -3597.81736182 Ry
     estimated scf accuracy    <       0.00000072 Ry

     iteration # 37     ecut=   124.00 Ry     beta= 0.70
     Davidson diagonalization with overlap
     ethr =  3.08E-10,  avg # of iterations =  1.4

     negative rho (up, down):  7.239E-03 0.000E+00

     total cpu time spent up to now is    21451.3 secs

     total energy              =   -3597.81736186 Ry
     estimated scf accuracy    <       0.00000033 Ry

     iteration # 38     ecut=   124.00 Ry     beta= 0.70
     Davidson diagonalization with overlap
     ethr =  1.44E-10,  avg # of iterations =  1.2

     negative rho (up, down):  7.239E-03 0.000E+00

     total cpu time spent up to now is    21499.2 secs

     total energy              =   -3597.81736187 Ry
     estimated scf accuracy    <       0.00000005 Ry

     iteration # 39     ecut=   124.00 Ry     beta= 0.70
     Davidson diagonalization with overlap
     ethr =  2.07E-11,  avg # of iterations =  3.0

     negative rho (up, down):  7.239E-03 0.000E+00

     total cpu time spent up to now is    21555.4 secs

     total energy              =   -3597.81736188 Ry
     estimated scf accuracy    <          8.1E-09 Ry

     iteration # 40     ecut=   124.00 Ry     beta= 0.70
     Davidson diagonalization with overlap
     ethr =  3.48E-12,  avg # of iterations =  4.7

     negative rho (up, down):  7.239E-03 0.000E+00

     total cpu time spent up to now is    21624.6 secs

     total energy              =   -3597.81736188 Ry
     estimated scf accuracy    <       0.00000002 Ry

     iteration # 41     ecut=   124.00 Ry     beta= 0.70
     Davidson diagonalization with overlap
     ethr =  3.48E-12,  avg # of iterations =  2.3

     negative rho (up, down):  7.239E-03 0.000E+00

     total cpu time spent up to now is    21680.7 secs

     total energy              =   -3597.81736188 Ry
     estimated scf accuracy    <       0.00000002 Ry

     iteration # 42     ecut=   124.00 Ry     beta= 0.70
     Davidson diagonalization with overlap
     ethr =  3.48E-12,  avg # of iterations =  1.1

     negative rho (up, down):  7.239E-03 0.000E+00

     total cpu time spent up to now is    21728.9 secs

     total energy              =   -3597.81736188 Ry
     estimated scf accuracy    <          1.2E-09 Ry

     iteration # 43     ecut=   124.00 Ry     beta= 0.70
     Davidson diagonalization with overlap
     ethr =  5.01E-13,  avg # of iterations =  4.3

     negative rho (up, down):  7.239E-03 0.000E+00

     total cpu time spent up to now is    21794.0 secs

     total energy              =   -3597.81736188 Ry
     estimated scf accuracy    <          1.6E-09 Ry

     iteration # 44     ecut=   124.00 Ry     beta= 0.70
     Davidson diagonalization with overlap
     ethr =  5.01E-13,  avg # of iterations =  4.0

     negative rho (up, down):  7.239E-03 0.000E+00

     total cpu time spent up to now is    21856.0 secs

     total energy              =   -3597.81736188 Ry
     estimated scf accuracy    <          4.2E-09 Ry

     iteration # 45     ecut=   124.00 Ry     beta= 0.70
     Davidson diagonalization with overlap
     ethr =  5.01E-13,  avg # of iterations =  3.6

     negative rho (up, down):  7.239E-03 0.000E+00

     total cpu time spent up to now is    21913.5 secs

     total energy              =   -3597.81736188 Ry
     estimated scf accuracy    <          3.0E-10 Ry

     iteration # 46     ecut=   124.00 Ry     beta= 0.70
     Davidson diagonalization with overlap
     ethr =  1.31E-13,  avg # of iterations =  4.1

     negative rho (up, down):  7.239E-03 0.000E+00

     total cpu time spent up to now is    21974.2 secs

     total energy              =   -3597.81736188 Ry
     estimated scf accuracy    <          6.5E-10 Ry

     iteration # 47     ecut=   124.00 Ry     beta= 0.70
     Davidson diagonalization with overlap
     ethr =  1.31E-13,  avg # of iterations =  2.6

     negative rho (up, down):  7.239E-03 0.000E+00

     total cpu time spent up to now is    22029.4 secs

     total energy              =   -3597.81736188 Ry
     estimated scf accuracy    <          6.5E-10 Ry

     iteration # 48     ecut=   124.00 Ry     beta= 0.70
     Davidson diagonalization with overlap
     ethr =  1.31E-13,  avg # of iterations =  1.1

     negative rho (up, down):  7.239E-03 0.000E+00

     total cpu time spent up to now is    22077.2 secs

     End of self-consistent calculation

     Number of k-points >= 100: set verbosity='high' to print the bands.

     the Fermi energy is    16.2364 ev

!    total energy              =   -3597.81736188 Ry
     estimated scf accuracy    <          2.2E-11 Ry
     smearing contrib. (-TS)   =      -0.00004994 Ry
     internal energy E=F+TS    =   -3597.81731194 Ry

     The total energy is F=E-TS. E is the sum of the following terms:
     one-electron contribution =   -1285.19146844 Ry
     hartree contribution      =     765.26669779 Ry
     xc contribution           =    -429.06666328 Ry
     ewald contribution        =   -2039.62058951 Ry
     one-center paw contrib.   =    -609.20528850 Ry

     convergence has been achieved in  48 iterations

     negative rho (up, down):  7.239E-03 0.000E+00

     Forces acting on atoms (cartesian axes, Ry/au):

     atom    1 type  1   force =     0.00000000    0.00000000    0.00000000
     atom    2 type  1   force =     0.00000000    0.00000000    0.00000000
     atom    3 type  1   force =     0.00000000    0.00000000    0.00000000
     atom    4 type  1   force =     0.00000000    0.00000000    0.00000000
     atom    5 type  1   force =     0.00000000    0.00000000    0.00000000
     atom    6 type  1   force =     0.00000000    0.00000000    0.00000000
     atom    7 type  1   force =     0.00000000    0.00000000    0.00000000
     atom    8 type  1   force =     0.00000000    0.00000000    0.00000000
     atom    9 type  2   force =     0.00000005   -0.00000001   -0.00000001
     atom   10 type  2   force =    -0.00000012   -0.00000001    0.00000001
     atom   11 type  2   force =    -0.00000005   -0.00000001   -0.00000001
     atom   12 type  2   force =     0.00000005    0.00000001    0.00000001
     atom   13 type  2   force =     0.00000012    0.00000001   -0.00000001
     atom   14 type  2   force =    -0.00000005    0.00000001    0.00000001
     atom   15 type  2   force =    -0.00000012    0.00000001   -0.00000001
     atom   16 type  2   force =     0.00000012   -0.00000001    0.00000001
     atom   17 type  3   force =    -0.00000005    0.00000000    0.00000000
     atom   18 type  3   force =     0.00000000   -0.00000017    0.00000017
     atom   19 type  3   force =     0.00000005    0.00000000    0.00000000
     atom   20 type  3   force =     0.00000000    0.00000017   -0.00000017
     atom   21 type  3   force =     0.00000000   -0.00000017    0.00000017
     atom   22 type  3   force =    -0.00000001    0.00000000    0.00000000
     atom   23 type  3   force =     0.00000000    0.00000017   -0.00000017
     atom   24 type  3   force =     0.00000001    0.00000000    0.00000000

     Total force =     0.000001     Total SCF correction =     0.000008
     SCF correction compared to forces is large: reduce conv_thr to get better values


     Computing stress (Cartesian axis) and pressure


     negative rho (up, down):  7.239E-03 0.000E+00
          total   stress  (Ry/bohr**3)                   (kbar)     P=       -0.37
  -0.00000094   0.00000000   0.00000000           -0.14        0.00        0.00
   0.00000000  -0.00000334  -0.00000007            0.00       -0.49       -0.01
   0.00000000  -0.00000007  -0.00000334            0.00       -0.01       -0.49


     Writing all to output data dir ./TiFeH_supercell.save/ :
     XML data file
     init_run     :     56.47s CPU     57.58s WALL (       2 calls)
     electrons    :  21189.55s CPU  21514.30s WALL (      13 calls)
     update_pot   :      4.20s CPU      4.43s WALL (      11 calls)
     forces       :    106.58s CPU    108.97s WALL (      13 calls)
     stress       :    398.16s CPU    404.93s WALL (      13 calls)

     Called by init_run:
     wfcinit      :     51.41s CPU     52.33s WALL (       2 calls)
     potinit      :      1.57s CPU      1.63s WALL (       2 calls)
     hinit0       :      1.54s CPU      1.57s WALL (       2 calls)

     Called by electrons:
     c_bands      :  18990.40s CPU  19224.25s WALL (     339 calls)
     sum_band     :   1967.03s CPU   2028.00s WALL (     339 calls)
     v_of_rho     :     25.78s CPU     30.68s WALL (     346 calls)
     newd         :    112.13s CPU    136.46s WALL (     346 calls)
     PAW_pot      :    100.00s CPU    100.61s WALL (     357 calls)
     mix_rho      :      3.61s CPU      4.21s WALL (     339 calls)

     Called by c_bands:
     init_us_2    :    151.54s CPU    153.15s WALL (   75285 calls)
     cegterg      :  18518.52s CPU  18747.18s WALL (   35607 calls)

     Called by *egterg:
     cdiaghg      :   2777.27s CPU   2793.71s WALL (  165670 calls)
     h_psi        :   9314.44s CPU   9476.62s WALL (  167677 calls)
     s_psi        :   1328.12s CPU   1337.38s WALL (  167677 calls)
     g_psi        :     30.61s CPU     31.02s WALL (  131860 calls)

     Called by h_psi:
     h_psi:calbec :   1476.57s CPU   1494.99s WALL (  167677 calls)
     vloc_psi     :   6469.83s CPU   6604.09s WALL (  167677 calls)
     add_vuspsi   :   1327.72s CPU   1336.92s WALL (  167677 calls)

     General routines
     calbec       :   2409.05s CPU   2439.59s WALL (  227632 calls)
     fft          :     16.78s CPU     21.59s WALL (    4814 calls)
     ffts         :      1.36s CPU      1.47s WALL (     685 calls)
     fftw         :   6252.63s CPU   6379.38s WALL (29970817 calls)
     interpolate  :      2.27s CPU      2.67s WALL (     346 calls)

     Parallel routines

     PWSCF        :  21783.89s CPU  22120.43s WALL


   This run was terminated on:   9:56:14   4Dec2025            

=------------------------------------------------------------------------------=
   JOB DONE.
=------------------------------------------------------------------------------=
