
     Program PWSCF v.7.4 starts on 23Nov2025 at 23:58:50 

     This program is part of the open-source Quantum ESPRESSO suite
     for quantum simulation of materials; please cite
         "P. Giannozzi et al., J. Phys.:Condens. Matter 21 395502 (2009);
         "P. Giannozzi et al., J. Phys.:Condens. Matter 29 465901 (2017);
         "P. Giannozzi et al., J. Chem. Phys. 152 154105 (2020);
          URL http://www.quantum-espresso.org", 
     in publications or presentations arising from this work. More details at
     http://www.quantum-espresso.org/quote

     Parallel version (MPI & OpenMP), running on      16 processor cores
     Number of MPI processes:                16
     Threads/MPI process:                     1

     MPI processes distributed on     1 nodes
     319871 MiB available memory on the printing compute node when the environment starts

     Reading input from TiFe2H_cub_symm_8b_7_tetr.in
Warning: card / ignored

     Current dimensions of program PWSCF are:
     Max number of different atomic species (ntypx) = 10
     Max number of k-points (npk) =  40000
     Max angular momentum in pseudopotentials (lmaxx) =  4
     file Fe.pbe-spn-kjpaw_psl.0.2.1.UPF: wavefunction(s)  3D renormalized

     IMPORTANT: XC functional enforced from input :
     Exchange-correlation= PBE
                           (   1   4   3   4   0   0   0)
     Any further DFT definition will be discarded
     Please, verify this is what you really want

     Message from routine setup:
     using ibrav=0 with symmetry is DISCOURAGED, use correct ibrav instead

     R & G space division:  proc/nbgrp/npool/nimage =      16
     Subspace diagonalization in iterative solution of the eigenvalue problem:
     one sub-group per band group will be used
     ELPA distributed-memory algorithm (size of sub-group:  2*  2 procs)


     Parallelization info
     --------------------
     sticks:   dense  smooth     PW     G-vecs:    dense   smooth      PW
     Min        1407     402    106               158861    24246    3306
     Max        1408     403    107               158864    24249    3309
     Sum       22525    6433   1701              2541805   387947   52923

     Using Slab Decomposition



     bravais-lattice index     =            0
     lattice parameter (alat)  =      12.7659  a.u.
     unit-cell volume          =    2080.4419 (a.u.)^3
     number of atoms/cell      =           31
     number of atomic types    =            3
     number of electrons       =       359.00
     number of Kohn-Sham states=          216
     kinetic-energy cutoff     =     124.0000  Ry
     charge density cutoff     =    1736.0000  Ry
     scf convergence threshold =      1.0E-08
     mixing beta               =       0.2000
     number of iterations used =            8  local-TF  mixing
     energy convergence thresh.=      1.0E-04
     force convergence thresh. =      1.0E-03
     press convergence thresh. =      1.0E-01
     Exchange-correlation= PBE
                           (   1   4   3   4   0   0   0)
     nstep                     =           50


     celldm(1)=  12.765913  celldm(2)=   0.000000  celldm(3)=   0.000000
     celldm(4)=   0.000000  celldm(5)=   0.000000  celldm(6)=   0.000000

     crystal axes: (cart. coord. in units of alat)
               a(1) = (   1.000000   0.000000   0.000000 )  
               a(2) = (   0.000000   1.000000   0.000000 )  
               a(3) = (   0.000000   0.000000   1.000000 )  

     reciprocal axes: (cart. coord. in units 2 pi/alat)
               b(1) = (  1.000000  0.000000  0.000000 )  
               b(2) = (  0.000000  1.000000  0.000000 )  
               b(3) = (  0.000000  0.000000  1.000000 )  


     PseudoPot. # 1 for Fe read from file:
     ../../pseudos/Fe.pbe-spn-kjpaw_psl.0.2.1.UPF
     MD5 check sum: e86618425769142926afa95317d90200
     Pseudo is Projector augmented-wave + core cor, Zval = 16.0
     Generated using "atomic" code by A. Dal Corso  v.5.0.99 svn rev. 10869
     Shape of augmentation charge: PSQ
     Using radial grid of 1191 points,  6 beta functions with: 
                l(1) =   0
                l(2) =   0
                l(3) =   1
                l(4) =   1
                l(5) =   2
                l(6) =   2
     Q(r) pseudized with 0 coefficients 


     PseudoPot. # 2 for Ti read from file:
     ../../pseudos/ti_pbe_v1.4.uspp.F.UPF
     MD5 check sum: 88a00a6731bd790ddea75d31a80cb452
     Pseudo is Ultrasoft + core correction, Zval = 12.0
     Generated by new atomic code, or converted to UPF format
     Using radial grid of  851 points,  6 beta functions with: 
                l(1) =   0
                l(2) =   0
                l(3) =   1
                l(4) =   1
                l(5) =   2
                l(6) =   2
     Q(r) pseudized with  6 coefficients,  rinner =    1.000   1.000   1.000
                                                       1.000   1.000

     PseudoPot. # 3 for H  read from file:
     ../../pseudos/H.pbe-rrkjus_psl.1.0.0.UPF
     MD5 check sum: f52b6d4d1c606e5624b1dc7b2218f220
     Pseudo is Ultrasoft, Zval =  1.0
     Generated using "atomic" code by A. Dal Corso  v.5.1
     Using radial grid of  929 points,  2 beta functions with: 
                l(1) =   0
                l(2) =   0
     Q(r) pseudized with 0 coefficients 


     atomic species   valence    mass     pseudopotential
     Fe               16.00    55.84500     Fe( 1.00)
     Ti               12.00    47.86700     Ti( 1.00)
     H                 1.00     1.00750     H ( 1.00)

     Starting magnetic structure 
     atomic species   magnetization
     Fe              0.111
     Ti             -0.047
     H               0.000

     24 Sym. Ops. (no inversion) found



   Cartesian axes

     site n.     atom                  positions (alat units)
         1        Fe     tau(   1) = (   0.1250000   0.1250000   0.6250000  )
         2        Fe     tau(   2) = (   0.6250000   0.6250000   0.6250000  )
         3        Fe     tau(   3) = (   0.8750000   0.6250000   0.8750000  )
         4        Fe     tau(   4) = (   0.3750000   0.8750000   0.1250000  )
         5        Fe     tau(   5) = (   0.1250000   0.6250000   0.1250000  )
         6        Fe     tau(   6) = (   0.6250000   0.1250000   0.1250000  )
         7        Fe     tau(   7) = (   0.8750000   0.3750000   0.1250000  )
         8        Fe     tau(   8) = (   0.3750000   0.6250000   0.3750000  )
         9        Fe     tau(   9) = (   0.6250000   0.3750000   0.3750000  )
        10        Fe     tau(  10) = (   0.6250000   0.8750000   0.8750000  )
        11        Fe     tau(  11) = (   0.3750000   0.1250000   0.8750000  )
        12        Fe     tau(  12) = (   0.8750000   0.8750000   0.6250000  )
        13        Fe     tau(  13) = (   0.3750000   0.3750000   0.6250000  )
        14        Fe     tau(  14) = (   0.8750000   0.1250000   0.3750000  )
        15        Fe     tau(  15) = (   0.1250000   0.3750000   0.8750000  )
        16        Fe     tau(  16) = (   0.1250000   0.8750000   0.3750000  )
        17        Ti     tau(  17) = (   0.0000000   0.0000000   0.0000000  )
        18        Ti     tau(  18) = (   0.7500000   0.7500000   0.2500000  )
        19        Ti     tau(  19) = (   0.5000000   0.0000000   0.5000000  )
        20        Ti     tau(  20) = (   0.7500000   0.2500000   0.7500000  )
        21        Ti     tau(  21) = (   0.0000000   0.5000000   0.5000000  )
        22        Ti     tau(  22) = (   0.2500000   0.2500000   0.2500000  )
        23        Ti     tau(  23) = (   0.2500000   0.7500000   0.7500000  )
        24        Ti     tau(  24) = (   0.5000000   0.5000000   0.0000000  )
        25        H      tau(  25) = (   0.2500000   0.2500000   0.7500000  )
        26        H      tau(  26) = (   0.0000000   0.5000000   0.0000000  )
        27        H      tau(  27) = (   0.2500000   0.7500000   0.2500000  )
        28        H      tau(  28) = (   0.5000000   0.0000000   0.0000000  )
        29        H      tau(  29) = (   0.7500000   0.7500000   0.7500000  )
        30        H      tau(  30) = (   0.7500000   0.2500000   0.2500000  )
        31        H      tau(  31) = (   0.0000000   0.0000000   0.5000000  )

     number of k points=    10  Marzari-Vanderbilt smearing, width (Ry)=  0.0050
                       cart. coord. in units 2pi/alat
        k(    1) = (   0.0000000   0.0000000   0.0000000), wk =   0.0080000
        k(    2) = (   0.0000000   0.0000000   0.2000000), wk =   0.0480000
        k(    3) = (   0.0000000   0.0000000   0.4000000), wk =   0.0480000
        k(    4) = (   0.0000000   0.2000000   0.2000000), wk =   0.0960000
        k(    5) = (   0.0000000   0.2000000   0.4000000), wk =   0.1920000
        k(    6) = (   0.0000000   0.4000000   0.4000000), wk =   0.0960000
        k(    7) = (   0.2000000   0.2000000   0.2000000), wk =   0.0640000
        k(    8) = (   0.2000000   0.2000000   0.4000000), wk =   0.1920000
        k(    9) = (   0.2000000   0.4000000   0.4000000), wk =   0.1920000
        k(   10) = (   0.4000000   0.4000000   0.4000000), wk =   0.0640000

     Dense  grid:  2541805 G-vectors     FFT dimensions: ( 180, 180, 180)

     Smooth grid:   387947 G-vectors     FFT dimensions: (  96,  96,  96)

     Estimated max dynamical RAM per process >     980.13 MB

     Estimated total dynamical RAM >      15.31 GB

     Check: negative core charge=   -0.000002
     Generating pointlists ...
     new r_m :   0.0893 (alat units)  1.1401 (a.u.) for type    1
     new r_m :   0.1710 (alat units)  2.1831 (a.u.) for type    2
     new r_m :   0.0893 (alat units)  1.1401 (a.u.) for type    3

     Initial potential from superposition of free atoms

     starting charge     350.9926, renormalised to     359.0000

     negative rho (up, down):  4.940E-03 5.483E-03
     Starting wfcs are  295 randomized atomic wfcs
     Checking if some PAW data can be deallocated... 

     total cpu time spent up to now is       21.9 secs

     per-process dynamical memory:   492.4 Mb

     Self-consistent Calculation

     iteration #  1     ecut=   124.00 Ry     beta= 0.20
     CG style diagonalization
     ethr =  1.00E-02,  avg # of iterations =  2.6

     negative rho (up, down):  2.072E-03 1.938E-03

     total cpu time spent up to now is      323.3 secs

     total energy              =   -6218.53680176 Ry
     estimated scf accuracy    <     224.26481708 Ry

     total magnetization       =     8.85 Bohr mag/cell
     absolute magnetization    =    14.41 Bohr mag/cell

     iteration #  2     ecut=   124.00 Ry     beta= 0.20
     CG style diagonalization
     ethr =  1.00E-02,  avg # of iterations =  3.3

     negative rho (up, down):  2.725E-03 2.281E-03

     total cpu time spent up to now is      604.6 secs

     total energy              =   -6230.00164252 Ry
     estimated scf accuracy    <       3.43437358 Ry

     total magnetization       =     8.86 Bohr mag/cell
     absolute magnetization    =    16.33 Bohr mag/cell

     iteration #  3     ecut=   124.00 Ry     beta= 0.20
     CG style diagonalization
     ethr =  9.57E-04,  avg # of iterations =  3.5

     negative rho (up, down):  3.770E-03 2.853E-03

     total cpu time spent up to now is      906.4 secs

     total energy              =   -6230.15301102 Ry
     estimated scf accuracy    <       1.80843277 Ry

     total magnetization       =    10.15 Bohr mag/cell
     absolute magnetization    =    17.57 Bohr mag/cell

     iteration #  4     ecut=   124.00 Ry     beta= 0.20
     CG style diagonalization
     c_bands:  1 eigenvalues not converged
     ethr =  5.04E-04,  avg # of iterations =  3.7

     negative rho (up, down):  4.944E-03 3.300E-03

     total cpu time spent up to now is     1241.9 secs

     total energy              =   -6230.18826113 Ry
     estimated scf accuracy    <       0.66348624 Ry

     total magnetization       =    14.01 Bohr mag/cell
     absolute magnetization    =    21.24 Bohr mag/cell

     iteration #  5     ecut=   124.00 Ry     beta= 0.20
     CG style diagonalization
     c_bands:  1 eigenvalues not converged
     ethr =  1.85E-04,  avg # of iterations =  3.6

     negative rho (up, down):  5.096E-03 3.120E-03

     total cpu time spent up to now is     1563.1 secs

     total energy              =   -6230.32268754 Ry
     estimated scf accuracy    <       0.08157213 Ry

     total magnetization       =    13.60 Bohr mag/cell
     absolute magnetization    =    22.70 Bohr mag/cell

     iteration #  6     ecut=   124.00 Ry     beta= 0.20
     CG style diagonalization
     c_bands:  3 eigenvalues not converged
     c_bands:  2 eigenvalues not converged
     c_bands:  1 eigenvalues not converged
     c_bands:  2 eigenvalues not converged
     c_bands:  1 eigenvalues not converged
     c_bands:  2 eigenvalues not converged
     c_bands:  2 eigenvalues not converged
     c_bands:  3 eigenvalues not converged
     c_bands:  4 eigenvalues not converged
     c_bands:  4 eigenvalues not converged
     c_bands:  5 eigenvalues not converged
     c_bands:  1 eigenvalues not converged
     c_bands:  2 eigenvalues not converged
     c_bands:  3 eigenvalues not converged
     c_bands:  2 eigenvalues not converged
     ethr =  2.27E-05,  avg # of iterations =  5.2

     negative rho (up, down):  5.128E-03 2.848E-03

     total cpu time spent up to now is     2051.8 secs

     total energy              =   -6230.36134936 Ry
     estimated scf accuracy    <       0.03434302 Ry

     total magnetization       =    13.58 Bohr mag/cell
     absolute magnetization    =    22.87 Bohr mag/cell

     iteration #  7     ecut=   124.00 Ry     beta= 0.20
     CG style diagonalization
     c_bands:  2 eigenvalues not converged
     c_bands:  5 eigenvalues not converged
     c_bands:  5 eigenvalues not converged
     c_bands:  2 eigenvalues not converged
     c_bands:  1 eigenvalues not converged
     c_bands:  1 eigenvalues not converged
     c_bands:  2 eigenvalues not converged
     c_bands:  2 eigenvalues not converged
     c_bands:  1 eigenvalues not converged
     c_bands:  1 eigenvalues not converged
     c_bands:  1 eigenvalues not converged
     c_bands:  3 eigenvalues not converged
     c_bands:  2 eigenvalues not converged
     c_bands:  2 eigenvalues not converged
     c_bands:  2 eigenvalues not converged
     c_bands:  4 eigenvalues not converged
     c_bands:  1 eigenvalues not converged
     ethr =  9.57E-06,  avg # of iterations =  5.0

     negative rho (up, down):  5.093E-03 2.764E-03

     total cpu time spent up to now is     2513.9 secs

     total energy              =   -6230.38034092 Ry
     estimated scf accuracy    <       0.02018672 Ry

     total magnetization       =    13.82 Bohr mag/cell
     absolute magnetization    =    23.44 Bohr mag/cell

     iteration #  8     ecut=   124.00 Ry     beta= 0.20
     CG style diagonalization
     c_bands:  1 eigenvalues not converged
     c_bands:  2 eigenvalues not converged
     c_bands:  1 eigenvalues not converged
     c_bands:  2 eigenvalues not converged
     c_bands:  1 eigenvalues not converged
     c_bands:  1 eigenvalues not converged
     c_bands:  1 eigenvalues not converged
     c_bands:  1 eigenvalues not converged
     c_bands:  4 eigenvalues not converged
     c_bands:  2 eigenvalues not converged
     c_bands:  1 eigenvalues not converged
     c_bands:  3 eigenvalues not converged
     c_bands:  1 eigenvalues not converged
     ethr =  5.62E-06,  avg # of iterations =  3.5

     negative rho (up, down):  5.181E-03 2.348E-03

     total cpu time spent up to now is     2815.3 secs

     total energy              =   -6230.38376442 Ry
     estimated scf accuracy    <       0.01774589 Ry

     total magnetization       =    13.92 Bohr mag/cell
     absolute magnetization    =    23.58 Bohr mag/cell

     iteration #  9     ecut=   124.00 Ry     beta= 0.20
     CG style diagonalization
     c_bands:  1 eigenvalues not converged
     c_bands:  2 eigenvalues not converged
     c_bands:  1 eigenvalues not converged
     c_bands:  1 eigenvalues not converged
     c_bands:  1 eigenvalues not converged
     c_bands:  1 eigenvalues not converged
     c_bands:  1 eigenvalues not converged
     ethr =  4.94E-06,  avg # of iterations =  3.3

     negative rho (up, down):  5.145E-03 2.140E-03

     total cpu time spent up to now is     3096.1 secs

     total energy              =   -6230.38790115 Ry
     estimated scf accuracy    <       0.00688353 Ry

     total magnetization       =    14.35 Bohr mag/cell
     absolute magnetization    =    24.83 Bohr mag/cell

     iteration # 10     ecut=   124.00 Ry     beta= 0.20
     CG style diagonalization
     c_bands:  4 eigenvalues not converged
     c_bands:  3 eigenvalues not converged
     c_bands:  1 eigenvalues not converged
     c_bands:  1 eigenvalues not converged
     c_bands:  1 eigenvalues not converged
     c_bands:  1 eigenvalues not converged
     c_bands:  1 eigenvalues not converged
     c_bands:  2 eigenvalues not converged
     c_bands:  2 eigenvalues not converged
     c_bands:  1 eigenvalues not converged
     c_bands:  1 eigenvalues not converged
     c_bands:  1 eigenvalues not converged
     c_bands:  1 eigenvalues not converged
     ethr =  1.92E-06,  avg # of iterations =  4.1

     negative rho (up, down):  5.205E-03 2.165E-03

     total cpu time spent up to now is     3476.1 secs

     total energy              =   -6230.39066049 Ry
     estimated scf accuracy    <       0.02959640 Ry

     total magnetization       =    14.65 Bohr mag/cell
     absolute magnetization    =    25.53 Bohr mag/cell

     iteration # 11     ecut=   124.00 Ry     beta= 0.20
     CG style diagonalization
     c_bands:  1 eigenvalues not converged
     c_bands:  2 eigenvalues not converged
     c_bands:  1 eigenvalues not converged
     c_bands:  2 eigenvalues not converged
     c_bands:  1 eigenvalues not converged
     c_bands:  1 eigenvalues not converged
     c_bands:  1 eigenvalues not converged
     ethr =  1.92E-06,  avg # of iterations =  3.1

     negative rho (up, down):  5.402E-03 2.050E-03

     total cpu time spent up to now is     3738.3 secs

     total energy              =   -6230.39168359 Ry
     estimated scf accuracy    <       0.00659767 Ry

     total magnetization       =    14.76 Bohr mag/cell
     absolute magnetization    =    25.87 Bohr mag/cell

     iteration # 12     ecut=   124.00 Ry     beta= 0.20
     CG style diagonalization
     c_bands:  1 eigenvalues not converged
     c_bands:  2 eigenvalues not converged
     c_bands:  2 eigenvalues not converged
     ethr =  1.84E-06,  avg # of iterations =  3.5

     negative rho (up, down):  5.468E-03 1.951E-03

     total cpu time spent up to now is     4037.2 secs

     total energy              =   -6230.39493513 Ry
     estimated scf accuracy    <       0.00109500 Ry

     total magnetization       =    15.20 Bohr mag/cell
     absolute magnetization    =    27.34 Bohr mag/cell

     iteration # 13     ecut=   124.00 Ry     beta= 0.20
     CG style diagonalization
     c_bands:  1 eigenvalues not converged
     ethr =  3.05E-07,  avg # of iterations =  4.2

     negative rho (up, down):  5.583E-03 1.939E-03

     total cpu time spent up to now is     4418.4 secs

     total energy              =   -6230.39572615 Ry
     estimated scf accuracy    <       0.00634825 Ry

     total magnetization       =    15.32 Bohr mag/cell
     absolute magnetization    =    27.82 Bohr mag/cell

     iteration # 14     ecut=   124.00 Ry     beta= 0.20
     CG style diagonalization
     ethr =  3.05E-07,  avg # of iterations =  3.4

     negative rho (up, down):  5.727E-03 1.876E-03

     total cpu time spent up to now is     4712.7 secs

     total energy              =   -6230.39589087 Ry
     estimated scf accuracy    <       0.00157124 Ry

     total magnetization       =    15.36 Bohr mag/cell
     absolute magnetization    =    28.02 Bohr mag/cell

     iteration # 15     ecut=   124.00 Ry     beta= 0.20
     CG style diagonalization
     ethr =  3.05E-07,  avg # of iterations =  3.3

     negative rho (up, down):  5.812E-03 1.837E-03

     total cpu time spent up to now is     4990.8 secs

     total energy              =   -6230.39619796 Ry
     estimated scf accuracy    <       0.00013146 Ry

     total magnetization       =    15.48 Bohr mag/cell
     absolute magnetization    =    28.46 Bohr mag/cell

     iteration # 16     ecut=   124.00 Ry     beta= 0.20
     CG style diagonalization
     ethr =  3.66E-08,  avg # of iterations =  5.3

     negative rho (up, down):  5.817E-03 1.825E-03

     total cpu time spent up to now is     5487.0 secs

     total energy              =   -6230.39635638 Ry
     estimated scf accuracy    <       0.00001563 Ry

     total magnetization       =    15.52 Bohr mag/cell
     absolute magnetization    =    28.68 Bohr mag/cell

     iteration # 17     ecut=   124.00 Ry     beta= 0.20
     CG style diagonalization
     ethr =  4.35E-09,  avg # of iterations =  5.9

     negative rho (up, down):  5.805E-03 1.823E-03

     total cpu time spent up to now is     6056.6 secs

     total energy              =   -6230.39639127 Ry
     estimated scf accuracy    <       0.00000931 Ry

     total magnetization       =    15.54 Bohr mag/cell
     absolute magnetization    =    28.73 Bohr mag/cell

     iteration # 18     ecut=   124.00 Ry     beta= 0.20
     CG style diagonalization
     ethr =  2.59E-09,  avg # of iterations =  4.1

     negative rho (up, down):  5.826E-03 1.811E-03

     total cpu time spent up to now is     6420.5 secs

     total energy              =   -6230.39639458 Ry
     estimated scf accuracy    <       0.00003471 Ry

     total magnetization       =    15.53 Bohr mag/cell
     absolute magnetization    =    28.68 Bohr mag/cell

     iteration # 19     ecut=   124.00 Ry     beta= 0.20
     CG style diagonalization
     ethr =  2.59E-09,  avg # of iterations =  3.7

     negative rho (up, down):  5.825E-03 1.812E-03

     total cpu time spent up to now is     6747.3 secs

     total energy              =   -6230.39640580 Ry
     estimated scf accuracy    <       0.00000160 Ry

     total magnetization       =    15.55 Bohr mag/cell
     absolute magnetization    =    28.76 Bohr mag/cell

     iteration # 20     ecut=   124.00 Ry     beta= 0.20
     CG style diagonalization
     ethr =  4.46E-10,  avg # of iterations =  4.7

     negative rho (up, down):  5.827E-03 1.811E-03

     total cpu time spent up to now is     7181.2 secs

     total energy              =   -6230.39640798 Ry
     estimated scf accuracy    <       0.00000028 Ry

     total magnetization       =    15.55 Bohr mag/cell
     absolute magnetization    =    28.76 Bohr mag/cell

     iteration # 21     ecut=   124.00 Ry     beta= 0.20
     CG style diagonalization
     ethr =  7.77E-11,  avg # of iterations =  5.8

     negative rho (up, down):  5.828E-03 1.811E-03

     total cpu time spent up to now is     7741.2 secs

     total energy              =   -6230.39640929 Ry
     estimated scf accuracy    <       0.00000012 Ry

     total magnetization       =    15.56 Bohr mag/cell
     absolute magnetization    =    28.77 Bohr mag/cell

     iteration # 22     ecut=   124.00 Ry     beta= 0.20
     CG style diagonalization
     ethr =  3.43E-11,  avg # of iterations =  3.9

     negative rho (up, down):  5.827E-03 1.812E-03

     total cpu time spent up to now is     8087.3 secs

     total energy              =   -6230.39640982 Ry
     estimated scf accuracy    <       0.00000004 Ry

     total magnetization       =    15.56 Bohr mag/cell
     absolute magnetization    =    28.77 Bohr mag/cell

     iteration # 23     ecut=   124.00 Ry     beta= 0.20
     CG style diagonalization
     ethr =  1.24E-11,  avg # of iterations =  4.4

     negative rho (up, down):  5.827E-03 1.812E-03

     total cpu time spent up to now is     8489.6 secs

     total energy              =   -6230.39641016 Ry
     estimated scf accuracy    <       0.00000005 Ry

     total magnetization       =    15.56 Bohr mag/cell
     absolute magnetization    =    28.77 Bohr mag/cell

     iteration # 24     ecut=   124.00 Ry     beta= 0.20
     CG style diagonalization
     ethr =  1.24E-11,  avg # of iterations =  3.5

     negative rho (up, down):  5.827E-03 1.812E-03

     total cpu time spent up to now is     8785.2 secs

     total energy              =   -6230.39641036 Ry
     estimated scf accuracy    <       0.00000001 Ry

     total magnetization       =    15.56 Bohr mag/cell
     absolute magnetization    =    28.77 Bohr mag/cell

     iteration # 25     ecut=   124.00 Ry     beta= 0.20
     CG style diagonalization
     ethr =  3.25E-12,  avg # of iterations =  4.3

     negative rho (up, down):  5.828E-03 1.812E-03

     Magnetic moment per site  (integrated on atomic sphere of radius R)
     atom   1 (R=0.089)  charge= 11.1924  magn=  1.0137
     atom   2 (R=0.089)  charge= 11.1737  magn=  1.2099
     atom   3 (R=0.089)  charge= 11.1924  magn=  1.0137
     atom   4 (R=0.089)  charge= 11.1924  magn=  1.0137
     atom   5 (R=0.089)  charge= 11.1924  magn=  1.0137
     atom   6 (R=0.089)  charge= 11.1924  magn=  1.0137
     atom   7 (R=0.089)  charge= 11.1924  magn=  1.0137
     atom   8 (R=0.089)  charge= 11.1737  magn=  1.2099
     atom   9 (R=0.089)  charge= 11.1737  magn=  1.2099
     atom  10 (R=0.089)  charge= 11.1924  magn=  1.0137
     atom  11 (R=0.089)  charge= 11.1924  magn=  1.0137
     atom  12 (R=0.089)  charge= 11.1924  magn=  1.0137
     atom  13 (R=0.089)  charge= 11.1737  magn=  1.2099
     atom  14 (R=0.089)  charge= 11.1924  magn=  1.0137
     atom  15 (R=0.089)  charge= 11.1924  magn=  1.0137
     atom  16 (R=0.089)  charge= 11.1924  magn=  1.0137
     atom  17 (R=0.171)  charge= 10.3359  magn= -0.5717
     atom  18 (R=0.171)  charge= 10.3367  magn= -0.5804
     atom  19 (R=0.171)  charge= 10.3384  magn= -0.5911
     atom  20 (R=0.171)  charge= 10.3367  magn= -0.5804
     atom  21 (R=0.171)  charge= 10.3384  magn= -0.5911
     atom  22 (R=0.171)  charge= 10.3367  magn= -0.5804
     atom  23 (R=0.171)  charge= 10.3367  magn= -0.5804
     atom  24 (R=0.171)  charge= 10.3384  magn= -0.5911
     atom  25 (R=0.089)  charge=  1.1207  magn=  0.0003
     atom  26 (R=0.089)  charge=  1.1205  magn= -0.0012
     atom  27 (R=0.089)  charge=  1.1207  magn=  0.0003
     atom  28 (R=0.089)  charge=  1.1205  magn= -0.0012
     atom  29 (R=0.089)  charge=  1.1207  magn=  0.0003
     atom  30 (R=0.089)  charge=  1.1207  magn=  0.0003
     atom  31 (R=0.089)  charge=  1.1205  magn= -0.0012

     total cpu time spent up to now is     9173.7 secs

     End of self-consistent calculation

 ------ SPIN UP ------------


          k = 0.0000 0.0000 0.0000 ( 48489 PWs)   bands (ev):

   -70.6026 -70.5551 -70.5551 -70.5551 -70.4709 -70.4352 -70.4352 -70.4177
   -70.4177 -70.4177 -70.3816 -70.3816 -70.3816 -70.3815 -70.3815 -70.3815
   -39.3922 -39.3662 -39.3528 -39.3528 -39.3528 -39.3496 -39.3496 -39.3149
   -37.1603 -36.8844 -36.8844 -36.8844 -36.8769 -36.8551 -36.8551 -36.7059
   -36.7059 -36.7059 -36.6105 -36.6105 -36.5815 -36.5815 -36.5815 -36.5699
   -36.5699 -36.5699 -36.5584 -36.5584 -36.5584 -36.4976 -36.4976 -36.4976
   -36.4877 -36.4877 -36.4833 -36.4626 -36.4626 -36.4626 -36.4264 -36.4264
   -36.4198 -36.4198 -36.4198 -36.3938 -36.3605 -36.3605 -36.3605 -36.3496
   -36.3496 -36.3496 -36.3168 -36.3168 -36.3168 -36.2961 -36.2961 -36.2961
   -15.7213 -15.7213 -15.7213 -15.7187 -15.7187 -15.7187 -15.6846 -15.6846
   -15.6846 -15.6031 -15.6031 -15.6029 -15.6029 -15.6029 -15.5928 -15.5134
   -15.5134 -15.5134 -15.4791 -15.4791 -15.4791 -15.4779 -15.4779 -15.4779
     5.4115   7.5912   7.5912   7.5912   7.6036   7.6036  10.1580  10.9042
    12.7209  12.7209  12.7209  12.8308  13.0175  13.0175  13.0465  13.0465
    13.0465  13.7713  13.7713  13.7713  13.8069  13.8179  13.8179  13.8179
    13.8200  13.8200  13.8295  13.8295  13.8295  13.9506  13.9506  13.9506
    14.2006  14.2006  14.2715  14.4578  14.4578  14.4578  14.5043  14.5043
    14.5043  14.5638  14.5638  14.6231  14.6231  14.6231  14.8245  15.0995
    15.0995  15.0995  15.1189  15.1189  15.1333  15.2393  15.2393  15.2393
    15.2417  15.2417  15.2417  15.3661  15.3661  15.3661  15.3735  15.3735
    15.3735  16.0808  16.0808  16.0808  16.1631  16.1631  16.1631  16.2083
    16.2083  16.2083  16.2880  16.2880  16.3459  16.3459  16.3459  16.3667
    16.3667  16.3697  16.3741  16.3741  16.3741  16.4021  16.4021  16.7896
    16.7896  16.7896  17.3199  17.3199  17.3227  17.3227  17.3227  17.3341
    18.0194  18.0194  18.0194  18.4323  18.4323  18.4324  18.4328  18.4328
    18.4328  18.5322  18.5322  18.5322  19.0850  19.0854  19.0926  19.0929
    19.0930  19.1010  19.3647  19.3649  19.8800  20.0350  20.0351  20.0351

          k = 0.0000 0.0000 0.2000 ( 48469 PWs)   bands (ev):

   -70.6023 -70.5556 -70.5551 -70.5551 -70.4688 -70.4416 -70.4352 -70.4177
   -70.4177 -70.4112 -70.3834 -70.3816 -70.3816 -70.3816 -70.3815 -70.3815
   -39.3909 -39.3694 -39.3582 -39.3528 -39.3528 -39.3496 -39.3406 -39.3167
   -37.1455 -36.9571 -36.8833 -36.8833 -36.8683 -36.8535 -36.8039 -36.7065
   -36.7004 -36.7004 -36.6228 -36.6092 -36.6041 -36.6041 -36.5875 -36.5757
   -36.5757 -36.5582 -36.5578 -36.5482 -36.5482 -36.5030 -36.4954 -36.4954
   -36.4893 -36.4815 -36.4761 -36.4628 -36.4547 -36.4547 -36.4399 -36.4160
   -36.4140 -36.4078 -36.4078 -36.3792 -36.3679 -36.3633 -36.3633 -36.3507
   -36.3507 -36.3505 -36.3246 -36.3206 -36.3206 -36.3018 -36.2989 -36.2989
   -15.7218 -15.7211 -15.7211 -15.7193 -15.7165 -15.7165 -15.6884 -15.6884
   -15.6802 -15.6261 -15.6026 -15.6024 -15.6024 -15.5959 -15.5759 -15.5184
   -15.5097 -15.5097 -15.4816 -15.4816 -15.4790 -15.4782 -15.4782 -15.4778
     5.5070   6.9245   7.5937   7.5937   7.6062   8.2839  10.1049  10.9986
    12.4556  12.6837  12.7795  12.7795  12.9763  13.0570  13.0899  13.0899
    13.1992  13.5677  13.5677  13.5918  13.6156  13.6415  13.6450  13.6450
    13.8664  13.9827  13.9827  13.9868  14.0113  14.0113  14.0300  14.0947
    14.2118  14.2500  14.2660  14.3160  14.3391  14.3391  14.3721  14.5242
    14.5327  14.5439  14.5439  14.6752  14.6752  14.6999  14.8617  14.9870
    14.9870  14.9922  15.0728  15.0728  15.0772  15.0977  15.2718  15.2844
    15.2844  15.3034  15.3354  15.5217  15.5237  15.5237  15.5406  15.6621
    15.6621  15.9555  16.0171  16.0171  16.0541  16.0576  16.0821  16.0832
    16.0832  16.1175  16.1912  16.1912  16.2584  16.2831  16.3091  16.3091
    16.4778  16.4791  16.4791  16.4886  16.5436  16.6711  16.6995  16.8125
    16.8698  16.8698  17.1252  17.3291  17.3325  17.3325  17.3375  17.4356
    18.0278  18.0791  18.0791  18.3584  18.3584  18.4121  18.4129  18.4129
    18.4159  18.5134  18.5134  18.6278  18.7296  18.9255  18.9293  18.9297
    18.9360  19.1860  19.1869  19.3548  19.3592  19.3728  19.4213  19.7828

          k = 0.0000 0.0000 0.4000 ( 48538 PWs)   bands (ev):

   -70.6019 -70.5565 -70.5551 -70.5551 -70.4633 -70.4511 -70.4352 -70.4177
   -70.4177 -70.4020 -70.3881 -70.3816 -70.3816 -70.3816 -70.3815 -70.3815
   -39.3878 -39.3758 -39.3599 -39.3528 -39.3528 -39.3496 -39.3306 -39.3216
   -37.1028 -37.0366 -36.8816 -36.8816 -36.8665 -36.8509 -36.7659 -36.7080
   -36.6882 -36.6882 -36.6373 -36.6306 -36.6306 -36.6068 -36.5966 -36.5837
   -36.5837 -36.5565 -36.5492 -36.5492 -36.5386 -36.5185 -36.4913 -36.4818
   -36.4818 -36.4712 -36.4652 -36.4572 -36.4510 -36.4488 -36.4488 -36.4127
   -36.3962 -36.3826 -36.3826 -36.3774 -36.3700 -36.3700 -36.3689 -36.3512
   -36.3512 -36.3435 -36.3398 -36.3332 -36.3332 -36.3179 -36.3023 -36.3023
   -15.7228 -15.7218 -15.7218 -15.7203 -15.7088 -15.7088 -15.6976 -15.6976
   -15.6677 -15.6482 -15.6017 -15.6016 -15.6016 -15.5949 -15.5528 -15.5321
   -15.5005 -15.5005 -15.4895 -15.4895 -15.4788 -15.4781 -15.4781 -15.4776
     5.7619   6.3673   7.5978   7.5978   7.6104   8.8238   9.9466  11.3097
    11.8361  12.6499  12.9484  12.9484  13.1118  13.1365  13.1619  13.1619
    13.1694  13.2628  13.2628  13.4012  13.5076  13.5290  13.5290  13.6170
    13.7181  14.0447  14.0447  14.0547  14.1414  14.1564  14.1564  14.1657
    14.1753  14.1920  14.1920  14.1995  14.2461  14.2556  14.3916  14.4238
    14.4238  14.4369  14.4891  14.4891  14.5722  14.6077  14.9382  15.1444
    15.1444  15.1612  15.1686  15.2575  15.2646  15.2646  15.2783  15.3232
    15.3232  15.4372  15.5283  15.5457  15.7237  15.7273  15.7273  15.7419
    15.7545  15.7545  15.7916  15.7949  15.8536  15.8536  15.9139  15.9142
    15.9142  15.9524  15.9894  15.9894  16.2341  16.2600  16.6096  16.6096
    16.6883  16.6978  16.6978  16.7174  16.7380  16.8171  16.8548  16.8587
    16.8587  16.9518  17.1235  17.3013  17.3061  17.3069  17.3069  17.3827
    18.1205  18.1596  18.1596  18.2299  18.2300  18.3717  18.3925  18.3925
    18.3974  18.4071  18.5992  18.5993  18.6044  18.6104  18.6154  18.6154
    18.8906  18.8906  18.9435  19.4915  19.5117  19.5133  19.8707  19.9937

          k = 0.0000 0.2000 0.2000 ( 48486 PWs)   bands (ev):

   -70.6021 -70.5558 -70.5553 -70.5551 -70.4668 -70.4433 -70.4391 -70.4178
   -70.4138 -70.4093 -70.3852 -70.3816 -70.3816 -70.3816 -70.3815 -70.3815
   -39.3898 -39.3705 -39.3625 -39.3569 -39.3506 -39.3427 -39.3397 -39.3183
   -37.1316 -36.9577 -36.9484 -36.9020 -36.8406 -36.8029 -36.8024 -36.7064
   -36.6959 -36.6956 -36.6309 -36.6171 -36.6104 -36.6062 -36.6021 -36.5877
   -36.5718 -36.5606 -36.5559 -36.5493 -36.5341 -36.5105 -36.4959 -36.4937
   -36.4843 -36.4819 -36.4711 -36.4572 -36.4557 -36.4443 -36.4320 -36.4280
   -36.4072 -36.4013 -36.3964 -36.3768 -36.3695 -36.3655 -36.3614 -36.3558
   -36.3516 -36.3443 -36.3369 -36.3234 -36.3198 -36.3082 -36.3029 -36.2983
   -15.7247 -15.7197 -15.7191 -15.7170 -15.7157 -15.7149 -15.6921 -15.6875
   -15.6804 -15.6278 -15.6253 -15.6144 -15.5866 -15.5765 -15.5729 -15.5188
   -15.5102 -15.5061 -15.4829 -15.4823 -15.4816 -15.4802 -15.4801 -15.4758
     5.5984   6.8377   7.0884   7.5653   8.0933   8.4472  10.0296  11.0999
    12.4669  12.5802  12.7456  12.8212  12.8304  13.0436  13.1161  13.1801
    13.2432  13.4534  13.4689  13.4860  13.5039  13.5489  13.5683  13.7344
    13.7664  13.8225  13.9336  14.0211  14.0424  14.1252  14.1289  14.1459
    14.1653  14.2453  14.2564  14.2912  14.3622  14.4236  14.4544  14.5005
    14.5231  14.5635  14.5644  14.6409  14.6573  14.7769  14.8229  14.9184
    14.9472  14.9607  14.9628  15.0583  15.0997  15.1599  15.1618  15.2979
    15.3133  15.3716  15.4949  15.5961  15.6260  15.6388  15.6474  15.7777
    15.7987  15.8152  15.8468  15.8505  15.9072  15.9594  16.0425  16.0525
    16.1726  16.1880  16.1910  16.2088  16.2288  16.2837  16.3502  16.3765
    16.3820  16.4582  16.5513  16.6195  16.7177  16.7368  16.7450  16.8284
    16.9093  17.1436  17.1461  17.1669  17.1813  17.4450  17.4551  17.5381
    18.0322  18.1034  18.1418  18.2670  18.3194  18.3198  18.3610  18.3639
    18.4384  18.4633  18.4762  18.6914  18.7012  18.7909  18.8847  18.9222
    18.9662  18.9775  18.9811  19.0618  19.0740  19.4867  19.6484  19.8068

          k = 0.0000 0.2000 0.4000 ( 48550 PWs)   bands (ev):

   -70.6017 -70.5564 -70.5554 -70.5552 -70.4617 -70.4508 -70.4402 -70.4180
   -70.4125 -70.4019 -70.3898 -70.3816 -70.3816 -70.3815 -70.3815 -70.3815
   -39.3870 -39.3749 -39.3646 -39.3594 -39.3482 -39.3423 -39.3315 -39.3230
   -37.0915 -37.0290 -36.9421 -36.9239 -36.8174 -36.8024 -36.7624 -36.7087
   -36.6854 -36.6836 -36.6460 -36.6341 -36.6268 -36.6110 -36.6100 -36.5976
   -36.5796 -36.5594 -36.5517 -36.5434 -36.5285 -36.5210 -36.4921 -36.4870
   -36.4820 -36.4743 -36.4607 -36.4584 -36.4553 -36.4415 -36.4314 -36.4116
   -36.4020 -36.3918 -36.3815 -36.3768 -36.3715 -36.3663 -36.3633 -36.3557
   -36.3522 -36.3511 -36.3346 -36.3330 -36.3268 -36.3158 -36.3078 -36.3036
   -15.7256 -15.7229 -15.7156 -15.7142 -15.7112 -15.7072 -15.7009 -15.6955
   -15.6693 -15.6496 -15.6273 -15.6227 -15.5772 -15.5726 -15.5510 -15.5305
   -15.5023 -15.4975 -15.4910 -15.4875 -15.4841 -15.4838 -15.4777 -15.4756
     5.8438   6.3937   7.0316   7.5199   8.2143   8.8993   9.8251  11.4148
    11.9311  12.6437  12.8320  12.9734  12.9761  13.0600  13.1338  13.1574
    13.2033  13.2323  13.2557  13.2856  13.3964  13.4652  13.5173  13.6314
    13.7009  13.7805  13.8539  14.1203  14.1327  14.1543  14.1943  14.2246
    14.2430  14.2520  14.2716  14.2921  14.3197  14.3668  14.3891  14.4090
    14.4307  14.4523  14.5007  14.6647  14.6870  14.7127  14.8978  14.9090
    14.9462  14.9604  15.0303  15.1129  15.2844  15.3691  15.3948  15.4227
    15.4651  15.4739  15.5164  15.5203  15.5422  15.5887  15.6363  15.6917
    15.7330  15.7723  15.8482  15.8608  15.8885  15.9112  15.9498  15.9824
    16.0288  16.0569  16.0624  16.1258  16.2543  16.2987  16.4639  16.5259
    16.5705  16.5818  16.6011  16.7739  16.8385  16.8531  16.9624  16.9762
    17.0433  17.0773  17.0890  17.1184  17.3778  17.4399  17.5313  17.6489
    18.1156  18.1953  18.2068  18.2118  18.2270  18.2314  18.2769  18.3224
    18.3345  18.4272  18.4452  18.5008  18.5073  18.6566  18.6865  18.6908
    18.7101  18.7510  19.1632  19.1724  19.2662  19.4147  19.5423  19.6182

          k = 0.0000 0.4000 0.4000 ( 48478 PWs)   bands (ev):

   -70.6015 -70.5561 -70.5558 -70.5555 -70.4573 -70.4512 -70.4475 -70.4186
   -70.4050 -70.4009 -70.3944 -70.3816 -70.3815 -70.3815 -70.3815 -70.3815
   -39.3853 -39.3729 -39.3692 -39.3656 -39.3431 -39.3353 -39.3326 -39.3269
   -37.0589 -37.0113 -37.0013 -36.9697 -36.7765 -36.7651 -36.7509 -36.7140
   -36.6796 -36.6694 -36.6547 -36.6459 -36.6373 -36.6283 -36.6135 -36.6102
   -36.5760 -36.5563 -36.5560 -36.5414 -36.5239 -36.5169 -36.5082 -36.4887
   -36.4716 -36.4681 -36.4638 -36.4596 -36.4490 -36.4416 -36.4296 -36.4184
   -36.3936 -36.3873 -36.3800 -36.3751 -36.3710 -36.3665 -36.3632 -36.3557
   -36.3548 -36.3472 -36.3374 -36.3322 -36.3301 -36.3242 -36.3080 -36.3009
   -15.7243 -15.7192 -15.7180 -15.7107 -15.7067 -15.7050 -15.7030 -15.6955
   -15.6668 -15.6516 -15.6492 -15.6406 -15.5588 -15.5513 -15.5486 -15.5331
   -15.5018 -15.4946 -15.4924 -15.4908 -15.4895 -15.4827 -15.4817 -15.4773
     6.0713   6.3997   6.5980   7.3983   8.7454   9.0448   9.5054  11.7221
    12.1697  12.2540  12.6329  12.8074  13.0568  13.0832  13.1167  13.1341
    13.1708  13.1808  13.1902  13.2964  13.3013  13.3570  13.4516  13.5568
    13.6268  13.6376  13.6571  14.1590  14.1814  14.2314  14.2433  14.2605
    14.2786  14.3021  14.3605  14.3790  14.3947  14.4264  14.4736  14.4865
    14.6050  14.6079  14.6177  14.6347  14.6443  14.7119  14.7236  14.7454
    14.8536  14.8690  15.0417  15.0794  15.1099  15.2283  15.2700  15.2972
    15.3012  15.3928  15.4521  15.5126  15.6191  15.6238  15.6520  15.6965
    15.8453  15.8585  15.8655  16.0072  16.0171  16.0322  16.0485  16.0530
    16.1025  16.1669  16.1963  16.2237  16.2780  16.3344  16.3363  16.5059
    16.5769  16.5865  16.6200  16.7310  16.7634  16.9085  16.9186  16.9208
    16.9848  17.1267  17.1271  17.1414  17.7720  17.7904  17.8102  17.9085
    18.1473  18.1755  18.1956  18.1979  18.2003  18.2115  18.2129  18.2825
    18.3054  18.3457  18.3460  18.4073  18.4092  18.5300  18.5424  18.5615
    18.6683  18.7940  18.7985  19.0871  19.2938  19.4976  19.5480  19.5549

          k = 0.2000 0.2000 0.2000 ( 48503 PWs)   bands (ev):

   -70.6019 -70.5559 -70.5553 -70.5553 -70.4650 -70.4433 -70.4433 -70.4182
   -70.4093 -70.4093 -70.3869 -70.3816 -70.3816 -70.3815 -70.3815 -70.3815
   -39.3887 -39.3713 -39.3625 -39.3625 -39.3467 -39.3396 -39.3396 -39.3198
   -37.1187 -36.9625 -36.9502 -36.9502 -36.8007 -36.7954 -36.7954 -36.7040
   -36.6927 -36.6927 -36.6326 -36.6326 -36.6185 -36.6076 -36.6076 -36.5894
   -36.5675 -36.5675 -36.5509 -36.5509 -36.5337 -36.5132 -36.4946 -36.4946
   -36.4799 -36.4799 -36.4719 -36.4526 -36.4452 -36.4452 -36.4279 -36.4279
   -36.4250 -36.3854 -36.3854 -36.3854 -36.3645 -36.3630 -36.3630 -36.3539
   -36.3539 -36.3442 -36.3386 -36.3287 -36.3287 -36.3071 -36.3071 -36.2955
   -15.7220 -15.7209 -15.7209 -15.7141 -15.7141 -15.7124 -15.6904 -15.6904
   -15.6823 -15.6321 -15.6321 -15.6275 -15.5718 -15.5718 -15.5671 -15.5177
   -15.5073 -15.5073 -15.4848 -15.4848 -15.4839 -15.4793 -15.4788 -15.4788
     5.6846   6.8408   6.8408   7.4844   8.4483   8.4483   9.9452  11.2053
    12.4824  12.6544  12.6544  12.8078  12.8718  12.8718  13.1329  13.2167
    13.2167  13.3743  13.4041  13.4041  13.5565  13.5565  13.5773  13.5818
    13.6463  13.6463  13.7808  14.0589  14.0589  14.1538  14.1978  14.1978
    14.2664  14.3061  14.3061  14.3546  14.3733  14.3733  14.5133  14.5133
    14.5508  14.5508  14.5510  14.6330  14.7696  14.7696  14.8178  14.8309
    14.8462  14.8462  15.0759  15.1019  15.1019  15.2058  15.2125  15.2125
    15.2885  15.2885  15.3126  15.7024  15.7024  15.7346  15.7346  15.7543
    15.7603  15.7603  15.7798  15.8442  15.8442  15.8678  16.1164  16.1320
    16.1320  16.2513  16.2513  16.2939  16.2939  16.3238  16.3437  16.3725
    16.3744  16.3744  16.5756  16.5756  16.8389  16.8441  16.8480  16.8480
    17.1095  17.1095  17.1197  17.2458  17.2458  17.5546  17.5546  17.5643
    18.0189  18.1060  18.1060  18.1952  18.1952  18.1983  18.3966  18.3966
    18.4081  18.4757  18.4757  18.7118  18.7138  18.7138  18.7745  18.7745
    18.7825  18.8436  19.0151  19.0173  19.0174  19.6739  19.7210  19.7984

          k = 0.2000 0.2000 0.4000 ( 48490 PWs)   bands (ev):

   -70.6016 -70.5563 -70.5555 -70.5553 -70.4603 -70.4507 -70.4433 -70.4183
   -70.4093 -70.4017 -70.3913 -70.3816 -70.3815 -70.3815 -70.3815 -70.3815
   -39.3864 -39.3743 -39.3664 -39.3626 -39.3455 -39.3395 -39.3320 -39.3242
   -37.0818 -37.0241 -36.9597 -36.9530 -36.7911 -36.7829 -36.7578 -36.7049
   -36.6863 -36.6795 -36.6501 -36.6407 -36.6307 -36.6208 -36.6100 -36.5997
   -36.5771 -36.5570 -36.5514 -36.5458 -36.5285 -36.5217 -36.4915 -36.4913
   -36.4814 -36.4718 -36.4646 -36.4525 -36.4493 -36.4491 -36.4328 -36.4152
   -36.4051 -36.3946 -36.3832 -36.3730 -36.3703 -36.3658 -36.3626 -36.3573
   -36.3534 -36.3441 -36.3434 -36.3294 -36.3236 -36.3141 -36.3114 -36.2981
   -15.7234 -15.7223 -15.7136 -15.7112 -15.7102 -15.7068 -15.6988 -15.6977
   -15.6727 -15.6532 -15.6379 -15.6346 -15.5652 -15.5622 -15.5473 -15.5274
   -15.5001 -15.4997 -15.4911 -15.4883 -15.4865 -15.4864 -15.4785 -15.4779
     5.9167   6.4106   6.8459   7.4602   8.4502   8.9383   9.7196  11.5207
    12.0272  12.6544  12.8493  12.8906  12.9941  13.0175  13.1041  13.1335
    13.1506  13.1980  13.2477  13.2651  13.3260  13.4140  13.4471  13.5771
    13.6208  13.6558  13.6719  14.1186  14.1656  14.1921  14.2585  14.2816
    14.2928  14.3054  14.3232  14.3366  14.3505  14.3769  14.4135  14.4560
    14.4887  14.5549  14.5584  14.6923  14.7112  14.7785  14.8154  14.8421
    14.8589  15.0082  15.0146  15.0532  15.1070  15.2908  15.2914  15.3067
    15.3532  15.4073  15.4556  15.4746  15.4765  15.4969  15.5642  15.6507
    15.7728  15.7736  15.9313  15.9656  15.9729  16.0172  16.0686  16.0721
    16.1416  16.1712  16.1773  16.1949  16.2645  16.3140  16.3904  16.4869
    16.4911  16.4933  16.6130  16.6754  16.9541  16.9624  16.9862  17.0275
    17.1770  17.1904  17.1917  17.4052  17.4250  17.5378  17.6898  17.6912
    18.0457  18.0741  18.1381  18.1494  18.1521  18.2075  18.2240  18.2326
    18.2887  18.3712  18.4531  18.5067  18.5946  18.6014  18.6014  18.7295
    18.7318  18.8217  18.9928  18.9948  19.1558  19.4644  19.4716  19.6121

          k = 0.2000 0.4000 0.4000 ( 48499 PWs)   bands (ev):

   -70.6015 -70.5561 -70.5558 -70.5556 -70.4565 -70.4512 -70.4485 -70.4186
   -70.4038 -70.4009 -70.3952 -70.3815 -70.3815 -70.3815 -70.3815 -70.3815
   -39.3851 -39.3727 -39.3693 -39.3669 -39.3422 -39.3345 -39.3325 -39.3276
   -37.0540 -37.0134 -37.0041 -36.9834 -36.7605 -36.7541 -36.7443 -36.7049
   -36.6799 -36.6715 -36.6573 -36.6506 -36.6485 -36.6225 -36.6167 -36.6130
   -36.5685 -36.5549 -36.5544 -36.5426 -36.5267 -36.5227 -36.5076 -36.4892
   -36.4722 -36.4707 -36.4664 -36.4554 -36.4536 -36.4410 -36.4316 -36.4222
   -36.4077 -36.4024 -36.3842 -36.3727 -36.3685 -36.3659 -36.3608 -36.3605
   -36.3494 -36.3472 -36.3404 -36.3303 -36.3161 -36.3153 -36.3076 -36.2964
   -15.7204 -15.7162 -15.7152 -15.7077 -15.7056 -15.7037 -15.7028 -15.6963
   -15.6732 -15.6589 -15.6566 -15.6500 -15.5495 -15.5444 -15.5415 -15.5273
   -15.5009 -15.4953 -15.4927 -15.4923 -15.4919 -15.4853 -15.4845 -15.4808
     6.1169   6.4035   6.5447   7.3850   8.8315   9.0402   9.4423  11.8227
    12.2525  12.3576  12.6897  12.8389  13.0398  13.0514  13.0651  13.0971
    13.1340  13.1345  13.2220  13.2621  13.2861  13.3145  13.3794  13.4506
    13.4733  13.5033  13.5736  14.1235  14.2081  14.2578  14.2748  14.2903
    14.3283  14.3892  14.4018  14.4085  14.4484  14.4637  14.4853  14.5013
    14.5654  14.6246  14.6857  14.7024  14.7222  14.7258  14.7511  14.8243
    14.8675  14.8728  14.9169  15.0323  15.0411  15.0706  15.0792  15.2216
    15.2314  15.2407  15.3418  15.3863  15.4323  15.4825  15.4868  15.5740
    15.9548  16.0008  16.0090  16.0620  16.0816  16.0994  16.1430  16.1754
    16.2084  16.2272  16.2423  16.2655  16.3295  16.3364  16.3616  16.4171
    16.5118  16.5242  16.5520  16.5862  17.0256  17.0403  17.0443  17.1183
    17.2417  17.3782  17.3843  17.4628  17.8203  17.8353  17.8538  17.9456
    18.0350  18.0388  18.0434  18.0456  18.0576  18.0921  18.1016  18.1021
    18.1804  18.4428  18.4496  18.4950  18.5323  18.5607  18.5964  18.6037
    18.6466  18.7350  18.7387  18.9241  19.2016  19.2833  19.3820  20.1266

          k = 0.4000 0.4000 0.4000 ( 48449 PWs)   bands (ev):

   -70.6014 -70.5560 -70.5558 -70.5558 -70.4543 -70.4512 -70.4512 -70.4188
   -70.4009 -70.4009 -70.3975 -70.3815 -70.3815 -70.3815 -70.3815 -70.3815
   -39.3849 -39.3717 -39.3695 -39.3695 -39.3411 -39.3323 -39.3323 -39.3295
   -37.0398 -37.0180 -37.0084 -37.0084 -36.7343 -36.7321 -36.7321 -36.6878
   -36.6770 -36.6770 -36.6627 -36.6627 -36.6573 -36.6234 -36.6234 -36.6208
   -36.5546 -36.5546 -36.5448 -36.5439 -36.5439 -36.5218 -36.5073 -36.5073
   -36.4786 -36.4599 -36.4599 -36.4582 -36.4412 -36.4412 -36.4312 -36.4312
   -36.4264 -36.4192 -36.3984 -36.3984 -36.3610 -36.3610 -36.3574 -36.3564
   -36.3508 -36.3508 -36.3226 -36.3226 -36.3078 -36.3071 -36.3071 -36.2912
   -15.7109 -15.7097 -15.7097 -15.7037 -15.7037 -15.7015 -15.6985 -15.6985
   -15.6832 -15.6717 -15.6717 -15.6661 -15.5328 -15.5328 -15.5292 -15.5189
   -15.4986 -15.4986 -15.4947 -15.4947 -15.4942 -15.4905 -15.4898 -15.4898
     6.2385   6.4097   6.4097   7.3678   9.0329   9.0329   9.2756  12.0865
    12.4292  12.6338  12.6338  12.8570  12.9849  12.9922  12.9922  13.0188
    13.0775  13.0775  13.1737  13.1737  13.2629  13.2642  13.2642  13.2814
    13.3591  13.3591  13.3814  14.0645  14.2930  14.2930  14.3643  14.3643
    14.3785  14.4107  14.4120  14.4120  14.5379  14.5379  14.5805  14.6635
    14.6635  14.7086  14.7373  14.7373  14.7899  14.7913  14.7913  14.8041
    14.8041  14.8274  14.8858  14.8939  14.9105  14.9105  14.9578  14.9578
    15.1587  15.1652  15.1652  15.2666  15.2666  15.2779  15.3164  15.3164
    16.1317  16.1317  16.1470  16.1561  16.1661  16.1661  16.2254  16.2254
    16.2687  16.2687  16.2759  16.3222  16.4127  16.4127  16.4410  16.4410
    16.4451  16.4539  16.4700  16.4700  17.3484  17.3484  17.3639  17.5721
    17.6375  17.6375  17.6407  17.8162  17.8162  17.8633  17.8633  17.8660
    17.9078  17.9078  17.9127  18.0197  18.0239  18.0239  18.0407  18.0407
    18.0415  18.3947  18.3947  18.4051  18.5828  18.5829  18.6074  18.6192
    18.6192  18.7305  18.7305  18.7415  18.9223  18.9224  18.9410  19.0259

 ------ SPIN DOWN ----------


          k = 0.0000 0.0000 0.0000 ( 48489 PWs)   bands (ev):

   -68.9556 -68.9103 -68.9103 -68.8997 -68.8997 -68.8997 -68.8539 -68.8539
   -68.8539 -68.8539 -68.8539 -68.8539 -68.7718 -68.7215 -68.7215 -68.7215
   -39.9202 -39.8905 -39.8855 -39.8855 -39.8788 -39.8788 -39.8788 -39.8442
   -35.7768 -35.4973 -35.4973 -35.4598 -35.4598 -35.4598 -35.2211 -35.2201
   -35.2201 -35.2201 -35.1591 -35.1591 -35.1591 -34.9914 -34.9914 -34.9914
   -34.9516 -34.9516 -34.9264 -34.9264 -34.9264 -34.9247 -34.9057 -34.9057
   -34.8872 -34.8872 -34.8872 -34.8516 -34.8516 -34.8516 -34.8473 -34.8326
   -34.8326 -34.8326 -34.8035 -34.8035 -34.8035 -34.7827 -34.7827 -34.7512
   -34.7512 -34.7512 -34.7145 -34.7145 -34.7145 -34.6741 -34.6741 -34.6741
   -16.2544 -16.2544 -16.2544 -16.2534 -16.2534 -16.2534 -16.2190 -16.2190
   -16.2190 -16.1381 -16.1381 -16.1381 -16.1314 -16.1314 -16.1243 -16.0436
   -16.0436 -16.0436 -16.0090 -16.0090 -16.0090 -16.0086 -16.0086 -16.0086
     5.6705   7.8704   7.8704   7.8798   7.8798   7.8798  10.3593  11.0598
    13.0197  13.2851  13.2851  13.3142  13.3142  13.3142  13.5144  13.5144
    13.5144  14.0725  14.1866  14.1866  14.1866  14.1893  14.1893  14.7578
    14.7578  14.7578  14.8293  14.8293  14.8293  14.8629  14.8629  14.8629
    14.9111  14.9111  14.9111  15.0404  15.0404  15.0404  15.0856  15.0856
    15.2631  15.4458  15.4458  15.5001  15.5001  15.5001  15.5533  15.7008
    15.7174  15.7174  15.7174  15.7646  15.7646  15.8236  15.8236  15.8236
    15.8349  15.8349  15.8349  16.0428  16.0428  16.3326  16.3326  16.3326
    16.3834  16.3834  16.3834  16.4889  16.4889  16.4889  17.0738  17.0738
    17.0738  17.3052  17.3052  17.3052  17.5531  17.5531  17.5531  17.7688
    17.7688  17.8341  17.8568  17.8568  17.8568  17.8753  17.8753  17.8919
    17.8919  17.8919  17.8995  17.9275  17.9275  18.0656  18.0656  18.0656
    18.6746  18.6746  18.6747  18.7596  18.7596  18.7597  18.7699  18.7699
    18.7699  19.3107  19.3286  19.3290  19.5971  19.5973  19.6060  19.6060
    19.6060  19.6104  19.7466  19.7467  19.7469  19.7560  19.7560  19.7560

          k = 0.0000 0.0000 0.2000 ( 48469 PWs)   bands (ev):

   -68.9534 -68.9204 -68.9103 -68.8997 -68.8997 -68.8896 -68.8561 -68.8539
   -68.8539 -68.8539 -68.8539 -68.8539 -68.7714 -68.7217 -68.7215 -68.7215
   -39.9185 -39.8959 -39.8884 -39.8855 -39.8788 -39.8788 -39.8702 -39.8461
   -35.7624 -35.5637 -35.4968 -35.4592 -35.4592 -35.4029 -35.2359 -35.2158
   -35.2158 -35.2085 -35.1650 -35.1650 -35.1607 -35.0008 -34.9973 -34.9973
   -34.9522 -34.9476 -34.9312 -34.9273 -34.9273 -34.9125 -34.9108 -34.8963
   -34.8858 -34.8823 -34.8823 -34.8580 -34.8516 -34.8516 -34.8507 -34.8235
   -34.8232 -34.8232 -34.8124 -34.8028 -34.8028 -34.7769 -34.7731 -34.7549
   -34.7535 -34.7535 -34.7207 -34.7173 -34.7173 -34.6776 -34.6760 -34.6760
   -16.2550 -16.2546 -16.2546 -16.2540 -16.2509 -16.2509 -16.2228 -16.2228
   -16.2144 -16.1591 -16.1375 -16.1375 -16.1309 -16.1263 -16.1074 -16.0486
   -16.0398 -16.0398 -16.0118 -16.0118 -16.0089 -16.0087 -16.0087 -16.0085
     5.7685   7.2037   7.8737   7.8831   7.8831   8.5542  10.3200  11.1302
    12.5731  13.0795  13.3200  13.3498  13.3498  13.5074  13.5775  13.5775
    13.7087  13.9841  14.0746  14.0870  14.0877  14.0877  14.4570  14.4570
    14.5331  14.6633  14.7751  14.7792  14.7792  14.8032  14.8032  14.8406
    14.9210  14.9680  14.9680  14.9884  15.1095  15.1338  15.2514  15.3039
    15.3039  15.3958  15.4311  15.4803  15.4803  15.5177  15.6041  15.6604
    15.6604  15.6679  15.7827  15.7977  15.7977  15.8142  15.8625  15.9059
    15.9157  15.9157  15.9211  16.0144  16.0793  16.2857  16.3885  16.3885
    16.3967  16.4264  16.4264  16.4385  16.6120  16.6120  17.0918  17.0918
    17.1128  17.1538  17.2297  17.2297  17.3753  17.5530  17.5530  17.6607
    17.7032  17.7639  17.7885  17.9345  17.9493  17.9493  17.9718  18.0111
    18.0459  18.0529  18.0530  18.0658  18.0658  18.0791  18.1276  18.1469
    18.6442  18.6443  18.6483  18.6484  18.7174  18.7232  18.7234  18.7278
    18.8390  19.0737  19.1707  19.2265  19.2269  19.2279  19.2464  19.2484
    19.2488  19.3479  19.5461  19.5554  19.5569  19.7236  19.8058  19.8984

          k = 0.0000 0.0000 0.4000 ( 48538 PWs)   bands (ev):

   -68.9477 -68.9322 -68.9103 -68.8997 -68.8997 -68.8782 -68.8616 -68.8539
   -68.8539 -68.8539 -68.8539 -68.8539 -68.7708 -68.7220 -68.7215 -68.7215
   -39.9137 -39.9055 -39.8887 -39.8855 -39.8788 -39.8788 -39.8599 -39.8514
   -35.7245 -35.6382 -35.4961 -35.4583 -35.4583 -35.3549 -35.2532 -35.2060
   -35.2060 -35.1999 -35.1774 -35.1774 -35.1633 -35.0128 -35.0060 -35.0060
   -34.9530 -34.9380 -34.9342 -34.9288 -34.9288 -34.9199 -34.8986 -34.8843
   -34.8785 -34.8761 -34.8761 -34.8725 -34.8519 -34.8469 -34.8469 -34.8277
   -34.8151 -34.8151 -34.8048 -34.7975 -34.7975 -34.7748 -34.7646 -34.7566
   -34.7566 -34.7505 -34.7352 -34.7238 -34.7238 -34.6845 -34.6790 -34.6790
   -16.2560 -16.2556 -16.2556 -16.2550 -16.2428 -16.2428 -16.2320 -16.2320
   -16.2015 -16.1820 -16.1367 -16.1367 -16.1300 -16.1254 -16.0836 -16.0627
   -16.0306 -16.0306 -16.0198 -16.0198 -16.0088 -16.0085 -16.0085 -16.0083
     6.0297   6.6419   7.8790   7.8884   7.8884   9.0866  10.1752  11.4061
    11.9219  13.0966  13.3961  13.4271  13.4271  13.4458  13.7552  13.7552
    13.7556  13.8267  13.9012  13.9265  13.9265  14.0907  14.0907  14.2952
    14.4835  14.6229  14.6229  14.6272  14.7101  14.9337  14.9337  14.9621
    15.0045  15.0181  15.0181  15.0449  15.1309  15.1597  15.1597  15.2129
    15.2544  15.3833  15.4379  15.4438  15.4440  15.4440  15.4918  15.8164
    15.8786  15.8878  15.8908  15.8908  15.9069  15.9069  15.9113  15.9490
    15.9724  16.0825  16.1246  16.1450  16.1450  16.1640  16.1958  16.1958
    16.3783  16.4095  16.4127  16.4127  16.8765  16.8765  16.9844  17.0044
    17.0044  17.1214  17.1277  17.1277  17.2966  17.4443  17.6669  17.7201
    17.8094  17.8094  17.8304  17.9176  18.0460  18.0460  18.1504  18.1675
    18.1675  18.1967  18.2524  18.2702  18.2702  18.2924  18.3140  18.3780
    18.4613  18.4613  18.4967  18.4967  18.6320  18.6340  18.6341  18.6385
    18.8759  18.9091  18.9499  18.9500  18.9505  18.9836  19.2915  19.3151
    19.3153  19.4568  19.5119  19.5151  19.5170  19.5203  19.5468  19.6955

          k = 0.0000 0.2000 0.2000 ( 48486 PWs)   bands (ev):

   -68.9512 -68.9227 -68.9170 -68.8998 -68.8931 -68.8871 -68.8583 -68.8539
   -68.8539 -68.8539 -68.8539 -68.8539 -68.7711 -68.7218 -68.7216 -68.7215
   -39.9170 -39.8965 -39.8938 -39.8882 -39.8774 -39.8713 -39.8703 -39.8478
   -35.7490 -35.5759 -35.5438 -35.4645 -35.4192 -35.3839 -35.2419 -35.2152
   -35.2128 -35.2013 -35.1709 -35.1683 -35.1645 -35.0062 -35.0040 -35.0029
   -34.9498 -34.9456 -34.9297 -34.9275 -34.9261 -34.9098 -34.9045 -34.9031
   -34.8949 -34.8757 -34.8715 -34.8583 -34.8536 -34.8483 -34.8466 -34.8333
   -34.8208 -34.8110 -34.8080 -34.8058 -34.8025 -34.7741 -34.7699 -34.7561
   -34.7559 -34.7521 -34.7284 -34.7198 -34.7171 -34.6811 -34.6781 -34.6756
   -16.2585 -16.2532 -16.2526 -16.2508 -16.2501 -16.2497 -16.2265 -16.2219
   -16.2145 -16.1602 -16.1589 -16.1478 -16.1179 -16.1074 -16.1048 -16.0492
   -16.0404 -16.0363 -16.0130 -16.0124 -16.0120 -16.0108 -16.0104 -16.0062
     5.8623   7.1180   7.3696   7.8555   8.3651   8.7150  10.2529  11.2145
    12.5802  12.6938  13.1836  13.3334  13.4997  13.5398  13.6261  13.7650
    13.7776  13.8569  13.9644  13.9878  14.1022  14.1573  14.2003  14.4092
    14.4135  14.5535  14.5542  14.7569  14.7856  14.8474  14.8674  14.9469
    14.9793  14.9888  15.1336  15.1508  15.1774  15.1926  15.2257  15.2417
    15.2888  15.3532  15.4069  15.4575  15.5625  15.5779  15.6475  15.6607
    15.6996  15.7180  15.7358  15.7416  15.7581  15.7623  15.8515  15.9098
    15.9193  15.9612  15.9729  16.0038  16.0958  16.1699  16.2685  16.3591
    16.4881  16.5434  16.6176  16.6441  16.6649  16.7258  17.0779  17.1128
    17.1377  17.1455  17.1903  17.2450  17.3467  17.4136  17.4319  17.7374
    17.7595  17.7841  17.8108  17.8565  17.8958  18.0063  18.0491  18.0689
    18.0825  18.0990  18.1192  18.1217  18.1826  18.1888  18.2269  18.2605
    18.5478  18.5605  18.6347  18.6407  18.6571  18.6674  18.6835  18.7060
    18.8201  19.0398  19.0575  19.0621  19.1802  19.2143  19.2458  19.2850
    19.3384  19.3806  19.3919  19.3950  19.4356  19.4399  19.5229  19.6681

          k = 0.0000 0.2000 0.4000 ( 48550 PWs)   bands (ev):

   -68.9458 -68.9321 -68.9186 -68.9001 -68.8913 -68.8780 -68.8636 -68.8539
   -68.8539 -68.8539 -68.8539 -68.8539 -68.7707 -68.7220 -68.7216 -68.7216
   -39.9124 -39.9046 -39.8938 -39.8906 -39.8748 -39.8723 -39.8609 -39.8529
   -35.7131 -35.6357 -35.5526 -35.4715 -35.4028 -35.3419 -35.2589 -35.2069
   -35.2050 -35.1917 -35.1832 -35.1793 -35.1678 -35.0157 -35.0120 -35.0109
   -34.9492 -34.9380 -34.9302 -34.9281 -34.9244 -34.9150 -34.9040 -34.8905
   -34.8886 -34.8790 -34.8695 -34.8643 -34.8568 -34.8447 -34.8380 -34.8249
   -34.8200 -34.8120 -34.8049 -34.8019 -34.7920 -34.7783 -34.7656 -34.7577
   -34.7554 -34.7509 -34.7358 -34.7252 -34.7213 -34.6835 -34.6814 -34.6787
   -16.2594 -16.2569 -16.2490 -16.2479 -16.2458 -16.2411 -16.2356 -16.2299
   -16.2030 -16.1832 -16.1600 -16.1563 -16.1083 -16.1042 -16.0819 -16.0613
   -16.0325 -16.0276 -16.0214 -16.0176 -16.0147 -16.0140 -16.0080 -16.0060
     6.1138   6.6705   7.3151   7.8109   8.4843   9.1585  10.0575  11.5010
    12.0062  12.8194  13.1175  13.2150  13.5864  13.6543  13.7408  13.7489
    13.7780  13.8233  13.8994  13.9118  13.9987  14.0337  14.1193  14.1671
    14.2878  14.3348  14.3881  14.9023  14.9222  14.9622  14.9979  15.0180
    15.0340  15.0925  15.1099  15.1333  15.1502  15.1739  15.2018  15.2698
    15.2903  15.3212  15.3704  15.4309  15.5128  15.5888  15.6253  15.6653
    15.6934  15.7647  15.7907  15.7997  15.8287  15.8718  15.9256  15.9502
    15.9840  16.0158  16.0655  16.0744  16.0830  16.1139  16.1188  16.2580
    16.6008  16.6265  16.6638  16.7358  16.9249  16.9323  16.9869  17.0341
    17.0792  17.1327  17.1768  17.2004  17.2986  17.3783  17.6076  17.6847
    17.7142  17.7346  17.9077  17.9938  18.0538  18.0740  18.1142  18.1255
    18.1775  18.2158  18.2438  18.3001  18.3139  18.3584  18.3995  18.4020
    18.4228  18.4460  18.4681  18.4842  18.5060  18.5262  18.6383  18.6665
    18.7993  18.9005  18.9133  18.9686  19.0087  19.0952  19.1720  19.1818
    19.1951  19.2516  19.3400  19.3527  19.3735  19.4610  19.5167  19.7107

          k = 0.0000 0.4000 0.4000 ( 48478 PWs)   bands (ev):

   -68.9405 -68.9328 -68.9281 -68.9007 -68.8817 -68.8768 -68.8690 -68.8539
   -68.8539 -68.8539 -68.8539 -68.8539 -68.7704 -68.7219 -68.7218 -68.7217
   -39.9085 -39.9025 -39.9005 -39.8965 -39.8690 -39.8645 -39.8634 -39.8571
   -35.6815 -35.6369 -35.6094 -35.4897 -35.3469 -35.3211 -35.2800 -35.2041
   -35.1981 -35.1953 -35.1844 -35.1843 -35.1729 -35.0212 -35.0211 -35.0175
   -34.9421 -34.9362 -34.9291 -34.9242 -34.9134 -34.9096 -34.9070 -34.9009
   -34.8917 -34.8854 -34.8781 -34.8675 -34.8396 -34.8372 -34.8367 -34.8275
   -34.8205 -34.8139 -34.8029 -34.7992 -34.7835 -34.7831 -34.7679 -34.7665
   -34.7539 -34.7434 -34.7379 -34.7264 -34.7246 -34.6855 -34.6808 -34.6782
   -16.2581 -16.2527 -16.2521 -16.2440 -16.2412 -16.2389 -16.2380 -16.2299
   -16.1999 -16.1837 -16.1834 -16.1748 -16.0896 -16.0814 -16.0804 -16.0646
   -16.0320 -16.0243 -16.0228 -16.0209 -16.0203 -16.0127 -16.0124 -16.0077
     6.3465   6.6799   6.8803   7.6888   9.0043   9.2978   9.7462  11.7835
    12.2142  12.3113  12.6711  13.2701  13.6817  13.7358  13.7557  13.8028
    13.8092  13.8286  13.9050  13.9304  13.9382  13.9743  14.0018  14.0038
    14.1046  14.1582  14.1598  15.0259  15.0425  15.0630  15.0747  15.1218
    15.1839  15.1962  15.2003  15.2573  15.2640  15.2669  15.2912  15.3229
    15.3355  15.3705  15.3734  15.3985  15.4270  15.5103  15.5331  15.5404
    15.6155  15.6389  15.6506  15.6986  15.7017  15.7064  15.8192  15.8416
    15.9813  16.0367  16.0817  16.1741  16.1921  16.2037  16.2061  16.2463
    16.9130  16.9218  16.9254  16.9487  17.0062  17.0324  17.0489  17.0617
    17.1617  17.1851  17.1878  17.2658  17.3386  17.4057  17.4092  17.4659
    17.6486  17.7568  17.7997  18.0709  18.0904  18.1200  18.1276  18.2168
    18.2218  18.2428  18.2632  18.2989  18.3016  18.3134  18.3251  18.3731
    18.3751  18.4743  18.4904  18.4968  18.5025  18.5438  18.5652  18.5884
    18.7192  18.7664  18.9405  18.9523  18.9597  18.9952  19.0166  19.1700
    19.1746  19.1838  19.2099  19.2683  19.3919  19.5419  19.5984  19.8875

          k = 0.2000 0.2000 0.2000 ( 48503 PWs)   bands (ev):

   -68.9493 -68.9227 -68.9227 -68.9002 -68.8871 -68.8871 -68.8603 -68.8539
   -68.8539 -68.8539 -68.8539 -68.8539 -68.7709 -68.7218 -68.7216 -68.7216
   -39.9155 -39.8972 -39.8939 -39.8939 -39.8718 -39.8703 -39.8703 -39.8494
   -35.7366 -35.5768 -35.5768 -35.4754 -35.3807 -35.3807 -35.2460 -35.2123
   -35.2123 -35.1958 -35.1755 -35.1703 -35.1703 -35.0105 -35.0088 -35.0088
   -34.9448 -34.9448 -34.9280 -34.9248 -34.9248 -34.9069 -34.9034 -34.9034
   -34.9002 -34.8743 -34.8743 -34.8559 -34.8548 -34.8450 -34.8450 -34.8287
   -34.8287 -34.8087 -34.8087 -34.8023 -34.7976 -34.7735 -34.7735 -34.7548
   -34.7548 -34.7489 -34.7343 -34.7199 -34.7199 -34.6815 -34.6815 -34.6739
   -16.2551 -16.2551 -16.2551 -16.2479 -16.2479 -16.2472 -16.2248 -16.2248
   -16.2163 -16.1645 -16.1645 -16.1622 -16.1027 -16.1027 -16.0993 -16.0482
   -16.0375 -16.0375 -16.0148 -16.0148 -16.0145 -16.0094 -16.0094 -16.0093
     5.9509   7.1230   7.1230   7.7742   8.7140   8.7140  10.1714  11.3075
    12.5905  12.7559  12.7559  13.3482  13.5926  13.5926  13.7622  13.7622
    13.7999  13.8399  13.8515  13.8515  14.0908  14.0908  14.0991  14.2830
    14.3581  14.3581  14.4414  14.8797  14.8893  14.8893  14.9139  14.9139
    15.1143  15.1544  15.1544  15.1718  15.1818  15.1818  15.2456  15.2456
    15.3515  15.4444  15.4444  15.5059  15.5557  15.5557  15.5760  15.6298
    15.6298  15.6453  15.7137  15.7323  15.7323  15.8511  15.8511  15.8582
    15.9641  15.9644  15.9644  16.0056  16.0056  16.0173  16.3033  16.3033
    16.7084  16.7084  16.7099  16.7557  16.7557  16.7992  17.1386  17.1386
    17.1883  17.1972  17.1972  17.2203  17.3525  17.3681  17.3681  17.7405
    17.7405  17.8079  17.8596  17.8596  17.9347  17.9347  17.9608  18.0375
    18.1554  18.1554  18.2225  18.2225  18.2485  18.2658  18.3083  18.3084
    18.5416  18.5417  18.5715  18.5715  18.5760  18.5952  18.5980  18.5981
    18.9997  19.0168  19.0168  19.0796  19.0921  19.0921  19.1385  19.1386
    19.1417  19.2499  19.4371  19.4386  19.5088  19.5093  19.5154  19.6039

          k = 0.2000 0.2000 0.4000 ( 48490 PWs)   bands (ev):

   -68.9441 -68.9321 -68.9227 -68.9004 -68.8871 -68.8778 -68.8654 -68.8539
   -68.8539 -68.8539 -68.8539 -68.8539 -68.7706 -68.7220 -68.7217 -68.7216
   -39.9112 -39.9039 -39.8958 -39.8939 -39.8713 -39.8702 -39.8617 -39.8542
   -35.7034 -35.6349 -35.5783 -35.4803 -35.3754 -35.3327 -35.2621 -35.2055
   -35.2051 -35.1866 -35.1862 -35.1827 -35.1728 -35.0187 -35.0162 -35.0156
   -34.9445 -34.9349 -34.9275 -34.9236 -34.9230 -34.9125 -34.8979 -34.8977
   -34.8951 -34.8768 -34.8743 -34.8735 -34.8544 -34.8391 -34.8342 -34.8261
   -34.8209 -34.8148 -34.8110 -34.8003 -34.7891 -34.7762 -34.7737 -34.7549
   -34.7544 -34.7493 -34.7363 -34.7232 -34.7219 -34.6832 -34.6818 -34.6761
   -16.2568 -16.2566 -16.2464 -16.2452 -16.2449 -16.2410 -16.2332 -16.2322
   -16.2063 -16.1867 -16.1705 -16.1687 -16.0961 -16.0938 -16.0782 -16.0584
   -16.0302 -16.0299 -16.0213 -16.0184 -16.0170 -16.0167 -16.0088 -16.0084
     6.1890   6.6898   7.1312   7.7519   8.7123   9.1921   9.9509  11.5976
    12.0940  12.7943  12.8986  13.2362  13.5231  13.6024  13.6636  13.7435
    13.7876  13.8787  13.8890  13.9277  13.9621  14.0268  14.0639  14.0655
    14.1656  14.2187  14.2618  14.9842  15.0136  15.0293  15.0435  15.0786
    15.1126  15.1243  15.1606  15.1816  15.1827  15.2140  15.2461  15.2928
    15.3451  15.3795  15.4061  15.4776  15.5238  15.5972  15.6022  15.6284
    15.6567  15.6592  15.6990  15.7334  15.7891  15.8442  15.8463  15.8782
    15.9225  15.9313  15.9990  16.0107  16.0391  16.1289  16.1846  16.2694
    16.7466  16.8156  16.8845  16.8904  16.9849  17.0104  17.0619  17.0861
    17.1542  17.1763  17.2556  17.2581  17.3824  17.4234  17.5631  17.6717
    17.7419  17.7716  17.8280  17.9551  18.0029  18.0180  18.0449  18.0538
    18.1546  18.2159  18.2911  18.3222  18.3487  18.3651  18.3720  18.3833
    18.3984  18.4655  18.4820  18.4987  18.4997  18.5565  18.5616  18.5883
    18.8115  18.8233  18.8548  18.8826  18.9685  19.0337  19.0416  19.0912
    19.1626  19.1675  19.2721  19.4127  19.4130  19.4245  19.5934  19.6138

          k = 0.2000 0.4000 0.4000 ( 48499 PWs)   bands (ev):

   -68.9395 -68.9328 -68.9295 -68.9008 -68.8802 -68.8768 -68.8700 -68.8539
   -68.8539 -68.8539 -68.8539 -68.8539 -68.7704 -68.7219 -68.7218 -68.7217
   -39.9079 -39.9026 -39.9006 -39.8979 -39.8676 -39.8644 -39.8633 -39.8579
   -35.6767 -35.6384 -35.6193 -35.4920 -35.3330 -35.3149 -35.2780 -35.2041
   -35.1997 -35.1963 -35.1887 -35.1842 -35.1733 -35.0239 -35.0239 -35.0210
   -34.9358 -34.9311 -34.9230 -34.9219 -34.9136 -34.9076 -34.9068 -34.9001
   -34.8927 -34.8854 -34.8829 -34.8730 -34.8499 -34.8370 -34.8367 -34.8323
   -34.8179 -34.8156 -34.8113 -34.8065 -34.7822 -34.7801 -34.7731 -34.7642
   -34.7502 -34.7448 -34.7341 -34.7231 -34.7219 -34.6820 -34.6789 -34.6758
   -16.2542 -16.2496 -16.2491 -16.2402 -16.2401 -16.2383 -16.2377 -16.2308
   -16.2064 -16.1912 -16.1907 -16.1846 -16.0802 -16.0745 -16.0733 -16.0589
   -16.0311 -16.0244 -16.0240 -16.0227 -16.0220 -16.0155 -16.0152 -16.0112
     6.3947   6.6863   6.8296   7.6774   9.0803   9.2847   9.6756  11.8705
    12.2854  12.4116  12.7071  13.2233  13.5114  13.6721  13.7028  13.7362
    13.7831  13.8007  13.8503  13.8915  13.8976  13.9483  13.9487  13.9814
    14.0211  14.0798  14.0936  15.0645  15.1076  15.1321  15.1461  15.1774
    15.2112  15.2282  15.2348  15.2801  15.2802  15.2978  15.3385  15.3448
    15.3567  15.3867  15.4182  15.4459  15.4548  15.4919  15.5078  15.5436
    15.6056  15.6058  15.6287  15.6413  15.6826  15.7003  15.7774  15.7791
    15.9244  15.9996  16.0231  16.0522  16.1239  16.1350  16.1768  16.2284
    16.9957  17.0233  17.0327  17.1069  17.1167  17.1493  17.1557  17.1805
    17.2719  17.3468  17.3571  17.4082  17.4825  17.5005  17.5217  17.6187
    17.6535  17.7494  17.7846  17.9502  17.9575  17.9835  18.0393  18.0964
    18.0997  18.1642  18.2226  18.2309  18.2504  18.3008  18.3153  18.3324
    18.3612  18.4182  18.4183  18.4601  18.4798  18.4977  18.5339  18.5711
    18.7336  18.7350  18.8543  18.8769  18.9383  19.0634  19.0960  19.1408
    19.1444  19.1652  19.2114  19.2347  19.3060  19.5398  19.5475  19.6784

          k = 0.4000 0.4000 0.4000 ( 48449 PWs)   bands (ev):

   -68.9368 -68.9328 -68.9328 -68.9009 -68.8768 -68.8768 -68.8727 -68.8539
   -68.8539 -68.8539 -68.8539 -68.8539 -68.7703 -68.7218 -68.7218 -68.7218
   -39.9063 -39.9025 -39.9007 -39.9007 -39.8653 -39.8632 -39.8632 -39.8602
   -35.6630 -35.6406 -35.6406 -35.4955 -35.3038 -35.3038 -35.2803 -35.2035
   -35.2035 -35.2000 -35.1951 -35.1951 -35.1625 -35.0280 -35.0280 -35.0276
   -34.9250 -34.9224 -34.9224 -34.9128 -34.9128 -34.9108 -34.9057 -34.8921
   -34.8921 -34.8875 -34.8812 -34.8812 -34.8563 -34.8457 -34.8457 -34.8332
   -34.8332 -34.8236 -34.8132 -34.8132 -34.7770 -34.7770 -34.7708 -34.7635
   -34.7635 -34.7386 -34.7240 -34.7188 -34.7188 -34.6761 -34.6761 -34.6734
   -16.2438 -16.2438 -16.2428 -16.2372 -16.2372 -16.2363 -16.2333 -16.2333
   -16.2161 -16.2043 -16.2043 -16.2027 -16.0627 -16.0627 -16.0607 -16.0513
   -16.0287 -16.0287 -16.0248 -16.0248 -16.0247 -16.0208 -16.0208 -16.0197
     6.5218   6.6967   6.6967   7.6631   9.2640   9.2640   9.4999  12.0687
    12.4368  12.6434  12.6434  13.1599  13.3430  13.3430  13.5589  13.7570
    13.7570  13.7837  13.8043  13.8043  13.8362  13.8623  13.8628  13.8628
    14.0027  14.0063  14.0063  15.1066  15.2438  15.2438  15.2700  15.2700
    15.2745  15.2847  15.3046  15.3046  15.3189  15.3189  15.3621  15.3905
    15.3905  15.4231  15.4292  15.4322  15.4322  15.4705  15.5070  15.5070
    15.5530  15.5720  15.5720  15.6073  15.6073  15.6512  15.6512  15.6934
    15.9694  15.9694  16.0030  16.0391  16.0607  16.0607  16.1409  16.1409
    17.1935  17.1935  17.2652  17.2730  17.2730  17.3137  17.3863  17.3863
    17.5029  17.5216  17.5216  17.7243  17.7243  17.7392  17.7658  17.7658
    17.7855  17.8021  17.8345  17.8345  17.8533  17.8533  17.8697  17.9295
    17.9295  17.9951  18.0202  18.0202  18.0443  18.2105  18.2105  18.2167
    18.2717  18.2717  18.3169  18.3448  18.3448  18.3652  18.3769  18.3769
    18.8279  18.8280  18.8405  19.0985  19.1272  19.1286  19.1360  19.1487
    19.1496  19.1891  19.1895  19.2169  19.2261  19.2692  19.2775  19.9695

     the Fermi energy is    17.3475 ev

!    total energy              =   -6230.39641070 Ry
     estimated scf accuracy    <          6.3E-09 Ry
     smearing contrib. (-TS)   =      -0.00032213 Ry
     internal energy E=F+TS    =   -6230.39608857 Ry

     The total energy is F=E-TS. E is the sum of the following terms:
     one-electron contribution =   -2388.02171835 Ry
     hartree contribution      =    1402.18263449 Ry
     xc contribution           =    -708.20937141 Ry
     ewald contribution        =   -3317.81388140 Ry
     one-center paw contrib.   =   -1218.53375190 Ry

     total magnetization       =    15.56 Bohr mag/cell
     absolute magnetization    =    28.77 Bohr mag/cell

     convergence has been achieved in  25 iterations

     negative rho (up, down):  5.828E-03 1.812E-03

     Forces acting on atoms (cartesian axes, Ry/au):

     atom    1 type  1   force =     0.00022031    0.00022031   -0.00342757
     atom    2 type  1   force =    -0.07076409   -0.07076409   -0.07076409
     atom    3 type  1   force =    -0.00022031   -0.00342757   -0.00022031
     atom    4 type  1   force =     0.00342757   -0.00022031    0.00022031
     atom    5 type  1   force =     0.00022031   -0.00342757    0.00022031
     atom    6 type  1   force =    -0.00342757    0.00022031    0.00022031
     atom    7 type  1   force =    -0.00022031    0.00342757    0.00022031
     atom    8 type  1   force =     0.07076409   -0.07076409    0.07076409
     atom    9 type  1   force =    -0.07076409    0.07076409    0.07076409
     atom   10 type  1   force =    -0.00342757   -0.00022031   -0.00022031
     atom   11 type  1   force =     0.00342757    0.00022031   -0.00022031
     atom   12 type  1   force =    -0.00022031   -0.00022031   -0.00342757
     atom   13 type  1   force =     0.07076409    0.07076409   -0.07076409
     atom   14 type  1   force =    -0.00022031    0.00022031    0.00342757
     atom   15 type  1   force =     0.00022031    0.00342757   -0.00022031
     atom   16 type  1   force =     0.00022031   -0.00022031    0.00342757
     atom   17 type  2   force =     0.00000000    0.00000000    0.00000000
     atom   18 type  2   force =    -0.00164148   -0.00164148    0.00164148
     atom   19 type  2   force =     0.00000000    0.00000000    0.00000000
     atom   20 type  2   force =    -0.00164148    0.00164148   -0.00164148
     atom   21 type  2   force =     0.00000000    0.00000000    0.00000000
     atom   22 type  2   force =     0.00164148    0.00164148    0.00164148
     atom   23 type  2   force =     0.00164148   -0.00164148   -0.00164148
     atom   24 type  2   force =     0.00000000    0.00000000    0.00000000
     atom   25 type  3   force =    -0.00270783   -0.00270783    0.00270783
     atom   26 type  3   force =     0.00000000    0.00000000    0.00000000
     atom   27 type  3   force =    -0.00270783    0.00270783   -0.00270783
     atom   28 type  3   force =     0.00000000    0.00000000    0.00000000
     atom   29 type  3   force =     0.00270783    0.00270783    0.00270783
     atom   30 type  3   force =     0.00270783   -0.00270783   -0.00270783
     atom   31 type  3   force =     0.00000000    0.00000000    0.00000000

     Total force =     0.245669     Total SCF correction =     0.000056


     Computing stress (Cartesian axis) and pressure


     negative rho (up, down):  5.828E-03 1.812E-03
          total   stress  (Ry/bohr**3)                   (kbar)     P=      220.49
   0.00149885   0.00000000   0.00000000          220.49        0.00        0.00
   0.00000000   0.00149885   0.00000000            0.00      220.49        0.00
   0.00000000   0.00000000   0.00149885            0.00        0.00      220.49


     BFGS Geometry Optimization
     Energy error            =      2.6E-01 Ry
     Gradient error          =      7.1E-02 Ry/Bohr
     Cell gradient error     =      2.2E+02 kbar

     number of scf cycles    =   1
     number of bfgs steps    =   0

     enthalpy           new  =   -6230.3964107048 Ry

     new trust radius        =       0.3418262969 bohr
     new conv_thr            =       0.0000000100 Ry

     new unit-cell volume =   2323.18477 a.u.^3 (   344.26047 Ang^3 )
     density =      6.19100 g/cm^3

CELL_PARAMETERS (alat= 12.76591255)
   1.037471206   0.000000000   0.000000000
   0.000000000   1.037471206   0.000000000
   0.000000000   0.000000000   1.037471206

ATOMIC_POSITIONS (crystal)
Fe               0.1250172577        0.1250172577        0.6247315058
Fe               0.6194567931        0.6194567931        0.6194567931
Fe               0.8749827423        0.6247315058        0.8749827423
Fe               0.3752684942        0.8749827423        0.1250172577
Fe               0.1250172577        0.6247315058        0.1250172577
Fe               0.6247315058        0.1250172577        0.1250172577
Fe               0.8749827423        0.3752684942        0.1250172577
Fe               0.3805432069        0.6194567931        0.3805432069
Fe               0.6194567931        0.3805432069        0.3805432069
Fe               0.6247315058        0.8749827423        0.8749827423
Fe               0.3752684942        0.1250172577        0.8749827423
Fe               0.8749827423        0.8749827423        0.6247315058
Fe               0.3805432069        0.3805432069        0.6194567931
Fe               0.8749827423        0.1250172577        0.3752684942
Fe               0.1250172577        0.3752684942        0.8749827423
Fe               0.1250172577        0.8749827423        0.3752684942
Ti               0.0000000000        0.0000000000        0.0000000000
Ti               0.7498714170        0.7498714170        0.2501285830
Ti               0.5000000000        0.0000000000        0.5000000000
Ti               0.7498714170        0.2501285830        0.7498714170
Ti               0.0000000000        0.5000000000        0.5000000000
Ti               0.2501285830        0.2501285830        0.2501285830
Ti               0.2501285830        0.7498714170        0.7498714170
Ti               0.5000000000        0.5000000000        0.0000000000
H                0.2497878862        0.2497878862        0.7502121138
H                0.0000000000        0.5000000000        0.0000000000
H                0.2497878862        0.7502121138        0.2497878862
H                0.5000000000        0.0000000000        0.0000000000
H                0.7502121138        0.7502121138        0.7502121138
H                0.7502121138        0.2497878862        0.2497878862
H                0.0000000000        0.0000000000        0.5000000000



     Writing config-only to output data dir ./TiFe2_cub_8b_8H.save/ :
     XML data file     NEW-OLD atomic charge density approx. for the potential
     New effective cutoffs (rho, wfc): 1612.80  115.19

     negative rho (up, down):  6.148E-03 2.063E-03
     Generating pointlists ...

     total cpu time spent up to now is     9213.9 secs

     per-process dynamical memory:   530.5 Mb

     Self-consistent Calculation

     iteration #  1     ecut=   124.00 Ry     beta= 0.20
     CG style diagonalization
     c_bands:  1 eigenvalues not converged
     c_bands:  2 eigenvalues not converged
     ethr =  1.00E-06,  avg # of iterations = 22.3

     negative rho (up, down):  6.063E-03 1.858E-03

     total cpu time spent up to now is    11583.2 secs

     total energy              =   -6230.56432731 Ry
     estimated scf accuracy    <       0.30925781 Ry

     total magnetization       =    17.14 Bohr mag/cell
     absolute magnetization    =    31.93 Bohr mag/cell

     iteration #  2     ecut=   124.00 Ry     beta= 0.20
     CG style diagonalization
     ethr =  8.61E-05,  avg # of iterations =  3.0

     negative rho (up, down):  6.055E-03 1.756E-03

     total cpu time spent up to now is    11827.0 secs

     total energy              =   -6230.57649403 Ry
     estimated scf accuracy    <       0.05841739 Ry

     total magnetization       =    17.19 Bohr mag/cell
     absolute magnetization    =    32.00 Bohr mag/cell

     iteration #  3     ecut=   124.00 Ry     beta= 0.20
     CG style diagonalization
     ethr =  1.63E-05,  avg # of iterations =  3.0

     negative rho (up, down):  6.054E-03 1.586E-03

     total cpu time spent up to now is    12071.2 secs

     total energy              =   -6230.58058131 Ry
     estimated scf accuracy    <       0.04068638 Ry

     total magnetization       =    17.37 Bohr mag/cell
     absolute magnetization    =    32.31 Bohr mag/cell

     iteration #  4     ecut=   124.00 Ry     beta= 0.20
     CG style diagonalization
     ethr =  1.13E-05,  avg # of iterations =  3.2

     negative rho (up, down):  6.122E-03 1.471E-03

     total cpu time spent up to now is    12334.6 secs

     total energy              =   -6230.58663076 Ry
     estimated scf accuracy    <       0.01243345 Ry

     total magnetization       =    17.75 Bohr mag/cell
     absolute magnetization    =    33.08 Bohr mag/cell

     iteration #  5     ecut=   124.00 Ry     beta= 0.20
     CG style diagonalization
     c_bands:  1 eigenvalues not converged
     ethr =  3.46E-06,  avg # of iterations =  3.4

     negative rho (up, down):  6.232E-03 1.440E-03

     total cpu time spent up to now is    12629.4 secs

     total energy              =   -6230.59105770 Ry
     estimated scf accuracy    <       0.00583950 Ry

     total magnetization       =    18.21 Bohr mag/cell
     absolute magnetization    =    34.02 Bohr mag/cell

     iteration #  6     ecut=   124.00 Ry     beta= 0.20
     CG style diagonalization
     c_bands:  3 eigenvalues not converged
     c_bands:  1 eigenvalues not converged
     c_bands:  1 eigenvalues not converged
     c_bands:  1 eigenvalues not converged
     ethr =  1.63E-06,  avg # of iterations =  3.7

     negative rho (up, down):  6.444E-03 1.403E-03

     total cpu time spent up to now is    12955.4 secs

     total energy              =   -6230.59398681 Ry
     estimated scf accuracy    <       0.00579439 Ry

     total magnetization       =    18.55 Bohr mag/cell
     absolute magnetization    =    34.85 Bohr mag/cell

     iteration #  7     ecut=   124.00 Ry     beta= 0.20
     CG style diagonalization
     c_bands:  1 eigenvalues not converged
     c_bands:  1 eigenvalues not converged
     c_bands:  1 eigenvalues not converged
     c_bands:  1 eigenvalues not converged
     ethr =  1.61E-06,  avg # of iterations =  3.5

     negative rho (up, down):  6.604E-03 1.346E-03

     total cpu time spent up to now is    13254.6 secs

     total energy              =   -6230.59670371 Ry
     estimated scf accuracy    <       0.00402120 Ry

     total magnetization       =    19.12 Bohr mag/cell
     absolute magnetization    =    36.14 Bohr mag/cell

     iteration #  8     ecut=   124.00 Ry     beta= 0.20
     CG style diagonalization
     c_bands:  1 eigenvalues not converged
     c_bands:  1 eigenvalues not converged
     ethr =  1.12E-06,  avg # of iterations =  3.4

     negative rho (up, down):  6.784E-03 1.309E-03

     total cpu time spent up to now is    13542.8 secs

     total energy              =   -6230.59805641 Ry
     estimated scf accuracy    <       0.00315766 Ry

     total magnetization       =    19.29 Bohr mag/cell
     absolute magnetization    =    36.80 Bohr mag/cell

     iteration #  9     ecut=   124.00 Ry     beta= 0.20
     CG style diagonalization
     ethr =  8.80E-07,  avg # of iterations =  3.2

     negative rho (up, down):  6.814E-03 1.240E-03

     total cpu time spent up to now is    13808.2 secs

     total energy              =   -6230.59868765 Ry
     estimated scf accuracy    <       0.00045389 Ry

     total magnetization       =    19.51 Bohr mag/cell
     absolute magnetization    =    37.43 Bohr mag/cell

     iteration # 10     ecut=   124.00 Ry     beta= 0.20
     CG style diagonalization
     ethr =  1.26E-07,  avg # of iterations =  4.1

     negative rho (up, down):  6.993E-03 1.163E-03

     total cpu time spent up to now is    14173.9 secs

     total energy              =   -6230.59868108 Ry
     estimated scf accuracy    <       0.00019553 Ry

     total magnetization       =    19.56 Bohr mag/cell
     absolute magnetization    =    37.63 Bohr mag/cell

     iteration # 11     ecut=   124.00 Ry     beta= 0.20
     CG style diagonalization
     ethr =  5.45E-08,  avg # of iterations =  4.6

     negative rho (up, down):  6.950E-03 1.179E-03

     total cpu time spent up to now is    14602.6 secs

     total energy              =   -6230.59911867 Ry
     estimated scf accuracy    <       0.00013286 Ry

     total magnetization       =    19.70 Bohr mag/cell
     absolute magnetization    =    38.19 Bohr mag/cell

     iteration # 12     ecut=   124.00 Ry     beta= 0.20
     CG style diagonalization
     ethr =  3.70E-08,  avg # of iterations =  3.5

     negative rho (up, down):  6.998E-03 1.175E-03

     total cpu time spent up to now is    14905.8 secs

     total energy              =   -6230.59916936 Ry
     estimated scf accuracy    <       0.00002815 Ry

     total magnetization       =    19.64 Bohr mag/cell
     absolute magnetization    =    38.04 Bohr mag/cell

     iteration # 13     ecut=   124.00 Ry     beta= 0.20
     CG style diagonalization
     ethr =  7.84E-09,  avg # of iterations =  4.5

     negative rho (up, down):  6.999E-03 1.173E-03

     total cpu time spent up to now is    15315.1 secs

     total energy              =   -6230.59920298 Ry
     estimated scf accuracy    <       0.00000827 Ry

     total magnetization       =    19.65 Bohr mag/cell
     absolute magnetization    =    38.14 Bohr mag/cell

     iteration # 14     ecut=   124.00 Ry     beta= 0.20
     CG style diagonalization
     ethr =  2.30E-09,  avg # of iterations =  4.8

     negative rho (up, down):  7.023E-03 1.169E-03

     total cpu time spent up to now is    15761.7 secs

     total energy              =   -6230.59921812 Ry
     estimated scf accuracy    <       0.00000290 Ry

     total magnetization       =    19.61 Bohr mag/cell
     absolute magnetization    =    38.09 Bohr mag/cell

     iteration # 15     ecut=   124.00 Ry     beta= 0.20
     CG style diagonalization
     ethr =  8.08E-10,  avg # of iterations =  4.8

     negative rho (up, down):  7.021E-03 1.168E-03

     total cpu time spent up to now is    16209.0 secs

     total energy              =   -6230.59922769 Ry
     estimated scf accuracy    <       0.00000121 Ry

     total magnetization       =    19.62 Bohr mag/cell
     absolute magnetization    =    38.15 Bohr mag/cell

     iteration # 16     ecut=   124.00 Ry     beta= 0.20
     CG style diagonalization
     ethr =  3.37E-10,  avg # of iterations =  4.3

     negative rho (up, down):  7.034E-03 1.164E-03

     total cpu time spent up to now is    16601.6 secs

     total energy              =   -6230.59923083 Ry
     estimated scf accuracy    <       0.00000078 Ry

     total magnetization       =    19.62 Bohr mag/cell
     absolute magnetization    =    38.15 Bohr mag/cell

     iteration # 17     ecut=   124.00 Ry     beta= 0.20
     CG style diagonalization
     ethr =  2.18E-10,  avg # of iterations =  4.2

     negative rho (up, down):  7.033E-03 1.164E-03

     total cpu time spent up to now is    16982.8 secs

     total energy              =   -6230.59923360 Ry
     estimated scf accuracy    <       0.00000029 Ry

     total magnetization       =    19.61 Bohr mag/cell
     absolute magnetization    =    38.17 Bohr mag/cell

     iteration # 18     ecut=   124.00 Ry     beta= 0.20
     CG style diagonalization
     ethr =  8.12E-11,  avg # of iterations =  4.0

     negative rho (up, down):  7.032E-03 1.163E-03

     total cpu time spent up to now is    17342.0 secs

     total energy              =   -6230.59923475 Ry
     estimated scf accuracy    <       0.00000011 Ry

     total magnetization       =    19.61 Bohr mag/cell
     absolute magnetization    =    38.17 Bohr mag/cell

     iteration # 19     ecut=   124.00 Ry     beta= 0.20
     CG style diagonalization
     ethr =  2.94E-11,  avg # of iterations =  4.4

     negative rho (up, down):  7.033E-03 1.163E-03

     total cpu time spent up to now is    17742.2 secs

     total energy              =   -6230.59923547 Ry
     estimated scf accuracy    <       0.00000005 Ry

     total magnetization       =    19.61 Bohr mag/cell
     absolute magnetization    =    38.16 Bohr mag/cell

     iteration # 20     ecut=   124.00 Ry     beta= 0.20
     CG style diagonalization
     ethr =  1.33E-11,  avg # of iterations =  4.2

     negative rho (up, down):  7.034E-03 1.163E-03

     total cpu time spent up to now is    18116.6 secs

     total energy              =   -6230.59923588 Ry
     estimated scf accuracy    <       0.00000002 Ry

     total magnetization       =    19.61 Bohr mag/cell
     absolute magnetization    =    38.17 Bohr mag/cell

     iteration # 21     ecut=   124.00 Ry     beta= 0.20
     CG style diagonalization
     ethr =  6.26E-12,  avg # of iterations =  4.3

     negative rho (up, down):  7.033E-03 1.163E-03

     total cpu time spent up to now is    18504.9 secs

     total energy              =   -6230.59923616 Ry
     estimated scf accuracy    <       0.00000001 Ry

     total magnetization       =    19.61 Bohr mag/cell
     absolute magnetization    =    38.17 Bohr mag/cell

     iteration # 22     ecut=   124.00 Ry     beta= 0.20
     CG style diagonalization
     ethr =  3.33E-12,  avg # of iterations =  4.3

     negative rho (up, down):  7.033E-03 1.163E-03

     Magnetic moment per site  (integrated on atomic sphere of radius R)
     atom   1 (R=0.089)  charge= 11.1832  magn=  1.3381
     atom   2 (R=0.089)  charge= 11.1682  magn=  1.4810
     atom   3 (R=0.089)  charge= 11.1832  magn=  1.3381
     atom   4 (R=0.089)  charge= 11.1832  magn=  1.3381
     atom   5 (R=0.089)  charge= 11.1832  magn=  1.3381
     atom   6 (R=0.089)  charge= 11.1832  magn=  1.3381
     atom   7 (R=0.089)  charge= 11.1832  magn=  1.3381
     atom   8 (R=0.089)  charge= 11.1682  magn=  1.4810
     atom   9 (R=0.089)  charge= 11.1682  magn=  1.4810
     atom  10 (R=0.089)  charge= 11.1832  magn=  1.3381
     atom  11 (R=0.089)  charge= 11.1832  magn=  1.3381
     atom  12 (R=0.089)  charge= 11.1832  magn=  1.3381
     atom  13 (R=0.089)  charge= 11.1682  magn=  1.4810
     atom  14 (R=0.089)  charge= 11.1832  magn=  1.3381
     atom  15 (R=0.089)  charge= 11.1832  magn=  1.3381
     atom  16 (R=0.089)  charge= 11.1832  magn=  1.3381
     atom  17 (R=0.171)  charge= 10.2000  magn= -0.7740
     atom  18 (R=0.171)  charge= 10.2053  magn= -0.7960
     atom  19 (R=0.171)  charge= 10.2023  magn= -0.8127
     atom  20 (R=0.171)  charge= 10.2053  magn= -0.7960
     atom  21 (R=0.171)  charge= 10.2023  magn= -0.8127
     atom  22 (R=0.171)  charge= 10.2053  magn= -0.7960
     atom  23 (R=0.171)  charge= 10.2053  magn= -0.7960
     atom  24 (R=0.171)  charge= 10.2023  magn= -0.8127
     atom  25 (R=0.089)  charge=  0.9941  magn= -0.0052
     atom  26 (R=0.089)  charge=  1.0202  magn= -0.0046
     atom  27 (R=0.089)  charge=  0.9941  magn= -0.0052
     atom  28 (R=0.089)  charge=  1.0202  magn= -0.0046
     atom  29 (R=0.089)  charge=  0.9941  magn= -0.0052
     atom  30 (R=0.089)  charge=  0.9941  magn= -0.0052
     atom  31 (R=0.089)  charge=  1.0202  magn= -0.0046

     total cpu time spent up to now is    18920.3 secs

     End of self-consistent calculation

 ------ SPIN UP ------------


          k = 0.0000 0.0000 0.0000 ( 48489 PWs)   bands (ev):

   -72.8775 -72.8250 -72.8250 -72.8250 -72.7531 -72.7294 -72.7294 -72.7192
   -72.7192 -72.7192 -72.6957 -72.6957 -72.6957 -72.6955 -72.6955 -72.6955
   -41.5495 -41.5190 -41.5047 -41.5047 -41.5047 -41.4988 -41.4988 -41.4800
   -39.2757 -39.1345 -39.0551 -39.0551 -39.0551 -39.0529 -39.0529 -38.9559
   -38.9559 -38.9559 -38.8813 -38.8813 -38.8620 -38.8620 -38.8620 -38.8423
   -38.8423 -38.8423 -38.8164 -38.8164 -38.8164 -38.7762 -38.7762 -38.7762
   -38.7632 -38.7553 -38.7553 -38.7432 -38.7432 -38.7432 -38.7219 -38.7219
   -38.7059 -38.7059 -38.7059 -38.6888 -38.6888 -38.6888 -38.6880 -38.6721
   -38.6721 -38.6721 -38.6507 -38.6507 -38.6507 -38.6242 -38.6242 -38.6242
   -17.8230 -17.8230 -17.8230 -17.8035 -17.8035 -17.8035 -17.7880 -17.7880
   -17.7880 -17.7320 -17.7320 -17.7320 -17.7272 -17.7272 -17.7260 -17.6685
   -17.6685 -17.6685 -17.6508 -17.6508 -17.6508 -17.6379 -17.6379 -17.6379
     4.0840   5.9554   5.9554   6.1043   6.1043   6.1043   8.2769   9.2941
    10.9253  10.9717  10.9717  10.9717  11.2069  11.2069  11.2268  11.2268
    11.2268  11.8660  11.8742  11.8742  11.8742  11.9389  11.9389  11.9389
    11.9665  11.9665  11.9665  11.9812  11.9909  11.9909  12.0365  12.0365
    12.0365  12.2399  12.2399  12.4837  12.4837  12.4837  12.5247  12.5247
    12.5247  12.5511  12.5511  12.5511  12.5813  12.5813  12.6975  13.0212
    13.0212  13.0971  13.1021  13.1021  13.1021  13.1189  13.1189  13.1189
    13.1724  13.1724  13.1724  13.2206  13.2206  13.2206  13.2662  13.2662
    13.2662  13.7790  13.7790  13.7790  13.8361  13.8361  13.8361  13.8544
    13.8544  13.8544  13.9866  13.9866  14.0161  14.0161  14.0233  14.0233
    14.0233  14.0601  14.0701  14.0701  14.0701  14.5886  14.5886  14.8166
    14.8166  14.8166  15.0981  15.0981  15.0981  15.1029  15.1504  15.1504
    15.4547  15.4547  15.4547  16.2771  16.2771  16.2771  16.2817  16.2817
    16.2818  16.3269  16.3269  16.3269  16.7030  16.7030  16.7036  16.7290
    16.7302  16.7310  16.8110  16.8111  16.8513  17.7239  17.7242  17.7243

          k = 0.0000 0.0000 0.1928 ( 48469 PWs)   bands (ev):

   -72.8775 -72.8251 -72.8250 -72.8250 -72.7518 -72.7338 -72.7294 -72.7192
   -72.7192 -72.7147 -72.6967 -72.6956 -72.6956 -72.6956 -72.6955 -72.6955
   -41.5494 -41.5188 -41.5078 -41.5047 -41.5047 -41.4988 -41.4949 -41.4810
   -39.2669 -39.1479 -39.0881 -39.0544 -39.0544 -39.0521 -39.0154 -38.9540
   -38.9540 -38.9537 -38.8866 -38.8805 -38.8687 -38.8687 -38.8640 -38.8473
   -38.8473 -38.8374 -38.8185 -38.8119 -38.8119 -38.7789 -38.7737 -38.7737
   -38.7593 -38.7554 -38.7511 -38.7451 -38.7401 -38.7401 -38.7258 -38.7143
   -38.7081 -38.7020 -38.7020 -38.6931 -38.6901 -38.6901 -38.6839 -38.6721
   -38.6721 -38.6682 -38.6548 -38.6524 -38.6524 -38.6278 -38.6260 -38.6260
   -17.8232 -17.8223 -17.8223 -17.8039 -17.8030 -17.8030 -17.7899 -17.7899
   -17.7854 -17.7460 -17.7319 -17.7319 -17.7270 -17.7261 -17.7127 -17.6712
   -17.6665 -17.6665 -17.6511 -17.6511 -17.6510 -17.6390 -17.6390 -17.6378
     4.1689   5.4275   5.9577   6.1067   6.1067   6.6410   8.2367   9.3760
    10.6364  10.8846  11.0226  11.0226  11.1392  11.2510  11.2631  11.2631
    11.3677  11.7066  11.7066  11.7138  11.7976  11.7976  11.8162  11.8167
    11.8904  11.9915  12.0610  12.0610  12.0842  12.0975  12.0989  12.0989
    12.1944  12.2497  12.2800  12.3526  12.3717  12.3798  12.3798  12.5183
    12.5183  12.5609  12.5859  12.6250  12.6250  12.6316  12.8374  12.9221
    12.9664  12.9664  12.9927  13.0366  13.0497  13.0497  13.1077  13.1972
    13.2023  13.2023  13.3088  13.3764  13.3764  13.3846  13.4007  13.4636
    13.4636  13.7438  13.7438  13.7581  13.7911  13.7935  13.7972  13.7972
    13.8480  13.9041  13.9160  13.9160  13.9702  13.9702  13.9783  13.9895
    14.1170  14.1455  14.1528  14.1528  14.1979  14.6100  14.7343  14.7343
    14.7441  14.7751  14.9197  15.0484  15.0484  15.0694  15.1031  15.2781
    15.5306  15.6009  15.6009  16.2208  16.2208  16.2577  16.2584  16.2646
    16.2646  16.3020  16.3020  16.3840  16.4723  16.5157  16.5325  16.5366
    16.5372  16.6187  16.6188  16.9766  16.9933  17.0016  17.1516  17.5335

          k = 0.0000 0.0000 0.3856 ( 48538 PWs)   bands (ev):

   -72.8774 -72.8253 -72.8250 -72.8250 -72.7485 -72.7401 -72.7294 -72.7192
   -72.7192 -72.7087 -72.6997 -72.6956 -72.6956 -72.6956 -72.6955 -72.6955
   -41.5492 -41.5184 -41.5109 -41.5047 -41.5047 -41.4988 -41.4897 -41.4836
   -39.2456 -39.1811 -39.0990 -39.0532 -39.0532 -39.0507 -38.9948 -38.9506
   -38.9506 -38.9484 -38.8937 -38.8788 -38.8780 -38.8780 -38.8675 -38.8545
   -38.8545 -38.8306 -38.8214 -38.8079 -38.8079 -38.7833 -38.7684 -38.7684
   -38.7579 -38.7497 -38.7457 -38.7435 -38.7357 -38.7357 -38.7327 -38.7086
   -38.7070 -38.6972 -38.6972 -38.6962 -38.6908 -38.6908 -38.6845 -38.6703
   -38.6703 -38.6641 -38.6573 -38.6573 -38.6546 -38.6377 -38.6291 -38.6291
   -17.8235 -17.8213 -17.8213 -17.8044 -17.8011 -17.8011 -17.7941 -17.7941
   -17.7792 -17.7592 -17.7315 -17.7315 -17.7265 -17.7257 -17.6987 -17.6781
   -17.6627 -17.6627 -17.6522 -17.6522 -17.6512 -17.6409 -17.6409 -17.6378
     4.3953   4.9340   5.9614   6.1108   6.1108   7.1074   8.1206   9.6375
    10.0993  10.7779  11.1713  11.1713  11.2836  11.3381  11.3381  11.3408
    11.3531  11.4194  11.4194  11.5411  11.6895  11.6895  11.6897  11.7861
    11.8513  11.9243  12.1144  12.1166  12.1561  12.1561  12.2006  12.2006
    12.2361  12.2422  12.2422  12.2461  12.2599  12.2729  12.4074  12.4224
    12.4224  12.4761  12.4761  12.5573  12.5686  12.6084  12.9211  13.0064
    13.0772  13.0858  13.0858  13.1064  13.1827  13.1900  13.1900  13.2524
    13.2524  13.3323  13.4329  13.5062  13.5409  13.5409  13.5602  13.5762
    13.5837  13.5837  13.6168  13.6168  13.6472  13.6940  13.6973  13.6973
    13.7030  13.7167  13.7221  13.7221  13.9567  13.9728  14.2520  14.2520
    14.3440  14.3440  14.3445  14.3589  14.3921  14.5411  14.5411  14.5553
    14.7324  14.7734  14.9148  14.9148  14.9163  14.9629  15.0766  15.2897
    15.7666  15.8811  15.8811  16.0930  16.0930  16.1083  16.2288  16.2292
    16.2302  16.2302  16.2842  16.2842  16.3188  16.3232  16.3657  16.3657
    16.4199  16.4199  16.5954  17.0184  17.1802  17.1852  17.1937  17.6123

          k = 0.0000 0.1928 0.1928 ( 48486 PWs)   bands (ev):

   -72.8774 -72.8252 -72.8251 -72.8250 -72.7505 -72.7350 -72.7321 -72.7192
   -72.7165 -72.7135 -72.6979 -72.6956 -72.6956 -72.6956 -72.6955 -72.6955
   -41.5493 -41.5185 -41.5093 -41.5066 -41.5041 -41.4963 -41.4941 -41.4819
   -39.2590 -39.1536 -39.1069 -39.0811 -39.0443 -39.0168 -39.0126 -38.9579
   -38.9518 -38.9468 -38.8898 -38.8838 -38.8753 -38.8695 -38.8670 -38.8525
   -38.8468 -38.8383 -38.8162 -38.8136 -38.8073 -38.7788 -38.7755 -38.7718
   -38.7560 -38.7535 -38.7510 -38.7414 -38.7413 -38.7361 -38.7216 -38.7202
   -38.7072 -38.7009 -38.6976 -38.6955 -38.6914 -38.6886 -38.6827 -38.6749
   -38.6715 -38.6614 -38.6613 -38.6538 -38.6513 -38.6328 -38.6281 -38.6253
   -17.8236 -17.8214 -17.8214 -17.8046 -17.8027 -17.8012 -17.7918 -17.7894
   -17.7853 -17.7465 -17.7463 -17.7387 -17.7195 -17.7121 -17.7117 -17.6718
   -17.6666 -17.6647 -17.6524 -17.6517 -17.6503 -17.6406 -17.6396 -17.6381
     4.2502   5.3498   5.5742   6.0785   6.4713   6.7906   8.1756   9.4617
    10.6170  10.7979  10.9385  11.0601  11.0668  11.2193  11.2854  11.3461
    11.4170  11.5992  11.6516  11.6537  11.6775  11.7075  11.7240  11.8533
    11.8667  11.8756  11.9878  12.0242  12.1024  12.1052  12.1905  12.2137
    12.2213  12.2277  12.2772  12.3159  12.3807  12.4338  12.4644  12.5069
    12.5411  12.5510  12.5842  12.5889  12.6530  12.7726  12.7791  12.8667
    12.8962  12.9098  12.9438  13.0237  13.0310  13.0778  13.1344  13.2311
    13.2486  13.2640  13.3575  13.4243  13.4439  13.4642  13.4835  13.5541
    13.5825  13.6345  13.6697  13.6853  13.7146  13.7646  13.7765  13.7947
    13.8818  13.8930  13.9142  13.9225  13.9235  13.9841  14.0269  14.0351
    14.0644  14.1270  14.2595  14.3666  14.3825  14.4072  14.6383  14.7314
    14.7700  14.8128  14.8715  14.9007  15.0709  15.2259  15.2280  15.3111
    15.5122  15.7086  15.7231  16.1120  16.1888  16.1966  16.2069  16.2234
    16.2451  16.2664  16.2757  16.3635  16.3894  16.4814  16.5006  16.5204
    16.5301  16.6211  16.6631  16.6817  16.7085  17.1918  17.3515  17.5066

          k = 0.0000 0.1928 0.3856 ( 48550 PWs)   bands (ev):

   -72.8774 -72.8253 -72.8251 -72.8251 -72.7474 -72.7400 -72.7329 -72.7193
   -72.7156 -72.7086 -72.7008 -72.6956 -72.6956 -72.6956 -72.6955 -72.6955
   -41.5492 -41.5178 -41.5119 -41.5076 -41.5035 -41.4957 -41.4899 -41.4845
   -39.2404 -39.1763 -39.1203 -39.0929 -39.0325 -39.0124 -38.9925 -38.9600
   -38.9478 -38.9378 -38.8970 -38.8868 -38.8852 -38.8725 -38.8701 -38.8588
   -38.8534 -38.8329 -38.8191 -38.8104 -38.8029 -38.7827 -38.7732 -38.7677
   -38.7544 -38.7497 -38.7451 -38.7426 -38.7374 -38.7336 -38.7291 -38.7117
   -38.7058 -38.7031 -38.6958 -38.6920 -38.6913 -38.6877 -38.6846 -38.6722
   -38.6704 -38.6685 -38.6580 -38.6563 -38.6483 -38.6404 -38.6314 -38.6279
   -17.8238 -17.8204 -17.8197 -17.8045 -17.8011 -17.7992 -17.7953 -17.7931
   -17.7795 -17.7604 -17.7468 -17.7445 -17.7132 -17.7109 -17.6974 -17.6780
   -17.6631 -17.6615 -17.6535 -17.6529 -17.6504 -17.6433 -17.6412 -17.6382
     4.4684   4.9574   5.5229   6.0352   6.5820   7.1821   8.0117   9.7264
    10.1813  10.7637  11.0157  11.1932  11.1983  11.2432  11.3079  11.3502
    11.3962  11.4082  11.4278  11.4519  11.5381  11.6219  11.7004  11.7791
    11.8211  11.8804  11.9425  11.9572  12.1832  12.1931  12.2273  12.2630
    12.2698  12.3020  12.3046  12.3190  12.3348  12.3840  12.4008  12.4426
    12.4653  12.4699  12.4864  12.6697  12.6882  12.7036  12.8322  12.8808
    12.8923  12.9093  12.9918  13.0755  13.2276  13.2617  13.2960  13.3181
    13.3449  13.3669  13.3907  13.4009  13.4357  13.4509  13.5115  13.5600
    13.5775  13.6024  13.6260  13.6428  13.6521  13.6707  13.7061  13.7568
    13.7710  13.7987  13.8316  13.8638  13.9684  13.9977  14.1331  14.1757
    14.2299  14.2496  14.3011  14.4673  14.4955  14.6032  14.6388  14.6693
    14.6868  14.7281  14.7567  14.8626  15.1829  15.2060  15.2797  15.3469
    15.7728  15.9245  15.9456  16.0563  16.0826  16.0891  16.1444  16.1629
    16.1658  16.1915  16.2038  16.2279  16.2576  16.3229  16.3360  16.3593
    16.3967  16.4536  16.7341  16.9220  16.9693  17.1473  17.1698  17.2408

          k = 0.0000 0.3856 0.3856 ( 48478 PWs)   bands (ev):

   -72.8773 -72.8253 -72.8252 -72.8251 -72.7445 -72.7404 -72.7378 -72.7195
   -72.7106 -72.7081 -72.7037 -72.6956 -72.6956 -72.6956 -72.6955 -72.6954
   -41.5491 -41.5160 -41.5133 -41.5113 -41.5019 -41.4918 -41.4899 -41.4867
   -39.2295 -39.1654 -39.1439 -39.1256 -39.0061 -38.9945 -38.9818 -38.9712
   -38.9385 -38.9248 -38.9055 -38.9001 -38.8954 -38.8737 -38.8678 -38.8650
   -38.8545 -38.8321 -38.8160 -38.8149 -38.7980 -38.7821 -38.7804 -38.7658
   -38.7515 -38.7476 -38.7443 -38.7393 -38.7364 -38.7344 -38.7258 -38.7207
   -38.7030 -38.7010 -38.6973 -38.6905 -38.6899 -38.6862 -38.6817 -38.6802
   -38.6687 -38.6635 -38.6596 -38.6551 -38.6484 -38.6461 -38.6327 -38.6261
   -17.8230 -17.8187 -17.8185 -17.8054 -17.7998 -17.7975 -17.7963 -17.7919
   -17.7768 -17.7618 -17.7612 -17.7561 -17.7019 -17.6966 -17.6954 -17.6815
   -17.6618 -17.6601 -17.6559 -17.6547 -17.6478 -17.6470 -17.6421 -17.6403
     4.6710   4.9625   5.1397   5.9204   7.0513   7.3184   7.7278   9.9847
    10.3666  10.4988  10.7959  10.9405  11.2704  11.3072  11.3141  11.3411
    11.3625  11.3849  11.3899  11.4167  11.4894  11.5189  11.5749  11.7044
    11.7547  11.7730  11.8011  11.9628  12.2090  12.2565  12.2936  12.3086
    12.3162  12.3307  12.3633  12.3943  12.3999  12.4473  12.4902  12.5372
    12.5710  12.6023  12.6217  12.6340  12.6496  12.7044  12.7263  12.7615
    12.8085  12.8247  12.9866  13.0226  13.0896  13.1518  13.1909  13.2353
    13.2646  13.3136  13.3811  13.3996  13.4451  13.4666  13.4804  13.5262
    13.5996  13.6125  13.6391  13.7516  13.7847  13.7982  13.8015  13.8125
    13.8539  13.8894  13.9310  13.9491  14.0141  14.0196  14.0341  14.2098
    14.2360  14.2600  14.2952  14.4492  14.4932  14.5118  14.5760  14.5985
    14.6170  14.7619  14.7681  14.8358  15.4945  15.5255  15.6228  15.6882
    15.8252  16.0011  16.0412  16.0515  16.0672  16.0743  16.0852  16.0878
    16.0915  16.1034  16.1262  16.1282  16.1563  16.2394  16.2472  16.2675
    16.3534  16.5312  16.5458  16.8189  16.9737  17.0635  17.2805  17.3068

          k = 0.1928 0.1928 0.1928 ( 48503 PWs)   bands (ev):

   -72.8774 -72.8252 -72.8251 -72.8251 -72.7494 -72.7350 -72.7350 -72.7193
   -72.7135 -72.7135 -72.6990 -72.6956 -72.6956 -72.6956 -72.6955 -72.6955
   -41.5493 -41.5181 -41.5093 -41.5093 -41.5031 -41.4941 -41.4941 -41.4828
   -39.2522 -39.1578 -39.1083 -39.1083 -39.0257 -39.0079 -39.0079 -38.9590
   -38.9462 -38.9462 -38.8906 -38.8906 -38.8802 -38.8694 -38.8694 -38.8560
   -38.8429 -38.8429 -38.8131 -38.8131 -38.8084 -38.7781 -38.7743 -38.7743
   -38.7549 -38.7508 -38.7508 -38.7395 -38.7370 -38.7370 -38.7192 -38.7192
   -38.7140 -38.7028 -38.6956 -38.6956 -38.6884 -38.6884 -38.6812 -38.6727
   -38.6727 -38.6660 -38.6558 -38.6540 -38.6540 -38.6336 -38.6336 -38.6230
   -17.8230 -17.8208 -17.8208 -17.8036 -17.8036 -17.7994 -17.7909 -17.7909
   -17.7862 -17.7493 -17.7490 -17.7490 -17.7092 -17.7089 -17.7089 -17.6714
   -17.6652 -17.6652 -17.6528 -17.6528 -17.6503 -17.6419 -17.6395 -17.6395
     4.3270   5.3534   5.3534   6.0025   6.7903   6.7903   8.1049   9.5501
    10.6105  10.8666  10.8666  10.9917  11.1042  11.1042  11.2911  11.3996
    11.3996  11.5163  11.6103  11.6103  11.6838  11.7089  11.7089  11.7470
    11.7470  11.7629  11.8317  11.9809  12.1302  12.1302  12.2484  12.2484
    12.2682  12.3289  12.3289  12.3933  12.3933  12.4240  12.4677  12.5312
    12.5312  12.5801  12.5891  12.5891  12.7618  12.7680  12.7680  12.7969
    12.7969  12.8426  13.0263  13.0263  13.0830  13.1236  13.1236  13.1686
    13.2181  13.2283  13.2283  13.5067  13.5067  13.5102  13.5455  13.5455
    13.6003  13.6003  13.6353  13.6462  13.6473  13.6473  13.8437  13.8437
    13.8530  13.9797  13.9797  14.0059  14.0059  14.0122  14.0304  14.0444
    14.0444  14.0729  14.3795  14.3795  14.4700  14.4766  14.4766  14.6845
    14.7574  14.7754  14.7754  15.1647  15.1647  15.3448  15.3587  15.3587
    15.4540  15.7742  15.7742  16.0540  16.0540  16.0822  16.2066  16.2087
    16.2087  16.2374  16.2374  16.4074  16.4074  16.4413  16.4972  16.5201
    16.5201  16.5435  16.6026  16.6139  16.6139  17.2859  17.2884  17.3667

          k = 0.1928 0.1928 0.3856 ( 48490 PWs)   bands (ev):

   -72.8773 -72.8253 -72.8251 -72.8251 -72.7465 -72.7400 -72.7350 -72.7194
   -72.7135 -72.7086 -72.7017 -72.6956 -72.6956 -72.6956 -72.6955 -72.6954
   -41.5492 -41.5172 -41.5124 -41.5093 -41.5027 -41.4940 -41.4900 -41.4852
   -39.2365 -39.1730 -39.1302 -39.1104 -39.0176 -38.9994 -38.9903 -38.9606
   -38.9460 -38.9342 -38.8992 -38.8923 -38.8901 -38.8738 -38.8688 -38.8633
   -38.8498 -38.8353 -38.8174 -38.8092 -38.8051 -38.7819 -38.7726 -38.7717
   -38.7533 -38.7498 -38.7441 -38.7404 -38.7383 -38.7335 -38.7280 -38.7125
   -38.7087 -38.7053 -38.6962 -38.6928 -38.6890 -38.6874 -38.6826 -38.6743
   -38.6699 -38.6679 -38.6623 -38.6524 -38.6459 -38.6389 -38.6370 -38.6237
   -17.8228 -17.8197 -17.8187 -17.8036 -17.8012 -17.7973 -17.7945 -17.7937
   -17.7811 -17.7627 -17.7530 -17.7529 -17.7048 -17.7048 -17.6952 -17.6765
   -17.6628 -17.6618 -17.6541 -17.6530 -17.6513 -17.6444 -17.6424 -17.6395
     4.5335   4.9728   5.3592   5.9796   6.7898   7.2190   7.9169   9.8151
    10.2630  10.7653  11.0501  11.0695  11.2171  11.2345  11.2963  11.3268
    11.3387  11.3803  11.4162  11.4464  11.4673  11.5508  11.6442  11.7146
    11.7606  11.7623  11.7854  11.9337  12.2138  12.2239  12.2967  12.2999
    12.3227  12.3427  12.3563  12.3707  12.3773  12.4104  12.4215  12.4664
    12.5059  12.5517  12.5697  12.6919  12.7175  12.7572  12.7748  12.7950
    12.8346  12.9497  13.0032  13.0141  13.0640  13.1678  13.2144  13.2160
    13.2835  13.3220  13.3552  13.3748  13.3819  13.3988  13.4625  13.5120
    13.5491  13.5516  13.6734  13.7140  13.7157  13.7544  13.8134  13.8277
    13.8853  13.8972  13.9144  13.9415  13.9684  14.0036  14.0574  14.1413
    14.1595  14.1771  14.3188  14.4161  14.5608  14.5744  14.6981  14.7209
    14.7908  14.7913  14.8176  15.1149  15.3109  15.3888  15.4021  15.4234
    15.7659  15.8684  15.9584  15.9655  16.0275  16.0425  16.0793  16.0898
    16.1139  16.1650  16.1872  16.2530  16.2897  16.3017  16.3213  16.3854
    16.4244  16.4404  16.7347  16.7766  16.7821  17.0692  17.1277  17.1821

          k = 0.1928 0.3856 0.3856 ( 48499 PWs)   bands (ev):

   -72.8773 -72.8252 -72.8252 -72.8251 -72.7440 -72.7404 -72.7386 -72.7195
   -72.7099 -72.7081 -72.7043 -72.6956 -72.6956 -72.6956 -72.6955 -72.6954
   -41.5491 -41.5157 -41.5133 -41.5120 -41.5017 -41.4912 -41.4899 -41.4871
   -39.2287 -39.1648 -39.1459 -39.1339 -38.9967 -38.9881 -38.9799 -38.9667
   -38.9365 -38.9253 -38.9066 -38.9012 -38.9001 -38.8743 -38.8709 -38.8690
   -38.8477 -38.8341 -38.8149 -38.8139 -38.8030 -38.7811 -38.7795 -38.7699
   -38.7544 -38.7456 -38.7444 -38.7395 -38.7380 -38.7330 -38.7247 -38.7198
   -38.7077 -38.7058 -38.6993 -38.6931 -38.6869 -38.6861 -38.6814 -38.6791
   -38.6691 -38.6682 -38.6598 -38.6524 -38.6429 -38.6419 -38.6354 -38.6214
   -17.8210 -17.8177 -17.8176 -17.8033 -17.7994 -17.7959 -17.7953 -17.7921
   -17.7804 -17.7662 -17.7657 -17.7622 -17.6961 -17.6925 -17.6915 -17.6779
   -17.6614 -17.6607 -17.6558 -17.6555 -17.6492 -17.6480 -17.6438 -17.6424
     4.7123   4.9670   5.0931   5.9097   7.1256   7.3119   7.6695  10.0639
    10.4334  10.5921  10.8412  11.0008  11.2452  11.2687  11.2959  11.3026
    11.3326  11.3361  11.3951  11.4041  11.4531  11.5041  11.5141  11.6161
    11.6180  11.6315  11.7019  11.8941  12.2424  12.2929  12.3003  12.3398
    12.3606  12.3867  12.4064  12.4381  12.4738  12.4793  12.5115  12.5438
    12.5765  12.6258  12.6718  12.6984  12.7042  12.7264  12.7494  12.8143
    12.8279  12.8421  12.8791  12.9811  12.9876  13.0252  13.0341  13.1584
    13.1661  13.1869  13.2799  13.3030  13.3144  13.3691  13.3721  13.4479
    13.6866  13.7300  13.7444  13.7939  13.8040  13.8168  13.8773  13.8774
    13.9162  13.9396  13.9415  13.9840  14.0067  14.0369  14.0416  14.0945
    14.1622  14.2158  14.2192  14.2719  14.6445  14.6880  14.7009  14.7896
    14.8627  15.0081  15.0198  15.1588  15.5874  15.6050  15.6894  15.7467
    15.7922  15.9196  15.9232  15.9450  15.9480  15.9763  15.9781  16.0067
    16.0067  16.1592  16.1673  16.1856  16.2303  16.2491  16.2779  16.2908
    16.3381  16.4919  16.4992  16.7081  16.8145  16.8780  16.9395  17.0601

          k = 0.3856 0.3856 0.3856 ( 48449 PWs)   bands (ev):

   -72.8773 -72.8252 -72.8252 -72.8252 -72.7425 -72.7404 -72.7404 -72.7195
   -72.7081 -72.7081 -72.7058 -72.6956 -72.6956 -72.6956 -72.6954 -72.6954
   -41.5492 -41.5149 -41.5134 -41.5134 -41.5014 -41.4898 -41.4898 -41.4882
   -39.2275 -39.1608 -39.1489 -39.1489 -38.9812 -38.9767 -38.9767 -38.9621
   -38.9265 -38.9265 -38.9107 -38.9061 -38.9061 -38.8762 -38.8762 -38.8758
   -38.8366 -38.8366 -38.8132 -38.8132 -38.8115 -38.7798 -38.7781 -38.7781
   -38.7586 -38.7439 -38.7427 -38.7427 -38.7308 -38.7308 -38.7191 -38.7191
   -38.7179 -38.7140 -38.7040 -38.7040 -38.6827 -38.6827 -38.6801 -38.6775
   -38.6733 -38.6733 -38.6521 -38.6521 -38.6369 -38.6367 -38.6367 -38.6172
   -17.8173 -17.8160 -17.8160 -17.7991 -17.7991 -17.7929 -17.7929 -17.7922
   -17.7846 -17.7740 -17.7736 -17.7736 -17.6861 -17.6854 -17.6854 -17.6737
   -17.6611 -17.6611 -17.6553 -17.6548 -17.6548 -17.6487 -17.6471 -17.6471
     4.8216   4.9741   4.9741   5.8958   7.3013   7.3013   7.5178  10.2512
    10.5892  10.8429  10.8429  11.0200  11.1885  11.2034  11.2034  11.2362
    11.2702  11.2702  11.3784  11.3784  11.3961  11.4775  11.4775  11.4775
    11.4840  11.4840  11.4978  11.7718  12.3242  12.3242  12.3791  12.3791
    12.3952  12.4416  12.4456  12.4456  12.5552  12.5797  12.5797  12.6785
    12.6785  12.7004  12.7004  12.7385  12.7523  12.7723  12.7723  12.7819
    12.8128  12.8128  12.8565  12.8966  12.8966  12.9059  12.9059  12.9287
    13.0705  13.0705  13.1216  13.1947  13.1990  13.1990  13.2478  13.2478
    13.8215  13.8215  13.8406  13.8406  13.8430  13.8460  13.9006  13.9006
    13.9562  13.9562  13.9661  13.9977  14.0787  14.0787  14.0956  14.1021
    14.1021  14.1170  14.1290  14.1290  14.9522  14.9522  14.9992  15.2061
    15.2318  15.2318  15.2456  15.4530  15.7491  15.7491  15.7508  15.7751
    15.7751  15.8252  15.8252  15.8710  15.9190  15.9190  15.9349  15.9598
    15.9598  16.1619  16.1632  16.1632  16.1969  16.1969  16.2306  16.2306
    16.2518  16.4216  16.4217  16.4249  16.6523  16.6523  16.6613  16.7175

 ------ SPIN DOWN ----------


          k = 0.0000 0.0000 0.0000 ( 48489 PWs)   bands (ev):

   -70.7380 -70.7102 -70.7102 -70.7018 -70.7018 -70.7018 -70.6742 -70.6742
   -70.6742 -70.6740 -70.6740 -70.6740 -70.6382 -70.5821 -70.5821 -70.5821
   -42.2777 -42.2636 -42.2559 -42.2559 -42.2457 -42.2457 -42.2457 -42.2272
   -37.3868 -37.1975 -37.1975 -37.1570 -37.1570 -37.1570 -37.0582 -36.9894
   -36.9894 -36.9894 -36.9611 -36.9611 -36.9611 -36.8170 -36.8170 -36.8170
   -36.7445 -36.7445 -36.7329 -36.7253 -36.7253 -36.7253 -36.7173 -36.7173
   -36.6971 -36.6971 -36.6971 -36.6935 -36.6935 -36.6935 -36.6730 -36.6614
   -36.6614 -36.6566 -36.6566 -36.6566 -36.6474 -36.6474 -36.6474 -36.6059
   -36.6059 -36.6059 -36.5888 -36.5888 -36.5888 -36.5533 -36.5533 -36.5533
   -18.5639 -18.5639 -18.5639 -18.5570 -18.5570 -18.5570 -18.5373 -18.5373
   -18.5373 -18.4834 -18.4834 -18.4834 -18.4714 -18.4714 -18.4692 -18.4144
   -18.4144 -18.4144 -18.3945 -18.3945 -18.3945 -18.3883 -18.3883 -18.3883
     4.4024   6.2922   6.2922   6.4439   6.4439   6.4439   8.5042   9.5185
    11.1033  11.4992  11.4992  11.5342  11.5342  11.5342  11.9606  11.9606
    11.9606  12.2796  12.5181  12.5181  12.5261  12.5261  12.5261  13.0013
    13.0013  13.0013  13.0027  13.0027  13.0027  13.0986  13.0986  13.0986
    13.1680  13.2296  13.2296  13.2296  13.2489  13.2489  13.2489  13.4677
    13.4677  13.7509  13.7509  13.7509  13.7615  13.7648  13.7648  13.9220
    13.9220  13.9275  13.9569  13.9569  13.9569  13.9614  13.9614  13.9614
    14.0047  14.0047  14.0047  14.0647  14.0647  14.3775  14.3775  14.3775
    14.5698  14.5698  14.5698  14.6081  14.6081  14.6081  15.1882  15.1882
    15.1882  15.4725  15.4725  15.4725  15.6107  15.6107  15.6107  15.7723
    15.7723  15.7848  15.7848  15.8048  15.8048  15.8048  15.8134  15.8259
    15.9069  15.9069  15.9069  15.9251  15.9252  16.1300  16.1300  16.1301
    16.5199  16.5199  16.5199  16.5835  16.5835  16.5835  16.6186  16.6187
    16.6188  17.0543  17.0561  17.0568  17.0652  17.0709  17.0743  17.1514
    17.1745  17.1745  17.1745  17.1828  17.1833  17.2891  17.2891  17.2891

          k = 0.0000 0.0000 0.1928 ( 48469 PWs)   bands (ev):

   -70.7366 -70.7161 -70.7102 -70.7018 -70.7018 -70.6961 -70.6754 -70.6742
   -70.6741 -70.6741 -70.6740 -70.6740 -70.6380 -70.5822 -70.5821 -70.5821
   -42.2768 -42.2646 -42.2582 -42.2559 -42.2457 -42.2457 -42.2422 -42.2283
   -37.3767 -37.2390 -37.1973 -37.1566 -37.1566 -37.1250 -37.0528 -36.9947
   -36.9875 -36.9875 -36.9635 -36.9635 -36.9617 -36.8194 -36.8194 -36.8185
   -36.7447 -36.7417 -36.7334 -36.7275 -36.7268 -36.7268 -36.7188 -36.7120
   -36.6981 -36.6956 -36.6956 -36.6916 -36.6911 -36.6911 -36.6818 -36.6657
   -36.6644 -36.6545 -36.6545 -36.6450 -36.6450 -36.6423 -36.6400 -36.6087
   -36.6073 -36.6073 -36.5929 -36.5907 -36.5907 -36.5551 -36.5543 -36.5543
   -18.5642 -18.5631 -18.5631 -18.5573 -18.5561 -18.5561 -18.5397 -18.5397
   -18.5343 -18.4957 -18.4831 -18.4831 -18.4711 -18.4697 -18.4580 -18.4177
   -18.4119 -18.4119 -18.3954 -18.3954 -18.3944 -18.3892 -18.3892 -18.3882
     4.4907   5.7700   6.2955   6.4475   6.4475   6.9644   8.4725   9.5772
    10.7781  11.2520  11.5178  11.5439  11.5439  11.8318  12.0117  12.0117
    12.0489  12.2086  12.3757  12.3917  12.4129  12.4129  12.7228  12.7228
    12.8109  12.9593  12.9759  12.9858  12.9858  13.0196  13.1346  13.1346
    13.1857  13.2768  13.2787  13.2787  13.3082  13.4792  13.4792  13.4847
    13.5060  13.6860  13.7143  13.7143  13.7537  13.7643  13.8414  13.8414
    13.8634  13.8841  13.9725  13.9737  13.9803  14.0113  14.0113  14.0375
    14.0513  14.0804  14.0856  14.0856  14.1065  14.2190  14.3285  14.3285
    14.5931  14.6318  14.6318  14.6395  14.7742  14.7742  15.1966  15.1981
    15.1981  15.3211  15.3619  15.3619  15.4158  15.5789  15.6295  15.6295
    15.7077  15.7643  15.7904  15.8949  15.8993  15.9158  15.9159  16.0020
    16.0138  16.0300  16.0346  16.0347  16.1192  16.1192  16.1264  16.1888
    16.4899  16.4899  16.5010  16.5011  16.5429  16.5586  16.5591  16.5782
    16.6558  16.8618  16.9118  16.9511  16.9667  16.9723  16.9730  17.0078
    17.0575  17.0584  17.1316  17.1381  17.1453  17.3283  17.3782  17.4532

          k = 0.0000 0.0000 0.3856 ( 48538 PWs)   bands (ev):

   -70.7330 -70.7234 -70.7102 -70.7018 -70.7018 -70.6892 -70.6787 -70.6741
   -70.6741 -70.6741 -70.6740 -70.6740 -70.6376 -70.5823 -70.5821 -70.5821
   -42.2746 -42.2675 -42.2600 -42.2559 -42.2457 -42.2457 -42.2366 -42.2315
   -37.3498 -37.2908 -37.1969 -37.1560 -37.1560 -37.1014 -37.0356 -37.0094
   -36.9830 -36.9830 -36.9687 -36.9687 -36.9628 -36.8233 -36.8233 -36.8209
   -36.7451 -36.7356 -36.7331 -36.7305 -36.7288 -36.7288 -36.7215 -36.7035
   -36.7003 -36.6951 -36.6937 -36.6937 -36.6875 -36.6875 -36.6866 -36.6764
   -36.6559 -36.6513 -36.6513 -36.6399 -36.6399 -36.6314 -36.6264 -36.6149
   -36.6095 -36.6095 -36.6024 -36.5947 -36.5947 -36.5582 -36.5558 -36.5558
   -18.5647 -18.5623 -18.5623 -18.5578 -18.5523 -18.5523 -18.5456 -18.5456
   -18.5263 -18.5107 -18.4827 -18.4827 -18.4707 -18.4692 -18.4421 -18.4267
   -18.4059 -18.4059 -18.3994 -18.3994 -18.3944 -18.3903 -18.3903 -18.3882
     4.7262   5.2707   6.3009   6.4535   6.4535   7.4135   8.3698   9.7896
    10.2324  11.3004  11.5556  11.5624  11.5624  11.6233  12.1246  12.1598
    12.1598  12.1641  12.2200  12.2668  12.2668  12.4114  12.4114  12.5824
    12.8272  12.8875  12.9175  12.9175  12.9212  13.1328  13.2431  13.2431
    13.2761  13.3598  13.3623  13.3623  13.3787  13.4245  13.4245  13.5064
    13.6079  13.6471  13.6471  13.6547  13.7200  13.7411  13.7421  13.8388
    13.9679  13.9679  13.9926  14.0300  14.0416  14.0446  14.0528  14.0783
    14.0783  14.1378  14.1891  14.1891  14.2708  14.3124  14.3361  14.3361
    14.5181  14.5694  14.5929  14.5929  15.0042  15.0042  15.1556  15.1556
    15.1783  15.2059  15.2286  15.2286  15.2933  15.4007  15.6813  15.7192
    15.8176  15.8619  15.8619  15.9145  16.0943  16.0943  16.1009  16.1009
    16.1031  16.1133  16.2086  16.2131  16.2131  16.2221  16.3231  16.3276
    16.3276  16.3628  16.3790  16.3790  16.4569  16.4570  16.4574  16.4826
    16.6599  16.7168  16.7258  16.7873  16.7874  16.8364  17.0098  17.0388
    17.0780  17.0787  17.0957  17.1145  17.1158  17.1167  17.2323  17.2528

          k = 0.0000 0.1928 0.1928 ( 48486 PWs)   bands (ev):

   -70.7353 -70.7175 -70.7140 -70.7019 -70.6982 -70.6945 -70.6767 -70.6741
   -70.6741 -70.6741 -70.6740 -70.6740 -70.6378 -70.5822 -70.5821 -70.5821
   -42.2760 -42.2650 -42.2595 -42.2573 -42.2454 -42.2429 -42.2421 -42.2294
   -37.3672 -37.2471 -37.2255 -37.1626 -37.1349 -37.1095 -37.0491 -36.9988
   -36.9871 -36.9855 -36.9666 -36.9653 -36.9626 -36.8215 -36.8208 -36.8208
   -36.7431 -36.7404 -36.7333 -36.7289 -36.7274 -36.7254 -36.7153 -36.7153
   -36.7058 -36.6975 -36.6923 -36.6919 -36.6883 -36.6835 -36.6773 -36.6756
   -36.6666 -36.6510 -36.6490 -36.6456 -36.6456 -36.6373 -36.6331 -36.6121
   -36.6088 -36.6064 -36.5977 -36.5926 -36.5906 -36.5567 -36.5553 -36.5541
   -18.5648 -18.5622 -18.5618 -18.5568 -18.5561 -18.5546 -18.5422 -18.5392
   -18.5342 -18.4962 -18.4958 -18.4882 -18.4650 -18.4575 -18.4570 -18.4181
   -18.4123 -18.4096 -18.3967 -18.3961 -18.3946 -18.3909 -18.3899 -18.3882
     4.5753   5.6951   5.9184   6.4200   6.7983   7.1099   8.4182   9.6424
    10.7506  10.9342  11.3635  11.4945  11.7714  11.9647  12.0395  12.0493
    12.0970  12.1572  12.2538  12.2960  12.4324  12.4451  12.4816  12.6577
    12.6889  12.7385  12.8960  13.0621  13.0687  13.1526  13.1715  13.2087
    13.2398  13.3086  13.3107  13.3988  13.4215  13.4888  13.4917  13.5199
    13.5282  13.6531  13.6567  13.6746  13.8226  13.8363  13.8577  13.8802
    13.9031  13.9090  13.9110  13.9268  13.9538  13.9623  14.0228  14.0426
    14.0640  14.0899  14.0906  14.1044  14.1332  14.1428  14.2301  14.3178
    14.6765  14.7294  14.7892  14.7944  14.8269  14.8294  15.1842  15.2185
    15.2229  15.2471  15.3048  15.3685  15.3752  15.4674  15.4979  15.7493
    15.7600  15.7748  15.7964  15.8275  15.8276  15.9803  15.9899  16.0781
    16.0824  16.0988  16.1099  16.1139  16.1582  16.1945  16.2019  16.2493
    16.3858  16.4070  16.4881  16.4920  16.5089  16.5153  16.5267  16.5770
    16.6421  16.8151  16.8334  16.8339  16.9138  16.9820  16.9932  16.9987
    17.0134  17.0436  17.0469  17.1105  17.1302  17.1391  17.1868  17.2836

          k = 0.0000 0.1928 0.3856 ( 48550 PWs)   bands (ev):

   -70.7318 -70.7233 -70.7150 -70.7021 -70.6971 -70.6890 -70.6800 -70.6741
   -70.6741 -70.6741 -70.6740 -70.6739 -70.6376 -70.5823 -70.5821 -70.5821
   -42.2741 -42.2669 -42.2612 -42.2580 -42.2445 -42.2433 -42.2372 -42.2323
   -37.3419 -37.2887 -37.2312 -37.1695 -37.1226 -37.0869 -37.0356 -37.0138
   -36.9831 -36.9814 -36.9723 -36.9700 -36.9640 -36.8248 -36.8246 -36.8230
   -36.7426 -36.7354 -36.7321 -36.7302 -36.7276 -36.7261 -36.7200 -36.7083
   -36.7059 -36.7007 -36.6969 -36.6957 -36.6852 -36.6818 -36.6773 -36.6723
   -36.6618 -36.6500 -36.6489 -36.6420 -36.6395 -36.6334 -36.6236 -36.6166
   -36.6108 -36.6082 -36.6021 -36.5965 -36.5938 -36.5578 -36.5569 -36.5556
   -18.5651 -18.5625 -18.5596 -18.5547 -18.5538 -18.5510 -18.5479 -18.5442
   -18.5269 -18.5116 -18.4961 -18.4939 -18.4589 -18.4564 -18.4410 -18.4261
   -18.4072 -18.4040 -18.4005 -18.3985 -18.3965 -18.3931 -18.3904 -18.3883
     4.8022   5.2981   5.8718   6.3770   6.9063   7.4839   8.2675   9.8606
    10.2971  10.9905  11.2367  11.4182  11.8242  11.9419  12.0484  12.1229
    12.1484  12.1798  12.2306  12.2627  12.3253  12.3410  12.3965  12.4840
    12.5870  12.6303  12.7020  13.1437  13.2029  13.2233  13.2724  13.3342
    13.3502  13.3708  13.3979  13.4239  13.4388  13.4444  13.5341  13.5441
    13.5784  13.5879  13.6217  13.6761  13.7367  13.7791  13.8238  13.8642
    13.8884  13.9133  13.9386  13.9470  13.9664  14.0168  14.0753  14.0927
    14.1013  14.1171  14.1404  14.1484  14.1735  14.2098  14.2383  14.2763
    14.7564  14.7759  14.7987  14.8280  15.0295  15.0544  15.1321  15.1654
    15.1847  15.2316  15.2589  15.2895  15.3168  15.3827  15.6351  15.6852
    15.7281  15.7532  15.8990  15.9695  16.0057  16.0533  16.0938  16.1006
    16.1432  16.1501  16.1898  16.2133  16.2363  16.2806  16.3091  16.3356
    16.3420  16.3489  16.3557  16.3876  16.4239  16.4461  16.5165  16.5355
    16.5702  16.7001  16.7363  16.7616  16.8223  16.8724  16.9040  16.9261
    16.9630  17.0009  17.0054  17.0287  17.0576  17.1112  17.1554  17.2792

          k = 0.0000 0.3856 0.3856 ( 48478 PWs)   bands (ev):

   -70.7285 -70.7237 -70.7208 -70.7026 -70.6912 -70.6882 -70.6834 -70.6741
   -70.6741 -70.6741 -70.6740 -70.6739 -70.6374 -70.5822 -70.5822 -70.5822
   -42.2730 -42.2656 -42.2632 -42.2612 -42.2420 -42.2394 -42.2383 -42.2348
   -37.3198 -37.2890 -37.2699 -37.1859 -37.0847 -37.0677 -37.0392 -37.0246
   -36.9828 -36.9778 -36.9776 -36.9731 -36.9665 -36.8271 -36.8268 -36.8263
   -36.7376 -36.7337 -36.7293 -36.7283 -36.7268 -36.7230 -36.7220 -36.7106
   -36.7087 -36.7058 -36.7046 -36.6998 -36.6790 -36.6749 -36.6729 -36.6696
   -36.6661 -36.6537 -36.6439 -36.6411 -36.6376 -36.6324 -36.6253 -36.6207
   -36.6086 -36.6064 -36.6035 -36.5977 -36.5957 -36.5586 -36.5565 -36.5554
   -18.5637 -18.5609 -18.5579 -18.5538 -18.5536 -18.5495 -18.5483 -18.5437
   -18.5245 -18.5129 -18.5109 -18.5060 -18.4466 -18.4412 -18.4397 -18.4288
   -18.4072 -18.4027 -18.4016 -18.3993 -18.3976 -18.3956 -18.3918 -18.3899
     5.0119   5.3096   5.4888   6.2588   7.3558   7.6121   7.9994  10.0701
    10.4396  10.5762  10.8506  11.4484  12.0097  12.0612  12.1032  12.1576
    12.1601  12.1708  12.1804  12.2064  12.2349  12.2724  12.3106  12.3821
    12.4383  12.4877  12.5036  13.1840  13.3478  13.3838  13.4073  13.4185
    13.4339  13.4631  13.4972  13.5128  13.5316  13.5517  13.5744  13.5829
    13.6211  13.6345  13.6421  13.6429  13.7258  13.7419  13.7648  13.7927
    13.8058  13.8145  13.8333  13.8763  13.8820  13.8933  13.9449  13.9779
    14.1229  14.1472  14.1497  14.2327  14.2435  14.2484  14.2834  14.2952
    15.0088  15.0255  15.0338  15.0498  15.0740  15.1125  15.1244  15.1456
    15.2109  15.2718  15.2747  15.3388  15.4094  15.4794  15.4850  15.5180
    15.6406  15.7080  15.7504  15.9526  15.9961  16.0180  16.0783  16.1427
    16.1925  16.2079  16.2147  16.2233  16.2397  16.2592  16.2909  16.3028
    16.3125  16.3900  16.3928  16.4213  16.4225  16.4620  16.4820  16.5042
    16.5432  16.5588  16.7094  16.7298  16.7686  16.8249  16.8324  16.8661
    16.9395  16.9755  16.9934  17.0110  17.0172  17.1333  17.2020  17.4171

          k = 0.1928 0.1928 0.1928 ( 48503 PWs)   bands (ev):

   -70.7340 -70.7175 -70.7175 -70.7022 -70.6945 -70.6945 -70.6780 -70.6741
   -70.6741 -70.6741 -70.6740 -70.6740 -70.6377 -70.5822 -70.5821 -70.5821
   -42.2752 -42.2653 -42.2595 -42.2595 -42.2434 -42.2421 -42.2421 -42.2303
   -37.3585 -37.2476 -37.2476 -37.1726 -37.1076 -37.1076 -37.0455 -37.0018
   -36.9858 -36.9858 -36.9695 -36.9653 -36.9653 -36.8228 -36.8228 -36.8228
   -36.7401 -36.7401 -36.7326 -36.7278 -36.7278 -36.7258 -36.7142 -36.7142
   -36.7101 -36.6977 -36.6977 -36.6924 -36.6801 -36.6801 -36.6756 -36.6756
   -36.6739 -36.6526 -36.6526 -36.6431 -36.6358 -36.6336 -36.6336 -36.6125
   -36.6125 -36.6040 -36.6021 -36.5922 -36.5922 -36.5570 -36.5570 -36.5532
   -18.5637 -18.5617 -18.5617 -18.5560 -18.5560 -18.5528 -18.5411 -18.5411
   -18.5352 -18.4989 -18.4986 -18.4986 -18.4546 -18.4546 -18.4540 -18.4176
   -18.4103 -18.4103 -18.3977 -18.3977 -18.3943 -18.3922 -18.3897 -18.3897
     4.6554   5.7014   5.7014   6.3417   7.1067   7.1067   8.3512   9.7124
    10.7361  10.9741  10.9741  11.5719  11.9556  11.9556  12.0126  12.0209
    12.0209  12.2035  12.2097  12.2097  12.4171  12.4417  12.4417  12.5634
    12.5868  12.5868  12.7827  13.1147  13.2065  13.2065  13.2421  13.2421
    13.2558  13.4194  13.4194  13.4379  13.4790  13.4790  13.4901  13.5451
    13.5451  13.6962  13.7055  13.7055  13.8223  13.8381  13.8381  13.8471
    13.8556  13.8556  13.9155  13.9155  13.9284  13.9802  14.0003  14.0003
    14.0389  14.0430  14.0430  14.1159  14.1159  14.1586  14.2844  14.2844
    14.8564  14.8564  14.8717  14.8787  14.8864  14.8864  15.2129  15.2129
    15.2683  15.3201  15.3201  15.3258  15.3706  15.3981  15.3981  15.7344
    15.7344  15.8223  15.8223  15.8653  15.8683  15.8867  15.8867  16.1083
    16.1739  16.1739  16.1764  16.1895  16.1895  16.2378  16.2817  16.2817
    16.3813  16.3813  16.3815  16.4377  16.4377  16.4819  16.4820  16.4891
    16.7875  16.7875  16.7931  16.8198  16.8553  16.8553  16.8819  16.9479
    16.9482  17.0761  17.0987  17.0999  17.1010  17.1465  17.1489  17.2001

          k = 0.1928 0.1928 0.3856 ( 48490 PWs)   bands (ev):

   -70.7308 -70.7233 -70.7175 -70.7023 -70.6945 -70.6889 -70.6811 -70.6741
   -70.6741 -70.6741 -70.6740 -70.6739 -70.6375 -70.5822 -70.5822 -70.5821
   -42.2736 -42.2665 -42.2619 -42.2595 -42.2431 -42.2421 -42.2376 -42.2331
   -37.3351 -37.2879 -37.2485 -37.1772 -37.1044 -37.0785 -37.0350 -37.0155
   -36.9828 -36.9821 -36.9746 -36.9715 -36.9661 -36.8260 -36.8259 -36.8248
   -36.7398 -36.7342 -36.7316 -36.7284 -36.7272 -36.7238 -36.7193 -36.7100
   -36.7081 -36.7024 -36.6990 -36.6983 -36.6845 -36.6768 -36.6760 -36.6718
   -36.6641 -36.6535 -36.6512 -36.6435 -36.6402 -36.6286 -36.6249 -36.6159
   -36.6149 -36.6039 -36.6029 -36.5953 -36.5938 -36.5576 -36.5570 -36.5543
   -18.5636 -18.5619 -18.5580 -18.5534 -18.5533 -18.5504 -18.5462 -18.5457
   -18.5288 -18.5139 -18.5025 -18.5024 -18.4505 -18.4499 -18.4388 -18.4244
   -18.4057 -18.4055 -18.4006 -18.3998 -18.3973 -18.3945 -18.3913 -18.3896
     4.8705   5.3174   5.7119   6.3212   7.1014   7.5139   8.1733   9.9302
    10.3646  10.9358  11.0559  11.4286  11.7846  11.8888  12.0487  12.1328
    12.1395  12.2153  12.2160  12.2353  12.3128  12.3179  12.3603  12.4232
    12.4763  12.5192  12.5900  13.1403  13.3274  13.3348  13.3408  13.3931
    13.3975  13.4331  13.4361  13.4708  13.4791  13.4943  13.5616  13.5844
    13.6130  13.6291  13.6449  13.7072  13.7135  13.7956  13.8027  13.8255
    13.8606  13.8728  13.9024  13.9160  13.9248  13.9583  14.0176  14.0454
    14.0485  14.0604  14.0981  14.1472  14.1646  14.2275  14.2291  14.2939
    14.8981  14.9174  14.9596  14.9854  15.0730  15.1103  15.1809  15.1983
    15.2324  15.2462  15.3067  15.3530  15.3816  15.4165  15.5681  15.6604
    15.7362  15.7752  15.7929  15.9089  15.9209  15.9932  16.0010  16.0348
    16.1600  16.1885  16.2330  16.2487  16.2619  16.2955  16.3046  16.3137
    16.3341  16.3500  16.3783  16.3837  16.4410  16.4652  16.4840  16.4919
    16.5891  16.5987  16.6607  16.6924  16.7628  16.7803  16.8003  16.8963
    16.9020  16.9263  17.0562  17.0679  17.0980  17.1653  17.1816  17.2402

          k = 0.1928 0.3856 0.3856 ( 48499 PWs)   bands (ev):

   -70.7279 -70.7237 -70.7216 -70.7026 -70.6903 -70.6882 -70.6840 -70.6741
   -70.6741 -70.6741 -70.6740 -70.6739 -70.6374 -70.5822 -70.5822 -70.5822
   -42.2728 -42.2654 -42.2633 -42.2619 -42.2414 -42.2392 -42.2383 -42.2353
   -37.3164 -37.2899 -37.2766 -37.1872 -37.0761 -37.0640 -37.0390 -37.0209
   -36.9831 -36.9802 -36.9790 -36.9745 -36.9696 -36.8282 -36.8280 -36.8276
   -36.7343 -36.7321 -36.7292 -36.7264 -36.7253 -36.7226 -36.7211 -36.7102
   -36.7088 -36.7057 -36.7045 -36.7000 -36.6799 -36.6765 -36.6728 -36.6703
   -36.6683 -36.6572 -36.6515 -36.6487 -36.6390 -36.6303 -36.6227 -36.6205
   -36.6119 -36.6017 -36.6010 -36.5946 -36.5944 -36.5571 -36.5556 -36.5542
   -18.5612 -18.5589 -18.5564 -18.5529 -18.5515 -18.5490 -18.5477 -18.5443
   -18.5285 -18.5175 -18.5157 -18.5124 -18.4404 -18.4367 -18.4353 -18.4252
   -18.4066 -18.4030 -18.4021 -18.4014 -18.3980 -18.3973 -18.3937 -18.3922
     5.0567   5.3177   5.4462   6.2506   7.4160   7.5948   7.9330  10.1166
    10.4970  10.6588  10.8717  11.4233  11.7982  11.9340  12.0246  12.0766
    12.1311  12.1701  12.1961  12.2149  12.2417  12.2621  12.2734  12.3377
    12.3825  12.4308  12.4487  13.1499  13.4324  13.4597  13.4728  13.4857
    13.4929  13.5132  13.5384  13.5409  13.5530  13.5948  13.5989  13.6235
    13.6347  13.6370  13.6559  13.6808  13.7259  13.7562  13.7600  13.7783
    13.7845  13.8242  13.8267  13.8496  13.8554  13.8794  13.9282  13.9636
    14.0755  14.1091  14.1092  14.1436  14.2191  14.2411  14.2588  14.2901
    15.0969  15.1115  15.1391  15.1661  15.1740  15.2038  15.2250  15.2382
    15.3300  15.3593  15.3986  15.4435  15.4869  15.5209  15.5280  15.6029
    15.6266  15.6861  15.7332  15.8186  15.8829  15.8910  16.0141  16.0393
    16.0819  16.0832  16.1706  16.1736  16.2245  16.2730  16.2741  16.2884
    16.3096  16.3603  16.3726  16.3889  16.3983  16.4191  16.4393  16.4651
    16.5373  16.5417  16.6052  16.6541  16.7530  16.8505  16.8847  16.8915
    16.9052  16.9580  16.9877  17.0277  17.0915  17.1694  17.1732  17.2739

          k = 0.3856 0.3856 0.3856 ( 48449 PWs)   bands (ev):

   -70.7262 -70.7237 -70.7237 -70.7026 -70.6882 -70.6882 -70.6857 -70.6741
   -70.6741 -70.6741 -70.6739 -70.6739 -70.6374 -70.5822 -70.5822 -70.5822
   -42.2726 -42.2647 -42.2633 -42.2633 -42.2406 -42.2382 -42.2382 -42.2365
   -37.3068 -37.2913 -37.2913 -37.1894 -37.0575 -37.0575 -37.0417 -37.0163
   -36.9835 -36.9835 -36.9826 -36.9756 -36.9756 -36.8298 -36.8298 -36.8298
   -36.7303 -36.7281 -36.7281 -36.7240 -36.7240 -36.7228 -36.7209 -36.7073
   -36.7073 -36.7053 -36.7014 -36.7014 -36.6779 -36.6779 -36.6742 -36.6717
   -36.6717 -36.6642 -36.6642 -36.6608 -36.6356 -36.6356 -36.6193 -36.6173
   -36.6173 -36.5962 -36.5956 -36.5923 -36.5923 -36.5543 -36.5543 -36.5529
   -18.5548 -18.5548 -18.5548 -18.5500 -18.5500 -18.5459 -18.5459 -18.5456
   -18.5343 -18.5258 -18.5243 -18.5243 -18.4293 -18.4279 -18.4279 -18.4207
   -18.4054 -18.4054 -18.4034 -18.4034 -18.4003 -18.3991 -18.3974 -18.3974
     5.1738   5.3310   5.3310   6.2406   7.5669   7.5669   7.7723  10.1956
    10.6445  10.8338  10.8338  11.3887  11.6493  11.6493  11.8267  12.1108
    12.1195  12.1195  12.1639  12.1639  12.1833  12.2029  12.2029  12.2559
    12.3742  12.3742  12.3915  13.1061  13.5499  13.5499  13.5541  13.5764
    13.5764  13.5985  13.6022  13.6022  13.6119  13.6182  13.6182  13.6513
    13.6553  13.6553  13.7018  13.7018  13.7066  13.7114  13.7384  13.7384
    13.8079  13.8079  13.8292  13.8383  13.8383  13.8518  13.8694  13.8694
    14.0817  14.0979  14.0979  14.1640  14.1640  14.2227  14.2426  14.2426
    15.2860  15.2860  15.3116  15.3515  15.3515  15.3821  15.3984  15.3984
    15.4631  15.4631  15.5100  15.6368  15.6593  15.6593  15.6763  15.6904
    15.6904  15.7314  15.7342  15.7342  15.7867  15.7867  15.7932  15.8503
    15.8503  15.9471  15.9506  15.9506  16.0739  16.2019  16.2020  16.2048
    16.2602  16.2602  16.2891  16.3065  16.3066  16.3109  16.3573  16.3574
    16.5767  16.5767  16.5867  16.8298  16.8699  16.8702  16.9060  16.9299
    16.9300  16.9515  16.9695  16.9721  17.0249  17.0818  17.1156  17.5011

     the Fermi energy is    15.2959 ev

!    total energy              =   -6230.59923664 Ry
     estimated scf accuracy    <          2.3E-09 Ry
     smearing contrib. (-TS)   =       0.00080161 Ry
     internal energy E=F+TS    =   -6230.60003825 Ry

     The total energy is F=E-TS. E is the sum of the following terms:
     one-electron contribution =   -2576.55343128 Ry
     hartree contribution      =    1468.63541158 Ry
     xc contribution           =    -706.48745418 Ry
     ewald contribution        =   -3197.71782639 Ry
     one-center paw contrib.   =   -1218.47673798 Ry

     total magnetization       =    19.61 Bohr mag/cell
     absolute magnetization    =    38.17 Bohr mag/cell

     convergence has been achieved in  22 iterations

     negative rho (up, down):  7.033E-03 1.163E-03

     Forces acting on atoms (cartesian axes, Ry/au):

     atom    1 type  1   force =     0.00341614    0.00341614    0.00067540
     atom    2 type  1   force =    -0.00955434   -0.00955434   -0.00955434
     atom    3 type  1   force =    -0.00341614    0.00067540   -0.00341614
     atom    4 type  1   force =    -0.00067540   -0.00341614    0.00341614
     atom    5 type  1   force =     0.00341614    0.00067540    0.00341614
     atom    6 type  1   force =     0.00067540    0.00341614    0.00341614
     atom    7 type  1   force =    -0.00341614   -0.00067540    0.00341614
     atom    8 type  1   force =     0.00955434   -0.00955434    0.00955434
     atom    9 type  1   force =    -0.00955434    0.00955434    0.00955434
     atom   10 type  1   force =     0.00067540   -0.00341614   -0.00341614
     atom   11 type  1   force =    -0.00067540    0.00341614   -0.00341614
     atom   12 type  1   force =    -0.00341614   -0.00341614    0.00067540
     atom   13 type  1   force =     0.00955434    0.00955434   -0.00955434
     atom   14 type  1   force =    -0.00341614    0.00341614   -0.00067540
     atom   15 type  1   force =     0.00341614   -0.00067540   -0.00341614
     atom   16 type  1   force =     0.00341614   -0.00341614   -0.00067540
     atom   17 type  2   force =     0.00000000    0.00000000    0.00000000
     atom   18 type  2   force =    -0.00093584   -0.00093584    0.00093584
     atom   19 type  2   force =     0.00000000    0.00000000    0.00000000
     atom   20 type  2   force =    -0.00093584    0.00093584   -0.00093584
     atom   21 type  2   force =     0.00000000    0.00000000    0.00000000
     atom   22 type  2   force =     0.00093584    0.00093584    0.00093584
     atom   23 type  2   force =     0.00093584   -0.00093584   -0.00093584
     atom   24 type  2   force =     0.00000000    0.00000000    0.00000000
     atom   25 type  3   force =     0.01236212    0.01236212   -0.01236212
     atom   26 type  3   force =     0.00000000    0.00000000    0.00000000
     atom   27 type  3   force =     0.01236212   -0.01236212    0.01236212
     atom   28 type  3   force =     0.00000000    0.00000000    0.00000000
     atom   29 type  3   force =    -0.01236212   -0.01236212   -0.01236212
     atom   30 type  3   force =    -0.01236212    0.01236212    0.01236212
     atom   31 type  3   force =     0.00000000    0.00000000    0.00000000

     Total force =     0.056792     Total SCF correction =     0.000174


     Computing stress (Cartesian axis) and pressure


     negative rho (up, down):  7.033E-03 1.163E-03
          total   stress  (Ry/bohr**3)                   (kbar)     P=       10.40
   0.00007070   0.00000000   0.00000000           10.40        0.00        0.00
   0.00000000   0.00007070   0.00000000            0.00       10.40        0.00
   0.00000000   0.00000000   0.00007070            0.00        0.00       10.40

     Energy error            =      2.0E-01 Ry
     Gradient error          =      1.2E-02 Ry/Bohr
     Cell gradient error     =      1.0E+01 kbar

     number of scf cycles    =   2
     number of bfgs steps    =   1

     enthalpy           old  =   -6230.3964107048 Ry
     enthalpy           new  =   -6230.5992366376 Ry

     CASE: enthalpy          _new < enthalpy          _old

     new trust radius        =       0.0245538958 bohr
     new conv_thr            =       0.0000000012 Ry

     new unit-cell volume =   2338.77761 a.u.^3 (   346.57109 Ang^3 )
     density =      6.14972 g/cm^3

CELL_PARAMETERS (alat= 12.76591255)
   1.039787146   0.000000000   0.000000000
   0.000000000   1.039787146   0.000000000
   0.000000000   0.000000000   1.039787146

ATOMIC_POSITIONS (crystal)
Fe               0.1253136203        0.1253136203        0.6247880245
Fe               0.6185859809        0.6185859809        0.6185859809
Fe               0.8746863797        0.6247880245        0.8746863797
Fe               0.3752119755        0.8746863797        0.1253136203
Fe               0.1253136203        0.6247880245        0.1253136203
Fe               0.6247880245        0.1253136203        0.1253136203
Fe               0.8746863797        0.3752119755        0.1253136203
Fe               0.3814140191        0.6185859809        0.3814140191
Fe               0.6185859809        0.3814140191        0.3814140191
Fe               0.6247880245        0.8746863797        0.8746863797
Fe               0.3752119755        0.1253136203        0.8746863797
Fe               0.8746863797        0.8746863797        0.6247880245
Fe               0.3814140191        0.3814140191        0.6185859809
Fe               0.8746863797        0.1253136203        0.3752119755
Fe               0.1253136203        0.3752119755        0.8746863797
Fe               0.1253136203        0.8746863797        0.3752119755
Ti               0.0000000000        0.0000000000        0.0000000000
Ti               0.7497892845        0.7497892845        0.2502107155
Ti               0.5000000000        0.0000000000        0.5000000000
Ti               0.7497892845        0.2502107155        0.7497892845
Ti               0.0000000000        0.5000000000        0.5000000000
Ti               0.2502107155        0.2502107155        0.2502107155
Ti               0.2502107155        0.7497892845        0.7497892845
Ti               0.5000000000        0.5000000000        0.0000000000
H                0.2508582511        0.2508582511        0.7491417489
H                0.0000000000        0.5000000000        0.0000000000
H                0.2508582511        0.7491417489        0.2508582511
H                0.5000000000        0.0000000000        0.0000000000
H                0.7491417489        0.7491417489        0.7491417489
H                0.7491417489        0.2508582511        0.2508582511
H                0.0000000000        0.0000000000        0.5000000000



     Writing config-only to output data dir ./TiFe2_cub_8b_8H.save/ :
     XML data file     NEW-OLD atomic charge density approx. for the potential
     New effective cutoffs (rho, wfc): 1605.62  114.67

     negative rho (up, down):  7.062E-03 1.172E-03
     Generating pointlists ...

     total cpu time spent up to now is    18964.5 secs

     per-process dynamical memory:   530.5 Mb

     Self-consistent Calculation

     iteration #  1     ecut=   124.00 Ry     beta= 0.20
     CG style diagonalization
     c_bands:  3 eigenvalues not converged
     c_bands:  4 eigenvalues not converged
     c_bands:  5 eigenvalues not converged
     c_bands:  5 eigenvalues not converged
     ethr =  1.00E-06,  avg # of iterations = 12.2

     negative rho (up, down):  7.055E-03 1.157E-03

     total cpu time spent up to now is    20377.8 secs

     total energy              =   -6230.60115991 Ry
     estimated scf accuracy    <       0.00969025 Ry

     total magnetization       =    19.70 Bohr mag/cell
     absolute magnetization    =    38.40 Bohr mag/cell

     iteration #  2     ecut=   124.00 Ry     beta= 0.20
     CG style diagonalization
     ethr =  2.70E-06,  avg # of iterations =  3.0

     negative rho (up, down):  7.056E-03 1.150E-03

     total cpu time spent up to now is    20649.1 secs

     total energy              =   -6230.60194617 Ry
     estimated scf accuracy    <       0.00095424 Ry

     total magnetization       =    19.68 Bohr mag/cell
     absolute magnetization    =    38.39 Bohr mag/cell

     iteration #  3     ecut=   124.00 Ry     beta= 0.20
     CG style diagonalization
     ethr =  2.66E-07,  avg # of iterations =  3.8

     negative rho (up, down):  7.064E-03 1.133E-03

     total cpu time spent up to now is    21017.4 secs

     total energy              =   -6230.60233844 Ry
     estimated scf accuracy    <       0.00073033 Ry

     total magnetization       =    19.69 Bohr mag/cell
     absolute magnetization    =    38.41 Bohr mag/cell

     iteration #  4     ecut=   124.00 Ry     beta= 0.20
     CG style diagonalization
     ethr =  2.03E-07,  avg # of iterations =  3.9

     negative rho (up, down):  7.072E-03 1.126E-03

     total cpu time spent up to now is    21395.4 secs

     total energy              =   -6230.60273464 Ry
     estimated scf accuracy    <       0.00012734 Ry

     total magnetization       =    19.70 Bohr mag/cell
     absolute magnetization    =    38.46 Bohr mag/cell

     iteration #  5     ecut=   124.00 Ry     beta= 0.20
     CG style diagonalization
     ethr =  3.55E-08,  avg # of iterations =  4.9

     negative rho (up, down):  7.083E-03 1.123E-03

     total cpu time spent up to now is    21901.3 secs

     total energy              =   -6230.60294032 Ry
     estimated scf accuracy    <       0.00004170 Ry

     total magnetization       =    19.71 Bohr mag/cell
     absolute magnetization    =    38.50 Bohr mag/cell

     iteration #  6     ecut=   124.00 Ry     beta= 0.20
     CG style diagonalization
     ethr =  1.16E-08,  avg # of iterations =  4.4

     negative rho (up, down):  7.092E-03 1.122E-03

     total cpu time spent up to now is    22341.3 secs

     total energy              =   -6230.60302661 Ry
     estimated scf accuracy    <       0.00002783 Ry

     total magnetization       =    19.72 Bohr mag/cell
     absolute magnetization    =    38.54 Bohr mag/cell

     iteration #  7     ecut=   124.00 Ry     beta= 0.20
     CG style diagonalization
     ethr =  7.75E-09,  avg # of iterations =  3.4

     negative rho (up, down):  7.116E-03 1.121E-03

     total cpu time spent up to now is    22656.6 secs

     total energy              =   -6230.60307017 Ry
     estimated scf accuracy    <       0.00001350 Ry

     total magnetization       =    19.72 Bohr mag/cell
     absolute magnetization    =    38.55 Bohr mag/cell

     iteration #  8     ecut=   124.00 Ry     beta= 0.20
     CG style diagonalization
     ethr =  3.76E-09,  avg # of iterations =  3.8

     negative rho (up, down):  7.118E-03 1.119E-03

     total cpu time spent up to now is    23027.8 secs

     total energy              =   -6230.60310210 Ry
     estimated scf accuracy    <       0.00001120 Ry

     total magnetization       =    19.73 Bohr mag/cell
     absolute magnetization    =    38.61 Bohr mag/cell

     iteration #  9     ecut=   124.00 Ry     beta= 0.20
     CG style diagonalization
     ethr =  3.12E-09,  avg # of iterations =  3.2

     negative rho (up, down):  7.126E-03 1.115E-03

     total cpu time spent up to now is    23325.1 secs

     total energy              =   -6230.60311980 Ry
     estimated scf accuracy    <       0.00000102 Ry

     total magnetization       =    19.73 Bohr mag/cell
     absolute magnetization    =    38.61 Bohr mag/cell

     iteration # 10     ecut=   124.00 Ry     beta= 0.20
     CG style diagonalization
     ethr =  2.84E-10,  avg # of iterations =  5.8

     negative rho (up, down):  7.130E-03 1.111E-03

     total cpu time spent up to now is    23932.0 secs

     total energy              =   -6230.60313226 Ry
     estimated scf accuracy    <       0.00000063 Ry

     total magnetization       =    19.73 Bohr mag/cell
     absolute magnetization    =    38.63 Bohr mag/cell

     iteration # 11     ecut=   124.00 Ry     beta= 0.20
     CG style diagonalization
     ethr =  1.77E-10,  avg # of iterations =  4.0

     negative rho (up, down):  7.134E-03 1.110E-03

     total cpu time spent up to now is    24325.2 secs

     total energy              =   -6230.60313906 Ry
     estimated scf accuracy    <       0.00000012 Ry

     total magnetization       =    19.73 Bohr mag/cell
     absolute magnetization    =    38.64 Bohr mag/cell

     iteration # 12     ecut=   124.00 Ry     beta= 0.20
     CG style diagonalization
     ethr =  3.45E-11,  avg # of iterations =  5.0

     negative rho (up, down):  7.136E-03 1.109E-03

     total cpu time spent up to now is    24847.3 secs

     total energy              =   -6230.60314339 Ry
     estimated scf accuracy    <       0.00000005 Ry

     total magnetization       =    19.73 Bohr mag/cell
     absolute magnetization    =    38.65 Bohr mag/cell

     iteration # 13     ecut=   124.00 Ry     beta= 0.20
     CG style diagonalization
     ethr =  1.39E-11,  avg # of iterations =  4.7

     negative rho (up, down):  7.137E-03 1.109E-03

     total cpu time spent up to now is    25333.0 secs

     total energy              =   -6230.60314615 Ry
     estimated scf accuracy    <       0.00000001 Ry

     total magnetization       =    19.73 Bohr mag/cell
     absolute magnetization    =    38.66 Bohr mag/cell

     iteration # 14     ecut=   124.00 Ry     beta= 0.20
     CG style diagonalization
     ethr =  3.61E-12,  avg # of iterations =  5.0

     negative rho (up, down):  7.137E-03 1.109E-03

     total cpu time spent up to now is    25851.7 secs

     total energy              =   -6230.60314787 Ry
     estimated scf accuracy    <          4.5E-09 Ry

     total magnetization       =    19.73 Bohr mag/cell
     absolute magnetization    =    38.66 Bohr mag/cell

     iteration # 15     ecut=   124.00 Ry     beta= 0.20
     CG style diagonalization
     c_bands:  1 eigenvalues not converged
     ethr =  1.25E-12,  avg # of iterations =  4.7

     negative rho (up, down):  7.137E-03 1.109E-03

     Magnetic moment per site  (integrated on atomic sphere of radius R)
     atom   1 (R=0.089)  charge= 11.1826  magn=  1.3581
     atom   2 (R=0.089)  charge= 11.1689  magn=  1.4777
     atom   3 (R=0.089)  charge= 11.1826  magn=  1.3581
     atom   4 (R=0.089)  charge= 11.1826  magn=  1.3581
     atom   5 (R=0.089)  charge= 11.1826  magn=  1.3581
     atom   6 (R=0.089)  charge= 11.1826  magn=  1.3581
     atom   7 (R=0.089)  charge= 11.1826  magn=  1.3581
     atom   8 (R=0.089)  charge= 11.1689  magn=  1.4777
     atom   9 (R=0.089)  charge= 11.1689  magn=  1.4777
     atom  10 (R=0.089)  charge= 11.1826  magn=  1.3581
     atom  11 (R=0.089)  charge= 11.1826  magn=  1.3581
     atom  12 (R=0.089)  charge= 11.1826  magn=  1.3581
     atom  13 (R=0.089)  charge= 11.1689  magn=  1.4777
     atom  14 (R=0.089)  charge= 11.1826  magn=  1.3581
     atom  15 (R=0.089)  charge= 11.1826  magn=  1.3581
     atom  16 (R=0.089)  charge= 11.1826  magn=  1.3581
     atom  17 (R=0.171)  charge= 10.1921  magn= -0.7878
     atom  18 (R=0.171)  charge= 10.1986  magn= -0.8107
     atom  19 (R=0.171)  charge= 10.1960  magn= -0.8283
     atom  20 (R=0.171)  charge= 10.1986  magn= -0.8107
     atom  21 (R=0.171)  charge= 10.1960  magn= -0.8283
     atom  22 (R=0.171)  charge= 10.1986  magn= -0.8107
     atom  23 (R=0.171)  charge= 10.1986  magn= -0.8107
     atom  24 (R=0.171)  charge= 10.1960  magn= -0.8283
     atom  25 (R=0.089)  charge=  0.9875  magn= -0.0057
     atom  26 (R=0.089)  charge=  1.0103  magn= -0.0052
     atom  27 (R=0.089)  charge=  0.9875  magn= -0.0057
     atom  28 (R=0.089)  charge=  1.0103  magn= -0.0052
     atom  29 (R=0.089)  charge=  0.9875  magn= -0.0057
     atom  30 (R=0.089)  charge=  0.9875  magn= -0.0057
     atom  31 (R=0.089)  charge=  1.0103  magn= -0.0052

     total cpu time spent up to now is    26322.4 secs

     End of self-consistent calculation

 ------ SPIN UP ------------


          k = 0.0000 0.0000 0.0000 ( 48489 PWs)   bands (ev):

   -72.9942 -72.9385 -72.9385 -72.9385 -72.8849 -72.8616 -72.8616 -72.8527
   -72.8527 -72.8527 -72.8296 -72.8296 -72.8296 -72.8293 -72.8293 -72.8293
   -41.6724 -41.6375 -41.6242 -41.6242 -41.6242 -41.6161 -41.6161 -41.5990
   -39.3957 -39.2606 -39.1775 -39.1775 -39.1767 -39.1767 -39.1767 -39.0805
   -39.0805 -39.0805 -38.9997 -38.9997 -38.9927 -38.9927 -38.9927 -38.9734
   -38.9734 -38.9734 -38.9303 -38.9303 -38.9303 -38.8934 -38.8920 -38.8920
   -38.8920 -38.8866 -38.8866 -38.8745 -38.8745 -38.8745 -38.8527 -38.8527
   -38.8384 -38.8384 -38.8384 -38.8210 -38.8210 -38.8210 -38.8206 -38.8048
   -38.8048 -38.8048 -38.7845 -38.7845 -38.7845 -38.7590 -38.7590 -38.7590
   -17.9414 -17.9414 -17.9414 -17.9188 -17.9188 -17.9188 -17.9052 -17.9052
   -17.9052 -17.8498 -17.8498 -17.8498 -17.8457 -17.8457 -17.8446 -17.7876
   -17.7876 -17.7876 -17.7714 -17.7714 -17.7714 -17.7565 -17.7565 -17.7565
     4.0234   5.8856   5.8856   6.0187   6.0187   6.0187   8.1571   9.2008
    10.8349  10.8719  10.8719  10.8719  11.1078  11.1078  11.1239  11.1239
    11.1239  11.7183  11.7556  11.7556  11.7556  11.8403  11.8403  11.8403
    11.8611  11.8611  11.8611  11.8681  11.8884  11.8884  11.9275  11.9275
    11.9275  12.1278  12.1278  12.3624  12.3624  12.3624  12.4216  12.4216
    12.4216  12.4361  12.4361  12.4361  12.4692  12.4692  12.5738  12.9030
    12.9030  12.9808  12.9808  12.9808  12.9838  13.0021  13.0021  13.0021
    13.0575  13.0575  13.0575  13.0968  13.0968  13.0968  13.1523  13.1523
    13.1523  13.6501  13.6501  13.6501  13.7069  13.7069  13.7069  13.7234
    13.7234  13.7234  13.8588  13.8588  13.8837  13.8837  13.8932  13.8932
    13.8932  13.9271  13.9407  13.9407  13.9407  14.4880  14.4880  14.7069
    14.7069  14.7069  14.9715  14.9757  14.9757  14.9757  15.0334  15.0334
    15.3124  15.3124  15.3124  16.1563  16.1563  16.1563  16.1617  16.1618
    16.1618  16.2049  16.2049  16.2049  16.5494  16.5495  16.5500  16.5851
    16.5859  16.5865  16.6849  16.6850  16.7291  16.7410  17.5938  17.5941

          k = 0.0000 0.0000 0.1923 ( 48469 PWs)   bands (ev):

   -72.9942 -72.9386 -72.9385 -72.9385 -72.8836 -72.8661 -72.8616 -72.8527
   -72.8527 -72.8482 -72.8305 -72.8296 -72.8296 -72.8296 -72.8293 -72.8293
   -41.6723 -41.6372 -41.6267 -41.6242 -41.6242 -41.6161 -41.6129 -41.5999
   -39.3872 -39.2725 -39.2125 -39.1767 -39.1760 -39.1760 -39.1370 -39.0796
   -39.0784 -39.0784 -39.0058 -38.9992 -38.9981 -38.9981 -38.9944 -38.9783
   -38.9783 -38.9681 -38.9334 -38.9269 -38.9269 -38.8961 -38.8896 -38.8896
   -38.8890 -38.8859 -38.8809 -38.8758 -38.8713 -38.8713 -38.8567 -38.8453
   -38.8398 -38.8347 -38.8347 -38.8257 -38.8225 -38.8225 -38.8164 -38.8050
   -38.8050 -38.8016 -38.7885 -38.7862 -38.7862 -38.7626 -38.7609 -38.7609
   -17.9415 -17.9407 -17.9407 -17.9191 -17.9184 -17.9184 -17.9068 -17.9068
   -17.9028 -17.8634 -17.8496 -17.8496 -17.8454 -17.8447 -17.8315 -17.7900
   -17.7859 -17.7859 -17.7717 -17.7715 -17.7715 -17.7576 -17.7576 -17.7564
     4.1079   5.3563   5.8879   6.0212   6.0212   6.5546   8.1201   9.2838
    10.5412  10.7813  10.9224  10.9224  11.0438  11.1514  11.1598  11.1598
    11.2622  11.5967  11.5967  11.6022  11.6941  11.6941  11.7130  11.7184
    11.7485  11.8790  11.9519  11.9519  11.9699  11.9899  11.9899  11.9940
    12.0842  12.1374  12.1670  12.2361  12.2651  12.2686  12.2686  12.4027
    12.4027  12.4491  12.4778  12.5107  12.5116  12.5116  12.7228  12.8047
    12.8516  12.8516  12.8729  12.9224  12.9334  12.9334  12.9862  13.0790
    13.0848  13.0848  13.1951  13.2566  13.2566  13.2610  13.2819  13.3389
    13.3389  13.6164  13.6164  13.6323  13.6631  13.6645  13.6695  13.6695
    13.7237  13.7780  13.7879  13.7879  13.8403  13.8403  13.8502  13.8604
    13.9838  14.0142  14.0229  14.0229  14.0670  14.4977  14.6150  14.6150
    14.6356  14.6632  14.7977  14.9218  14.9218  14.9408  14.9823  15.1582
    15.3943  15.4650  15.4650  16.1011  16.1011  16.1379  16.1388  16.1449
    16.1449  16.1797  16.1797  16.2588  16.3416  16.3774  16.3982  16.3988
    16.4068  16.4770  16.4773  16.8443  16.8653  16.8737  17.0259  17.4076

          k = 0.0000 0.0000 0.3847 ( 48538 PWs)   bands (ev):

   -72.9941 -72.9389 -72.9385 -72.9385 -72.8803 -72.8723 -72.8616 -72.8527
   -72.8527 -72.8423 -72.8334 -72.8296 -72.8296 -72.8296 -72.8293 -72.8293
   -41.6722 -41.6367 -41.6296 -41.6242 -41.6242 -41.6161 -41.6082 -41.6024
   -39.3667 -39.3032 -39.2249 -39.1755 -39.1748 -39.1748 -39.1137 -39.0770
   -39.0748 -39.0748 -39.0133 -39.0064 -39.0064 -38.9986 -38.9974 -38.9853
   -38.9853 -38.9617 -38.9372 -38.9234 -38.9234 -38.9003 -38.8891 -38.8849
   -38.8849 -38.8794 -38.8745 -38.8728 -38.8659 -38.8659 -38.8618 -38.8400
   -38.8392 -38.8301 -38.8301 -38.8286 -38.8240 -38.8240 -38.8177 -38.8036
   -38.8036 -38.7976 -38.7908 -38.7908 -38.7885 -38.7723 -38.7638 -38.7638
   -17.9418 -17.9397 -17.9397 -17.9196 -17.9171 -17.9171 -17.9103 -17.9103
   -17.8972 -17.8758 -17.8493 -17.8493 -17.8450 -17.8442 -17.8185 -17.7961
   -17.7829 -17.7829 -17.7720 -17.7716 -17.7716 -17.7596 -17.7596 -17.7564
     4.3336   4.8655   5.8916   6.0252   6.0252   7.0115   8.0133   9.5455
    10.0056  10.6668  11.0703  11.0703  11.1885  11.2315  11.2358  11.2358
    11.2524  11.3123  11.3123  11.4390  11.5843  11.5843  11.5930  11.6824
    11.7332  11.7906  11.9951  12.0120  12.0472  12.0472  12.0901  12.0901
    12.1248  12.1314  12.1314  12.1364  12.1473  12.1609  12.2938  12.3088
    12.3088  12.3642  12.3642  12.4505  12.4520  12.4961  12.8044  12.8839
    12.9616  12.9665  12.9665  12.9857  13.0654  13.0719  13.0719  13.1370
    13.1370  13.2132  13.3133  13.3906  13.4162  13.4162  13.4344  13.4536
    13.4572  13.4572  13.4936  13.4936  13.5259  13.5720  13.5720  13.5768
    13.5772  13.5936  13.5994  13.5994  13.8296  13.8436  14.1208  14.1208
    14.2084  14.2132  14.2132  14.2276  14.2649  14.4122  14.4122  14.4288
    14.6152  14.6502  14.7813  14.7821  14.7821  14.8347  14.9649  15.1737
    15.6388  15.7515  15.7515  15.9717  15.9717  15.9842  16.1078  16.1099
    16.1101  16.1101  16.1569  16.1569  16.1921  16.1983  16.2371  16.2371
    16.2898  16.2898  16.4661  16.8795  17.0511  17.0560  17.0648  17.4854

          k = 0.0000 0.1923 0.1923 ( 48486 PWs)   bands (ev):

   -72.9941 -72.9387 -72.9386 -72.9385 -72.8824 -72.8673 -72.8644 -72.8527
   -72.8499 -72.8469 -72.8316 -72.8296 -72.8296 -72.8296 -72.8293 -72.8293
   -41.6723 -41.6369 -41.6280 -41.6256 -41.6237 -41.6141 -41.6122 -41.6008
   -39.3796 -39.2777 -39.2300 -39.2047 -39.1670 -39.1393 -39.1338 -39.0830
   -39.0764 -39.0728 -39.0102 -39.0044 -39.0036 -38.9979 -38.9967 -38.9830
   -38.9772 -38.9683 -38.9308 -38.9302 -38.9233 -38.8954 -38.8937 -38.8884
   -38.8846 -38.8838 -38.8813 -38.8713 -38.8705 -38.8662 -38.8525 -38.8519
   -38.8395 -38.8340 -38.8301 -38.8278 -38.8239 -38.8211 -38.8152 -38.8084
   -38.8045 -38.7949 -38.7948 -38.7875 -38.7851 -38.7675 -38.7629 -38.7602
   -17.9418 -17.9399 -17.9399 -17.9201 -17.9182 -17.9166 -17.9085 -17.9063
   -17.9025 -17.8640 -17.8636 -17.8564 -17.8380 -17.8310 -17.8304 -17.7909
   -17.7857 -17.7843 -17.7728 -17.7719 -17.7706 -17.7591 -17.7582 -17.7567
     4.1888   5.2801   5.5014   5.9922   6.3867   6.7036   8.0619   9.3699
    10.5202  10.7000  10.8308  10.9598  10.9662  11.1227  11.1823  11.2410
    11.3115  11.4905  11.5404  11.5510  11.5775  11.6080  11.6190  11.7243
    11.7528  11.7723  11.8682  11.9148  11.9935  11.9948  12.0816  12.1036
    12.1111  12.1161  12.1651  12.2023  12.2677  12.3234  12.3504  12.3876
    12.4268  12.4436  12.4681  12.4803  12.5396  12.6554  12.6670  12.7504
    12.7801  12.7934  12.8297  12.9028  12.9181  12.9587  13.0206  13.1098
    13.1365  13.1455  13.2375  13.3006  13.3212  13.3413  13.3613  13.4295
    13.4557  13.5113  13.5473  13.5604  13.5918  13.6414  13.6500  13.6686
    13.7548  13.7622  13.7838  13.7962  13.7971  13.8547  13.8967  13.9037
    13.9346  13.9965  14.1282  14.2319  14.2558  14.2845  14.5234  14.6089
    14.6539  14.6802  14.7438  14.7811  14.9566  15.1022  15.1023  15.1888
    15.3741  15.5758  15.5922  15.9913  16.0697  16.0783  16.0860  16.1049
    16.1229  16.1441  16.1530  16.2297  16.2624  16.3468  16.3658  16.3842
    16.3950  16.4926  16.5398  16.5509  16.5835  17.0634  17.2226  17.3780

          k = 0.0000 0.1923 0.3847 ( 48550 PWs)   bands (ev):

   -72.9941 -72.9389 -72.9386 -72.9385 -72.8793 -72.8722 -72.8652 -72.8528
   -72.8490 -72.8422 -72.8345 -72.8296 -72.8296 -72.8296 -72.8293 -72.8293
   -41.6722 -41.6360 -41.6305 -41.6265 -41.6231 -41.6136 -41.6084 -41.6031
   -39.3617 -39.2985 -39.2442 -39.2160 -39.1557 -39.1348 -39.1116 -39.0859
   -39.0726 -39.0649 -39.0179 -39.0151 -39.0070 -39.0006 -38.9991 -38.9892
   -38.9823 -38.9630 -38.9352 -38.9263 -38.9197 -38.8995 -38.8907 -38.8871
   -38.8828 -38.8788 -38.8737 -38.8712 -38.8673 -38.8625 -38.8594 -38.8437
   -38.8385 -38.8357 -38.8288 -38.8249 -38.8242 -38.8205 -38.8177 -38.8054
   -38.8037 -38.8020 -38.7915 -38.7900 -38.7824 -38.7748 -38.7661 -38.7627
   -17.9420 -17.9389 -17.9383 -17.9203 -17.9170 -17.9150 -17.9113 -17.9092
   -17.8973 -17.8770 -17.8642 -17.8621 -17.8320 -17.8297 -17.8172 -17.7963
   -17.7830 -17.7817 -17.7735 -17.7729 -17.7698 -17.7619 -17.7599 -17.7569
     4.4062   4.8897   5.4516   5.9477   6.4969   7.0878   7.9064   9.6338
    10.0865  10.6541  10.9118  11.0922  11.0972  11.1397  11.2096  11.2457
    11.2909  11.3045  11.3213  11.3510  11.4333  11.5152  11.6006  11.6718
    11.7101  11.7735  11.8114  11.8474  12.0719  12.0811  12.1164  12.1509
    12.1573  12.1890  12.1922  12.2073  12.2259  12.2703  12.2870  12.3315
    12.3552  12.3591  12.3718  12.5570  12.5731  12.5915  12.7155  12.7637
    12.7780  12.7929  12.8752  12.9609  13.1088  13.1425  13.1747  13.2017
    13.2251  13.2461  13.2689  13.2791  13.3162  13.3330  13.3916  13.4380
    13.4548  13.4773  13.5006  13.5179  13.5293  13.5482  13.5831  13.6323
    13.6465  13.6725  13.7056  13.7367  13.8399  13.8685  14.0020  14.0435
    14.0985  14.1213  14.1724  14.3355  14.3675  14.4704  14.5043  14.5446
    14.5573  14.5991  14.6296  14.7372  15.0515  15.0870  15.1594  15.2191
    15.6448  15.7960  15.8184  15.9340  15.9623  15.9706  16.0243  16.0441
    16.0445  16.0677  16.0835  16.1033  16.1335  16.1906  16.2025  16.2333
    16.2713  16.3339  16.6004  16.7969  16.8420  17.0124  17.0388  17.1119

          k = 0.0000 0.3847 0.3847 ( 48478 PWs)   bands (ev):

   -72.9940 -72.9388 -72.9387 -72.9386 -72.8765 -72.8725 -72.8700 -72.8531
   -72.8441 -72.8416 -72.8374 -72.8296 -72.8296 -72.8296 -72.8293 -72.8292
   -41.6722 -41.6344 -41.6317 -41.6298 -41.6218 -41.6101 -41.6083 -41.6053
   -39.3514 -39.2876 -39.2666 -39.2484 -39.1299 -39.1137 -39.1027 -39.0967
   -39.0651 -39.0530 -39.0336 -39.0214 -39.0180 -39.0023 -38.9972 -38.9949
   -38.9822 -38.9610 -38.9313 -38.9311 -38.9164 -38.8990 -38.8974 -38.8867
   -38.8791 -38.8743 -38.8741 -38.8681 -38.8673 -38.8615 -38.8562 -38.8521
   -38.8357 -38.8342 -38.8306 -38.8240 -38.8225 -38.8190 -38.8145 -38.8134
   -38.8024 -38.7969 -38.7931 -38.7887 -38.7825 -38.7803 -38.7673 -38.7610
   -17.9413 -17.9373 -17.9371 -17.9216 -17.9160 -17.9131 -17.9124 -17.9076
   -17.8945 -17.8787 -17.8780 -17.8732 -17.8214 -17.8162 -17.8148 -17.8003
   -17.7812 -17.7799 -17.7758 -17.7751 -17.7662 -17.7662 -17.7606 -17.7591
     4.6075   4.8966   5.0718   5.8298   6.9606   7.2251   7.6278   9.8896
    10.2680  10.4030  10.6900  10.8296  11.1685  11.2063  11.2173  11.2363
    11.2525  11.2858  11.2906  11.3044  11.3798  11.4223  11.4647  11.5995
    11.6511  11.6697  11.6980  11.8261  12.0962  12.1443  12.1788  12.1958
    12.2043  12.2217  12.2486  12.2824  12.2881  12.3331  12.3761  12.4296
    12.4547  12.4891  12.5075  12.5219  12.5375  12.5922  12.6097  12.6528
    12.6911  12.7122  12.8687  12.9067  12.9754  13.0271  13.0809  13.1165
    13.1483  13.1942  13.2654  13.2786  13.3193  13.3456  13.3582  13.4033
    13.4735  13.4863  13.5186  13.6249  13.6600  13.6748  13.6748  13.6871
    13.7287  13.7625  13.8043  13.8193  13.8840  13.8955  13.9018  14.0785
    14.1023  14.1286  14.1695  14.3195  14.3661  14.3814  14.4436  14.4681
    14.4881  14.6264  14.6394  14.7070  15.3660  15.3989  15.5019  15.5660
    15.6932  15.8789  15.9144  15.9279  15.9457  15.9536  15.9598  15.9681
    15.9727  15.9853  16.0052  16.0077  16.0371  16.1121  16.1167  16.1440
    16.2358  16.4059  16.4215  16.6921  16.8356  16.9392  17.1524  17.1822

          k = 0.1923 0.1923 0.1923 ( 48503 PWs)   bands (ev):

   -72.9941 -72.9387 -72.9386 -72.9386 -72.8813 -72.8673 -72.8673 -72.8528
   -72.8469 -72.8469 -72.8327 -72.8296 -72.8296 -72.8296 -72.8293 -72.8293
   -41.6722 -41.6365 -41.6280 -41.6280 -41.6228 -41.6121 -41.6121 -41.6016
   -39.3730 -39.2815 -39.2313 -39.2313 -39.1492 -39.1292 -39.1292 -39.0839
   -39.0721 -39.0721 -39.0117 -39.0117 -39.0090 -38.9980 -38.9980 -38.9871
   -38.9720 -38.9720 -38.9283 -38.9283 -38.9264 -38.8934 -38.8927 -38.8927
   -38.8839 -38.8813 -38.8813 -38.8678 -38.8656 -38.8656 -38.8505 -38.8505
   -38.8466 -38.8364 -38.8285 -38.8285 -38.8208 -38.8208 -38.8135 -38.8061
   -38.8061 -38.7995 -38.7895 -38.7877 -38.7877 -38.7682 -38.7682 -38.7579
   -17.9413 -17.9393 -17.9393 -17.9192 -17.9192 -17.9147 -17.9076 -17.9076
   -17.9033 -17.8668 -17.8663 -17.8663 -17.8283 -17.8277 -17.8277 -17.7905
   -17.7846 -17.7846 -17.7729 -17.7729 -17.7706 -17.7603 -17.7582 -17.7582
     4.2652   5.2837   5.2837   5.9140   6.7032   6.7032   7.9941   9.4581
    10.5113  10.7682  10.7682  10.8816  11.0036  11.0036  11.1910  11.2941
    11.2941  11.4066  11.5105  11.5105  11.5747  11.6054  11.6054  11.6373
    11.6373  11.6648  11.7048  11.8571  12.0203  12.0203  12.1372  12.1372
    12.1572  12.2143  12.2143  12.2812  12.2812  12.3166  12.3459  12.4205
    12.4205  12.4601  12.4809  12.4809  12.6439  12.6548  12.6548  12.6806
    12.6806  12.7325  12.9076  12.9076  12.9721  13.0017  13.0017  13.0603
    13.0976  13.1126  13.1126  13.3795  13.3795  13.3844  13.4240  13.4240
    13.4747  13.4747  13.5151  13.5182  13.5285  13.5285  13.7158  13.7158
    13.7263  13.8530  13.8530  13.8789  13.8789  13.8817  13.8949  13.9155
    13.9155  13.9428  14.2576  14.2576  14.3352  14.3457  14.3457  14.5614
    14.6260  14.6470  14.6470  15.0505  15.0505  15.2191  15.2382  15.2382
    15.3114  15.6449  15.6449  15.9332  15.9332  15.9657  16.0818  16.0864
    16.0864  16.1150  16.1150  16.2739  16.2739  16.3181  16.3685  16.3935
    16.3935  16.4177  16.4688  16.4874  16.4875  17.1525  17.1545  17.2310

          k = 0.1923 0.1923 0.3847 ( 48490 PWs)   bands (ev):

   -72.9940 -72.9388 -72.9386 -72.9386 -72.8784 -72.8721 -72.8673 -72.8529
   -72.8469 -72.8421 -72.8354 -72.8296 -72.8296 -72.8296 -72.8293 -72.8293
   -41.6722 -41.6355 -41.6309 -41.6281 -41.6224 -41.6121 -41.6085 -41.6038
   -39.3580 -39.2952 -39.2535 -39.2332 -39.1413 -39.1211 -39.1094 -39.0866
   -39.0716 -39.0615 -39.0204 -39.0196 -39.0134 -39.0021 -38.9982 -38.9941
   -38.9773 -38.9646 -38.9334 -38.9250 -38.9223 -38.8985 -38.8901 -38.8891
   -38.8838 -38.8787 -38.8749 -38.8692 -38.8662 -38.8625 -38.8582 -38.8446
   -38.8415 -38.8375 -38.8297 -38.8265 -38.8217 -38.8196 -38.8152 -38.8074
   -38.8032 -38.8014 -38.7956 -38.7863 -38.7800 -38.7733 -38.7715 -38.7586
   -17.9411 -17.9383 -17.9374 -17.9195 -17.9174 -17.9129 -17.9105 -17.9098
   -17.8988 -17.8793 -17.8703 -17.8701 -17.8240 -17.8239 -17.8150 -17.7951
   -17.7829 -17.7816 -17.7744 -17.7723 -17.7708 -17.7629 -17.7611 -17.7582
     4.4709   4.9057   5.2897   5.8905   6.7025   7.1252   7.8134   9.7216
    10.1672  10.6560  10.9504  10.9640  11.1157  11.1333  11.1970  11.2205
    11.2353  11.2743  11.3143  11.3428  11.3624  11.4418  11.5456  11.6077
    11.6530  11.6579  11.6751  11.8007  12.1021  12.1124  12.1833  12.1874
    12.2074  12.2297  12.2437  12.2633  12.2655  12.2939  12.3120  12.3553
    12.3944  12.4378  12.4578  12.5766  12.6064  12.6431  12.6571  12.6813
    12.7204  12.8313  12.8906  12.8987  12.9488  13.0441  13.0968  13.1022
    13.1661  13.2022  13.2336  13.2559  13.2653  13.2793  13.3416  13.3889
    13.4276  13.4277  13.5473  13.5877  13.5910  13.6277  13.6887  13.7011
    13.7565  13.7693  13.7909  13.8138  13.8404  13.8739  13.9269  14.0097
    14.0294  14.0484  14.1889  14.2895  14.4295  14.4384  14.5697  14.5945
    14.6567  14.6572  14.6862  14.9841  15.1934  15.2693  15.2742  15.2974
    15.6386  15.7448  15.8388  15.8394  15.9090  15.9264  15.9578  15.9720
    15.9931  16.0436  16.0642  16.1243  16.1644  16.1724  16.1946  16.2539
    16.2974  16.3202  16.6018  16.6529  16.6597  16.9327  16.9979  17.0453

          k = 0.1923 0.3847 0.3847 ( 48499 PWs)   bands (ev):

   -72.9940 -72.9388 -72.9387 -72.9386 -72.8759 -72.8725 -72.8707 -72.8530
   -72.8434 -72.8416 -72.8380 -72.8296 -72.8296 -72.8296 -72.8293 -72.8292
   -41.6722 -41.6341 -41.6318 -41.6305 -41.6216 -41.6095 -41.6082 -41.6056
   -39.3507 -39.2869 -39.2684 -39.2564 -39.1206 -39.1073 -39.0997 -39.0930
   -39.0639 -39.0535 -39.0344 -39.0231 -39.0223 -39.0041 -39.0006 -38.9992
   -38.9748 -38.9625 -38.9303 -38.9299 -38.9204 -38.8974 -38.8963 -38.8876
   -38.8830 -38.8759 -38.8750 -38.8694 -38.8661 -38.8621 -38.8557 -38.8516
   -38.8395 -38.8384 -38.8327 -38.8270 -38.8194 -38.8184 -38.8139 -38.8119
   -38.8022 -38.8012 -38.7939 -38.7866 -38.7771 -38.7761 -38.7698 -38.7564
   -17.9395 -17.9364 -17.9364 -17.9196 -17.9159 -17.9116 -17.9112 -17.9078
   -17.8979 -17.8829 -17.8823 -17.8791 -17.8159 -17.8123 -17.8112 -17.7969
   -17.7809 -17.7807 -17.7756 -17.7755 -17.7684 -17.7663 -17.7623 -17.7611
     4.6485   4.9011   5.0260   5.8186   7.0340   7.2183   7.5704   9.9675
    10.3337  10.4957  10.7345  10.8938  11.1444  11.1675  11.1941  11.2016
    11.2270  11.2323  11.2860  11.3016  11.3445  11.4047  11.4071  11.5136
    11.5150  11.5290  11.5964  11.7553  12.1300  12.1798  12.1878  12.2269
    12.2469  12.2713  12.2915  12.3273  12.3623  12.3666  12.3982  12.4337
    12.4672  12.5127  12.5532  12.5855  12.5937  12.6093  12.6390  12.7022
    12.7111  12.7278  12.7641  12.8610  12.8716  12.9094  12.9235  13.0402
    13.0478  13.0738  13.1637  13.1846  13.1938  13.2493  13.2536  13.3274
    13.5599  13.6030  13.6178  13.6671  13.6780  13.6882  13.7497  13.7520
    13.7879  13.8100  13.8124  13.8571  13.8757  13.9060  13.9130  13.9642
    14.0305  14.0824  14.0929  14.1436  14.5136  14.5587  14.5667  14.6581
    14.7295  14.8730  14.8875  15.0270  15.4623  15.4807  15.5686  15.6262
    15.6629  15.7984  15.8033  15.8274  15.8299  15.8588  15.8631  15.8919
    15.8926  16.0326  16.0378  16.0601  16.0999  16.1192  16.1520  16.1652
    16.2196  16.3677  16.3745  16.5832  16.6823  16.7472  16.8058  16.9199

          k = 0.3847 0.3847 0.3847 ( 48449 PWs)   bands (ev):

   -72.9940 -72.9387 -72.9387 -72.9387 -72.8745 -72.8725 -72.8725 -72.8530
   -72.8416 -72.8416 -72.8395 -72.8296 -72.8296 -72.8296 -72.8292 -72.8292
   -41.6722 -41.6333 -41.6318 -41.6318 -41.6213 -41.6082 -41.6082 -41.6066
   -39.3495 -39.2829 -39.2712 -39.2712 -39.1044 -39.0954 -39.0954 -39.0898
   -39.0552 -39.0552 -39.0395 -39.0276 -39.0276 -39.0065 -39.0064 -39.0064
   -38.9643 -38.9643 -38.9288 -38.9288 -38.9275 -38.8947 -38.8940 -38.8940
   -38.8884 -38.8740 -38.8725 -38.8725 -38.8616 -38.8616 -38.8513 -38.8513
   -38.8505 -38.8455 -38.8371 -38.8371 -38.8149 -38.8149 -38.8124 -38.8101
   -38.8058 -38.8058 -38.7866 -38.7866 -38.7712 -38.7710 -38.7710 -38.7523
   -17.9361 -17.9350 -17.9350 -17.9158 -17.9158 -17.9086 -17.9086 -17.9077
   -17.9017 -17.8905 -17.8899 -17.8899 -17.8066 -17.8057 -17.8057 -17.7931
   -17.7806 -17.7806 -17.7745 -17.7742 -17.7742 -17.7670 -17.7656 -17.7656
     4.7572   4.9085   4.9085   5.8042   7.2074   7.2074   7.4208  10.1500
    10.4884  10.7448  10.7448  10.9131  11.0857  11.1016  11.1016  11.1352
    11.1676  11.1676  11.2743  11.2743  11.2823  11.3713  11.3713  11.3803
    11.3850  11.3850  11.3926  11.6264  12.2106  12.2106  12.2645  12.2645
    12.2775  12.3328  12.3337  12.3337  12.4362  12.4698  12.4698  12.5652
    12.5652  12.5829  12.5829  12.6189  12.6465  12.6589  12.6589  12.6648
    12.7009  12.7009  12.7422  12.7838  12.7838  12.7917  12.7917  12.8193
    12.9496  12.9496  13.0116  13.0768  13.0830  13.0830  13.1312  13.1312
    13.6886  13.6886  13.7132  13.7132  13.7157  13.7178  13.7728  13.7728
    13.8275  13.8275  13.8366  13.8643  13.9507  13.9507  13.9611  13.9702
    13.9702  13.9851  13.9979  13.9979  14.8226  14.8226  14.8682  15.0624
    15.0961  15.0961  15.1064  15.3095  15.6309  15.6328  15.6328  15.6586
    15.6586  15.7087  15.7087  15.7605  15.8014  15.8014  15.8164  15.8462
    15.8462  16.0378  16.0392  16.0392  16.0624  16.0624  16.1017  16.1017
    16.1285  16.2893  16.2951  16.2952  16.5274  16.5274  16.5365  16.5878

 ------ SPIN DOWN ----------


          k = 0.0000 0.0000 0.0000 ( 48489 PWs)   bands (ev):

   -70.8394 -70.8118 -70.8118 -70.8048 -70.8048 -70.8048 -70.7775 -70.7775
   -70.7775 -70.7772 -70.7772 -70.7772 -70.7598 -70.7003 -70.7003 -70.7003
   -42.4126 -42.3988 -42.3890 -42.3890 -42.3801 -42.3801 -42.3801 -42.3619
   -37.4779 -37.2894 -37.2894 -37.2552 -37.2552 -37.2552 -37.1904 -37.0895
   -37.0895 -37.0895 -37.0622 -37.0622 -37.0622 -36.9377 -36.9377 -36.9377
   -36.8474 -36.8474 -36.8358 -36.8284 -36.8284 -36.8284 -36.8256 -36.8256
   -36.8007 -36.8007 -36.8007 -36.8006 -36.8006 -36.8006 -36.7765 -36.7750
   -36.7750 -36.7619 -36.7619 -36.7619 -36.7542 -36.7542 -36.7542 -36.7119
   -36.7119 -36.7119 -36.7021 -36.7021 -36.7021 -36.6673 -36.6673 -36.6673
   -18.6959 -18.6959 -18.6959 -18.6875 -18.6875 -18.6875 -18.6694 -18.6694
   -18.6694 -18.6163 -18.6163 -18.6163 -18.6046 -18.6046 -18.6025 -18.5487
   -18.5487 -18.5487 -18.5302 -18.5302 -18.5302 -18.5226 -18.5226 -18.5226
     4.3431   6.2238   6.2238   6.3594   6.3594   6.3594   8.3866   9.4273
    11.0093  11.3991  11.3991  11.4305  11.4305  11.4305  11.8707  11.8707
    11.8707  12.1728  12.4265  12.4265  12.4297  12.4297  12.4297  12.8876
    12.8876  12.8876  12.8967  12.8967  12.8967  13.0023  13.0023  13.0023
    13.0086  13.1195  13.1195  13.1195  13.1608  13.1608  13.1608  13.3727
    13.3727  13.6474  13.6474  13.6474  13.6620  13.6622  13.6622  13.8119
    13.8119  13.8292  13.8474  13.8474  13.8474  13.8567  13.8567  13.8567
    13.9033  13.9033  13.9033  13.9528  13.9528  14.2557  14.2557  14.2557
    14.4571  14.4571  14.4571  14.5129  14.5129  14.5129  15.0802  15.0802
    15.0802  15.3714  15.3714  15.3714  15.4871  15.4871  15.4871  15.6439
    15.6439  15.6719  15.6719  15.6856  15.6877  15.6877  15.6877  15.7132
    15.7931  15.7931  15.7931  15.8146  15.8146  16.0183  16.0183  16.0183
    16.3960  16.3960  16.3960  16.4571  16.4571  16.4571  16.4969  16.4969
    16.4970  16.9230  16.9253  16.9296  16.9359  16.9426  16.9465  17.0098
    17.0343  17.0343  17.0343  17.0481  17.0488  17.1478  17.1478  17.1478

          k = 0.0000 0.0000 0.1923 ( 48469 PWs)   bands (ev):

   -70.8380 -70.8178 -70.8118 -70.8048 -70.8048 -70.7990 -70.7786 -70.7775
   -70.7775 -70.7775 -70.7772 -70.7772 -70.7594 -70.7003 -70.7003 -70.7003
   -42.4119 -42.3994 -42.3915 -42.3890 -42.3801 -42.3801 -42.3766 -42.3630
   -37.4679 -37.3322 -37.2892 -37.2549 -37.2549 -37.2270 -37.1797 -37.0951
   -37.0875 -37.0875 -37.0645 -37.0645 -37.0628 -36.9400 -36.9400 -36.9387
   -36.8475 -36.8445 -36.8370 -36.8327 -36.8301 -36.8301 -36.8264 -36.8179
   -36.8025 -36.8003 -36.8003 -36.8001 -36.7969 -36.7969 -36.7897 -36.7762
   -36.7714 -36.7601 -36.7601 -36.7518 -36.7518 -36.7508 -36.7475 -36.7147
   -36.7134 -36.7134 -36.7063 -36.7039 -36.7039 -36.6691 -36.6683 -36.6683
   -18.6962 -18.6950 -18.6950 -18.6878 -18.6868 -18.6868 -18.6717 -18.6717
   -18.6665 -18.6283 -18.6161 -18.6161 -18.6043 -18.6029 -18.5915 -18.5519
   -18.5464 -18.5464 -18.5311 -18.5311 -18.5302 -18.5235 -18.5235 -18.5225
     4.4310   5.7002   6.2272   6.3631   6.3631   6.8786   8.3570   9.4877
    10.6826  11.1534  11.4155  11.4390  11.4390  11.7277  11.9210  11.9210
    11.9567  12.1063  12.2807  12.3008  12.3150  12.3150  12.6206  12.6206
    12.7115  12.8599  12.8666  12.8809  12.8809  12.9202  13.0290  13.0371
    13.0371  13.1721  13.1790  13.1790  13.2165  13.3749  13.3749  13.3892
    13.4096  13.5841  13.6108  13.6108  13.6518  13.6630  13.7360  13.7360
    13.7603  13.7792  13.8603  13.8670  13.8755  13.9051  13.9051  13.9270
    13.9407  13.9799  13.9814  13.9814  13.9941  14.0999  14.2092  14.2092
    14.4795  14.5254  14.5254  14.5426  14.6684  14.6684  15.0882  15.0899
    15.0899  15.2199  15.2527  15.2527  15.2925  15.4581  15.5157  15.5157
    15.5897  15.6473  15.6750  15.7769  15.7794  15.7969  15.7969  15.8813
    15.8974  15.9160  15.9188  15.9188  16.0074  16.0074  16.0109  16.0771
    16.3651  16.3651  16.3779  16.3780  16.4166  16.4351  16.4355  16.4565
    16.5300  16.7337  16.7728  16.8225  16.8343  16.8402  16.8408  16.8829
    16.9318  16.9332  16.9955  17.0026  17.0083  17.1904  17.2403  17.3137

          k = 0.0000 0.0000 0.3847 ( 48538 PWs)   bands (ev):

   -70.8344 -70.8252 -70.8118 -70.8048 -70.8048 -70.7924 -70.7819 -70.7775
   -70.7775 -70.7775 -70.7772 -70.7772 -70.7589 -70.7005 -70.7003 -70.7003
   -42.4104 -42.4010 -42.3938 -42.3890 -42.3801 -42.3801 -42.3711 -42.3660
   -37.4408 -37.3844 -37.2888 -37.2543 -37.2543 -37.2144 -37.1511 -37.1101
   -37.0831 -37.0831 -37.0694 -37.0694 -37.0640 -36.9437 -36.9437 -36.9404
   -36.8477 -36.8385 -36.8379 -36.8363 -36.8322 -36.8322 -36.8260 -36.8116
   -36.8083 -36.7989 -36.7989 -36.7987 -36.7984 -36.7924 -36.7924 -36.7832
   -36.7638 -36.7576 -36.7576 -36.7465 -36.7465 -36.7398 -36.7329 -36.7214
   -36.7167 -36.7159 -36.7159 -36.7077 -36.7077 -36.6723 -36.6699 -36.6699
   -18.6966 -18.6941 -18.6941 -18.6883 -18.6835 -18.6835 -18.6772 -18.6772
   -18.6589 -18.6426 -18.6157 -18.6157 -18.6039 -18.6024 -18.5762 -18.5606
   -18.5407 -18.5407 -18.5345 -18.5345 -18.5302 -18.5249 -18.5249 -18.5225
     4.6661   5.2036   6.2326   6.3691   6.3691   7.3178   8.2618   9.7006
    10.1410  11.1961  11.4481  11.4551  11.4551  11.5164  12.0324  12.0676
    12.0676  12.0739  12.1329  12.1694  12.1694  12.3125  12.3125  12.4825
    12.7315  12.7924  12.8109  12.8181  12.8181  12.9916  13.1430  13.1430
    13.1608  13.2605  13.2635  13.2635  13.2841  13.3246  13.3246  13.4084
    13.5084  13.5437  13.5437  13.5516  13.6149  13.6387  13.6465  13.7248
    13.8568  13.8568  13.8809  13.9226  13.9266  13.9410  13.9434  13.9705
    13.9705  14.0263  14.0743  14.0743  14.1578  14.2131  14.2302  14.2302
    14.4035  14.4703  14.4869  14.4869  14.8938  14.8938  15.0488  15.0488
    15.0781  15.0958  15.1174  15.1174  15.1738  15.2797  15.5652  15.6030
    15.6998  15.7493  15.7493  15.8000  15.9769  15.9769  15.9837  15.9837
    15.9853  15.9918  16.0841  16.0948  16.0948  16.1072  16.2054  16.2054
    16.2057  16.2492  16.2580  16.2580  16.3308  16.3320  16.3320  16.3604
    16.5288  16.5955  16.5976  16.6614  16.6614  16.7140  16.8712  16.9074
    16.9483  16.9489  16.9581  16.9793  16.9797  16.9802  17.0941  17.1138

          k = 0.0000 0.1923 0.1923 ( 48486 PWs)   bands (ev):

   -70.8367 -70.8192 -70.8158 -70.8050 -70.8011 -70.7974 -70.7800 -70.7775
   -70.7775 -70.7775 -70.7772 -70.7772 -70.7592 -70.7004 -70.7003 -70.7003
   -42.4113 -42.3996 -42.3927 -42.3905 -42.3797 -42.3774 -42.3763 -42.3640
   -37.4585 -37.3396 -37.3191 -37.2638 -37.2342 -37.2072 -37.1751 -37.0994
   -37.0872 -37.0856 -37.0674 -37.0662 -37.0636 -36.9420 -36.9411 -36.9408
   -36.8459 -36.8432 -36.8374 -36.8329 -36.8325 -36.8288 -36.8224 -36.8206
   -36.8099 -36.8056 -36.7984 -36.7977 -36.7941 -36.7890 -36.7870 -36.7813
   -36.7743 -36.7583 -36.7551 -36.7530 -36.7517 -36.7450 -36.7407 -36.7183
   -36.7148 -36.7125 -36.7114 -36.7058 -36.7038 -36.6708 -36.6694 -36.6681
   -18.6966 -18.6941 -18.6939 -18.6877 -18.6868 -18.6852 -18.6740 -18.6712
   -18.6664 -18.6288 -18.6284 -18.6210 -18.5984 -18.5910 -18.5907 -18.5524
   -18.5467 -18.5441 -18.5324 -18.5317 -18.5303 -18.5251 -18.5241 -18.5226
     4.5153   5.6270   5.8471   6.3348   6.7145   7.0233   8.3050   9.5535
    10.6533  10.8362  11.2596  11.3871  11.6676  11.8711  11.9390  11.9578
    11.9980  12.0631  12.1590  12.2029  12.3332  12.3467  12.3852  12.5564
    12.5908  12.6307  12.7989  12.9595  12.9659  13.0224  13.0713  13.1121
    13.1185  13.2075  13.2132  13.2919  13.3237  13.3866  13.3929  13.4218
    13.4307  13.5520  13.5530  13.5705  13.7151  13.7359  13.7543  13.7724
    13.7973  13.8049  13.8066  13.8230  13.8505  13.8539  13.9104  13.9354
    13.9559  13.9811  13.9823  14.0040  14.0220  14.0265  14.1126  14.2005
    14.5694  14.6198  14.6813  14.6897  14.7134  14.7278  15.0773  15.1103
    15.1138  15.1367  15.1962  15.2463  15.2689  15.3519  15.3830  15.6315
    15.6445  15.6536  15.6806  15.7080  15.7158  15.8582  15.8715  15.9637
    15.9640  15.9854  15.9929  15.9971  16.0451  16.0778  16.0853  16.1355
    16.2620  16.2827  16.3624  16.3680  16.3861  16.3933  16.4037  16.4550
    16.5162  16.6856  16.7038  16.7084  16.7753  16.8439  16.8584  16.8712
    16.8833  16.9179  16.9193  16.9801  16.9977  17.0072  17.0535  17.1488

          k = 0.0000 0.1923 0.3847 ( 48550 PWs)   bands (ev):

   -70.8333 -70.8250 -70.8167 -70.8053 -70.7999 -70.7921 -70.7831 -70.7775
   -70.7775 -70.7775 -70.7772 -70.7772 -70.7588 -70.7004 -70.7003 -70.7003
   -42.4101 -42.4004 -42.3948 -42.3912 -42.3789 -42.3776 -42.3717 -42.3668
   -37.4329 -37.3817 -37.3241 -37.2729 -37.2205 -37.1933 -37.1519 -37.1150
   -37.0833 -37.0817 -37.0729 -37.0706 -37.0649 -36.9450 -36.9447 -36.9425
   -36.8453 -36.8386 -36.8366 -36.8349 -36.8316 -36.8299 -36.8244 -36.8147
   -36.8119 -36.8095 -36.8051 -36.8008 -36.7916 -36.7876 -36.7838 -36.7787
   -36.7686 -36.7571 -36.7554 -36.7487 -36.7464 -36.7412 -36.7302 -36.7234
   -36.7171 -36.7163 -36.7142 -36.7096 -36.7070 -36.6719 -36.6710 -36.6697
   -18.6969 -18.6939 -18.6915 -18.6859 -18.6849 -18.6823 -18.6793 -18.6758
   -18.6595 -18.6436 -18.6288 -18.6265 -18.5924 -18.5900 -18.5751 -18.5600
   -18.5418 -18.5389 -18.5357 -18.5338 -18.5318 -18.5274 -18.5250 -18.5227
     4.7416   5.2319   5.8023   6.2905   6.8218   7.3895   8.1615   9.7705
    10.2040  10.8882  11.1290  11.3102  11.7219  11.8374  11.9556  12.0314
    12.0560  12.0881  12.1328  12.1706  12.2267  12.2430  12.2959  12.3872
    12.4907  12.5291  12.6033  13.0046  13.1015  13.1191  13.1720  13.2283
    13.2502  13.2731  13.2970  13.3230  13.3404  13.3471  13.4345  13.4426
    13.4778  13.4864  13.5207  13.5730  13.6327  13.6732  13.7117  13.7584
    13.7861  13.8048  13.8363  13.8379  13.8581  13.9077  13.9665  13.9821
    13.9930  14.0053  14.0314  14.0390  14.0628  14.1007  14.1298  14.1688
    14.6463  14.6692  14.6906  14.7188  14.9183  14.9437  15.0276  15.0538
    15.0757  15.1234  15.1477  15.1747  15.2065  15.2624  15.5193  15.5689
    15.6101  15.6420  15.7835  15.8505  15.8844  15.9343  15.9735  15.9875
    16.0258  16.0321  16.0680  16.0964  16.1165  16.1599  16.1886  16.2169
    16.2216  16.2268  16.2365  16.2690  16.3023  16.3289  16.3941  16.4141
    16.4417  16.5709  16.6137  16.6340  16.6936  16.7412  16.7713  16.7999
    16.8351  16.8669  16.8748  16.8982  16.9257  16.9755  17.0248  17.1403

          k = 0.0000 0.3847 0.3847 ( 48478 PWs)   bands (ev):

   -70.8300 -70.8253 -70.8224 -70.8060 -70.7941 -70.7912 -70.7864 -70.7775
   -70.7775 -70.7775 -70.7772 -70.7771 -70.7586 -70.7004 -70.7004 -70.7003
   -42.4094 -42.3989 -42.3964 -42.3944 -42.3767 -42.3738 -42.3725 -42.3692
   -37.4111 -37.3807 -37.3623 -37.2929 -37.1840 -37.1663 -37.1542 -37.1316
   -37.0832 -37.0782 -37.0780 -37.0736 -37.0672 -36.9471 -36.9465 -36.9458
   -36.8404 -36.8369 -36.8334 -36.8317 -36.8314 -36.8269 -36.8267 -36.8170
   -36.8150 -36.8146 -36.8112 -36.8071 -36.7863 -36.7822 -36.7780 -36.7763
   -36.7721 -36.7595 -36.7519 -36.7474 -36.7452 -36.7387 -36.7313 -36.7274
   -36.7181 -36.7152 -36.7127 -36.7114 -36.7089 -36.6727 -36.6706 -36.6694
   -18.6956 -18.6922 -18.6897 -18.6856 -18.6851 -18.6808 -18.6795 -18.6751
   -18.6570 -18.6450 -18.6430 -18.6384 -18.5806 -18.5753 -18.5737 -18.5628
   -18.5417 -18.5380 -18.5370 -18.5344 -18.5319 -18.5307 -18.5262 -18.5245
     4.9502   5.2455   5.4227   6.1690   7.2652   7.5183   7.8988   9.9759
    10.3415  10.4806  10.7479  11.3366  11.9114  11.9670  12.0091  12.0640
    12.0647  12.0764  12.0799  12.1085  12.1320  12.1755  12.2133  12.2907
    12.3471  12.3864  12.4037  13.0381  13.2423  13.2848  13.3125  13.3161
    13.3359  13.3652  13.3928  13.4169  13.4288  13.4536  13.4742  13.4824
    13.5221  13.5273  13.5375  13.5402  13.6216  13.6331  13.6693  13.6820
    13.7057  13.7058  13.7281  13.7726  13.7767  13.7850  13.8403  13.8701
    14.0127  14.0365  14.0387  14.1209  14.1307  14.1339  14.1777  14.1856
    14.8995  14.9160  14.9176  14.9432  14.9611  15.0012  15.0095  15.0363
    15.0961  15.1609  15.1651  15.2280  15.2962  15.3645  15.3730  15.4084
    15.5241  15.5825  15.6378  15.8307  15.8685  15.9010  15.9540  16.0287
    16.0712  16.0891  16.0981  16.1070  16.1216  16.1425  16.1715  16.1854
    16.1951  16.2667  16.2748  16.3009  16.3050  16.3436  16.3596  16.3823
    16.4140  16.4356  16.5773  16.6018  16.6439  16.6966  16.6987  16.7490
    16.8126  16.8446  16.8677  16.8812  16.8850  16.9962  17.0654  17.2756

          k = 0.1923 0.1923 0.1923 ( 48503 PWs)   bands (ev):

   -70.8355 -70.8192 -70.8192 -70.8054 -70.7974 -70.7974 -70.7812 -70.7775
   -70.7775 -70.7775 -70.7772 -70.7772 -70.7590 -70.7004 -70.7003 -70.7003
   -42.4108 -42.3997 -42.3927 -42.3927 -42.3781 -42.3763 -42.3763 -42.3649
   -37.4498 -37.3402 -37.3402 -37.2771 -37.2053 -37.2053 -37.1706 -37.1030
   -37.0859 -37.0859 -37.0703 -37.0662 -37.0662 -36.9430 -36.9430 -36.9427
   -36.8429 -36.8429 -36.8370 -36.8325 -36.8325 -36.8292 -36.8208 -36.8208
   -36.8137 -36.8046 -36.8046 -36.7974 -36.7876 -36.7876 -36.7837 -36.7837
   -36.7778 -36.7595 -36.7595 -36.7500 -36.7413 -36.7413 -36.7412 -36.7189
   -36.7189 -36.7163 -36.7100 -36.7055 -36.7055 -36.6711 -36.6711 -36.6672
   -18.6956 -18.6935 -18.6935 -18.6869 -18.6869 -18.6835 -18.6730 -18.6730
   -18.6673 -18.6315 -18.6311 -18.6311 -18.5882 -18.5882 -18.5877 -18.5519
   -18.5448 -18.5448 -18.5332 -18.5332 -18.5299 -18.5264 -18.5240 -18.5240
     4.5951   5.6335   5.6335   6.2542   7.0199   7.0199   8.2403   9.6232
    10.6365  10.8743  10.8743  11.4622  11.8525  11.8525  11.9104  11.9280
    11.9280  12.1124  12.1188  12.1188  12.3192  12.3460  12.3460  12.4672
    12.4812  12.4812  12.6859  12.9806  13.1085  13.1085  13.1354  13.1440
    13.1440  13.3145  13.3145  13.3451  13.3763  13.3814  13.3814  13.4472
    13.4472  13.5917  13.6019  13.6019  13.7129  13.7339  13.7339  13.7480
    13.7549  13.7549  13.8075  13.8075  13.8276  13.8716  13.8926  13.8926
    13.9252  13.9310  13.9310  14.0068  14.0068  14.0583  14.1685  14.1685
    14.7451  14.7451  14.7590  14.7683  14.7829  14.7829  15.1036  15.1036
    15.1567  15.2121  15.2121  15.2227  15.2492  15.2787  15.2787  15.6177
    15.6177  15.7021  15.7021  15.7413  15.7599  15.7714  15.7714  15.9969
    16.0527  16.0574  16.0574  16.0739  16.0739  16.1208  16.1651  16.1651
    16.2547  16.2575  16.2575  16.3148  16.3148  16.3608  16.3608  16.3684
    16.6574  16.6574  16.6684  16.6895  16.7283  16.7283  16.7481  16.8228
    16.8230  16.9502  16.9599  16.9635  16.9642  17.0138  17.0170  17.0642

          k = 0.1923 0.1923 0.3847 ( 48490 PWs)   bands (ev):

   -70.8322 -70.8250 -70.8192 -70.8056 -70.7974 -70.7919 -70.7842 -70.7775
   -70.7775 -70.7775 -70.7772 -70.7772 -70.7588 -70.7004 -70.7003 -70.7003
   -42.4098 -42.3999 -42.3954 -42.3927 -42.3778 -42.3763 -42.3720 -42.3676
   -37.4263 -37.3804 -37.3411 -37.2828 -37.2021 -37.1823 -37.1516 -37.1181
   -37.0830 -37.0824 -37.0752 -37.0720 -37.0668 -36.9460 -36.9459 -36.9443
   -36.8426 -36.8374 -36.8361 -36.8333 -36.8309 -36.8282 -36.8235 -36.8158
   -36.8155 -36.8096 -36.8060 -36.8035 -36.7921 -36.7857 -36.7810 -36.7775
   -36.7712 -36.7603 -36.7577 -36.7498 -36.7469 -36.7368 -36.7307 -36.7225
   -36.7217 -36.7170 -36.7101 -36.7086 -36.7073 -36.6718 -36.6711 -36.6683
   -18.6955 -18.6933 -18.6900 -18.6847 -18.6847 -18.6814 -18.6777 -18.6772
   -18.6613 -18.6459 -18.6350 -18.6349 -18.5842 -18.5837 -18.5729 -18.5584
   -18.5405 -18.5402 -18.5357 -18.5353 -18.5325 -18.5287 -18.5260 -18.5240
     4.8096   5.2519   5.6442   6.2332   7.0143   7.4199   8.0691   9.8383
    10.2699  10.8316  10.9516  11.3212  11.6866  11.7871  11.9550  12.0398
    12.0448  12.1178  12.1228  12.1427  12.2181  12.2193  12.2580  12.3283
    12.3817  12.4168  12.4923  12.9962  13.2292  13.2312  13.2408  13.2933
    13.2961  13.3323  13.3366  13.3699  13.3774  13.3982  13.4629  13.4788
    13.5140  13.5273  13.5437  13.6020  13.6074  13.6872  13.6949  13.7215
    13.7525  13.7734  13.7969  13.8129  13.8174  13.8472  13.9094  13.9373
    13.9379  13.9556  13.9898  14.0366  14.0564  14.1153  14.1244  14.1811
    14.7943  14.8019  14.8470  14.8765  14.9614  14.9994  15.0712  15.0933
    15.1180  15.1341  15.1926  15.2448  15.2644  15.2973  15.4512  15.5437
    15.6175  15.6610  15.6770  15.7844  15.8028  15.8742  15.8884  15.9201
    16.0446  16.0700  16.1154  16.1263  16.1399  16.1788  16.1824  16.1954
    16.2139  16.2300  16.2594  16.2606  16.3237  16.3435  16.3667  16.3717
    16.4603  16.4708  16.5329  16.5655  16.6328  16.6534  16.6760  16.7636
    16.7739  16.8011  16.9286  16.9330  16.9692  17.0359  17.0395  17.0788

          k = 0.1923 0.3847 0.3847 ( 48499 PWs)   bands (ev):

   -70.8294 -70.8253 -70.8233 -70.8061 -70.7933 -70.7912 -70.7871 -70.7775
   -70.7775 -70.7775 -70.7772 -70.7771 -70.7586 -70.7004 -70.7004 -70.7003
   -42.4094 -42.3987 -42.3964 -42.3951 -42.3762 -42.3735 -42.3725 -42.3696
   -37.4077 -37.3816 -37.3688 -37.2950 -37.1750 -37.1626 -37.1510 -37.1311
   -37.0834 -37.0806 -37.0793 -37.0748 -37.0701 -36.9479 -36.9476 -36.9471
   -36.8373 -36.8356 -36.8330 -36.8305 -36.8299 -36.8271 -36.8253 -36.8174
   -36.8158 -36.8120 -36.8109 -36.8063 -36.7883 -36.7846 -36.7777 -36.7771
   -36.7749 -36.7643 -36.7580 -36.7555 -36.7459 -36.7367 -36.7286 -36.7266
   -36.7186 -36.7163 -36.7085 -36.7084 -36.7070 -36.6712 -36.6697 -36.6681
   -18.6931 -18.6904 -18.6883 -18.6843 -18.6837 -18.6800 -18.6788 -18.6757
   -18.6609 -18.6495 -18.6477 -18.6446 -18.5745 -18.5709 -18.5694 -18.5594
   -18.5411 -18.5383 -18.5376 -18.5362 -18.5324 -18.5322 -18.5280 -18.5266
     4.9949   5.2538   5.3810   6.1606   7.3240   7.5006   7.8331  10.0188
    10.3983  10.5621  10.7687  11.3165  11.7012  11.8364  11.9240  11.9822
    12.0339  12.0793  12.1033  12.1188  12.1466  12.1619  12.1771  12.2462
    12.2887  12.3298  12.3498  13.0007  13.3302  13.3618  13.3769  13.3828
    13.3927  13.4130  13.4379  13.4413  13.4543  13.4899  13.5008  13.5222
    13.5343  13.5347  13.5547  13.5759  13.6220  13.6518  13.6590  13.6717
    13.6813  13.7160  13.7225  13.7420  13.7555  13.7697  13.8208  13.8600
    13.9681  13.9974  13.9981  14.0352  14.1061  14.1308  14.1543  14.1795
    14.9899  14.9947  15.0300  15.0531  15.0596  15.0925  15.1106  15.1265
    15.2177  15.2397  15.2877  15.3289  15.3696  15.4047  15.4127  15.4877
    15.5076  15.5635  15.6202  15.6957  15.7617  15.7740  15.8953  15.9241
    15.9622  15.9651  16.0527  16.0535  16.1081  16.1564  16.1573  16.1711
    16.1917  16.2416  16.2541  16.2684  16.2801  16.2984  16.3209  16.3384
    16.4128  16.4204  16.4762  16.5272  16.6265  16.7232  16.7514  16.7657
    16.7718  16.8371  16.8616  16.9022  16.9612  17.0369  17.0385  17.1364

          k = 0.3847 0.3847 0.3847 ( 48449 PWs)   bands (ev):

   -70.8278 -70.8253 -70.8253 -70.8061 -70.7912 -70.7912 -70.7888 -70.7775
   -70.7775 -70.7775 -70.7771 -70.7771 -70.7586 -70.7004 -70.7004 -70.7004
   -42.4093 -42.3979 -42.3965 -42.3965 -42.3756 -42.3725 -42.3725 -42.3708
   -37.3982 -37.3831 -37.3831 -37.2981 -37.1562 -37.1562 -37.1459 -37.1348
   -37.0837 -37.0837 -37.0829 -37.0757 -37.0757 -36.9494 -36.9494 -36.9492
   -36.8334 -36.8322 -36.8322 -36.8283 -36.8281 -36.8281 -36.8244 -36.8162
   -36.8162 -36.8088 -36.8057 -36.8057 -36.7880 -36.7880 -36.7792 -36.7792
   -36.7781 -36.7705 -36.7705 -36.7678 -36.7421 -36.7421 -36.7251 -36.7234
   -36.7234 -36.7099 -36.7064 -36.7064 -36.7023 -36.6682 -36.6682 -36.6669
   -18.6871 -18.6866 -18.6866 -18.6821 -18.6821 -18.6770 -18.6770 -18.6765
   -18.6665 -18.6575 -18.6560 -18.6560 -18.5638 -18.5624 -18.5624 -18.5551
   -18.5404 -18.5404 -18.5384 -18.5384 -18.5355 -18.5331 -18.5315 -18.5315
     5.1114   5.2674   5.2674   6.1503   7.4720   7.4720   7.6743  10.0892
    10.5461  10.7335  10.7335  11.2860  11.5561  11.5561  11.7281  12.0109
    12.0254  12.0254  12.0718  12.0718  12.0912  12.1037  12.1037  12.1674
    12.2756  12.2756  12.2935  12.9512  13.4494  13.4494  13.4530  13.4770
    13.4770  13.4977  13.4977  13.5041  13.5059  13.5216  13.5216  13.5501
    13.5541  13.5541  13.6006  13.6006  13.6038  13.6136  13.6342  13.6342
    13.7026  13.7026  13.7325  13.7332  13.7332  13.7357  13.7685  13.7685
    13.9696  13.9867  13.9867  14.0523  14.0523  14.1228  14.1350  14.1350
    15.1783  15.1783  15.1860  15.2399  15.2399  15.2762  15.2762  15.2768
    15.3423  15.3423  15.3979  15.5099  15.5376  15.5376  15.5493  15.5704
    15.5704  15.6078  15.6137  15.6137  15.6730  15.6730  15.6838  15.7322
    15.7322  15.8247  15.8343  15.8343  15.9630  16.0876  16.0876  16.0886
    16.1449  16.1449  16.1721  16.1888  16.1888  16.1934  16.2423  16.2423
    16.4477  16.4477  16.4579  16.6960  16.7404  16.7406  16.7828  16.8048
    16.8049  16.8183  16.8366  16.8402  16.9002  16.9575  16.9921  17.3594

     the Fermi energy is    15.1815 ev

!    total energy              =   -6230.60315090 Ry
     estimated scf accuracy    <          7.8E-10 Ry
     smearing contrib. (-TS)   =       0.00075690 Ry
     internal energy E=F+TS    =   -6230.60390780 Ry

     The total energy is F=E-TS. E is the sum of the following terms:
     one-electron contribution =   -2588.55777494 Ry
     hartree contribution      =    1473.05836535 Ry
     xc contribution           =    -706.39468631 Ry
     ewald contribution        =   -3190.23658890 Ry
     one-center paw contrib.   =   -1218.47322300 Ry

     total magnetization       =    19.73 Bohr mag/cell
     absolute magnetization    =    38.66 Bohr mag/cell

     convergence has been achieved in  15 iterations

     negative rho (up, down):  7.137E-03 1.109E-03

     Forces acting on atoms (cartesian axes, Ry/au):

     atom    1 type  1   force =     0.00195872    0.00195872    0.00033329
     atom    2 type  1   force =    -0.00492267   -0.00492267   -0.00492267
     atom    3 type  1   force =    -0.00195872    0.00033329   -0.00195872
     atom    4 type  1   force =    -0.00033329   -0.00195872    0.00195872
     atom    5 type  1   force =     0.00195872    0.00033329    0.00195872
     atom    6 type  1   force =     0.00033329    0.00195872    0.00195872
     atom    7 type  1   force =    -0.00195872   -0.00033329    0.00195872
     atom    8 type  1   force =     0.00492267   -0.00492267    0.00492267
     atom    9 type  1   force =    -0.00492267    0.00492267    0.00492267
     atom   10 type  1   force =     0.00033329   -0.00195872   -0.00195872
     atom   11 type  1   force =    -0.00033329    0.00195872   -0.00195872
     atom   12 type  1   force =    -0.00195872   -0.00195872    0.00033329
     atom   13 type  1   force =     0.00492267    0.00492267   -0.00492267
     atom   14 type  1   force =    -0.00195872    0.00195872   -0.00033329
     atom   15 type  1   force =     0.00195872   -0.00033329   -0.00195872
     atom   16 type  1   force =     0.00195872   -0.00195872   -0.00033329
     atom   17 type  2   force =     0.00000000    0.00000000    0.00000000
     atom   18 type  2   force =    -0.00085651   -0.00085651    0.00085651
     atom   19 type  2   force =     0.00000000    0.00000000    0.00000000
     atom   20 type  2   force =    -0.00085651    0.00085651   -0.00085651
     atom   21 type  2   force =     0.00000000    0.00000000    0.00000000
     atom   22 type  2   force =     0.00085651    0.00085651    0.00085651
     atom   23 type  2   force =     0.00085651   -0.00085651   -0.00085651
     atom   24 type  2   force =     0.00000000    0.00000000    0.00000000
     atom   25 type  3   force =     0.01198251    0.01198251   -0.01198251
     atom   26 type  3   force =     0.00000000    0.00000000    0.00000000
     atom   27 type  3   force =     0.01198251   -0.01198251    0.01198251
     atom   28 type  3   force =     0.00000000    0.00000000    0.00000000
     atom   29 type  3   force =    -0.01198251   -0.01198251   -0.01198251
     atom   30 type  3   force =    -0.01198251    0.01198251    0.01198251
     atom   31 type  3   force =     0.00000000    0.00000000    0.00000000

     Total force =     0.046000     Total SCF correction =     0.000218


     Computing stress (Cartesian axis) and pressure


     negative rho (up, down):  7.137E-03 1.109E-03
          total   stress  (Ry/bohr**3)                   (kbar)     P=        0.37
   0.00000253   0.00000000   0.00000000            0.37        0.00        0.00
   0.00000000   0.00000253   0.00000000            0.00        0.37        0.00
   0.00000000   0.00000000   0.00000253            0.00        0.00        0.37

     Energy error            =      3.9E-03 Ry
     Gradient error          =      1.2E-02 Ry/Bohr
     Cell gradient error     =      3.7E-01 kbar

     number of scf cycles    =   3
     number of bfgs steps    =   2

     enthalpy           old  =   -6230.5992366376 Ry
     enthalpy           new  =   -6230.6031509047 Ry

     CASE: enthalpy          _new < enthalpy          _old

     new trust radius        =       0.0270695780 bohr
     new conv_thr            =       0.0000000012 Ry

     new unit-cell volume =   2344.90934 a.u.^3 (   347.47971 Ang^3 )
     density =      6.13364 g/cm^3

CELL_PARAMETERS (alat= 12.76591255)
   1.040695045   0.000000000   0.000000000
   0.000000000   1.040695045   0.000000000
   0.000000000   0.000000000   1.040695045

ATOMIC_POSITIONS (crystal)
Fe               0.1255393088        0.1255393088        0.6248265027
Fe               0.6179526721        0.6179526721        0.6179526721
Fe               0.8744606912        0.6248265027        0.8744606912
Fe               0.3751734973        0.8744606912        0.1255393088
Fe               0.1255393088        0.6248265027        0.1255393088
Fe               0.6248265027        0.1255393088        0.1255393088
Fe               0.8744606912        0.3751734973        0.1255393088
Fe               0.3820473279        0.6179526721        0.3820473279
Fe               0.6179526721        0.3820473279        0.3820473279
Fe               0.6248265027        0.8744606912        0.8744606912
Fe               0.3751734973        0.1255393088        0.8744606912
Fe               0.8744606912        0.8744606912        0.6248265027
Fe               0.3820473279        0.3820473279        0.6179526721
Fe               0.8744606912        0.1255393088        0.3751734973
Fe               0.1255393088        0.3751734973        0.8744606912
Fe               0.1255393088        0.8744606912        0.3751734973
Ti               0.0000000000        0.0000000000        0.0000000000
Ti               0.7497027644        0.7497027644        0.2502972356
Ti               0.5000000000        0.0000000000        0.5000000000
Ti               0.7497027644        0.2502972356        0.7497027644
Ti               0.0000000000        0.5000000000        0.5000000000
Ti               0.2502972356        0.2502972356        0.2502972356
Ti               0.2502972356        0.7497027644        0.7497027644
Ti               0.5000000000        0.5000000000        0.0000000000
H                0.2520356525        0.2520356525        0.7479643475
H                0.0000000000        0.5000000000        0.0000000000
H                0.2520356525        0.7479643475        0.2520356525
H                0.5000000000        0.0000000000        0.0000000000
H                0.7479643475        0.7479643475        0.7479643475
H                0.7479643475        0.2520356525        0.2520356525
H                0.0000000000        0.0000000000        0.5000000000



     Writing config-only to output data dir ./TiFe2_cub_8b_8H.save/ :
     XML data file     NEW-OLD atomic charge density approx. for the potential
     New effective cutoffs (rho, wfc): 1602.82  114.47

     negative rho (up, down):  7.156E-03 1.122E-03
     Generating pointlists ...

     total cpu time spent up to now is    26366.5 secs

     per-process dynamical memory:   530.5 Mb

     Self-consistent Calculation

     iteration #  1     ecut=   124.00 Ry     beta= 0.20
     CG style diagonalization
     c_bands:  4 eigenvalues not converged
     c_bands:  4 eigenvalues not converged
     c_bands:  3 eigenvalues not converged
     c_bands:  4 eigenvalues not converged
     c_bands:  5 eigenvalues not converged
     c_bands:  3 eigenvalues not converged
     c_bands:  1 eigenvalues not converged
     c_bands:  3 eigenvalues not converged
     c_bands:  5 eigenvalues not converged
     c_bands:  4 eigenvalues not converged
     c_bands:  4 eigenvalues not converged
     c_bands:  3 eigenvalues not converged
     c_bands:  3 eigenvalues not converged
     c_bands:  2 eigenvalues not converged
     ethr =  1.00E-06,  avg # of iterations =  8.1

     negative rho (up, down):  7.153E-03 1.116E-03

     total cpu time spent up to now is    27338.5 secs

     total energy              =   -6230.60453916 Ry
     estimated scf accuracy    <       0.00389514 Ry

     total magnetization       =    19.76 Bohr mag/cell
     absolute magnetization    =    38.74 Bohr mag/cell

     iteration #  2     ecut=   124.00 Ry     beta= 0.20
     CG style diagonalization
     c_bands:  2 eigenvalues not converged
     c_bands:  1 eigenvalues not converged
     ethr =  1.08E-06,  avg # of iterations =  3.5

     negative rho (up, down):  7.154E-03 1.109E-03

     total cpu time spent up to now is    27662.7 secs

     total energy              =   -6230.60519246 Ry
     estimated scf accuracy    <       0.00107580 Ry

     total magnetization       =    19.74 Bohr mag/cell
     absolute magnetization    =    38.74 Bohr mag/cell

     iteration #  3     ecut=   124.00 Ry     beta= 0.20
     CG style diagonalization
     ethr =  3.00E-07,  avg # of iterations =  3.6

     negative rho (up, down):  7.157E-03 1.105E-03

     total cpu time spent up to now is    28008.4 secs

     total energy              =   -6230.60540914 Ry
     estimated scf accuracy    <       0.00026202 Ry

     total magnetization       =    19.74 Bohr mag/cell
     absolute magnetization    =    38.75 Bohr mag/cell

     iteration #  4     ecut=   124.00 Ry     beta= 0.20
     CG style diagonalization
     ethr =  7.30E-08,  avg # of iterations =  4.7

     negative rho (up, down):  7.161E-03 1.098E-03

     total cpu time spent up to now is    28486.5 secs

     total energy              =   -6230.60557496 Ry
     estimated scf accuracy    <       0.00037965 Ry

     total magnetization       =    19.75 Bohr mag/cell
     absolute magnetization    =    38.77 Bohr mag/cell

     iteration #  5     ecut=   124.00 Ry     beta= 0.20
     CG style diagonalization
     ethr =  7.30E-08,  avg # of iterations =  3.4

     negative rho (up, down):  7.164E-03 1.094E-03

     total cpu time spent up to now is    28798.1 secs

     total energy              =   -6230.60563777 Ry
     estimated scf accuracy    <       0.00002881 Ry

     total magnetization       =    19.75 Bohr mag/cell
     absolute magnetization    =    38.78 Bohr mag/cell

     iteration #  6     ecut=   124.00 Ry     beta= 0.20
     CG style diagonalization
     ethr =  8.03E-09,  avg # of iterations =  5.5

     negative rho (up, down):  7.168E-03 1.095E-03

     total cpu time spent up to now is    29375.1 secs

     total energy              =   -6230.60568673 Ry
     estimated scf accuracy    <       0.00003020 Ry

     total magnetization       =    19.75 Bohr mag/cell
     absolute magnetization    =    38.80 Bohr mag/cell

     iteration #  7     ecut=   124.00 Ry     beta= 0.20
     CG style diagonalization
     ethr =  8.03E-09,  avg # of iterations =  3.4

     negative rho (up, down):  7.173E-03 1.094E-03

     total cpu time spent up to now is    29687.8 secs

     total energy              =   -6230.60569844 Ry
     estimated scf accuracy    <       0.00004171 Ry

     total magnetization       =    19.75 Bohr mag/cell
     absolute magnetization    =    38.80 Bohr mag/cell

     iteration #  8     ecut=   124.00 Ry     beta= 0.20
     CG style diagonalization
     ethr =  8.03E-09,  avg # of iterations =  3.0

     negative rho (up, down):  7.181E-03 1.093E-03

     total cpu time spent up to now is    29960.2 secs

     total energy              =   -6230.60570442 Ry
     estimated scf accuracy    <       0.00000416 Ry

     total magnetization       =    19.75 Bohr mag/cell
     absolute magnetization    =    38.81 Bohr mag/cell

     iteration #  9     ecut=   124.00 Ry     beta= 0.20
     CG style diagonalization
     ethr =  1.16E-09,  avg # of iterations =  4.3

     negative rho (up, down):  7.181E-03 1.093E-03

     total cpu time spent up to now is    30397.0 secs

     total energy              =   -6230.60570958 Ry
     estimated scf accuracy    <       0.00000127 Ry

     total magnetization       =    19.75 Bohr mag/cell
     absolute magnetization    =    38.82 Bohr mag/cell

     iteration # 10     ecut=   124.00 Ry     beta= 0.20
     CG style diagonalization
     ethr =  3.55E-10,  avg # of iterations =  4.5

     negative rho (up, down):  7.181E-03 1.093E-03

     total cpu time spent up to now is    30845.4 secs

     total energy              =   -6230.60571205 Ry
     estimated scf accuracy    <       0.00000077 Ry

     total magnetization       =    19.75 Bohr mag/cell
     absolute magnetization    =    38.82 Bohr mag/cell

     iteration # 11     ecut=   124.00 Ry     beta= 0.20
     CG style diagonalization
     ethr =  2.15E-10,  avg # of iterations =  3.5

     negative rho (up, down):  7.184E-03 1.092E-03

     total cpu time spent up to now is    31177.1 secs

     total energy              =   -6230.60571341 Ry
     estimated scf accuracy    <       0.00000023 Ry

     total magnetization       =    19.75 Bohr mag/cell
     absolute magnetization    =    38.82 Bohr mag/cell

     iteration # 12     ecut=   124.00 Ry     beta= 0.20
     CG style diagonalization
     ethr =  6.35E-11,  avg # of iterations =  4.4

     negative rho (up, down):  7.186E-03 1.090E-03

     total cpu time spent up to now is    31619.7 secs

     total energy              =   -6230.60571422 Ry
     estimated scf accuracy    <       0.00000016 Ry

     total magnetization       =    19.75 Bohr mag/cell
     absolute magnetization    =    38.83 Bohr mag/cell

     iteration # 13     ecut=   124.00 Ry     beta= 0.20
     CG style diagonalization
     ethr =  4.39E-11,  avg # of iterations =  4.0

     negative rho (up, down):  7.187E-03 1.090E-03

     total cpu time spent up to now is    32010.4 secs

     total energy              =   -6230.60571474 Ry
     estimated scf accuracy    <       0.00000009 Ry

     total magnetization       =    19.75 Bohr mag/cell
     absolute magnetization    =    38.84 Bohr mag/cell

     iteration # 14     ecut=   124.00 Ry     beta= 0.20
     CG style diagonalization
     ethr =  2.61E-11,  avg # of iterations =  3.5

     negative rho (up, down):  7.188E-03 1.089E-03

     total cpu time spent up to now is    32335.8 secs

     total energy              =   -6230.60571505 Ry
     estimated scf accuracy    <       0.00000006 Ry

     total magnetization       =    19.75 Bohr mag/cell
     absolute magnetization    =    38.84 Bohr mag/cell

     iteration # 15     ecut=   124.00 Ry     beta= 0.20
     CG style diagonalization
     ethr =  1.79E-11,  avg # of iterations =  3.9

     negative rho (up, down):  7.189E-03 1.088E-03

     total cpu time spent up to now is    32720.5 secs

     total energy              =   -6230.60571526 Ry
     estimated scf accuracy    <       0.00000003 Ry

     total magnetization       =    19.75 Bohr mag/cell
     absolute magnetization    =    38.84 Bohr mag/cell

     iteration # 16     ecut=   124.00 Ry     beta= 0.20
     CG style diagonalization
     c_bands:  1 eigenvalues not converged
     ethr =  8.13E-12,  avg # of iterations =  3.8

     negative rho (up, down):  7.189E-03 1.089E-03

     total cpu time spent up to now is    33078.9 secs

     total energy              =   -6230.60571539 Ry
     estimated scf accuracy    <       0.00000001 Ry

     total magnetization       =    19.75 Bohr mag/cell
     absolute magnetization    =    38.84 Bohr mag/cell

     iteration # 17     ecut=   124.00 Ry     beta= 0.20
     CG style diagonalization
     ethr =  4.08E-12,  avg # of iterations =  3.9

     negative rho (up, down):  7.189E-03 1.089E-03

     total cpu time spent up to now is    33449.8 secs

     total energy              =   -6230.60571547 Ry
     estimated scf accuracy    <          5.5E-09 Ry

     total magnetization       =    19.75 Bohr mag/cell
     absolute magnetization    =    38.84 Bohr mag/cell

     iteration # 18     ecut=   124.00 Ry     beta= 0.20
     CG style diagonalization
     ethr =  1.54E-12,  avg # of iterations =  4.3

     negative rho (up, down):  7.189E-03 1.089E-03

     total cpu time spent up to now is    33884.8 secs

     total energy              =   -6230.60571552 Ry
     estimated scf accuracy    <          4.4E-09 Ry

     total magnetization       =    19.75 Bohr mag/cell
     absolute magnetization    =    38.84 Bohr mag/cell

     iteration # 19     ecut=   124.00 Ry     beta= 0.20
     CG style diagonalization
     ethr =  1.23E-12,  avg # of iterations =  3.7

     negative rho (up, down):  7.189E-03 1.089E-03

     total cpu time spent up to now is    34240.3 secs

     total energy              =   -6230.60571556 Ry
     estimated scf accuracy    <          1.3E-09 Ry

     total magnetization       =    19.75 Bohr mag/cell
     absolute magnetization    =    38.84 Bohr mag/cell

     iteration # 20     ecut=   124.00 Ry     beta= 0.20
     CG style diagonalization
     ethr =  3.60E-13,  avg # of iterations =  4.2

     negative rho (up, down):  7.189E-03 1.089E-03

     Magnetic moment per site  (integrated on atomic sphere of radius R)
     atom   1 (R=0.089)  charge= 11.1824  magn=  1.3681
     atom   2 (R=0.089)  charge= 11.1696  magn=  1.4667
     atom   3 (R=0.089)  charge= 11.1824  magn=  1.3681
     atom   4 (R=0.089)  charge= 11.1824  magn=  1.3681
     atom   5 (R=0.089)  charge= 11.1824  magn=  1.3681
     atom   6 (R=0.089)  charge= 11.1824  magn=  1.3681
     atom   7 (R=0.089)  charge= 11.1824  magn=  1.3681
     atom   8 (R=0.089)  charge= 11.1696  magn=  1.4667
     atom   9 (R=0.089)  charge= 11.1696  magn=  1.4667
     atom  10 (R=0.089)  charge= 11.1824  magn=  1.3681
     atom  11 (R=0.089)  charge= 11.1824  magn=  1.3681
     atom  12 (R=0.089)  charge= 11.1824  magn=  1.3681
     atom  13 (R=0.089)  charge= 11.1696  magn=  1.4667
     atom  14 (R=0.089)  charge= 11.1824  magn=  1.3681
     atom  15 (R=0.089)  charge= 11.1824  magn=  1.3681
     atom  16 (R=0.089)  charge= 11.1824  magn=  1.3681
     atom  17 (R=0.171)  charge= 10.1885  magn= -0.7936
     atom  18 (R=0.171)  charge= 10.1961  magn= -0.8170
     atom  19 (R=0.171)  charge= 10.1938  magn= -0.8351
     atom  20 (R=0.171)  charge= 10.1961  magn= -0.8170
     atom  21 (R=0.171)  charge= 10.1938  magn= -0.8351
     atom  22 (R=0.171)  charge= 10.1961  magn= -0.8170
     atom  23 (R=0.171)  charge= 10.1961  magn= -0.8170
     atom  24 (R=0.171)  charge= 10.1938  magn= -0.8351
     atom  25 (R=0.089)  charge=  0.9840  magn= -0.0059
     atom  26 (R=0.089)  charge=  1.0049  magn= -0.0055
     atom  27 (R=0.089)  charge=  0.9840  magn= -0.0059
     atom  28 (R=0.089)  charge=  1.0049  magn= -0.0055
     atom  29 (R=0.089)  charge=  0.9840  magn= -0.0059
     atom  30 (R=0.089)  charge=  0.9840  magn= -0.0059
     atom  31 (R=0.089)  charge=  1.0049  magn= -0.0055

     total cpu time spent up to now is    34654.9 secs

     End of self-consistent calculation

 ------ SPIN UP ------------


          k = 0.0000 0.0000 0.0000 ( 48489 PWs)   bands (ev):

   -73.0330 -72.9743 -72.9743 -72.9743 -72.9380 -72.9148 -72.9148 -72.9065
   -72.9065 -72.9065 -72.8837 -72.8837 -72.8837 -72.8834 -72.8834 -72.8834
   -41.7203 -41.6825 -41.6699 -41.6699 -41.6699 -41.6601 -41.6601 -41.6439
   -39.4419 -39.3097 -39.2268 -39.2268 -39.2236 -39.2236 -39.2236 -39.1265
   -39.1265 -39.1265 -39.0447 -39.0447 -39.0447 -39.0399 -39.0399 -39.0263
   -39.0263 -39.0263 -38.9675 -38.9675 -38.9675 -38.9448 -38.9395 -38.9395
   -38.9304 -38.9304 -38.9304 -38.9267 -38.9267 -38.9267 -38.9043 -38.9043
   -38.8916 -38.8916 -38.8916 -38.8741 -38.8721 -38.8721 -38.8721 -38.8566
   -38.8566 -38.8566 -38.8377 -38.8377 -38.8377 -38.8135 -38.8135 -38.8135
   -17.9870 -17.9870 -17.9870 -17.9625 -17.9625 -17.9625 -17.9501 -17.9501
   -17.9501 -17.8945 -17.8945 -17.8945 -17.8911 -17.8911 -17.8897 -17.8327
   -17.8327 -17.8327 -17.8176 -17.8176 -17.8176 -17.8012 -17.8012 -17.8012
     4.0078   5.8658   5.8658   5.9877   5.9877   5.9877   8.0963   9.1645
    10.8129  10.8329  10.8329  10.8329  11.0700  11.0700  11.0843  11.0843
    11.0843  11.6542  11.7064  11.7064  11.7064  11.8044  11.8044  11.8044
    11.8204  11.8204  11.8204  11.8232  11.8497  11.8497  11.8848  11.8848
    11.8848  12.0841  12.0841  12.3128  12.3128  12.3128  12.3845  12.3845
    12.3845  12.3915  12.3915  12.3915  12.4259  12.4259  12.5221  12.8567
    12.8567  12.9337  12.9337  12.9337  12.9403  12.9549  12.9549  12.9549
    13.0151  13.0151  13.0151  13.0476  13.0476  13.0476  13.1110  13.1110
    13.1110  13.6001  13.6001  13.6001  13.6581  13.6581  13.6581  13.6731
    13.6731  13.6731  13.8103  13.8103  13.8320  13.8320  13.8439  13.8439
    13.8439  13.8740  13.8911  13.8911  13.8911  14.4500  14.4500  14.6654
    14.6654  14.6654  14.9181  14.9297  14.9297  14.9297  14.9918  14.9918
    15.2586  15.2586  15.2586  16.1099  16.1099  16.1099  16.1155  16.1155
    16.1155  16.1582  16.1582  16.1582  16.4876  16.4877  16.4877  16.5303
    16.5303  16.5307  16.6362  16.6362  16.6830  16.6905  16.6908  17.5429

          k = 0.0000 0.0000 0.1922 ( 48469 PWs)   bands (ev):

   -73.0330 -72.9746 -72.9743 -72.9743 -72.9366 -72.9193 -72.9148 -72.9065
   -72.9065 -72.9020 -72.8845 -72.8837 -72.8837 -72.8837 -72.8834 -72.8834
   -41.7203 -41.6823 -41.6720 -41.6699 -41.6699 -41.6601 -41.6574 -41.6448
   -39.4335 -39.3210 -39.2617 -39.2261 -39.2229 -39.2229 -39.1834 -39.1269
   -39.1243 -39.1243 -39.0497 -39.0497 -39.0480 -39.0466 -39.0394 -39.0310
   -39.0310 -39.0192 -38.9724 -38.9649 -38.9649 -38.9410 -38.9408 -38.9363
   -38.9282 -38.9282 -38.9279 -38.9276 -38.9228 -38.9228 -38.9085 -38.8967
   -38.8918 -38.8876 -38.8876 -38.8775 -38.8740 -38.8740 -38.8689 -38.8571
   -38.8571 -38.8548 -38.8417 -38.8393 -38.8393 -38.8171 -38.8154 -38.8154
   -17.9871 -17.9863 -17.9863 -17.9628 -17.9623 -17.9623 -17.9515 -17.9515
   -17.9478 -17.9080 -17.8943 -17.8943 -17.8908 -17.8899 -17.8769 -17.8350
   -17.8313 -17.8313 -17.8179 -17.8174 -17.8174 -17.8023 -17.8023 -17.8012
     4.0922   5.3349   5.8682   5.9902   5.9902   6.5227   8.0624   9.2488
    10.5100  10.7416  10.8833  10.8833  11.0126  11.1133  11.1200  11.1200
    11.2205  11.5527  11.5527  11.5578  11.6545  11.6545  11.6727  11.6824
    11.6858  11.8358  11.9097  11.9097  11.9238  11.9476  11.9476  11.9555
    12.0414  12.0935  12.1228  12.1895  12.2255  12.2255  12.2255  12.3570
    12.3570  12.4055  12.4371  12.4616  12.4686  12.4686  12.6785  12.7590
    12.8073  12.8073  12.8256  12.8787  12.8881  12.8881  12.9389  13.0331
    13.0402  13.0402  13.1518  13.2110  13.2110  13.2123  13.2372  13.2903
    13.2903  13.5673  13.5673  13.5836  13.6119  13.6167  13.6210  13.6210
    13.6768  13.7298  13.7392  13.7392  13.7909  13.7909  13.8008  13.8111
    13.9322  13.9630  13.9734  13.9734  14.0173  14.4550  14.5698  14.5698
    14.5936  14.6210  14.7511  14.8740  14.8740  14.8917  14.9390  15.1133
    15.3430  15.4135  15.4135  16.0549  16.0549  16.0923  16.0928  16.0989
    16.0989  16.1328  16.1328  16.2105  16.2892  16.3230  16.3435  16.3438
    16.3620  16.4239  16.4241  16.7928  16.8170  16.8252  16.9773  17.3592

          k = 0.0000 0.0000 0.3844 ( 48538 PWs)   bands (ev):

   -73.0329 -72.9750 -72.9743 -72.9743 -72.9331 -72.9255 -72.9148 -72.9065
   -72.9065 -72.8962 -72.8873 -72.8837 -72.8837 -72.8837 -72.8834 -72.8834
   -41.7202 -41.6816 -41.6748 -41.6699 -41.6699 -41.6601 -41.6530 -41.6472
   -39.4130 -39.3512 -39.2746 -39.2250 -39.2218 -39.2218 -39.1565 -39.1278
   -39.1200 -39.1200 -39.0578 -39.0578 -39.0561 -39.0499 -39.0387 -39.0379
   -39.0379 -39.0125 -38.9775 -38.9622 -38.9622 -38.9425 -38.9419 -38.9305
   -38.9268 -38.9254 -38.9254 -38.9195 -38.9143 -38.9143 -38.9110 -38.8927
   -38.8891 -38.8826 -38.8826 -38.8809 -38.8767 -38.8767 -38.8708 -38.8564
   -38.8564 -38.8508 -38.8437 -38.8437 -38.8425 -38.8267 -38.8183 -38.8183
   -17.9874 -17.9853 -17.9853 -17.9633 -17.9614 -17.9614 -17.9545 -17.9545
   -17.9426 -17.9201 -17.8941 -17.8941 -17.8904 -17.8894 -17.8644 -17.8405
   -17.8288 -17.8288 -17.8182 -17.8170 -17.8170 -17.8045 -17.8045 -17.8011
     4.3181   4.8451   5.8719   5.9942   5.9942   6.9714   7.9649   9.5122
     9.9721  10.6237  11.0310  11.0310  11.1582  11.1858  11.1961  11.1961
    11.2132  11.2701  11.2701  11.4014  11.5436  11.5436  11.5579  11.6425
    11.6774  11.7393  11.9446  11.9745  12.0051  12.0051  12.0476  12.0476
    12.0816  12.0882  12.0882  12.0938  12.1034  12.1174  12.2494  12.2643
    12.2643  12.3211  12.3211  12.4028  12.4130  12.4531  12.7585  12.8357
    12.9173  12.9195  12.9195  12.9387  13.0200  13.0265  13.0265  13.0935
    13.0935  13.1671  13.2665  13.3463  13.3676  13.3676  13.3851  13.4062
    13.4074  13.4074  13.4468  13.4468  13.4796  13.5225  13.5225  13.5285
    13.5332  13.5472  13.5557  13.5557  13.7810  13.7938  14.0708  14.0708
    14.1546  14.1635  14.1635  14.1762  14.2189  14.3634  14.3634  14.3806
    14.5708  14.6020  14.7289  14.7317  14.7317  14.7878  14.9236  15.1301
    15.5904  15.7017  15.7017  15.9248  15.9248  15.9371  16.0609  16.0642
    16.0642  16.0647  16.1074  16.1074  16.1433  16.1506  16.1862  16.1862
    16.2435  16.2435  16.4171  16.8248  17.0016  17.0063  17.0154  17.4355

          k = 0.0000 0.1922 0.1922 ( 48486 PWs)   bands (ev):

   -73.0329 -72.9747 -72.9745 -72.9743 -72.9354 -72.9204 -72.9176 -72.9066
   -72.9037 -72.9007 -72.8856 -72.8837 -72.8837 -72.8837 -72.8834 -72.8833
   -41.7203 -41.6819 -41.6733 -41.6711 -41.6694 -41.6585 -41.6567 -41.6457
   -39.4259 -39.3260 -39.2786 -39.2534 -39.2145 -39.1867 -39.1798 -39.1294
   -39.1222 -39.1201 -39.0563 -39.0549 -39.0492 -39.0470 -39.0459 -39.0355
   -39.0276 -39.0185 -38.9707 -38.9686 -38.9623 -38.9398 -38.9394 -38.9341
   -38.9341 -38.9301 -38.9257 -38.9201 -38.9193 -38.9155 -38.9045 -38.9035
   -38.8920 -38.8867 -38.8826 -38.8798 -38.8756 -38.8727 -38.8673 -38.8614
   -38.8569 -38.8482 -38.8477 -38.8407 -38.8384 -38.8219 -38.8174 -38.8147
   -17.9874 -17.9855 -17.9855 -17.9640 -17.9621 -17.9603 -17.9531 -17.9510
   -17.9475 -17.9087 -17.9084 -17.9012 -17.8833 -17.8764 -17.8758 -17.8360
   -17.8310 -17.8298 -17.8189 -17.8179 -17.8164 -17.8039 -17.8029 -17.8015
     4.1730   5.2600   5.4789   5.9603   6.3562   6.6718   8.0072   9.3357
    10.4895  10.6631  10.7866  10.9209  10.9269  11.0899  11.1426  11.2000
    11.2690  11.4479  11.4958  11.5120  11.5395  11.5705  11.5784  11.6649
    11.7091  11.7333  11.8218  11.8721  11.9515  11.9519  12.0395  12.0610
    12.0683  12.0723  12.1215  12.1576  12.2233  12.2813  12.3056  12.3393
    12.3816  12.4031  12.4235  12.4397  12.4954  12.6093  12.6241  12.7055
    12.7353  12.7481  12.7858  12.8543  12.8757  12.9119  12.9772  13.0613
    13.0953  13.1004  13.1911  13.2529  13.2740  13.2936  13.3137  13.3815
    13.4059  13.4642  13.5010  13.5126  13.5442  13.5949  13.6019  13.6207
    13.7073  13.7108  13.7328  13.7488  13.7496  13.8053  13.8470  13.8531
    13.8848  13.9462  14.0782  14.1795  14.2079  14.2383  14.4798  14.5625
    14.6086  14.6289  14.6948  14.7384  14.9133  15.0538  15.0561  15.1434
    15.3219  15.5254  15.5426  15.9449  16.0240  16.0329  16.0394  16.0597
    16.0758  16.0969  16.1059  16.1768  16.2146  16.2924  16.3154  16.3322
    16.3444  16.4428  16.4914  16.5023  16.5380  17.0135  17.1731  17.3279

          k = 0.0000 0.1922 0.3844 ( 48550 PWs)   bands (ev):

   -73.0328 -72.9750 -72.9745 -72.9744 -72.9321 -72.9253 -72.9184 -72.9067
   -72.9028 -72.8961 -72.8884 -72.8837 -72.8837 -72.8837 -72.8834 -72.8833
   -41.7202 -41.6810 -41.6756 -41.6719 -41.6689 -41.6580 -41.6531 -41.6480
   -39.4080 -39.3466 -39.2931 -39.2644 -39.2036 -39.1819 -39.1548 -39.1335
   -39.1183 -39.1133 -39.0666 -39.0625 -39.0535 -39.0514 -39.0489 -39.0415
   -39.0303 -39.0129 -38.9754 -38.9656 -38.9596 -38.9415 -38.9386 -38.9339
   -38.9297 -38.9256 -38.9215 -38.9174 -38.9160 -38.9115 -38.9069 -38.8963
   -38.8910 -38.8880 -38.8811 -38.8775 -38.8767 -38.8728 -38.8703 -38.8582
   -38.8567 -38.8549 -38.8446 -38.8433 -38.8362 -38.8291 -38.8206 -38.8173
   -17.9875 -17.9845 -17.9840 -17.9645 -17.9613 -17.9591 -17.9554 -17.9534
   -17.9426 -17.9213 -17.9090 -17.9068 -17.8774 -17.8751 -17.8631 -17.8411
   -17.8286 -17.8276 -17.8196 -17.8185 -17.8152 -17.8067 -17.8047 -17.8018
     4.3905   4.8702   5.4304   5.9141   6.4664   7.0497   7.8598   9.6004
    10.0526  10.6124  10.8708  11.0530  11.0580  11.0990  11.1753  11.2044
    11.2473  11.2652  11.2791  11.3134  11.3929  11.4731  11.5632  11.6286
    11.6651  11.7322  11.7566  11.8054  12.0283  12.0374  12.0735  12.1073
    12.1136  12.1436  12.1492  12.1638  12.1846  12.2255  12.2422  12.2887
    12.3130  12.3167  12.3271  12.5138  12.5277  12.5486  12.6705  12.7178
    12.7345  12.7475  12.8296  12.9168  13.0619  13.0964  13.1268  13.1574
    13.1792  13.1995  13.2207  13.2322  13.2697  13.2889  13.3458  13.3904
    13.4072  13.4292  13.4518  13.4697  13.4831  13.5020  13.5376  13.5848
    13.6001  13.6241  13.6575  13.6884  13.7906  13.8190  13.9514  13.9927
    14.0481  14.0729  14.1233  14.2852  14.3188  14.4195  14.4520  14.4968
    14.5096  14.5490  14.5821  14.6904  15.0012  15.0418  15.1139  15.1711
    15.5964  15.7465  15.7694  15.8870  15.9160  15.9254  15.9782  15.9972
    15.9991  16.0196  16.0385  16.0551  16.0857  16.1392  16.1510  16.1868
    16.2246  16.2903  16.5497  16.7488  16.7934  16.9587  16.9901  17.0622

          k = 0.0000 0.3844 0.3844 ( 48478 PWs)   bands (ev):

   -73.0328 -72.9748 -72.9747 -72.9745 -72.9293 -72.9255 -72.9231 -72.9071
   -72.8979 -72.8956 -72.8913 -72.8837 -72.8837 -72.8837 -72.8834 -72.8832
   -41.7202 -41.6794 -41.6768 -41.6750 -41.6677 -41.6547 -41.6530 -41.6500
   -39.3975 -39.3357 -39.3151 -39.2967 -39.1787 -39.1569 -39.1495 -39.1410
   -39.1128 -39.1027 -39.0842 -39.0660 -39.0649 -39.0538 -39.0489 -39.0471
   -39.0289 -39.0099 -38.9711 -38.9700 -38.9584 -38.9410 -38.9390 -38.9362
   -38.9300 -38.9217 -38.9207 -38.9182 -38.9131 -38.9067 -38.9049 -38.9035
   -38.8884 -38.8871 -38.8837 -38.8772 -38.8749 -38.8710 -38.8669 -38.8661
   -38.8560 -38.8500 -38.8461 -38.8420 -38.8366 -38.8343 -38.8216 -38.8157
   -17.9869 -17.9830 -17.9828 -17.9660 -17.9605 -17.9570 -17.9566 -17.9515
   -17.9398 -17.9230 -17.9223 -17.9177 -17.8672 -17.8620 -17.8605 -17.8454
   -17.8265 -17.8255 -17.8217 -17.8211 -17.8114 -17.8108 -17.8054 -17.8040
     4.5911   4.8790   5.0527   5.7925   6.9259   7.1888   7.5858   9.8559
    10.2327  10.3674  10.6488  10.7846  11.1286  11.1669  11.1826  11.1949
    11.2066  11.2481  11.2531  11.2584  11.3367  11.3868  11.4197  11.5591
    11.6121  11.6309  11.6592  11.7661  12.0523  12.1007  12.1325  12.1511
    12.1606  12.1803  12.2039  12.2393  12.2454  12.2880  12.3313  12.3889
    12.4092  12.4454  12.4633  12.4787  12.4944  12.5497  12.5637  12.6118
    12.6453  12.6696  12.8222  12.8622  12.9314  12.9765  13.0414  13.0702
    13.1028  13.1474  13.2219  13.2313  13.2698  13.2991  13.3107  13.3556
    13.4249  13.4382  13.4743  13.5765  13.6124  13.6257  13.6292  13.6390
    13.6812  13.7149  13.7566  13.7686  13.8337  13.8491  13.8502  14.0273
    14.0500  14.0779  14.1229  14.2694  14.3182  14.3324  14.3921  14.4183
    14.4399  14.5737  14.5920  14.6585  15.3167  15.3504  15.4560  15.5201
    15.6428  15.8314  15.8648  15.8790  15.8985  15.9058  15.9119  15.9222
    15.9273  15.9404  15.9581  15.9632  15.9928  16.0638  16.0682  16.0972
    16.1941  16.3584  16.3743  16.6440  16.7833  16.8914  17.1019  17.1345

          k = 0.1922 0.1922 0.1922 ( 48503 PWs)   bands (ev):

   -73.0329 -72.9747 -72.9745 -72.9745 -72.9342 -72.9204 -72.9204 -72.9067
   -72.9007 -72.9007 -72.8867 -72.8837 -72.8837 -72.8837 -72.8833 -72.8833
   -41.7202 -41.6815 -41.6733 -41.6733 -41.6686 -41.6566 -41.6566 -41.6465
   -39.4193 -39.3298 -39.2798 -39.2798 -39.1973 -39.1754 -39.1754 -39.1298
   -39.1192 -39.1192 -39.0600 -39.0574 -39.0574 -39.0476 -39.0476 -39.0400
   -39.0212 -39.0212 -38.9682 -38.9666 -38.9666 -38.9386 -38.9386 -38.9343
   -38.9317 -38.9307 -38.9307 -38.9149 -38.9129 -38.9129 -38.9018 -38.9018
   -38.8998 -38.8898 -38.8810 -38.8810 -38.8726 -38.8726 -38.8654 -38.8591
   -38.8591 -38.8526 -38.8429 -38.8409 -38.8409 -38.8226 -38.8226 -38.8125
   -17.9869 -17.9849 -17.9849 -17.9633 -17.9633 -17.9584 -17.9522 -17.9522
   -17.9482 -17.9114 -17.9110 -17.9110 -17.8738 -17.8732 -17.8732 -17.8358
   -17.8300 -17.8300 -17.8188 -17.8188 -17.8164 -17.8050 -17.8030 -17.8030
     4.2493   5.2637   5.2637   5.8793   6.6713   6.6713   7.9420   9.4243
    10.4795  10.7310  10.7310  10.8353  10.9645  10.9645  11.1564  11.2515
    11.2515  11.3630  11.4730  11.4730  11.5319  11.5655  11.5655  11.5941
    11.5941  11.6292  11.6483  11.8083  11.9776  11.9776  12.0941  12.0941
    12.1138  12.1689  12.1689  12.2377  12.2377  12.2759  12.2959  12.3784
    12.3784  12.4122  12.4401  12.4401  12.5971  12.6110  12.6110  12.6356
    12.6356  12.6910  12.8613  12.8613  12.9305  12.9529  12.9529  13.0220
    13.0500  13.0685  13.0685  13.3291  13.3291  13.3356  13.3781  13.3781
    13.4253  13.4253  13.4676  13.4699  13.4850  13.4850  13.6670  13.6670
    13.6781  13.8054  13.8054  13.8309  13.8309  13.8319  13.8385  13.8669
    13.8669  13.8924  14.2112  14.2112  14.2827  14.2965  14.2965  14.5123
    14.5763  14.5991  14.5991  15.0070  15.0070  15.1703  15.1937  15.1937
    15.2573  15.5957  15.5957  15.8864  15.8864  15.9218  16.0331  16.0392
    16.0392  16.0684  16.0684  16.2213  16.2213  16.2741  16.3180  16.3442
    16.3442  16.3703  16.4166  16.4416  16.4416  17.1019  17.1034  17.1762

          k = 0.1922 0.1922 0.3844 ( 48490 PWs)   bands (ev):

   -73.0328 -72.9749 -72.9745 -72.9745 -72.9312 -72.9252 -72.9204 -72.9068
   -72.9007 -72.8961 -72.8894 -72.8837 -72.8837 -72.8837 -72.8833 -72.8833
   -41.7202 -41.6805 -41.6761 -41.6733 -41.6683 -41.6566 -41.6531 -41.6486
   -39.4042 -39.3433 -39.3021 -39.2816 -39.1895 -39.1676 -39.1525 -39.1338
   -39.1182 -39.1103 -39.0704 -39.0660 -39.0596 -39.0524 -39.0496 -39.0466
   -39.0247 -39.0138 -38.9735 -38.9641 -38.9626 -38.9400 -38.9368 -38.9332
   -38.9301 -38.9285 -38.9253 -38.9179 -38.9133 -38.9108 -38.9051 -38.8969
   -38.8946 -38.8892 -38.8829 -38.8798 -38.8739 -38.8715 -38.8674 -38.8602
   -38.8562 -38.8545 -38.8486 -38.8399 -38.8338 -38.8275 -38.8259 -38.8133
   -17.9866 -17.9839 -17.9832 -17.9637 -17.9619 -17.9569 -17.9546 -17.9539
   -17.9439 -17.9236 -17.9149 -17.9148 -17.8696 -17.8694 -17.8609 -17.8400
   -17.8288 -17.8271 -17.8205 -17.8177 -17.8163 -17.8076 -17.8059 -17.8030
     4.4550   4.8868   5.2697   5.8550   6.6705   7.0880   7.7683   9.6880
    10.1327  10.6147  10.9124  10.9220  11.0762  11.0940  11.1600  11.1791
    11.1941  11.2315  11.2765  11.3013  11.3230  11.3984  11.5093  11.5655
    11.6097  11.6194  11.6305  11.7449  12.0585  12.0690  12.1389  12.1436
    12.1612  12.1859  12.1995  12.2222  12.2225  12.2475  12.2702  12.3126
    12.3516  12.3934  12.4147  12.5316  12.5639  12.5993  12.6112  12.6373
    12.6763  12.7847  12.8476  12.8540  12.9046  12.9948  13.0515  13.0600
    13.1207  13.1551  13.1857  13.2100  13.2216  13.2328  13.2940  13.3409
    13.3807  13.3826  13.4990  13.5395  13.5437  13.5793  13.6422  13.6524
    13.7071  13.7206  13.7450  13.7638  13.7916  13.8243  13.8768  13.9589
    13.9798  13.9992  14.1391  14.2414  14.3805  14.3853  14.5201  14.5473
    14.6054  14.6057  14.6372  14.9343  15.1483  15.2218  15.2279  15.2499
    15.5904  15.6971  15.7906  15.7927  15.8637  15.8825  15.9104  15.9270
    15.9467  15.9973  16.0178  16.0748  16.1144  16.1235  16.1462  16.2059
    16.2485  16.2770  16.5513  16.6056  16.6132  16.8812  16.9490  16.9896

          k = 0.1922 0.3844 0.3844 ( 48499 PWs)   bands (ev):

   -73.0328 -72.9748 -72.9747 -72.9746 -72.9288 -72.9255 -72.9238 -72.9070
   -72.8973 -72.8956 -72.8919 -72.8837 -72.8837 -72.8837 -72.8833 -72.8832
   -41.7202 -41.6791 -41.6769 -41.6756 -41.6675 -41.6541 -41.6529 -41.6504
   -39.3968 -39.3351 -39.3168 -39.3048 -39.1697 -39.1503 -39.1443 -39.1384
   -39.1126 -39.1034 -39.0850 -39.0683 -39.0683 -39.0562 -39.0524 -39.0514
   -39.0218 -39.0109 -38.9697 -38.9689 -38.9612 -38.9388 -38.9377 -38.9327
   -38.9325 -38.9260 -38.9237 -38.9204 -38.9133 -38.9092 -38.9057 -38.9036
   -38.8913 -38.8909 -38.8858 -38.8808 -38.8717 -38.8702 -38.8657 -38.8641
   -38.8549 -38.8537 -38.8478 -38.8405 -38.8309 -38.8300 -38.8239 -38.8112
   -17.9852 -17.9822 -17.9822 -17.9641 -17.9605 -17.9555 -17.9553 -17.9517
   -17.9430 -17.9272 -17.9266 -17.9235 -17.8618 -17.8582 -17.8571 -17.8421
   -17.8263 -17.8262 -17.8213 -17.8211 -17.8136 -17.8110 -17.8070 -17.8059
     4.6321   4.8836   5.0075   5.7807   6.9988   7.1818   7.5292   9.9334
    10.2977  10.4598  10.6929  10.8514  11.1055  11.1284  11.1530  11.1628
    11.1849  11.1910  11.2424  11.2622  11.3018  11.3609  11.3713  11.4730
    11.4778  11.4910  11.5556  11.6942  12.0861  12.1357  12.1437  12.1822
    12.2017  12.2259  12.2465  12.2847  12.3194  12.3231  12.3538  12.3910
    12.4266  12.4690  12.5061  12.5420  12.5517  12.5630  12.5970  12.6594
    12.6656  12.6838  12.7195  12.8130  12.8270  12.8644  12.8825  12.9940
    13.0019  13.0312  13.1192  13.1386  13.1468  13.2031  13.2082  13.2808
    13.5116  13.5545  13.5692  13.6185  13.6305  13.6387  13.7012  13.7050
    13.7392  13.7606  13.7628  13.8091  13.8254  13.8554  13.8638  13.9141
    13.9797  14.0299  14.0460  14.0952  14.4654  14.5109  14.5127  14.6074
    14.6790  14.8209  14.8375  14.9770  15.4143  15.4331  15.5223  15.5812
    15.6135  15.7509  15.7564  15.7824  15.7841  15.8126  15.8207  15.8484
    15.8500  15.9839  15.9867  16.0124  16.0515  16.0687  16.1049  16.1176
    16.1774  16.3210  16.3267  16.5356  16.6326  16.6975  16.7559  16.8624

          k = 0.3844 0.3844 0.3844 ( 48449 PWs)   bands (ev):

   -73.0328 -72.9748 -72.9747 -72.9747 -72.9274 -72.9255 -72.9255 -72.9069
   -72.8956 -72.8956 -72.8934 -72.8837 -72.8837 -72.8837 -72.8832 -72.8832
   -41.7202 -41.6783 -41.6769 -41.6769 -41.6672 -41.6529 -41.6529 -41.6514
   -39.3955 -39.3311 -39.3194 -39.3194 -39.1548 -39.1374 -39.1374 -39.1347
   -39.1059 -39.1059 -39.0906 -39.0730 -39.0730 -39.0593 -39.0588 -39.0588
   -39.0119 -39.0119 -38.9676 -38.9676 -38.9671 -38.9392 -38.9341 -38.9341
   -38.9329 -38.9247 -38.9231 -38.9231 -38.9117 -38.9117 -38.9041 -38.9041
   -38.9036 -38.8974 -38.8904 -38.8904 -38.8664 -38.8664 -38.8639 -38.8619
   -38.8574 -38.8574 -38.8407 -38.8407 -38.8249 -38.8248 -38.8248 -38.8072
   -17.9819 -17.9809 -17.9809 -17.9605 -17.9605 -17.9525 -17.9525 -17.9515
   -17.9464 -17.9347 -17.9340 -17.9340 -17.8528 -17.8519 -17.8519 -17.8386
   -17.8262 -17.8262 -17.8196 -17.8195 -17.8195 -17.8117 -17.8103 -17.8103
     4.7405   4.8910   4.8910   5.7654   7.1707   7.1707   7.3817  10.1148
    10.4510  10.7081  10.7081  10.8717  11.0458  11.0621  11.0621  11.0960
    11.1267  11.1267  11.2329  11.2329  11.2352  11.3298  11.3298  11.3447
    11.3486  11.3486  11.3533  11.5603  12.1659  12.1659  12.2194  12.2194
    12.2303  12.2903  12.2903  12.2911  12.3885  12.4278  12.4278  12.5209
    12.5209  12.5372  12.5372  12.5716  12.6077  12.6154  12.6154  12.6183
    12.6581  12.6581  12.6978  12.7411  12.7411  12.7476  12.7476  12.7780
    12.9016  12.9016  12.9718  13.0312  13.0387  13.0387  13.0865  13.0865
    13.6361  13.6361  13.6652  13.6652  13.6677  13.6688  13.7249  13.7249
    13.7790  13.7790  13.7864  13.8125  13.9026  13.9026  13.9081  13.9199
    13.9199  13.9338  13.9474  13.9474  14.7763  14.7763  14.8193  15.0000
    15.0452  15.0452  15.0519  15.2546  15.5842  15.5878  15.5878  15.6144
    15.6144  15.6638  15.6638  15.7198  15.7567  15.7567  15.7707  15.8038
    15.8038  15.9895  15.9895  15.9897  16.0114  16.0114  16.0534  16.0534
    16.0852  16.2344  16.2490  16.2490  16.4797  16.4797  16.4889  16.5372

 ------ SPIN DOWN ----------


          k = 0.0000 0.0000 0.0000 ( 48489 PWs)   bands (ev):

   -70.8777 -70.8497 -70.8497 -70.8437 -70.8437 -70.8437 -70.8164 -70.8164
   -70.8164 -70.8160 -70.8160 -70.8160 -70.8151 -70.7526 -70.7526 -70.7526
   -42.4655 -42.4510 -42.4399 -42.4399 -42.4322 -42.4322 -42.4322 -42.4139
   -37.5116 -37.3215 -37.3215 -37.2917 -37.2917 -37.2917 -37.2567 -37.1265
   -37.1265 -37.1265 -37.0990 -37.0990 -37.0990 -36.9934 -36.9934 -36.9934
   -36.8871 -36.8871 -36.8746 -36.8714 -36.8714 -36.8678 -36.8678 -36.8678
   -36.8425 -36.8425 -36.8425 -36.8403 -36.8403 -36.8403 -36.8201 -36.8201
   -36.8157 -36.8024 -36.8024 -36.8024 -36.7964 -36.7964 -36.7964 -36.7525
   -36.7525 -36.7525 -36.7485 -36.7485 -36.7485 -36.7148 -36.7148 -36.7148
   -18.7471 -18.7471 -18.7471 -18.7379 -18.7379 -18.7379 -18.7206 -18.7206
   -18.7206 -18.6676 -18.6676 -18.6676 -18.6563 -18.6563 -18.6540 -18.6007
   -18.6007 -18.6007 -18.5830 -18.5830 -18.5830 -18.5743 -18.5743 -18.5743
     4.3279   6.2049   6.2049   6.3287   6.3287   6.3287   8.3287   9.3922
    10.9841  11.3608  11.3608  11.3901  11.3901  11.3901  11.8359  11.8359
    11.8359  12.1304  12.3921  12.3921  12.3921  12.3927  12.3927  12.8419
    12.8419  12.8419  12.8575  12.8575  12.8575  12.9267  12.9640  12.9640
    12.9640  13.0719  13.0719  13.0719  13.1286  13.1286  13.1286  13.3349
    13.3349  13.6056  13.6056  13.6056  13.6192  13.6192  13.6235  13.7670
    13.7670  13.7927  13.8042  13.8042  13.8042  13.8153  13.8153  13.8153
    13.8656  13.8656  13.8656  13.9101  13.9101  14.2073  14.2073  14.2073
    14.4095  14.4095  14.4095  14.4785  14.4785  14.4785  15.0393  15.0393
    15.0393  15.3365  15.3365  15.3365  15.4334  15.4334  15.4334  15.5892
    15.5892  15.6302  15.6302  15.6325  15.6421  15.6421  15.6421  15.6704
    15.7491  15.7491  15.7491  15.7742  15.7742  15.9751  15.9751  15.9751
    16.3472  16.3472  16.3472  16.4073  16.4073  16.4073  16.4499  16.4499
    16.4499  16.8652  16.8653  16.8731  16.8748  16.8816  16.8834  16.9539
    16.9791  16.9791  16.9791  16.9974  16.9982  17.0926  17.0926  17.0926

          k = 0.0000 0.0000 0.1922 ( 48469 PWs)   bands (ev):

   -70.8762 -70.8560 -70.8497 -70.8437 -70.8437 -70.8378 -70.8180 -70.8164
   -70.8164 -70.8164 -70.8160 -70.8160 -70.8140 -70.7526 -70.7526 -70.7526
   -42.4649 -42.4514 -42.4427 -42.4399 -42.4322 -42.4322 -42.4285 -42.4150
   -37.5014 -37.3660 -37.3212 -37.2914 -37.2914 -37.2735 -37.2341 -37.1322
   -37.1244 -37.1244 -37.1013 -37.1013 -37.0998 -36.9958 -36.9958 -36.9942
   -36.8871 -36.8840 -36.8771 -36.8752 -36.8720 -36.8696 -36.8696 -36.8599
   -36.8434 -36.8431 -36.8413 -36.8413 -36.8371 -36.8371 -36.8316 -36.8190
   -36.8123 -36.8009 -36.8009 -36.7940 -36.7940 -36.7939 -36.7888 -36.7553
   -36.7543 -36.7543 -36.7528 -36.7499 -36.7499 -36.7166 -36.7159 -36.7159
   -18.7474 -18.7463 -18.7463 -18.7382 -18.7373 -18.7373 -18.7228 -18.7228
   -18.7178 -18.6795 -18.6674 -18.6674 -18.6560 -18.6546 -18.6433 -18.6038
   -18.5984 -18.5984 -18.5837 -18.5837 -18.5830 -18.5753 -18.5753 -18.5742
     4.4158   5.6796   6.2083   6.3324   6.3324   6.8470   8.3012   9.4547
    10.6510  11.1198  11.3758  11.3981  11.3981  11.6842  11.8858  11.8858
    11.9232  12.0666  12.2450  12.2682  12.2771  12.2771  12.5806  12.5806
    12.6728  12.8211  12.8228  12.8401  12.8401  12.8808  12.9488  12.9980
    12.9980  13.1287  13.1383  13.1383  13.1818  13.3342  13.3342  13.3512
    13.3709  13.5427  13.5693  13.5693  13.6116  13.6213  13.6951  13.6951
    13.7196  13.7367  13.8137  13.8249  13.8359  13.8638  13.8638  13.8824
    13.8986  13.9410  13.9410  13.9429  13.9511  14.0531  14.1622  14.1622
    14.4316  14.4824  14.4824  14.5074  14.6278  14.6278  15.0476  15.0490
    15.0490  15.1842  15.2100  15.2100  15.2392  15.4100  15.4707  15.4707
    15.5421  15.6019  15.6304  15.7277  15.7354  15.7505  15.7506  15.8302
    15.8548  15.8733  15.8734  15.8734  15.9642  15.9642  15.9661  16.0345
    16.3161  16.3161  16.3296  16.3296  16.3668  16.3871  16.3873  16.4096
    16.4806  16.6831  16.7186  16.7731  16.7820  16.7880  16.7884  16.8339
    16.8829  16.8845  16.9429  16.9506  16.9551  17.0451  17.1361  17.2592

          k = 0.0000 0.0000 0.3844 ( 48538 PWs)   bands (ev):

   -70.8725 -70.8635 -70.8497 -70.8437 -70.8437 -70.8318 -70.8208 -70.8164
   -70.8164 -70.8164 -70.8160 -70.8160 -70.8133 -70.7528 -70.7526 -70.7526
   -42.4639 -42.4524 -42.4453 -42.4399 -42.4322 -42.4322 -42.4231 -42.4179
   -37.4737 -37.4194 -37.3208 -37.2908 -37.2908 -37.2701 -37.1955 -37.1474
   -37.1199 -37.1199 -37.1062 -37.1062 -37.1009 -36.9994 -36.9994 -36.9955
   -36.8869 -36.8799 -36.8780 -36.8776 -36.8718 -36.8718 -36.8697 -36.8565
   -36.8497 -36.8442 -36.8398 -36.8398 -36.8376 -36.8322 -36.8322 -36.8231
   -36.8054 -36.7991 -36.7991 -36.7883 -36.7883 -36.7825 -36.7737 -36.7642
   -36.7621 -36.7582 -36.7582 -36.7524 -36.7524 -36.7201 -36.7176 -36.7176
   -18.7479 -18.7452 -18.7452 -18.7387 -18.7343 -18.7343 -18.7281 -18.7281
   -18.7105 -18.6935 -18.6671 -18.6671 -18.6556 -18.6541 -18.6282 -18.6122
   -18.5929 -18.5929 -18.5868 -18.5868 -18.5829 -18.5768 -18.5768 -18.5742
     4.6513   5.1838   6.2139   6.3384   6.3384   7.2778   8.2136   9.6701
    10.1092  11.1568  11.4054  11.4132  11.4132  11.4743  11.9975  12.0315
    12.0315  12.0416  12.1030  12.1322  12.1322  12.2737  12.2737  12.4433
    12.6938  12.7568  12.7645  12.7795  12.7795  12.9189  13.1021  13.1021
    13.1138  13.2210  13.2233  13.2233  13.2467  13.2858  13.2858  13.3689
    13.4673  13.5028  13.5028  13.5101  13.5733  13.5980  13.6097  13.6798
    13.8133  13.8133  13.8362  13.8781  13.8822  13.9002  13.9021  13.9286
    13.9286  13.9833  14.0295  14.0295  14.1114  14.1767  14.1888  14.1888
    14.3558  14.4342  14.4453  14.4453  14.8503  14.8503  15.0079  15.0079
    15.0424  15.0535  15.0735  15.0735  15.1247  15.2301  15.5191  15.5583
    15.6535  15.7061  15.7061  15.7562  15.9295  15.9295  15.9394  15.9394
    15.9399  15.9439  16.0332  16.0482  16.0482  16.0641  16.1579  16.1579
    16.1588  16.2065  16.2108  16.2108  16.2809  16.2832  16.2832  16.3136
    16.4757  16.5464  16.5503  16.6117  16.6118  16.6667  16.8166  16.8560
    16.8974  16.8978  16.9045  16.9261  16.9265  16.9281  17.0389  17.0598

          k = 0.0000 0.1922 0.1922 ( 48486 PWs)   bands (ev):

   -70.8749 -70.8573 -70.8539 -70.8441 -70.8399 -70.8361 -70.8193 -70.8164
   -70.8164 -70.8164 -70.8160 -70.8159 -70.8136 -70.7527 -70.7526 -70.7526
   -42.4645 -42.4515 -42.4438 -42.4416 -42.4318 -42.4294 -42.4282 -42.4159
   -37.4919 -37.3725 -37.3535 -37.3056 -37.2728 -37.2429 -37.2314 -37.1366
   -37.1241 -37.1225 -37.1043 -37.1030 -37.1005 -36.9977 -36.9967 -36.9963
   -36.8853 -36.8825 -36.8773 -36.8756 -36.8748 -36.8683 -36.8661 -36.8619
   -36.8505 -36.8485 -36.8403 -36.8384 -36.8348 -36.8312 -36.8273 -36.8220
   -36.8150 -36.8005 -36.7959 -36.7957 -36.7934 -36.7870 -36.7824 -36.7601
   -36.7574 -36.7554 -36.7533 -36.7519 -36.7498 -36.7186 -36.7170 -36.7156
   -18.7478 -18.7453 -18.7452 -18.7383 -18.7373 -18.7357 -18.7251 -18.7223
   -18.7176 -18.6801 -18.6797 -18.6724 -18.6501 -18.6427 -18.6424 -18.6043
   -18.5986 -18.5962 -18.5850 -18.5843 -18.5829 -18.5768 -18.5759 -18.5743
     4.5000   5.6078   5.8254   6.3032   6.6843   6.9916   8.2514   9.5217
    10.6212  10.7998  11.2205  11.3445  11.6257  11.8335  11.9003  11.9222
    11.9618  12.0273  12.1233  12.1683  12.2953  12.3084  12.3480  12.5173
    12.5535  12.5872  12.7601  12.9072  12.9300  12.9598  13.0306  13.0711
    13.0737  13.1664  13.1738  13.2483  13.2866  13.3441  13.3567  13.3824
    13.3916  13.5097  13.5130  13.5287  13.6711  13.6970  13.7116  13.7311
    13.7552  13.7631  13.7672  13.7815  13.8102  13.8106  13.8660  13.8934
    13.9137  13.9383  13.9402  13.9668  13.9798  13.9808  14.0665  14.1546
    14.5265  14.5743  14.6387  14.6497  14.6682  14.6907  15.0376  15.0697
    15.0726  15.0933  15.1537  15.1948  15.2288  15.3065  15.3368  15.5821
    15.6000  15.6070  15.6368  15.6607  15.6733  15.8098  15.8248  15.9171
    15.9194  15.9419  15.9459  15.9543  16.0005  16.0333  16.0389  16.0923
    16.2142  16.2339  16.3127  16.3196  16.3376  16.3463  16.3558  16.4074
    16.4667  16.6347  16.6521  16.6604  16.7210  16.7894  16.8057  16.8222
    16.8324  16.8691  16.8700  16.9288  16.9457  16.9557  17.0021  17.0968

          k = 0.0000 0.1922 0.3844 ( 48550 PWs)   bands (ev):

   -70.8713 -70.8633 -70.8548 -70.8446 -70.8386 -70.8312 -70.8220 -70.8164
   -70.8164 -70.8164 -70.8160 -70.8159 -70.8132 -70.7527 -70.7526 -70.7526
   -42.4636 -42.4518 -42.4462 -42.4423 -42.4310 -42.4295 -42.4236 -42.4187
   -37.4658 -37.4160 -37.3573 -37.3171 -37.2571 -37.2403 -37.1968 -37.1522
   -37.1201 -37.1185 -37.1097 -37.1074 -37.1019 -37.0008 -37.0003 -36.9977
   -36.8844 -36.8784 -36.8780 -36.8761 -36.8716 -36.8699 -36.8675 -36.8587
   -36.8549 -36.8516 -36.8463 -36.8409 -36.8327 -36.8292 -36.8235 -36.8186
   -36.8096 -36.7988 -36.7970 -36.7912 -36.7878 -36.7833 -36.7714 -36.7659
   -36.7636 -36.7579 -36.7557 -36.7542 -36.7528 -36.7197 -36.7188 -36.7173
   -18.7480 -18.7449 -18.7428 -18.7366 -18.7355 -18.7331 -18.7300 -18.7267
   -18.7109 -18.6946 -18.6801 -18.6778 -18.6442 -18.6417 -18.6271 -18.6117
   -18.5939 -18.5912 -18.5881 -18.5862 -18.5843 -18.5792 -18.5769 -18.5745
     4.7267   5.2130   5.7820   6.2573   6.7914   7.3514   8.1149   9.7397
    10.1712  10.8502  11.0870  11.2667  11.6821  11.7966  11.9196  11.9970
    12.0208  12.0545  12.0932  12.1373  12.1884  12.2046  12.2580  12.3494
    12.4535  12.4888  12.5638  12.9324  13.0610  13.0783  13.1310  13.1855
    13.2101  13.2341  13.2565  13.2824  13.3023  13.3085  13.3940  13.4019
    13.4384  13.4472  13.4785  13.5319  13.5915  13.6314  13.6677  13.7159
    13.7461  13.7623  13.7938  13.7974  13.8147  13.8643  13.9240  13.9386
    13.9504  13.9608  13.9890  13.9963  14.0203  14.0576  14.0873  14.1293
    14.6020  14.6273  14.6490  14.6765  14.8748  14.9000  14.9890  15.0085
    15.0350  15.0822  15.1039  15.1279  15.1658  15.2123  15.4736  15.5238
    15.5630  15.6003  15.7388  15.8039  15.8368  15.8874  15.9269  15.9436
    15.9793  15.9868  16.0201  16.0516  16.0694  16.1131  16.1415  16.1701
    16.1749  16.1787  16.1910  16.2228  16.2537  16.2839  16.3463  16.3670
    16.3911  16.5190  16.5676  16.5832  16.6421  16.6898  16.7193  16.7511
    16.7854  16.8141  16.8238  16.8472  16.8747  16.9218  16.9744  17.0860

          k = 0.0000 0.3844 0.3844 ( 48478 PWs)   bands (ev):

   -70.8681 -70.8634 -70.8606 -70.8459 -70.8329 -70.8300 -70.8252 -70.8164
   -70.8164 -70.8164 -70.8160 -70.8158 -70.8131 -70.7527 -70.7527 -70.7526
   -42.4631 -42.4502 -42.4476 -42.4457 -42.4290 -42.4258 -42.4243 -42.4211
   -37.4437 -37.4132 -37.3956 -37.3411 -37.2233 -37.2050 -37.2024 -37.1689
   -37.1200 -37.1150 -37.1147 -37.1103 -37.1041 -37.0027 -37.0020 -37.0012
   -36.8796 -36.8765 -36.8735 -36.8729 -36.8713 -36.8681 -36.8670 -36.8625
   -36.8623 -36.8550 -36.8518 -36.8470 -36.8272 -36.8252 -36.8177 -36.8159
   -36.8126 -36.8004 -36.7938 -36.7892 -36.7883 -36.7794 -36.7719 -36.7689
   -36.7662 -36.7582 -36.7579 -36.7542 -36.7524 -36.7206 -36.7183 -36.7171
   -18.7468 -18.7431 -18.7409 -18.7368 -18.7359 -18.7315 -18.7302 -18.7259
   -18.7085 -18.6960 -18.6941 -18.6895 -18.6325 -18.6273 -18.6256 -18.6147
   -18.5937 -18.5904 -18.5896 -18.5868 -18.5836 -18.5828 -18.5780 -18.5763
     4.9347   5.2287   5.4045   6.1319   7.2305   7.4816   7.8566   9.9439
    10.3056  10.4458  10.7088  11.2903  11.8739  11.9299  11.9729  12.0275
    12.0283  12.0402  12.0409  12.0715  12.0916  12.1378  12.1758  12.2564
    12.3150  12.3443  12.3626  12.9629  13.1958  13.2468  13.2749  13.2764
    13.2975  13.3281  13.3499  13.3809  13.3867  13.4163  13.4357  13.4417
    13.4825  13.4848  13.4953  13.4964  13.5802  13.5882  13.6333  13.6376
    13.6625  13.6670  13.6852  13.7325  13.7354  13.7429  13.7991  13.8278
    13.9687  13.9906  13.9970  14.0777  14.0869  14.0881  14.1384  14.1443
    14.8577  14.8694  14.8734  14.9022  14.9165  14.9593  14.9635  14.9942
    15.0504  15.1184  15.1232  15.1848  15.2517  15.3191  15.3291  15.3672
    15.4781  15.5314  15.5956  15.7829  15.8165  15.8570  15.9049  15.9844
    16.0239  16.0439  16.0540  16.0635  16.0750  16.0968  16.1254  16.1387
    16.1499  16.2167  16.2305  16.2536  16.2597  16.2980  16.3100  16.3328
    16.3631  16.3878  16.5239  16.5513  16.5961  16.6453  16.6463  16.7058
    16.7639  16.7937  16.8189  16.8281  16.8357  16.9431  17.0122  17.2197

          k = 0.1922 0.1922 0.1922 ( 48503 PWs)   bands (ev):

   -70.8736 -70.8573 -70.8573 -70.8449 -70.8361 -70.8361 -70.8205 -70.8164
   -70.8164 -70.8164 -70.8159 -70.8159 -70.8134 -70.7527 -70.7526 -70.7526
   -42.4641 -42.4514 -42.4438 -42.4438 -42.4303 -42.4282 -42.4282 -42.4169
   -37.4832 -37.3731 -37.3731 -37.3230 -37.2409 -37.2409 -37.2274 -37.1402
   -37.1228 -37.1228 -37.1071 -37.1030 -37.1030 -36.9986 -36.9986 -36.9981
   -36.8822 -36.8822 -36.8770 -36.8748 -36.8748 -36.8685 -36.8641 -36.8641
   -36.8532 -36.8468 -36.8468 -36.8374 -36.8307 -36.8307 -36.8237 -36.8237
   -36.8173 -36.8012 -36.8012 -36.7923 -36.7833 -36.7833 -36.7815 -36.7637
   -36.7600 -36.7600 -36.7515 -36.7515 -36.7506 -36.7189 -36.7189 -36.7146
   -18.7469 -18.7447 -18.7447 -18.7375 -18.7375 -18.7339 -18.7241 -18.7241
   -18.7185 -18.6827 -18.6823 -18.6823 -18.6400 -18.6400 -18.6395 -18.6039
   -18.5968 -18.5968 -18.5858 -18.5858 -18.5826 -18.5781 -18.5758 -18.5758
     4.5798   5.6144   5.6144   6.2200   6.9881   6.9881   8.1889   9.5918
    10.6029  10.8368  10.8368  11.4172  11.8118  11.8118  11.8711  11.8918
    11.8918  12.0796  12.0855  12.0855  12.2816  12.3082  12.3082  12.4315
    12.4390  12.4390  12.6474  12.9114  13.0702  13.0702  13.0845  13.1048
    13.1048  13.2716  13.2716  13.3105  13.3280  13.3444  13.3444  13.4077
    13.4077  13.5502  13.5598  13.5598  13.6678  13.6927  13.6927  13.7103
    13.7156  13.7156  13.7638  13.7638  13.7896  13.8290  13.8505  13.8505
    13.8807  13.8866  13.8866  13.9641  13.9641  14.0215  14.1234  14.1234
    14.7001  14.7001  14.7080  14.7298  14.7447  14.7447  15.0624  15.0624
    15.1139  15.1704  15.1704  15.1858  15.1980  15.2303  15.2303  15.5720
    15.5720  15.6545  15.6545  15.6907  15.7198  15.7276  15.7276  15.9538
    16.0025  16.0121  16.0121  16.0291  16.0291  16.0759  16.1199  16.1199
    16.2051  16.2099  16.2099  16.2661  16.2661  16.3136  16.3136  16.3214
    16.6055  16.6055  16.6208  16.6386  16.6793  16.6793  16.6930  16.7742
    16.7744  16.9005  16.9048  16.9108  16.9112  16.9612  16.9649  17.0117

          k = 0.1922 0.1922 0.3844 ( 48490 PWs)   bands (ev):

   -70.8703 -70.8631 -70.8573 -70.8452 -70.8361 -70.8309 -70.8231 -70.8164
   -70.8164 -70.8164 -70.8159 -70.8159 -70.8132 -70.7527 -70.7526 -70.7526
   -42.4634 -42.4513 -42.4467 -42.4438 -42.4300 -42.4282 -42.4239 -42.4194
   -37.4591 -37.4141 -37.3740 -37.3294 -37.2377 -37.2283 -37.1968 -37.1554
   -37.1197 -37.1192 -37.1119 -37.1087 -37.1037 -37.0016 -37.0016 -36.9996
   -36.8818 -36.8771 -36.8763 -36.8757 -36.8707 -36.8681 -36.8669 -36.8595
   -36.8592 -36.8515 -36.8464 -36.8436 -36.8336 -36.8285 -36.8206 -36.8172
   -36.8126 -36.8021 -36.7992 -36.7909 -36.7881 -36.7801 -36.7712 -36.7664
   -36.7634 -36.7612 -36.7545 -36.7545 -36.7502 -36.7196 -36.7189 -36.7158
   -18.7467 -18.7443 -18.7413 -18.7356 -18.7355 -18.7320 -18.7285 -18.7281
   -18.7126 -18.6968 -18.6862 -18.6861 -18.6361 -18.6355 -18.6249 -18.6102
   -18.5927 -18.5924 -18.5880 -18.5878 -18.5848 -18.5804 -18.5779 -18.5758
     4.7944   5.2338   5.6253   6.1982   6.9822   7.3824   8.0239   9.8068
    10.2361  10.7924  10.9117  11.2791  11.6494  11.7461  11.9182  12.0033
    12.0089  12.0804  12.0881  12.1094  12.1814  12.1814  12.2178  12.2917
    12.3454  12.3750  12.4531  12.9221  13.1890  13.1905  13.2004  13.2531
    13.2559  13.2904  13.2988  13.3301  13.3366  13.3608  13.4230  13.4356
    13.4750  13.4881  13.5029  13.5599  13.5654  13.6434  13.6527  13.6806
    13.7089  13.7353  13.7549  13.7735  13.7739  13.8033  13.8664  13.8928
    13.8954  13.9151  13.9481  13.9923  14.0139  14.0719  14.0856  14.1378
    14.7541  14.7558  14.8024  14.8345  14.9177  14.9562  15.0289  15.0545
    15.0727  15.0898  15.1474  15.2037  15.2175  15.2494  15.4050  15.4982
    15.5708  15.6166  15.6325  15.7352  15.7580  15.8269  15.8457  15.8753
    15.9995  16.0232  16.0701  16.0784  16.0915  16.1344  16.1348  16.1495
    16.1673  16.1827  16.2117  16.2137  16.2787  16.2953  16.3218  16.3247
    16.4096  16.4205  16.4817  16.5158  16.5818  16.6038  16.6288  16.7109
    16.7230  16.7541  16.8794  16.8796  16.9195  16.9840  16.9860  17.0246

          k = 0.1922 0.3844 0.3844 ( 48499 PWs)   bands (ev):

   -70.8675 -70.8634 -70.8614 -70.8460 -70.8320 -70.8300 -70.8258 -70.8164
   -70.8164 -70.8164 -70.8159 -70.8158 -70.8131 -70.7527 -70.7527 -70.7526
   -42.4631 -42.4499 -42.4476 -42.4463 -42.4286 -42.4254 -42.4243 -42.4215
   -37.4404 -37.4142 -37.4017 -37.3441 -37.2136 -37.2015 -37.1986 -37.1689
   -37.1201 -37.1174 -37.1160 -37.1115 -37.1069 -37.0036 -37.0031 -37.0025
   -36.8766 -36.8754 -36.8728 -36.8715 -36.8699 -36.8673 -36.8668 -36.8632
   -36.8624 -36.8526 -36.8510 -36.8463 -36.8300 -36.8275 -36.8183 -36.8164
   -36.8160 -36.8062 -36.7995 -36.7971 -36.7869 -36.7776 -36.7692 -36.7676
   -36.7644 -36.7598 -36.7555 -36.7553 -36.7475 -36.7189 -36.7173 -36.7156
   -18.7444 -18.7414 -18.7396 -18.7352 -18.7351 -18.7306 -18.7295 -18.7264
   -18.7122 -18.7004 -18.6987 -18.6956 -18.6265 -18.6229 -18.6214 -18.6113
   -18.5931 -18.5908 -18.5903 -18.5884 -18.5846 -18.5839 -18.5797 -18.5785
     4.9794   5.2371   5.3635   6.1231   7.2885   7.4635   7.7916   9.9847
    10.3619  10.5267  10.7295  11.2747  11.6641  11.7995  11.8838  11.9450
    11.9956  12.0458  12.0692  12.0823  12.1099  12.1227  12.1405  12.2121
    12.2532  12.2873  12.3086  12.9230  13.2866  13.3237  13.3397  13.3403
    13.3533  13.3728  13.3987  13.4018  13.4169  13.4474  13.4630  13.4822
    13.4945  13.4945  13.5145  13.5337  13.5807  13.6081  13.6219  13.6289
    13.6389  13.6722  13.6819  13.6988  13.7171  13.7262  13.7785  13.8195
    13.9260  13.9527  13.9539  13.9941  14.0611  14.0881  14.1157  14.1371
    14.9461  14.9501  14.9870  15.0094  15.0152  15.0497  15.0652  15.0836
    15.1740  15.1915  15.2455  15.2834  15.3232  15.3591  15.3678  15.4435
    15.4599  15.5151  15.5780  15.6473  15.7142  15.7291  15.8495  15.8799
    15.9145  15.9193  16.0061  16.0077  16.0628  16.1109  16.1124  16.1252
    16.1459  16.1951  16.2075  16.2219  16.2347  16.2508  16.2759  16.2871
    16.3646  16.3738  16.4261  16.4773  16.5763  16.6740  16.6985  16.7175
    16.7181  16.7922  16.8120  16.8537  16.9089  16.9859  16.9860  17.0828

          k = 0.3844 0.3844 0.3844 ( 48449 PWs)   bands (ev):

   -70.8658 -70.8634 -70.8634 -70.8461 -70.8300 -70.8300 -70.8275 -70.8164
   -70.8164 -70.8164 -70.8158 -70.8158 -70.8130 -70.7527 -70.7527 -70.7527
   -42.4630 -42.4491 -42.4477 -42.4477 -42.4280 -42.4243 -42.4243 -42.4227
   -37.4307 -37.4156 -37.4156 -37.3482 -37.1971 -37.1921 -37.1921 -37.1742
   -37.1204 -37.1204 -37.1196 -37.1123 -37.1123 -37.0049 -37.0049 -37.0047
   -36.8725 -36.8725 -36.8725 -36.8690 -36.8679 -36.8679 -36.8639 -36.8638
   -36.8638 -36.8482 -36.8454 -36.8454 -36.8314 -36.8314 -36.8207 -36.8207
   -36.8176 -36.8116 -36.8116 -36.8099 -36.7826 -36.7826 -36.7656 -36.7641
   -36.7641 -36.7577 -36.7538 -36.7538 -36.7429 -36.7157 -36.7157 -36.7142
   -18.7385 -18.7378 -18.7378 -18.7335 -18.7335 -18.7276 -18.7276 -18.7270
   -18.7177 -18.7084 -18.7069 -18.7069 -18.6160 -18.6145 -18.6145 -18.6072
   -18.5927 -18.5927 -18.5905 -18.5905 -18.5879 -18.5847 -18.5832 -18.5832
     5.0958   5.2510   5.2510   6.1124   7.4345   7.4345   7.6345  10.0501
    10.5095  10.6963  10.6963  11.2479  11.5219  11.5219  11.6897  11.9717
    11.9888  11.9888  12.0374  12.0374  12.0570  12.0648  12.0648  12.1372
    12.2340  12.2340  12.2520  12.8692  13.4083  13.4083  13.4130  13.4385
    13.4385  13.4538  13.4538  13.4622  13.4688  13.4854  13.4854  13.5108
    13.5139  13.5139  13.5612  13.5612  13.5635  13.5763  13.5926  13.5926
    13.6600  13.6600  13.6852  13.6903  13.6903  13.6966  13.7306  13.7306
    13.9254  13.9419  13.9419  14.0081  14.0081  14.0865  14.0941  14.0941
    15.1324  15.1384  15.1384  15.1962  15.1962  15.2263  15.2263  15.2388
    15.2941  15.2941  15.3556  15.4573  15.4893  15.4893  15.4976  15.5240
    15.5240  15.5593  15.5670  15.5670  15.6308  15.6308  15.6439  15.6866
    15.6866  15.7754  15.7896  15.7896  15.9202  16.0430  16.0436  16.0436
    16.1005  16.1005  16.1263  16.1426  16.1426  16.1482  16.1982  16.1982
    16.3975  16.3975  16.4073  16.6429  16.6908  16.6908  16.7366  16.7567
    16.7567  16.7643  16.7825  16.7863  16.8526  16.9093  16.9441  17.3034

     the Fermi energy is    15.1373 ev

!    total energy              =   -6230.60571561 Ry
     estimated scf accuracy    <          1.1E-09 Ry
     smearing contrib. (-TS)   =       0.00069936 Ry
     internal energy E=F+TS    =   -6230.60641497 Ry

     The total energy is F=E-TS. E is the sum of the following terms:
     one-electron contribution =   -2593.63941018 Ry
     hartree contribution      =    1474.98686504 Ry
     xc contribution           =    -706.35702345 Ry
     ewald contribution        =   -3187.12496275 Ry
     one-center paw contrib.   =   -1218.47188363 Ry

     total magnetization       =    19.75 Bohr mag/cell
     absolute magnetization    =    38.84 Bohr mag/cell

     convergence has been achieved in  20 iterations

     negative rho (up, down):  7.189E-03 1.089E-03

     Forces acting on atoms (cartesian axes, Ry/au):

     atom    1 type  1   force =     0.00122932    0.00122932    0.00064975
     atom    2 type  1   force =    -0.00240632   -0.00240632   -0.00240632
     atom    3 type  1   force =    -0.00122932    0.00064975   -0.00122932
     atom    4 type  1   force =    -0.00064975   -0.00122932    0.00122932
     atom    5 type  1   force =     0.00122932    0.00064975    0.00122932
     atom    6 type  1   force =     0.00064975    0.00122932    0.00122932
     atom    7 type  1   force =    -0.00122932   -0.00064975    0.00122932
     atom    8 type  1   force =     0.00240632   -0.00240632    0.00240632
     atom    9 type  1   force =    -0.00240632    0.00240632    0.00240632
     atom   10 type  1   force =     0.00064975   -0.00122932   -0.00122932
     atom   11 type  1   force =    -0.00064975    0.00122932   -0.00122932
     atom   12 type  1   force =    -0.00122932   -0.00122932    0.00064975
     atom   13 type  1   force =     0.00240632    0.00240632   -0.00240632
     atom   14 type  1   force =    -0.00122932    0.00122932   -0.00064975
     atom   15 type  1   force =     0.00122932   -0.00064975   -0.00122932
     atom   16 type  1   force =     0.00122932   -0.00122932   -0.00064975
     atom   17 type  2   force =     0.00000000    0.00000000    0.00000000
     atom   18 type  2   force =    -0.00082276   -0.00082276    0.00082276
     atom   19 type  2   force =     0.00000000    0.00000000    0.00000000
     atom   20 type  2   force =    -0.00082276    0.00082276   -0.00082276
     atom   21 type  2   force =     0.00000000    0.00000000    0.00000000
     atom   22 type  2   force =     0.00082276    0.00082276    0.00082276
     atom   23 type  2   force =     0.00082276   -0.00082276   -0.00082276
     atom   24 type  2   force =     0.00000000    0.00000000    0.00000000
     atom   25 type  3   force =     0.01070695    0.01070695   -0.01070695
     atom   26 type  3   force =     0.00000000    0.00000000    0.00000000
     atom   27 type  3   force =     0.01070695   -0.01070695    0.01070695
     atom   28 type  3   force =     0.00000000    0.00000000    0.00000000
     atom   29 type  3   force =    -0.01070695   -0.01070695   -0.01070695
     atom   30 type  3   force =    -0.01070695    0.01070695    0.01070695
     atom   31 type  3   force =     0.00000000    0.00000000    0.00000000

     Total force =     0.038660     Total SCF correction =     0.000220


     Computing stress (Cartesian axis) and pressure


     negative rho (up, down):  7.189E-03 1.089E-03
          total   stress  (Ry/bohr**3)                   (kbar)     P=       -3.61
  -0.00002457   0.00000000   0.00000000           -3.61        0.00        0.00
   0.00000000  -0.00002457   0.00000000            0.00       -3.61        0.00
   0.00000000   0.00000000  -0.00002457            0.00        0.00       -3.61

     Energy error            =      2.6E-03 Ry
     Gradient error          =      1.1E-02 Ry/Bohr
     Cell gradient error     =      3.6E+00 kbar

     number of scf cycles    =   4
     number of bfgs steps    =   3

     enthalpy           old  =   -6230.6031509047 Ry
     enthalpy           new  =   -6230.6057156131 Ry

     CASE: enthalpy          _new < enthalpy          _old

     new trust radius        =       0.0406398211 bohr
     new conv_thr            =       0.0000000011 Ry

     new unit-cell volume =   2348.12497 a.u.^3 (   347.95622 Ang^3 )
     density =      6.12524 g/cm^3

CELL_PARAMETERS (alat= 12.76591255)
   1.041170538   0.000000000   0.000000000
   0.000000000   1.041170538   0.000000000
   0.000000000   0.000000000   1.041170538

ATOMIC_POSITIONS (crystal)
Fe               0.1258274139        0.1258274139        0.6249305416
Fe               0.6172054711        0.6172054711        0.6172054711
Fe               0.8741725861        0.6249305416        0.8741725861
Fe               0.3750694584        0.8741725861        0.1258274139
Fe               0.1258274139        0.6249305416        0.1258274139
Fe               0.6249305416        0.1258274139        0.1258274139
Fe               0.8741725861        0.3750694584        0.1258274139
Fe               0.3827945289        0.6172054711        0.3827945289
Fe               0.6172054711        0.3827945289        0.3827945289
Fe               0.6249305416        0.8741725861        0.8741725861
Fe               0.3750694584        0.1258274139        0.8741725861
Fe               0.8741725861        0.8741725861        0.6249305416
Fe               0.3827945289        0.3827945289        0.6172054711
Fe               0.8741725861        0.1258274139        0.3750694584
Fe               0.1258274139        0.3750694584        0.8741725861
Fe               0.1258274139        0.8741725861        0.3750694584
Ti               0.0000000000        0.0000000000        0.0000000000
Ti               0.7495655003        0.7495655003        0.2504344997
Ti               0.5000000000        0.0000000000        0.5000000000
Ti               0.7495655003        0.2504344997        0.7495655003
Ti               0.0000000000        0.5000000000        0.5000000000
Ti               0.2504344997        0.2504344997        0.2504344997
Ti               0.2504344997        0.7495655003        0.7495655003
Ti               0.5000000000        0.5000000000        0.0000000000
H                0.2538017546        0.2538017546        0.7461982454
H                0.0000000000        0.5000000000        0.0000000000
H                0.2538017546        0.7461982454        0.2538017546
H                0.5000000000        0.0000000000        0.0000000000
H                0.7461982454        0.7461982454        0.7461982454
H                0.7461982454        0.2538017546        0.2538017546
H                0.0000000000        0.0000000000        0.5000000000



     Writing config-only to output data dir ./TiFe2_cub_8b_8H.save/ :
     XML data file     NEW-OLD atomic charge density approx. for the potential
     New effective cutoffs (rho, wfc): 1601.36  114.37

     negative rho (up, down):  7.219E-03 1.112E-03
     Generating pointlists ...

     total cpu time spent up to now is    34700.2 secs

     per-process dynamical memory:   530.5 Mb

     Self-consistent Calculation

     iteration #  1     ecut=   124.00 Ry     beta= 0.20
     CG style diagonalization
     c_bands:  1 eigenvalues not converged
     c_bands:  3 eigenvalues not converged
     c_bands:  5 eigenvalues not converged
     ethr =  1.00E-06,  avg # of iterations = 12.1

     negative rho (up, down):  7.218E-03 1.107E-03

     total cpu time spent up to now is    36133.3 secs

     total energy              =   -6230.60781905 Ry
     estimated scf accuracy    <       0.01313055 Ry

     total magnetization       =    19.76 Bohr mag/cell
     absolute magnetization    =    38.91 Bohr mag/cell

     iteration #  2     ecut=   124.00 Ry     beta= 0.20
     CG style diagonalization
     ethr =  3.66E-06,  avg # of iterations =  3.0

     negative rho (up, down):  7.219E-03 1.106E-03

     total cpu time spent up to now is    36408.3 secs

     total energy              =   -6230.60828815 Ry
     estimated scf accuracy    <       0.00090801 Ry

     total magnetization       =    19.74 Bohr mag/cell
     absolute magnetization    =    38.88 Bohr mag/cell

     iteration #  3     ecut=   124.00 Ry     beta= 0.20
     CG style diagonalization
     ethr =  2.53E-07,  avg # of iterations =  3.5

     negative rho (up, down):  7.223E-03 1.099E-03

     total cpu time spent up to now is    36744.4 secs

     total energy              =   -6230.60830564 Ry
     estimated scf accuracy    <       0.00073264 Ry

     total magnetization       =    19.74 Bohr mag/cell
     absolute magnetization    =    38.89 Bohr mag/cell

     iteration #  4     ecut=   124.00 Ry     beta= 0.20
     CG style diagonalization
     ethr =  2.04E-07,  avg # of iterations =  3.4

     negative rho (up, down):  7.226E-03 1.097E-03

     total cpu time spent up to now is    37065.9 secs

     total energy              =   -6230.60841055 Ry
     estimated scf accuracy    <       0.00011338 Ry

     total magnetization       =    19.74 Bohr mag/cell
     absolute magnetization    =    38.90 Bohr mag/cell

     iteration #  5     ecut=   124.00 Ry     beta= 0.20
     CG style diagonalization
     ethr =  3.16E-08,  avg # of iterations =  5.0

     negative rho (up, down):  7.228E-03 1.096E-03

     total cpu time spent up to now is    37588.3 secs

     total energy              =   -6230.60851475 Ry
     estimated scf accuracy    <       0.00003347 Ry

     total magnetization       =    19.74 Bohr mag/cell
     absolute magnetization    =    38.91 Bohr mag/cell

     iteration #  6     ecut=   124.00 Ry     beta= 0.20
     CG style diagonalization
     ethr =  9.32E-09,  avg # of iterations =  4.4

     negative rho (up, down):  7.229E-03 1.096E-03

     total cpu time spent up to now is    38029.8 secs

     total energy              =   -6230.60853622 Ry
     estimated scf accuracy    <       0.00001482 Ry

     total magnetization       =    19.74 Bohr mag/cell
     absolute magnetization    =    38.91 Bohr mag/cell

     iteration #  7     ecut=   124.00 Ry     beta= 0.20
     CG style diagonalization
     ethr =  4.13E-09,  avg # of iterations =  3.9

     negative rho (up, down):  7.235E-03 1.095E-03

     total cpu time spent up to now is    38415.0 secs

     total energy              =   -6230.60854267 Ry
     estimated scf accuracy    <       0.00000603 Ry

     total magnetization       =    19.74 Bohr mag/cell
     absolute magnetization    =    38.92 Bohr mag/cell

     iteration #  8     ecut=   124.00 Ry     beta= 0.20
     CG style diagonalization
     ethr =  1.68E-09,  avg # of iterations =  4.2

     negative rho (up, down):  7.235E-03 1.095E-03

     total cpu time spent up to now is    38846.0 secs

     total energy              =   -6230.60854787 Ry
     estimated scf accuracy    <       0.00000985 Ry

     total magnetization       =    19.74 Bohr mag/cell
     absolute magnetization    =    38.93 Bohr mag/cell

     iteration #  9     ecut=   124.00 Ry     beta= 0.20
     CG style diagonalization
     ethr =  1.68E-09,  avg # of iterations =  3.3

     negative rho (up, down):  7.236E-03 1.095E-03

     total cpu time spent up to now is    39158.2 secs

     total energy              =   -6230.60855020 Ry
     estimated scf accuracy    <       0.00000217 Ry

     total magnetization       =    19.74 Bohr mag/cell
     absolute magnetization    =    38.93 Bohr mag/cell

     iteration # 10     ecut=   124.00 Ry     beta= 0.20
     CG style diagonalization
     ethr =  6.05E-10,  avg # of iterations =  3.4

     negative rho (up, down):  7.237E-03 1.094E-03

     total cpu time spent up to now is    39490.5 secs

     total energy              =   -6230.60855138 Ry
     estimated scf accuracy    <       0.00000059 Ry

     total magnetization       =    19.74 Bohr mag/cell
     absolute magnetization    =    38.93 Bohr mag/cell

     iteration # 11     ecut=   124.00 Ry     beta= 0.20
     CG style diagonalization
     ethr =  1.63E-10,  avg # of iterations =  4.9

     negative rho (up, down):  7.238E-03 1.094E-03

     total cpu time spent up to now is    40001.9 secs

     total energy              =   -6230.60855246 Ry
     estimated scf accuracy    <       0.00000021 Ry

     total magnetization       =    19.74 Bohr mag/cell
     absolute magnetization    =    38.93 Bohr mag/cell

     iteration # 12     ecut=   124.00 Ry     beta= 0.20
     CG style diagonalization
     ethr =  5.92E-11,  avg # of iterations =  4.3

     negative rho (up, down):  7.239E-03 1.093E-03

     total cpu time spent up to now is    40450.4 secs

     total energy              =   -6230.60855294 Ry
     estimated scf accuracy    <       0.00000005 Ry

     total magnetization       =    19.74 Bohr mag/cell
     absolute magnetization    =    38.93 Bohr mag/cell

     iteration # 13     ecut=   124.00 Ry     beta= 0.20
     CG style diagonalization
     c_bands:  1 eigenvalues not converged
     ethr =  1.53E-11,  avg # of iterations =  5.0

     negative rho (up, down):  7.239E-03 1.093E-03

     total cpu time spent up to now is    40977.5 secs

     total energy              =   -6230.60855318 Ry
     estimated scf accuracy    <       0.00000004 Ry

     total magnetization       =    19.74 Bohr mag/cell
     absolute magnetization    =    38.93 Bohr mag/cell

     iteration # 14     ecut=   124.00 Ry     beta= 0.20
     CG style diagonalization
     ethr =  1.11E-11,  avg # of iterations =  3.8

     negative rho (up, down):  7.239E-03 1.093E-03

     total cpu time spent up to now is    41357.3 secs

     total energy              =   -6230.60855334 Ry
     estimated scf accuracy    <          6.4E-09 Ry

     total magnetization       =    19.74 Bohr mag/cell
     absolute magnetization    =    38.93 Bohr mag/cell

     iteration # 15     ecut=   124.00 Ry     beta= 0.20
     CG style diagonalization
     ethr =  1.78E-12,  avg # of iterations =  5.1

     negative rho (up, down):  7.239E-03 1.093E-03

     total cpu time spent up to now is    41902.6 secs

     total energy              =   -6230.60855343 Ry
     estimated scf accuracy    <          3.0E-09 Ry

     total magnetization       =    19.74 Bohr mag/cell
     absolute magnetization    =    38.93 Bohr mag/cell

     iteration # 16     ecut=   124.00 Ry     beta= 0.20
     CG style diagonalization
     ethr =  8.33E-13,  avg # of iterations =  4.1

     negative rho (up, down):  7.239E-03 1.093E-03

     total cpu time spent up to now is    42321.0 secs

     total energy              =   -6230.60855348 Ry
     estimated scf accuracy    <          2.2E-09 Ry

     total magnetization       =    19.74 Bohr mag/cell
     absolute magnetization    =    38.93 Bohr mag/cell

     iteration # 17     ecut=   124.00 Ry     beta= 0.20
     CG style diagonalization
     ethr =  6.24E-13,  avg # of iterations =  3.2

     negative rho (up, down):  7.239E-03 1.093E-03

     Magnetic moment per site  (integrated on atomic sphere of radius R)
     atom   1 (R=0.089)  charge= 11.1821  magn=  1.3774
     atom   2 (R=0.089)  charge= 11.1703  magn=  1.4461
     atom   3 (R=0.089)  charge= 11.1821  magn=  1.3774
     atom   4 (R=0.089)  charge= 11.1821  magn=  1.3774
     atom   5 (R=0.089)  charge= 11.1821  magn=  1.3774
     atom   6 (R=0.089)  charge= 11.1821  magn=  1.3774
     atom   7 (R=0.089)  charge= 11.1821  magn=  1.3774
     atom   8 (R=0.089)  charge= 11.1703  magn=  1.4461
     atom   9 (R=0.089)  charge= 11.1703  magn=  1.4461
     atom  10 (R=0.089)  charge= 11.1821  magn=  1.3774
     atom  11 (R=0.089)  charge= 11.1821  magn=  1.3774
     atom  12 (R=0.089)  charge= 11.1821  magn=  1.3774
     atom  13 (R=0.089)  charge= 11.1703  magn=  1.4461
     atom  14 (R=0.089)  charge= 11.1821  magn=  1.3774
     atom  15 (R=0.089)  charge= 11.1821  magn=  1.3774
     atom  16 (R=0.089)  charge= 11.1821  magn=  1.3774
     atom  17 (R=0.171)  charge= 10.1861  magn= -0.7969
     atom  18 (R=0.171)  charge= 10.1949  magn= -0.8212
     atom  19 (R=0.171)  charge= 10.1929  magn= -0.8400
     atom  20 (R=0.171)  charge= 10.1949  magn= -0.8212
     atom  21 (R=0.171)  charge= 10.1929  magn= -0.8400
     atom  22 (R=0.171)  charge= 10.1949  magn= -0.8212
     atom  23 (R=0.171)  charge= 10.1949  magn= -0.8212
     atom  24 (R=0.171)  charge= 10.1929  magn= -0.8400
     atom  25 (R=0.089)  charge=  0.9812  magn= -0.0060
     atom  26 (R=0.089)  charge=  0.9994  magn= -0.0057
     atom  27 (R=0.089)  charge=  0.9812  magn= -0.0060
     atom  28 (R=0.089)  charge=  0.9994  magn= -0.0057
     atom  29 (R=0.089)  charge=  0.9812  magn= -0.0060
     atom  30 (R=0.089)  charge=  0.9812  magn= -0.0060
     atom  31 (R=0.089)  charge=  0.9994  magn= -0.0057

     total cpu time spent up to now is    42623.8 secs

     End of self-consistent calculation

 ------ SPIN UP ------------


          k = 0.0000 0.0000 0.0000 ( 48489 PWs)   bands (ev):

   -73.0427 -72.9802 -72.9802 -72.9802 -72.9689 -72.9456 -72.9456 -72.9376
   -72.9376 -72.9376 -72.9155 -72.9155 -72.9155 -72.9150 -72.9150 -72.9150
   -41.7454 -41.7044 -41.6924 -41.6924 -41.6924 -41.6806 -41.6806 -41.6653
   -39.4654 -39.3349 -39.2542 -39.2542 -39.2488 -39.2488 -39.2488 -39.1465
   -39.1465 -39.1465 -39.0734 -39.0734 -39.0734 -39.0572 -39.0572 -39.0572
   -39.0517 -39.0517 -38.9776 -38.9776 -38.9776 -38.9731 -38.9703 -38.9703
   -38.9562 -38.9562 -38.9562 -38.9432 -38.9432 -38.9432 -38.9325 -38.9325
   -38.9206 -38.9206 -38.9206 -38.9053 -38.8971 -38.8971 -38.8971 -38.8825
   -38.8825 -38.8825 -38.8671 -38.8671 -38.8671 -38.8455 -38.8455 -38.8455
   -18.0098 -18.0098 -18.0098 -17.9835 -17.9835 -17.9835 -17.9724 -17.9724
   -17.9724 -17.9161 -17.9161 -17.9161 -17.9138 -17.9138 -17.9115 -17.8544
   -17.8544 -17.8544 -17.8404 -17.8404 -17.8404 -17.8224 -17.8224 -17.8224
     4.0115   5.8688   5.8688   5.9731   5.9731   5.9731   8.0432   9.1451
    10.8121  10.8121  10.8121  10.8213  11.0517  11.0517  11.0641  11.0641
    11.0641  11.6145  11.6763  11.6763  11.6763  11.7894  11.7894  11.7894
    11.7975  11.7997  11.7997  11.7997  11.8311  11.8311  11.8621  11.8621
    11.8621  12.0610  12.0610  12.2831  12.2831  12.2831  12.3683  12.3683
    12.3683  12.3695  12.3695  12.3695  12.4039  12.4039  12.4888  12.8326
    12.8326  12.9093  12.9093  12.9093  12.9192  12.9268  12.9268  12.9268
    12.9965  12.9965  12.9965  13.0193  13.0193  13.0193  13.0943  13.0943
    13.0943  13.5737  13.5737  13.5737  13.6349  13.6349  13.6349  13.6476
    13.6476  13.6476  13.7869  13.7869  13.8044  13.8044  13.8203  13.8203
    13.8203  13.8451  13.8660  13.8660  13.8660  14.4323  14.4323  14.6453
    14.6453  14.6453  14.8859  14.9085  14.9085  14.9085  14.9762  14.9762
    15.2326  15.2326  15.2326  16.0869  16.0869  16.0869  16.0918  16.0918
    16.0918  16.1351  16.1351  16.1351  16.4519  16.4519  16.4519  16.5030
    16.5030  16.5030  16.6116  16.6116  16.6613  16.6720  16.6720  16.6721

          k = 0.0000 0.0000 0.1921 ( 48469 PWs)   bands (ev):

   -73.0426 -72.9813 -72.9802 -72.9802 -72.9668 -72.9498 -72.9456 -72.9376
   -72.9376 -72.9333 -72.9162 -72.9155 -72.9155 -72.9155 -72.9150 -72.9150
   -41.7453 -41.7041 -41.6943 -41.6924 -41.6924 -41.6806 -41.6782 -41.6662
   -39.4568 -39.3462 -39.2889 -39.2535 -39.2481 -39.2481 -39.2077 -39.1482
   -39.1438 -39.1438 -39.0783 -39.0783 -39.0752 -39.0672 -39.0618 -39.0618
   -39.0514 -39.0427 -38.9877 -38.9769 -38.9769 -38.9715 -38.9690 -38.9603
   -38.9564 -38.9516 -38.9516 -38.9456 -38.9400 -38.9400 -38.9368 -38.9242
   -38.9184 -38.9163 -38.9163 -38.9032 -38.8994 -38.8994 -38.8973 -38.8835
   -38.8835 -38.8834 -38.8712 -38.8688 -38.8688 -38.8490 -38.8473 -38.8473
   -18.0100 -18.0092 -18.0092 -17.9838 -17.9835 -17.9835 -17.9737 -17.9737
   -17.9703 -17.9297 -17.9159 -17.9159 -17.9135 -17.9120 -17.8992 -17.8565
   -17.8532 -17.8532 -17.8408 -17.8400 -17.8400 -17.8235 -17.8235 -17.8223
     4.0960   5.3335   5.8712   5.9756   5.9756   6.5087   8.0137   9.2315
    10.5021  10.7218  10.8625  10.8625  11.0054  11.0945  11.0995  11.0995
    11.1984  11.5280  11.5280  11.5337  11.6348  11.6348  11.6433  11.6526
    11.6667  11.8134  11.8881  11.8881  11.8974  11.9252  11.9252  11.9381
    12.0190  12.0700  12.0991  12.1630  12.2029  12.2029  12.2076  12.3320
    12.3320  12.3825  12.4176  12.4319  12.4477  12.4477  12.6556  12.7349
    12.7844  12.7844  12.7997  12.8571  12.8637  12.8637  12.9142  13.0097
    13.0182  13.0182  13.1301  13.1855  13.1885  13.1885  13.2165  13.2646
    13.2646  13.5420  13.5420  13.5577  13.5845  13.5938  13.5970  13.5970
    13.6546  13.7065  13.7158  13.7158  13.7668  13.7668  13.7751  13.7868
    13.9051  13.9365  13.9489  13.9489  13.9932  14.4343  14.5480  14.5480
    14.5722  14.6009  14.7278  14.8514  14.8514  14.8673  14.9222  15.0926
    15.3184  15.3884  15.3884  16.0316  16.0316  16.0696  16.0701  16.0759
    16.0759  16.1091  16.1091  16.1857  16.2598  16.2940  16.3134  16.3136
    16.3445  16.3988  16.3991  16.7655  16.7942  16.8020  16.9530  17.3349

          k = 0.0000 0.0000 0.3842 ( 48538 PWs)   bands (ev):

   -73.0424 -72.9826 -72.9802 -72.9802 -72.9622 -72.9559 -72.9456 -72.9376
   -72.9376 -72.9278 -72.9189 -72.9155 -72.9155 -72.9155 -72.9150 -72.9150
   -41.7453 -41.7034 -41.6968 -41.6924 -41.6924 -41.6806 -41.6742 -41.6685
   -39.4354 -39.3775 -39.3018 -39.2525 -39.2471 -39.2471 -39.1754 -39.1546
   -39.1383 -39.1383 -39.0871 -39.0871 -39.0782 -39.0756 -39.0683 -39.0683
   -39.0510 -39.0361 -38.9944 -38.9761 -38.9761 -38.9727 -38.9653 -38.9587
   -38.9559 -38.9474 -38.9474 -38.9400 -38.9357 -38.9294 -38.9294 -38.9194
   -38.9105 -38.9094 -38.9094 -38.9090 -38.9048 -38.9048 -38.8989 -38.8850
   -38.8850 -38.8809 -38.8738 -38.8725 -38.8725 -38.8587 -38.8504 -38.8504
   -18.0103 -18.0082 -18.0082 -17.9843 -17.9832 -17.9832 -17.9760 -17.9760
   -17.9653 -17.9414 -17.9157 -17.9157 -17.9131 -17.9115 -17.8873 -17.8615
   -17.8512 -17.8512 -17.8412 -17.8390 -17.8390 -17.8257 -17.8257 -17.8223
     4.3229   4.8440   5.8750   5.9796   5.9796   6.9461   7.9289   9.4982
     9.9589  10.6029  11.0103  11.0103  11.1510  11.1586  11.1754  11.1754
    11.1928  11.2477  11.2477  11.3850  11.5224  11.5224  11.5433  11.6222
    11.6363  11.7124  11.9145  11.9591  11.9828  11.9828  12.0262  12.0262
    12.0595  12.0652  12.0652  12.0712  12.0804  12.0945  12.2258  12.2408
    12.2408  12.2994  12.2994  12.3742  12.3947  12.4313  12.7335  12.8099
    12.8927  12.8927  12.8956  12.9139  12.9974  13.0031  13.0031  13.0731
    13.0731  13.1434  13.2413  13.3237  13.3416  13.3416  13.3591  13.3804
    13.3804  13.3808  13.4239  13.4239  13.4575  13.4951  13.4951  13.5034
    13.5100  13.5292  13.5393  13.5393  13.7567  13.7686  14.0459  14.0459
    14.1246  14.1390  14.1390  14.1488  14.1997  14.3401  14.3401  14.3571
    14.5491  14.5763  14.7014  14.7073  14.7073  14.7678  14.9056  15.1097
    15.5668  15.6766  15.6766  15.9008  15.9008  15.9142  16.0373  16.0414
    16.0414  16.0428  16.0813  16.0813  16.1189  16.1275  16.1585  16.1585
    16.2252  16.2252  16.3935  16.7956  16.9772  16.9779  16.9909  17.0070

          k = 0.0000 0.1921 0.1921 ( 48486 PWs)   bands (ev):

   -73.0425 -72.9815 -72.9806 -72.9803 -72.9651 -72.9507 -72.9483 -72.9377
   -72.9350 -72.9321 -72.9173 -72.9155 -72.9155 -72.9155 -72.9150 -72.9150
   -41.7453 -41.7037 -41.6954 -41.6934 -41.6920 -41.6792 -41.6776 -41.6671
   -39.4490 -39.3512 -39.3056 -39.2803 -39.2403 -39.2121 -39.2034 -39.1494
   -39.1414 -39.1414 -39.0840 -39.0814 -39.0777 -39.0699 -39.0694 -39.0660
   -39.0477 -39.0408 -38.9882 -38.9803 -38.9764 -38.9690 -38.9681 -38.9605
   -38.9577 -38.9522 -38.9413 -38.9401 -38.9387 -38.9379 -38.9332 -38.9282
   -38.9198 -38.9130 -38.9106 -38.9066 -38.9011 -38.8983 -38.8945 -38.8900
   -38.8839 -38.8775 -38.8767 -38.8704 -38.8680 -38.8538 -38.8494 -38.8467
   -18.0102 -18.0084 -18.0084 -17.9854 -17.9835 -17.9814 -17.9751 -17.9730
   -17.9699 -17.9303 -17.9302 -17.9230 -17.9056 -17.8987 -17.8981 -17.8578
   -17.8527 -17.8518 -17.8417 -17.8405 -17.8389 -17.8251 -17.8241 -17.8228
     4.1769   5.2605   5.4762   5.9441   6.3438   6.6582   7.9625   9.3197
    10.4841  10.6457  10.7602  10.9006  10.9060  11.0794  11.1228  11.1790
    11.2447  11.4253  11.4705  11.4933  11.5210  11.5528  11.5573  11.6245
    11.6854  11.7145  11.7973  11.8502  11.9296  11.9298  12.0176  12.0392
    12.0457  12.0492  12.0987  12.1333  12.1995  12.2602  12.2813  12.3115
    12.3569  12.3841  12.4009  12.4205  12.4718  12.5841  12.6027  12.6824
    12.7120  12.7242  12.7634  12.8265  12.8559  12.8863  12.9560  13.0337
    13.0773  13.0783  13.1670  13.2285  13.2499  13.2684  13.2886  13.3568
    13.3788  13.4408  13.4784  13.4890  13.5196  13.5725  13.5783  13.5975
    13.6832  13.6853  13.7058  13.7268  13.7274  13.7812  13.8225  13.8271
    13.8598  13.9209  14.0534  14.1520  14.1851  14.2162  14.4588  14.5402
    14.5851  14.6023  14.6705  14.7221  14.8925  15.0295  15.0348  15.1233
    15.2967  15.5006  15.5185  15.9218  16.0011  16.0101  16.0159  16.0374
    16.0517  16.0726  16.0824  16.1480  16.1921  16.2623  16.2903  16.3063
    16.3210  16.4170  16.4652  16.4812  16.5193  16.9880  17.1487  17.3020

          k = 0.0000 0.1921 0.3842 ( 48550 PWs)   bands (ev):

   -73.0424 -72.9824 -72.9807 -72.9804 -72.9612 -72.9555 -72.9489 -72.9380
   -72.9341 -72.9277 -72.9200 -72.9155 -72.9155 -72.9155 -72.9150 -72.9150
   -41.7453 -41.7028 -41.6976 -41.6942 -41.6915 -41.6788 -41.6742 -41.6692
   -39.4302 -39.3728 -39.3199 -39.2912 -39.2298 -39.2072 -39.1744 -39.1560
   -39.1368 -39.1352 -39.0947 -39.0878 -39.0805 -39.0782 -39.0745 -39.0718
   -39.0477 -39.0354 -38.9923 -38.9801 -38.9766 -38.9682 -38.9645 -38.9591
   -38.9547 -38.9494 -38.9467 -38.9366 -38.9324 -38.9275 -38.9263 -38.9248
   -38.9179 -38.9137 -38.9075 -38.9056 -38.9042 -38.9003 -38.8980 -38.8869
   -38.8861 -38.8830 -38.8739 -38.8730 -38.8671 -38.8608 -38.8527 -38.8495
   -18.0104 -18.0074 -18.0070 -17.9862 -17.9831 -17.9805 -17.9768 -17.9749
   -17.9652 -17.9426 -17.9308 -17.9285 -17.8998 -17.8973 -17.8859 -17.8625
   -17.8506 -17.8500 -17.8425 -17.8405 -17.8371 -17.8279 -17.8260 -17.8230
     4.3951   4.8705   5.4295   5.8956   6.4541   7.0277   7.8264   9.5867
    10.0391  10.5935  10.8485  11.0325  11.0374  11.0768  11.1620  11.1830
    11.2212  11.2459  11.2564  11.2965  11.3726  11.4502  11.5456  11.6034
    11.6396  11.7112  11.7239  11.7839  12.0048  12.0147  12.0514  12.0847
    12.0908  12.1183  12.1269  12.1410  12.1642  12.2012  12.2184  12.2667
    12.2913  12.2951  12.3039  12.4920  12.5027  12.5269  12.6473  12.6932
    12.7127  12.7232  12.8053  12.8945  13.0363  13.0726  13.1006  13.1355
    13.1559  13.1755  13.1946  13.2078  13.2449  13.2685  13.3229  13.3655
    13.3823  13.4044  13.4268  13.4450  13.4603  13.4798  13.5169  13.5610
    13.5790  13.5999  13.6344  13.6653  13.7659  13.7943  13.9255  13.9666
    14.0227  14.0499  14.0992  14.2601  14.2949  14.3939  14.4244  14.4737
    14.4876  14.5233  14.5599  14.6692  14.9764  15.0199  15.0921  15.1486
    15.5727  15.7211  15.7443  15.8635  15.8925  15.9033  15.9553  15.9726
    15.9767  15.9945  16.0177  16.0303  16.0614  16.1125  16.1245  16.1660
    16.2036  16.2724  16.5253  16.7248  16.7694  16.9314  16.9670  17.0373

          k = 0.0000 0.3842 0.3842 ( 48478 PWs)   bands (ev):

   -73.0423 -72.9819 -72.9813 -72.9808 -72.9586 -72.9552 -72.9532 -72.9387
   -72.9294 -72.9271 -72.9228 -72.9155 -72.9155 -72.9155 -72.9150 -72.9149
   -41.7453 -41.7012 -41.6988 -41.6970 -41.6904 -41.6757 -41.6741 -41.6712
   -39.4190 -39.3623 -39.3422 -39.3235 -39.2068 -39.1760 -39.1740 -39.1585
   -39.1334 -39.1274 -39.1113 -39.0907 -39.0882 -39.0834 -39.0779 -39.0774
   -39.0461 -39.0313 -38.9876 -38.9837 -38.9775 -38.9665 -38.9618 -38.9612
   -38.9558 -38.9510 -38.9441 -38.9409 -38.9274 -38.9262 -38.9218 -38.9212
   -38.9170 -38.9149 -38.9128 -38.9050 -38.9030 -38.8975 -38.8948 -38.8945
   -38.8859 -38.8799 -38.8755 -38.8714 -38.8679 -38.8656 -38.8534 -38.8480
   -18.0097 -18.0059 -18.0058 -17.9880 -17.9827 -17.9782 -17.9780 -17.9727
   -17.9624 -17.9445 -17.9439 -17.9391 -17.8901 -17.8846 -17.8830 -17.8671
   -17.8483 -17.8476 -17.8443 -17.8436 -17.8332 -17.8320 -17.8266 -17.8253
     4.5953   4.8821   5.0539   5.7681   6.9084   7.1695   7.5587   9.8429
    10.2189  10.3513  10.6280  10.7587  11.1069  11.1460  11.1630  11.1780
    11.1781  11.2296  11.2316  11.2353  11.3137  11.3715  11.3933  11.5386
    11.5936  11.6126  11.6410  11.7257  12.0296  12.0780  12.1058  12.1264
    12.1377  12.1600  12.1802  12.2171  12.2239  12.2637  12.3069  12.3692
    12.3845  12.4226  12.4403  12.4566  12.4727  12.5287  12.5384  12.5922
    12.6208  12.6488  12.7965  12.8396  12.9089  12.9470  13.0255  13.0450
    13.0785  13.1224  13.2007  13.2067  13.2430  13.2751  13.2855  13.3305
    13.3999  13.4149  13.4551  13.5522  13.5884  13.6003  13.6091  13.6147
    13.6580  13.6932  13.7342  13.7416  13.8085  13.8192  13.8313  14.0005
    14.0218  14.0520  14.1021  14.2435  14.2955  14.3091  14.3651  14.3936
    14.4180  14.5462  14.5711  14.6356  15.2920  15.3263  15.4339  15.4988
    15.6179  15.8067  15.8387  15.8527  15.8738  15.8802  15.8875  15.8989
    15.9050  15.9185  15.9337  15.9428  15.9721  16.0409  16.0464  16.0742
    16.1789  16.3354  16.3514  16.6210  16.7585  16.8677  17.0757  17.1110

          k = 0.1921 0.1921 0.1921 ( 48503 PWs)   bands (ev):

   -73.0424 -72.9817 -72.9806 -72.9806 -72.9637 -72.9507 -72.9507 -72.9381
   -72.9321 -72.9321 -72.9184 -72.9155 -72.9155 -72.9155 -72.9150 -72.9150
   -41.7453 -41.7033 -41.6954 -41.6954 -41.6913 -41.6775 -41.6775 -41.6678
   -39.4422 -39.3550 -39.3067 -39.3067 -39.2237 -39.1993 -39.1993 -39.1493
   -39.1399 -39.1399 -39.0880 -39.0832 -39.0832 -39.0727 -39.0727 -39.0709
   -39.0420 -39.0420 -38.9870 -38.9790 -38.9790 -38.9678 -38.9678 -38.9621
   -38.9542 -38.9542 -38.9452 -38.9352 -38.9352 -38.9329 -38.9287 -38.9254
   -38.9254 -38.9183 -38.9070 -38.9070 -38.8994 -38.8994 -38.8920 -38.8877
   -38.8877 -38.8824 -38.8726 -38.8703 -38.8703 -38.8545 -38.8545 -38.8446
   -18.0097 -18.0079 -18.0079 -17.9847 -17.9847 -17.9795 -17.9741 -17.9741
   -17.9705 -17.9328 -17.9328 -17.9328 -17.8961 -17.8956 -17.8956 -17.8576
   -17.8519 -17.8519 -17.8413 -17.8413 -17.8389 -17.8262 -17.8242 -17.8242
     4.2532   5.2642   5.2642   5.8589   6.6576   6.6576   7.9011   9.4091
    10.4736  10.7133  10.7133  10.8061  10.9442  10.9442  11.1451  11.2269
    11.2269  11.3390  11.4553  11.4553  11.5090  11.5451  11.5451  11.5711
    11.5711  11.6098  11.6144  11.7817  11.9554  11.9554  12.0720  12.0720
    12.0907  12.1438  12.1438  12.2147  12.2147  12.2561  12.2664  12.3584
    12.3584  12.3844  12.4202  12.4202  12.5707  12.5883  12.5883  12.6123
    12.6123  12.6712  12.8369  12.8369  12.9111  12.9244  12.9244  13.0081
    13.0235  13.0468  13.0468  13.3013  13.3013  13.3097  13.3558  13.3558
    13.3987  13.3987  13.4396  13.4490  13.4662  13.4662  13.6427  13.6427
    13.6546  13.7833  13.7833  13.8030  13.8078  13.8078  13.8078  13.8439
    13.8439  13.8666  14.1884  14.1884  14.2551  14.2734  14.2734  14.4846
    14.5524  14.5776  14.5776  14.9859  14.9859  15.1448  15.1743  15.1743
    15.2308  15.5715  15.5715  15.8626  15.8626  15.9009  16.0077  16.0148
    16.0148  16.0457  16.0457  16.1929  16.1929  16.2571  16.2910  16.3185
    16.3185  16.3476  16.3889  16.4227  16.4227  17.0779  17.0789  17.1455

          k = 0.1921 0.1921 0.3842 ( 48490 PWs)   bands (ev):

   -73.0424 -72.9822 -72.9809 -72.9806 -72.9604 -72.9552 -72.9507 -72.9383
   -72.9321 -72.9276 -72.9210 -72.9155 -72.9155 -72.9155 -72.9150 -72.9149
   -41.7453 -41.7023 -41.6980 -41.6955 -41.6909 -41.6775 -41.6743 -41.6699
   -39.4261 -39.3697 -39.3289 -39.3084 -39.2162 -39.1921 -39.1720 -39.1551
   -39.1375 -39.1328 -39.0982 -39.0909 -39.0846 -39.0798 -39.0781 -39.0759
   -39.0432 -39.0353 -38.9901 -38.9787 -38.9785 -38.9669 -38.9620 -38.9585
   -38.9539 -38.9535 -38.9480 -38.9387 -38.9350 -38.9262 -38.9256 -38.9230
   -38.9187 -38.9144 -38.9127 -38.9085 -38.9011 -38.8982 -38.8943 -38.8889
   -38.8849 -38.8835 -38.8772 -38.8702 -38.8645 -38.8589 -38.8578 -38.8456
   -18.0095 -18.0069 -18.0061 -17.9854 -17.9839 -17.9783 -17.9759 -17.9752
   -17.9665 -17.9449 -17.9366 -17.9365 -17.8920 -17.8919 -17.8837 -17.8616
   -17.8512 -17.8491 -17.8432 -17.8396 -17.8383 -17.8288 -17.8271 -17.8243
     4.4595   4.8881   5.2704   5.8334   6.6566   7.0674   7.7370   9.6745
    10.1190  10.5960  10.8938  10.8984  11.0553  11.0735  11.1396  11.1607
    11.1714  11.2070  11.2596  11.2778  11.3044  11.3742  11.4933  11.5424
    11.5857  11.6015  11.6053  11.7107  12.0357  12.0462  12.1152  12.1211
    12.1351  12.1629  12.1755  12.1995  12.2027  12.2218  12.2496  12.2908
    12.3300  12.3696  12.3926  12.5075  12.5423  12.5771  12.5866  12.6144
    12.6537  12.7593  12.8265  12.8308  12.8823  12.9668  13.0284  13.0407
    13.0971  13.1292  13.1596  13.1865  13.2013  13.2082  13.2683  13.3155
    13.3580  13.3622  13.4745  13.5155  13.5206  13.5550  13.6206  13.6278
    13.6827  13.6969  13.7244  13.7370  13.7677  13.8000  13.8518  13.9326
    13.9555  13.9749  14.1142  14.2180  14.3570  14.3579  14.4941  14.5257
    14.5797  14.5800  14.6149  14.9100  15.1258  15.1969  15.2073  15.2278
    15.5668  15.6728  15.7653  15.7696  15.8415  15.8616  15.8855  15.9046
    15.9232  15.9742  15.9956  16.0499  16.0876  16.0990  16.1223  16.1853
    16.2238  16.2601  16.5269  16.5823  16.5908  16.8573  16.9265  16.9573

          k = 0.1921 0.3842 0.3842 ( 48499 PWs)   bands (ev):

   -73.0423 -72.9818 -72.9813 -72.9810 -72.9581 -72.9552 -72.9538 -72.9387
   -72.9287 -72.9271 -72.9234 -72.9155 -72.9155 -72.9155 -72.9150 -72.9149
   -41.7453 -41.7010 -41.6988 -41.6976 -41.6902 -41.6752 -41.6740 -41.6716
   -39.4181 -39.3617 -39.3438 -39.3316 -39.1984 -39.1690 -39.1670 -39.1558
   -39.1343 -39.1283 -39.1123 -39.0928 -39.0911 -39.0863 -39.0815 -39.0815
   -39.0403 -39.0317 -38.9859 -38.9823 -38.9783 -38.9630 -38.9619 -38.9577
   -38.9554 -38.9537 -38.9449 -38.9443 -38.9337 -38.9331 -38.9252 -38.9245
   -38.9185 -38.9163 -38.9131 -38.9110 -38.8994 -38.8966 -38.8916 -38.8907
   -38.8832 -38.8816 -38.8786 -38.8716 -38.8616 -38.8609 -38.8552 -38.8437
   -18.0080 -18.0052 -18.0052 -17.9861 -17.9828 -17.9767 -17.9765 -17.9728
   -17.9654 -17.9486 -17.9480 -17.9450 -17.8847 -17.8809 -17.8798 -17.8639
   -17.8487 -17.8482 -17.8437 -17.8432 -17.8354 -17.8321 -17.8282 -17.8272
     4.6363   4.8868   5.0095   5.7553   6.9808   7.1624   7.5034   9.9207
    10.2832  10.4434  10.6715  10.8283  11.0852  11.1081  11.1289  11.1430
    11.1617  11.1688  11.2184  11.2424  11.2790  11.3364  11.3556  11.4523
    11.4614  11.4738  11.5346  11.6530  12.0632  12.1127  12.1201  12.1575
    12.1765  12.2018  12.2224  12.2633  12.2974  12.3006  12.3300  12.3688
    12.4077  12.4465  12.4795  12.5199  12.5310  12.5373  12.5766  12.6380
    12.6413  12.6615  12.6963  12.7857  12.8045  12.8409  12.8643  12.9692
    12.9780  13.0109  13.0968  13.1147  13.1220  13.1795  13.1854  13.2566
    13.4876  13.5303  13.5446  13.5938  13.6075  13.6133  13.6776  13.6827
    13.7158  13.7363  13.7384  13.7858  13.8006  13.8291  13.8396  13.8889
    13.9539  14.0013  14.0247  14.0723  14.4439  14.4807  14.4900  14.5824
    14.6544  14.7944  14.8135  14.9529  15.3904  15.4096  15.4991  15.5606
    15.5889  15.7259  15.7317  15.7601  15.7605  15.7888  15.8011  15.8275
    15.8304  15.9589  15.9590  15.9891  16.0293  16.0422  16.0830  16.0944
    16.1617  16.2991  16.3028  16.5126  16.6094  16.6735  16.7335  16.8286

          k = 0.3842 0.3842 0.3842 ( 48449 PWs)   bands (ev):

   -73.0423 -72.9816 -72.9813 -72.9813 -72.9569 -72.9552 -72.9552 -72.9387
   -72.9271 -72.9271 -72.9250 -72.9155 -72.9155 -72.9155 -72.9149 -72.9149
   -41.7453 -41.7002 -41.6989 -41.6989 -41.6900 -41.6740 -41.6740 -41.6725
   -39.4165 -39.3579 -39.3463 -39.3463 -39.1854 -39.1544 -39.1544 -39.1512
   -39.1322 -39.1322 -39.1184 -39.0961 -39.0961 -39.0903 -39.0888 -39.0888
   -39.0318 -39.0318 -38.9827 -38.9816 -38.9816 -38.9665 -38.9539 -38.9539
   -38.9506 -38.9497 -38.9497 -38.9473 -38.9344 -38.9344 -38.9318 -38.9318
   -38.9315 -38.9246 -38.9200 -38.9200 -38.8917 -38.8917 -38.8892 -38.8881
   -38.8834 -38.8834 -38.8722 -38.8722 -38.8556 -38.8556 -38.8556 -38.8397
   -18.0049 -18.0040 -18.0040 -17.9829 -17.9829 -17.9736 -17.9736 -17.9726
   -17.9685 -17.9560 -17.9554 -17.9554 -17.8758 -17.8749 -17.8749 -17.8607
   -17.8484 -17.8484 -17.8414 -17.8414 -17.8411 -17.8328 -17.8314 -17.8314
     4.7446   4.8944   4.8944   5.7385   7.1509   7.1509   7.3587  10.1031
    10.4342  10.6910  10.6910  10.8501  11.0246  11.0414  11.0414  11.0758
    11.1036  11.1036  11.2072  11.2103  11.2103  11.3084  11.3084  11.3294
    11.3325  11.3325  11.3353  11.5130  12.1419  12.1419  12.1954  12.1954
    12.2037  12.2676  12.2676  12.2703  12.3611  12.4067  12.4067  12.4972
    12.4972  12.5129  12.5129  12.5449  12.5910  12.5920  12.5934  12.5934
    12.6368  12.6368  12.6746  12.7205  12.7205  12.7251  12.7251  12.7585
    12.8746  12.8746  12.9555  13.0074  13.0165  13.0165  13.0642  13.0642
    13.6067  13.6067  13.6420  13.6420  13.6445  13.6447  13.7026  13.7026
    13.7563  13.7563  13.7596  13.7868  13.8788  13.8789  13.8789  13.8959
    13.8959  13.9076  13.9222  13.9222  14.7588  14.7588  14.7961  14.9582
    15.0211  15.0211  15.0227  15.2269  15.5597  15.5645  15.5645  15.5932
    15.5932  15.6410  15.6410  15.7021  15.7351  15.7351  15.7473  15.7845
    15.7845  15.9615  15.9615  15.9647  15.9868  15.9868  16.0306  16.0306
    16.0697  16.2025  16.2298  16.2298  16.4562  16.4562  16.4654  16.5108

 ------ SPIN DOWN ----------


          k = 0.0000 0.0000 0.0000 ( 48489 PWs)   bands (ev):

   -70.8955 -70.8662 -70.8662 -70.8617 -70.8617 -70.8617 -70.8551 -70.8339
   -70.8339 -70.8339 -70.8334 -70.8334 -70.8334 -70.7888 -70.7888 -70.7888
   -42.4932 -42.4776 -42.4652 -42.4652 -42.4589 -42.4589 -42.4589 -42.4403
   -37.5265 -37.3313 -37.3313 -37.3121 -37.3078 -37.3078 -37.3078 -37.1424
   -37.1424 -37.1424 -37.1137 -37.1137 -37.1137 -37.0351 -37.0351 -37.0351
   -36.9091 -36.9091 -36.8994 -36.8994 -36.8926 -36.8868 -36.8868 -36.8868
   -36.8643 -36.8643 -36.8643 -36.8592 -36.8592 -36.8592 -36.8429 -36.8429
   -36.8337 -36.8222 -36.8222 -36.8222 -36.8194 -36.8194 -36.8194 -36.7744
   -36.7744 -36.7744 -36.7725 -36.7725 -36.7725 -36.7433 -36.7433 -36.7433
   -18.7734 -18.7734 -18.7734 -18.7636 -18.7636 -18.7636 -18.7468 -18.7468
   -18.7468 -18.6936 -18.6936 -18.6936 -18.6831 -18.6831 -18.6803 -18.6271
   -18.6271 -18.6271 -18.6101 -18.6101 -18.6101 -18.6004 -18.6004 -18.6004
     4.3322   6.2090   6.2090   6.3144   6.3144   6.3144   8.2799   9.3742
    10.9889  11.3422  11.3422  11.3688  11.3688  11.3688  11.8183  11.8183
    11.8183  12.1074  12.3721  12.3721  12.3721  12.3783  12.3783  12.8165
    12.8165  12.8165  12.8399  12.8399  12.8399  12.8561  12.9420  12.9420
    12.9420  13.0408  13.0408  13.0408  13.1154  13.1154  13.1154  13.3140
    13.3140  13.5825  13.5825  13.5825  13.5931  13.5931  13.6032  13.7413
    13.7413  13.7774  13.7805  13.7805  13.7805  13.7930  13.7930  13.7930
    13.8490  13.8490  13.8490  13.8894  13.8894  14.1805  14.1805  14.1805
    14.3794  14.3794  14.3794  14.4654  14.4654  14.4654  15.0197  15.0197
    15.0197  15.3263  15.3263  15.3263  15.3971  15.3971  15.3971  15.5544
    15.5544  15.5996  15.6116  15.6116  15.6190  15.6190  15.6190  15.6518
    15.7265  15.7265  15.7265  15.7574  15.7574  15.9535  15.9535  15.9535
    16.3213  16.3213  16.3213  16.3807  16.3807  16.3807  16.4261  16.4261
    16.4261  16.8354  16.8355  16.8448  16.8472  16.8545  16.8586  16.9234
    16.9494  16.9494  16.9494  16.9732  16.9742  17.0637  17.0638  17.0638

          k = 0.0000 0.0000 0.1921 ( 48469 PWs)   bands (ev):

   -70.8940 -70.8733 -70.8662 -70.8617 -70.8617 -70.8580 -70.8520 -70.8345
   -70.8339 -70.8339 -70.8339 -70.8334 -70.8334 -70.7889 -70.7888 -70.7888
   -42.4928 -42.4778 -42.4683 -42.4652 -42.4589 -42.4589 -42.4550 -42.4414
   -37.5162 -37.3803 -37.3311 -37.3160 -37.3075 -37.3075 -37.2587 -37.1483
   -37.1401 -37.1401 -37.1160 -37.1160 -37.1145 -37.0375 -37.0375 -37.0357
   -36.9089 -36.9061 -36.9018 -36.8997 -36.8951 -36.8887 -36.8887 -36.8811
   -36.8658 -36.8633 -36.8624 -36.8624 -36.8562 -36.8562 -36.8515 -36.8393
   -36.8316 -36.8217 -36.8217 -36.8183 -36.8166 -36.8166 -36.8090 -36.7788
   -36.7770 -36.7770 -36.7751 -36.7729 -36.7729 -36.7455 -36.7446 -36.7446
   -18.7737 -18.7726 -18.7726 -18.7639 -18.7630 -18.7630 -18.7490 -18.7490
   -18.7440 -18.7056 -18.6934 -18.6934 -18.6828 -18.6810 -18.6698 -18.6302
   -18.6249 -18.6249 -18.6108 -18.6108 -18.6101 -18.6014 -18.6014 -18.6004
     4.4203   5.6791   6.2125   6.3181   6.3181   6.8333   8.2557   9.4399
    10.6428  11.1102  11.3556  11.3766  11.3766  11.6573  11.8679  11.8679
    11.9097  12.0465  12.2284  12.2558  12.2572  12.2572  12.5597  12.5597
    12.6526  12.7932  12.8063  12.8188  12.8188  12.8586  12.8811  12.9757
    12.9757  13.1023  13.1150  13.1150  13.1652  13.3129  13.3129  13.3301
    13.3490  13.5191  13.5470  13.5470  13.5895  13.5967  13.6740  13.6740
    13.6983  13.7126  13.7861  13.8018  13.8179  13.8423  13.8423  13.8572
    13.8783  13.9203  13.9203  13.9274  13.9298  14.0280  14.1368  14.1368
    14.4014  14.4579  14.4579  14.4938  14.6082  14.6082  15.0288  15.0293
    15.0293  15.1727  15.1878  15.1878  15.2035  15.3834  15.4474  15.4474
    15.5148  15.5792  15.6078  15.7003  15.7149  15.7266  15.7266  15.7986
    15.8356  15.8495  15.8495  15.8538  15.9428  15.9428  15.9436  16.0142
    16.2903  16.2903  16.3040  16.3040  16.3404  16.3624  16.3625  16.3860
    16.4547  16.6557  16.6904  16.7488  16.7542  16.7597  16.7600  16.8096
    16.8582  16.8601  16.9159  16.9253  16.9278  17.0186  17.1075  17.2308

          k = 0.0000 0.0000 0.3842 ( 48538 PWs)   bands (ev):

   -70.8898 -70.8814 -70.8662 -70.8617 -70.8617 -70.8573 -70.8453 -70.8377
   -70.8339 -70.8339 -70.8339 -70.8334 -70.8334 -70.7891 -70.7888 -70.7888
   -42.4919 -42.4783 -42.4712 -42.4652 -42.4589 -42.4589 -42.4496 -42.4442
   -37.4870 -37.4363 -37.3306 -37.3157 -37.3069 -37.3069 -37.2155 -37.1638
   -37.1350 -37.1350 -37.1211 -37.1211 -37.1158 -37.0414 -37.0414 -37.0367
   -36.9081 -36.9049 -36.9024 -36.8978 -36.8954 -36.8910 -36.8910 -36.8774
   -36.8738 -36.8656 -36.8605 -36.8605 -36.8553 -36.8510 -36.8510 -36.8416
   -36.8257 -36.8214 -36.8214 -36.8101 -36.8101 -36.8069 -36.7933 -36.7908
   -36.7827 -36.7827 -36.7817 -36.7733 -36.7733 -36.7497 -36.7468 -36.7468
   -18.7742 -18.7714 -18.7714 -18.7643 -18.7603 -18.7603 -18.7541 -18.7541
   -18.7370 -18.7194 -18.6931 -18.6931 -18.6824 -18.6805 -18.6549 -18.6384
   -18.6197 -18.6197 -18.6135 -18.6135 -18.6101 -18.6030 -18.6030 -18.6003
     4.6570   5.1834   6.2181   6.3241   6.3241   7.2530   8.1786   9.6603
    10.0985  11.1392  11.3818  11.3912  11.3912  11.4517  11.9809  12.0121
    12.0121  12.0295  12.0942  12.1135  12.1135  12.2536  12.2536  12.4225
    12.6731  12.7365  12.7409  12.7593  12.7593  12.8559  13.0776  13.0776
    13.0864  13.1995  13.2003  13.2003  13.2264  13.2662  13.2662  13.3463
    13.4425  13.4818  13.4818  13.4866  13.5499  13.5767  13.5912  13.6556
    13.7904  13.7904  13.8112  13.8482  13.8632  13.8763  13.8850  13.9069
    13.9069  13.9616  14.0063  14.0063  14.0843  14.1621  14.1669  14.1669
    14.3267  14.4202  14.4233  14.4233  14.8271  14.8271  14.9872  14.9872
    15.0301  15.0321  15.0508  15.0508  15.0952  15.2011  15.4937  15.5364
    15.6290  15.6852  15.6852  15.7348  15.9040  15.9040  15.9174  15.9174
    15.9178  15.9186  16.0030  16.0236  16.0236  16.0446  16.1326  16.1338
    16.1338  16.1860  16.1861  16.1874  16.2544  16.2579  16.2579  16.2903
    16.4456  16.5182  16.5307  16.5849  16.5849  16.6433  16.7876  16.8292
    16.8709  16.8711  16.8769  16.8987  16.8990  16.9026  17.0078  17.0319

          k = 0.0000 0.1921 0.1921 ( 48486 PWs)   bands (ev):

   -70.8925 -70.8743 -70.8712 -70.8634 -70.8587 -70.8536 -70.8518 -70.8357
   -70.8339 -70.8339 -70.8339 -70.8334 -70.8333 -70.7889 -70.7888 -70.7888
   -42.4924 -42.4778 -42.4695 -42.4672 -42.4585 -42.4560 -42.4546 -42.4423
   -37.5064 -37.3840 -37.3704 -37.3345 -37.2935 -37.2625 -37.2573 -37.1525
   -37.1398 -37.1380 -37.1190 -37.1177 -37.1153 -37.0396 -37.0383 -37.0378
   -36.9073 -36.9048 -36.9013 -36.9001 -36.8967 -36.8879 -36.8868 -36.8827
   -36.8730 -36.8683 -36.8619 -36.8583 -36.8545 -36.8520 -36.8459 -36.8412
   -36.8341 -36.8238 -36.8194 -36.8166 -36.8155 -36.8087 -36.8034 -36.7860
   -36.7792 -36.7767 -36.7762 -36.7744 -36.7724 -36.7479 -36.7459 -36.7443
   -18.7741 -18.7716 -18.7715 -18.7641 -18.7630 -18.7613 -18.7512 -18.7485
   -18.7439 -18.7061 -18.7058 -18.6984 -18.6766 -18.6693 -18.6689 -18.6308
   -18.6251 -18.6227 -18.6121 -18.6113 -18.6099 -18.6030 -18.6020 -18.6005
     4.5047   5.6091   5.8235   6.2874   6.6724   6.9781   8.2091   9.5089
    10.6133  10.7836  11.2023  11.3215  11.6016  11.8122  11.8808  11.9038
    11.9465  12.0097  12.1066  12.1527  12.2766  12.2889  12.3294  12.4975
    12.5358  12.5625  12.7383  12.8583  12.9137  12.9197  13.0062  13.0455
    13.0521  13.1430  13.1513  13.2228  13.2690  13.3196  13.3398  13.3598
    13.3696  13.4859  13.4913  13.5056  13.6450  13.6775  13.6864  13.7106
    13.7326  13.7406  13.7475  13.7583  13.7877  13.7895  13.8417  13.8713
    13.8919  13.9155  13.9185  13.9505  13.9565  13.9595  14.0420  14.1307
    14.5027  14.5466  14.6146  14.6308  14.6450  14.6754  15.0201  15.0512
    15.0531  15.0706  15.1309  15.1625  15.2106  15.2835  15.3117  15.5510
    15.5778  15.5845  15.6162  15.6346  15.6535  15.7836  15.8000  15.8913
    15.8967  15.9208  15.9220  15.9340  15.9765  16.0124  16.0137  16.0721
    16.1901  16.2081  16.2863  16.2943  16.3115  16.3227  16.3308  16.3827
    16.4407  16.6077  16.6234  16.6369  16.6925  16.7601  16.7785  16.7975
    16.8062  16.8443  16.8454  16.9017  16.9183  16.9294  16.9762  17.0709

          k = 0.0000 0.1921 0.3842 ( 48550 PWs)   bands (ev):

   -70.8886 -70.8809 -70.8718 -70.8651 -70.8565 -70.8535 -70.8460 -70.8389
   -70.8339 -70.8339 -70.8339 -70.8334 -70.8333 -70.7890 -70.7888 -70.7888
   -42.4917 -42.4777 -42.4721 -42.4679 -42.4578 -42.4560 -42.4500 -42.4451
   -37.4790 -37.4316 -37.3701 -37.3488 -37.2771 -37.2653 -37.2163 -37.1682
   -37.1354 -37.1336 -37.1245 -37.1222 -37.1168 -37.0429 -37.0422 -37.0390
   -36.9062 -36.9026 -36.9016 -36.8975 -36.8947 -36.8906 -36.8884 -36.8800
   -36.8778 -36.8720 -36.8660 -36.8601 -36.8533 -36.8490 -36.8418 -36.8368
   -36.8295 -36.8209 -36.8198 -36.8147 -36.8091 -36.8050 -36.7949 -36.7916
   -36.7851 -36.7812 -36.7778 -36.7756 -36.7739 -36.7493 -36.7481 -36.7463
   -18.7743 -18.7710 -18.7691 -18.7625 -18.7614 -18.7590 -18.7559 -18.7527
   -18.7374 -18.7204 -18.7062 -18.7039 -18.6708 -18.6682 -18.6538 -18.6380
   -18.6206 -18.6180 -18.6148 -18.6130 -18.6112 -18.6054 -18.6033 -18.6007
     4.7322   5.2141   5.7823   6.2392   6.7795   7.3295   8.0821   9.7300
    10.1593  10.8335  11.0652  11.2428  11.6612  11.7752  11.9011  11.9805
    12.0041  12.0405  12.0704  12.1230  12.1692  12.1845  12.2403  12.3298
    12.4349  12.4666  12.5419  12.8698  13.0381  13.0564  13.1066  13.1615
    13.1868  13.2126  13.2339  13.2602  13.2833  13.2874  13.3711  13.3787
    13.4184  13.4278  13.4525  13.5094  13.5701  13.6090  13.6445  13.6919
    13.7253  13.7397  13.7701  13.7770  13.7915  13.8407  13.9017  13.9154
    13.9279  13.9369  13.9671  13.9741  13.9995  14.0342  14.0656  14.1120
    14.5767  14.6048  14.6289  14.6554  14.8520  14.8768  14.9721  14.9826
    15.0169  15.0623  15.0805  15.1010  15.1485  15.1817  15.4488  15.5010
    15.5371  15.5813  15.7160  15.7804  15.8116  15.8626  15.9029  15.9214
    15.9551  15.9642  15.9948  16.0301  16.0444  16.0894  16.1171  16.1450
    16.1514  16.1530  16.1692  16.1989  16.2268  16.2620  16.3217  16.3428
    16.3641  16.4900  16.5469  16.5553  16.6134  16.6628  16.6917  16.7267
    16.7603  16.7862  16.7974  16.8208  16.8496  16.8936  16.9492  17.0579

          k = 0.0000 0.3842 0.3842 ( 48478 PWs)   bands (ev):

   -70.8852 -70.8804 -70.8778 -70.8685 -70.8513 -70.8483 -70.8475 -70.8423
   -70.8339 -70.8339 -70.8339 -70.8334 -70.8332 -70.7890 -70.7889 -70.7889
   -42.4914 -42.4761 -42.4734 -42.4714 -42.4559 -42.4522 -42.4506 -42.4474
   -37.4562 -37.4246 -37.4096 -37.3778 -37.2495 -37.2272 -37.2171 -37.1843
   -37.1350 -37.1301 -37.1296 -37.1251 -37.1191 -37.0449 -37.0437 -37.0430
   -36.9031 -36.8992 -36.8979 -36.8949 -36.8917 -36.8904 -36.8881 -36.8850
   -36.8839 -36.8751 -36.8717 -36.8657 -36.8469 -36.8464 -36.8368 -36.8333
   -36.8319 -36.8214 -36.8155 -36.8129 -36.8122 -36.7991 -36.7965 -36.7908
   -36.7903 -36.7841 -36.7820 -36.7741 -36.7721 -36.7502 -36.7476 -36.7461
   -18.7730 -18.7692 -18.7671 -18.7631 -18.7619 -18.7573 -18.7561 -18.7517
   -18.7349 -18.7219 -18.7202 -18.7155 -18.6592 -18.6538 -18.6522 -18.6411
   -18.6202 -18.6173 -18.6166 -18.6136 -18.6097 -18.6093 -18.6042 -18.6026
     4.9400   5.2328   5.4069   6.1077   7.2132   7.4620   7.8298   9.9343
    10.2904  10.4313  10.6899  11.2627  11.8552  11.9101  11.9548  12.0079
    12.0106  12.0214  12.0224  12.0546  12.0699  12.1179  12.1573  12.2406
    12.3035  12.3184  12.3390  12.8978  13.1634  13.2280  13.2509  13.2590
    13.2775  13.3105  13.3247  13.3608  13.3652  13.3979  13.4164  13.4189
    13.4553  13.4670  13.4688  13.4717  13.5561  13.5626  13.6129  13.6169
    13.6394  13.6477  13.6606  13.7121  13.7133  13.7220  13.7772  13.8056
    13.9444  13.9640  13.9761  14.0561  14.0626  14.0646  14.1212  14.1253
    14.8365  14.8403  14.8516  14.8821  14.8927  14.9377  14.9402  14.9738
    15.0251  15.0977  15.1032  15.1626  15.2276  15.2950  15.3064  15.3483
    15.4532  15.5021  15.5765  15.7581  15.7860  15.8366  15.8784  15.9617
    15.9998  16.0224  16.0331  16.0438  16.0503  16.0733  16.1024  16.1138
    16.1272  16.1880  16.2102  16.2284  16.2371  16.2753  16.2815  16.3045
    16.3361  16.3631  16.4937  16.5245  16.5730  16.6163  16.6187  16.6871
    16.7404  16.7674  16.7948  16.8005  16.8100  16.9159  16.9848  17.1896

          k = 0.1921 0.1921 0.1921 ( 48503 PWs)   bands (ev):

   -70.8912 -70.8743 -70.8743 -70.8660 -70.8536 -70.8536 -70.8515 -70.8369
   -70.8339 -70.8339 -70.8339 -70.8334 -70.8334 -70.7889 -70.7888 -70.7888
   -42.4921 -42.4776 -42.4695 -42.4695 -42.4572 -42.4546 -42.4546 -42.4432
   -37.4974 -37.3847 -37.3847 -37.3589 -37.2632 -37.2552 -37.2552 -37.1561
   -37.1382 -37.1382 -37.1218 -37.1178 -37.1178 -37.0404 -37.0404 -37.0398
   -36.9046 -36.9046 -36.8999 -36.8999 -36.8965 -36.8870 -36.8864 -36.8864
   -36.8720 -36.8683 -36.8683 -36.8565 -36.8521 -36.8521 -36.8423 -36.8423
   -36.8359 -36.8231 -36.8231 -36.8165 -36.8052 -36.8052 -36.8010 -36.7906
   -36.7821 -36.7821 -36.7751 -36.7751 -36.7704 -36.7482 -36.7482 -36.7432
   -18.7731 -18.7710 -18.7710 -18.7633 -18.7633 -18.7596 -18.7502 -18.7502
   -18.7447 -18.7087 -18.7085 -18.7085 -18.6666 -18.6666 -18.6659 -18.6303
   -18.6234 -18.6234 -18.6129 -18.6129 -18.6096 -18.6042 -18.6020 -18.6020
     4.5845   5.6159   5.6159   6.2000   6.9744   6.9744   8.1496   9.5801
    10.5934  10.8196  10.8196  11.3910  11.7897  11.7897  11.8511  11.8730
    11.8730  12.0665  12.0713  12.0713  12.2633  12.2882  12.2882  12.4156
    12.4156  12.4158  12.6260  12.8514  13.0500  13.0500  13.0525  13.0829
    13.0829  13.2464  13.2464  13.2954  13.2969  13.3269  13.3269  13.3853
    13.3853  13.5276  13.5361  13.5361  13.6402  13.6704  13.6704  13.6925
    13.6957  13.6957  13.7392  13.7392  13.7725  13.8061  13.8288  13.8288
    13.8574  13.8624  13.8624  13.9416  13.9416  14.0058  14.1000  14.1000
    14.6741  14.6741  14.6751  14.7131  14.7287  14.7287  15.0431  15.0431
    15.0927  15.1482  15.1482  15.1654  15.1726  15.2042  15.2042  15.5476
    15.5476  15.6286  15.6286  15.6609  15.7034  15.7067  15.7067  15.9319
    15.9736  15.9889  15.9889  16.0063  16.0063  16.0541  16.0976  16.0976
    16.1789  16.1862  16.1862  16.2399  16.2399  16.2891  16.2891  16.2971
    16.5767  16.5767  16.5981  16.6121  16.6549  16.6549  16.6601  16.7504
    16.7505  16.8746  16.8752  16.8841  16.8843  16.9331  16.9373  16.9851

          k = 0.1921 0.1921 0.3842 ( 48490 PWs)   bands (ev):

   -70.8875 -70.8805 -70.8743 -70.8668 -70.8536 -70.8521 -70.8464 -70.8400
   -70.8339 -70.8339 -70.8339 -70.8334 -70.8333 -70.7890 -70.7889 -70.7888
   -42.4916 -42.4772 -42.4725 -42.4695 -42.4568 -42.4546 -42.4503 -42.4458
   -37.4721 -37.4286 -37.3857 -37.3646 -37.2585 -37.2519 -37.2158 -37.1712
   -37.1347 -37.1344 -37.1266 -37.1235 -37.1187 -37.0436 -37.0436 -37.0411
   -36.9042 -36.9008 -36.9001 -36.8960 -36.8949 -36.8893 -36.8875 -36.8829
   -36.8792 -36.8721 -36.8655 -36.8628 -36.8541 -36.8496 -36.8393 -36.8354
   -36.8329 -36.8240 -36.8212 -36.8121 -36.8086 -36.8048 -36.7943 -36.7910
   -36.7849 -36.7826 -36.7795 -36.7778 -36.7698 -36.7491 -36.7482 -36.7446
   -18.7729 -18.7705 -18.7676 -18.7616 -18.7615 -18.7577 -18.7544 -18.7540
   -18.7390 -18.7227 -18.7123 -18.7121 -18.6627 -18.6620 -18.6516 -18.6365
   -18.6195 -18.6191 -18.6147 -18.6147 -18.6116 -18.6066 -18.6043 -18.6020
     4.7999   5.2359   5.6270   6.1772   6.9683   7.3616   7.9931   9.7967
    10.2232  10.7741  10.8922  11.2572  11.6315  11.7225  11.8986  11.9840
    11.9918  12.0617  12.0722  12.0959  12.1627  12.1629  12.1970  12.2734
    12.3277  12.3506  12.4311  12.8577  13.1641  13.1679  13.1785  13.2298
    13.2338  13.2666  13.2790  13.3088  13.3142  13.3416  13.4003  13.4101
    13.4541  13.4686  13.4803  13.5364  13.5435  13.6193  13.6300  13.6591
    13.6843  13.7168  13.7328  13.7479  13.7553  13.7800  13.8427  13.8681
    13.8729  13.8949  13.9274  13.9675  13.9914  14.0501  14.0683  14.1163
    14.7253  14.7390  14.7780  14.8137  14.8951  14.9343  15.0070  15.0380
    15.0493  15.0661  15.1223  15.1848  15.1913  15.2232  15.3805  15.4748
    15.5457  15.5940  15.6105  15.7088  15.7367  15.8010  15.8258  15.8525
    15.9763  15.9985  16.0478  16.0533  16.0657  16.1105  16.1134  16.1261
    16.1437  16.1576  16.1851  16.1908  16.2566  16.2693  16.3001  16.3002
    16.3825  16.3938  16.4531  16.4899  16.5549  16.5783  16.6060  16.6822
    16.6953  16.7326  16.8507  16.8552  16.8948  16.9557  16.9596  16.9960

          k = 0.1921 0.3842 0.3842 ( 48499 PWs)   bands (ev):

   -70.8846 -70.8804 -70.8785 -70.8689 -70.8503 -70.8483 -70.8475 -70.8430
   -70.8339 -70.8339 -70.8339 -70.8333 -70.8332 -70.7890 -70.7889 -70.7889
   -42.4914 -42.4758 -42.4734 -42.4721 -42.4555 -42.4518 -42.4506 -42.4478
   -37.4526 -37.4256 -37.4143 -37.3829 -37.2414 -37.2216 -37.2131 -37.1843
   -37.1351 -37.1323 -37.1309 -37.1263 -37.1219 -37.0458 -37.0451 -37.0444
   -36.9012 -36.8986 -36.8950 -36.8940 -36.8915 -36.8890 -36.8888 -36.8860
   -36.8827 -36.8725 -36.8705 -36.8649 -36.8501 -36.8490 -36.8379 -36.8366
   -36.8342 -36.8280 -36.8215 -36.8190 -36.8071 -36.7975 -36.7940 -36.7895
   -36.7875 -36.7837 -36.7822 -36.7782 -36.7669 -36.7480 -36.7463 -36.7443
   -18.7706 -18.7675 -18.7659 -18.7614 -18.7613 -18.7563 -18.7553 -18.7522
   -18.7386 -18.7263 -18.7247 -18.7216 -18.6532 -18.6496 -18.6481 -18.6377
   -18.6197 -18.6177 -18.6174 -18.6151 -18.6111 -18.6100 -18.6059 -18.6047
     4.9847   5.2414   5.3668   6.0982   7.2703   7.4436   7.7658   9.9730
    10.3459  10.5117  10.7107  11.2530  11.6456  11.7816  11.8610  11.9254
    11.9753  12.0315  12.0541  12.0649  12.0913  12.1029  12.1232  12.1950
    12.2376  12.2605  12.2837  12.8548  13.2578  13.3040  13.3149  13.3201
    13.3320  13.3498  13.3782  13.3813  13.3989  13.4232  13.4442  13.4605
    13.4714  13.4740  13.4931  13.5103  13.5579  13.5831  13.6043  13.6052
    13.6147  13.6471  13.6613  13.6751  13.6966  13.7044  13.7562  13.7985
    13.9034  13.9277  13.9299  13.9744  14.0363  14.0664  14.0989  14.1162
    14.9163  14.9320  14.9636  14.9875  14.9932  15.0287  15.0405  15.0632
    15.1507  15.1651  15.2257  15.2584  15.2981  15.3357  15.3451  15.4218
    15.4329  15.4891  15.5591  15.6216  15.6889  15.7070  15.8267  15.8582
    15.8892  15.8956  15.9809  15.9859  16.0396  16.0874  16.0903  16.1012
    16.1228  16.1704  16.1831  16.1988  16.2122  16.2252  16.2546  16.2582
    16.3401  16.3504  16.4003  16.4509  16.5490  16.6492  16.6693  16.6881
    16.6942  16.7727  16.7860  16.8295  16.8801  16.9587  16.9608  17.0552

          k = 0.3842 0.3842 0.3842 ( 48449 PWs)   bands (ev):

   -70.8828 -70.8804 -70.8804 -70.8693 -70.8486 -70.8475 -70.8475 -70.8449
   -70.8339 -70.8339 -70.8339 -70.8332 -70.8332 -70.7890 -70.7889 -70.7889
   -42.4913 -42.4749 -42.4735 -42.4735 -42.4551 -42.4506 -42.4506 -42.4490
   -37.4425 -37.4271 -37.4271 -37.3893 -37.2303 -37.2063 -37.2063 -37.1893
   -37.1352 -37.1352 -37.1343 -37.1273 -37.1273 -37.0472 -37.0472 -37.0469
   -36.8976 -36.8976 -36.8919 -36.8919 -36.8911 -36.8887 -36.8868 -36.8868
   -36.8827 -36.8672 -36.8643 -36.8643 -36.8528 -36.8528 -36.8425 -36.8425
   -36.8363 -36.8325 -36.8318 -36.8318 -36.8018 -36.8018 -36.7863 -36.7856
   -36.7846 -36.7846 -36.7814 -36.7814 -36.7623 -36.7443 -36.7443 -36.7426
   -18.7648 -18.7641 -18.7641 -18.7598 -18.7598 -18.7533 -18.7533 -18.7526
   -18.7439 -18.7342 -18.7328 -18.7328 -18.6426 -18.6413 -18.6413 -18.6337
   -18.6196 -18.6196 -18.6170 -18.6170 -18.6147 -18.6108 -18.6093 -18.6093
     5.1011   5.2556   5.2556   6.0865   7.4140   7.4140   7.6110  10.0336
    10.4933  10.6796  10.6796  11.2308  11.5073  11.5073  11.6693  11.9514
    11.9696  11.9696  12.0216  12.0216  12.0422  12.0449  12.0449  12.1278
    12.2076  12.2076  12.2256  12.7957  13.3835  13.3835  13.3911  13.4190
    13.4190  13.4262  13.4262  13.4359  13.4532  13.4684  13.4684  13.4906
    13.4923  13.4923  13.5409  13.5409  13.5424  13.5584  13.5699  13.5699
    13.6358  13.6358  13.6515  13.6660  13.6660  13.6815  13.7134  13.7134
    13.9011  13.9164  13.9164  13.9840  13.9840  14.0716  14.0745  14.0745
    15.0978  15.1210  15.1210  15.1724  15.1724  15.1988  15.1988  15.2245
    15.2673  15.2673  15.3363  15.4246  15.4630  15.4630  15.4677  15.5003
    15.5003  15.5336  15.5433  15.5433  15.6123  15.6123  15.6280  15.6635
    15.6635  15.7471  15.7678  15.7678  15.8987  16.0192  16.0216  16.0216
    16.0780  16.0780  16.1027  16.1186  16.1186  16.1255  16.1765  16.1765
    16.3718  16.3718  16.3801  16.6141  16.6663  16.6663  16.7159  16.7304
    16.7307  16.7331  16.7534  16.7570  16.8298  16.8850  16.9200  17.2732

     the Fermi energy is    15.1148 ev

!    total energy              =   -6230.60855358 Ry
     estimated scf accuracy    <          7.3E-10 Ry
     smearing contrib. (-TS)   =       0.00063951 Ry
     internal energy E=F+TS    =   -6230.60919308 Ry

     The total energy is F=E-TS. E is the sum of the following terms:
     one-electron contribution =   -2596.90141905 Ry
     hartree contribution      =    1476.30249511 Ry
     xc contribution           =    -706.33582306 Ry
     ewald contribution        =   -3185.20322808 Ry
     one-center paw contrib.   =   -1218.47121801 Ry

     total magnetization       =    19.74 Bohr mag/cell
     absolute magnetization    =    38.93 Bohr mag/cell

     convergence has been achieved in  17 iterations

     negative rho (up, down):  7.239E-03 1.093E-03

     Forces acting on atoms (cartesian axes, Ry/au):

     atom    1 type  1   force =     0.00045738    0.00045738    0.00120643
     atom    2 type  1   force =    -0.00030357   -0.00030357   -0.00030357
     atom    3 type  1   force =    -0.00045738    0.00120643   -0.00045738
     atom    4 type  1   force =    -0.00120643   -0.00045738    0.00045738
     atom    5 type  1   force =     0.00045738    0.00120643    0.00045738
     atom    6 type  1   force =     0.00120643    0.00045738    0.00045738
     atom    7 type  1   force =    -0.00045738   -0.00120643    0.00045738
     atom    8 type  1   force =     0.00030357   -0.00030357    0.00030357
     atom    9 type  1   force =    -0.00030357    0.00030357    0.00030357
     atom   10 type  1   force =     0.00120643   -0.00045738   -0.00045738
     atom   11 type  1   force =    -0.00120643    0.00045738   -0.00045738
     atom   12 type  1   force =    -0.00045738   -0.00045738    0.00120643
     atom   13 type  1   force =     0.00030357    0.00030357   -0.00030357
     atom   14 type  1   force =    -0.00045738    0.00045738   -0.00120643
     atom   15 type  1   force =     0.00045738   -0.00120643   -0.00045738
     atom   16 type  1   force =     0.00045738   -0.00045738   -0.00120643
     atom   17 type  2   force =     0.00000000    0.00000000    0.00000000
     atom   18 type  2   force =    -0.00068946   -0.00068946    0.00068946
     atom   19 type  2   force =     0.00000000    0.00000000    0.00000000
     atom   20 type  2   force =    -0.00068946    0.00068946   -0.00068946
     atom   21 type  2   force =     0.00000000    0.00000000    0.00000000
     atom   22 type  2   force =     0.00068946    0.00068946    0.00068946
     atom   23 type  2   force =     0.00068946   -0.00068946   -0.00068946
     atom   24 type  2   force =     0.00000000    0.00000000    0.00000000
     atom   25 type  3   force =     0.00819333    0.00819333   -0.00819333
     atom   26 type  3   force =     0.00000000    0.00000000    0.00000000
     atom   27 type  3   force =     0.00819333   -0.00819333    0.00819333
     atom   28 type  3   force =     0.00000000    0.00000000    0.00000000
     atom   29 type  3   force =    -0.00819333   -0.00819333   -0.00819333
     atom   30 type  3   force =    -0.00819333    0.00819333    0.00819333
     atom   31 type  3   force =     0.00000000    0.00000000    0.00000000

     Total force =     0.028894     Total SCF correction =     0.000208


     Computing stress (Cartesian axis) and pressure


     negative rho (up, down):  7.239E-03 1.093E-03
          total   stress  (Ry/bohr**3)                   (kbar)     P=       -5.89
  -0.00004007   0.00000000   0.00000000           -5.89        0.00        0.00
   0.00000000  -0.00004007   0.00000000            0.00       -5.89        0.00
   0.00000000   0.00000000  -0.00004007            0.00        0.00       -5.89

     Energy error            =      2.8E-03 Ry
     Gradient error          =      8.2E-03 Ry/Bohr
     Cell gradient error     =      5.9E+00 kbar

     number of scf cycles    =   5
     number of bfgs steps    =   4

     enthalpy           old  =   -6230.6057156131 Ry
     enthalpy           new  =   -6230.6085535751 Ry

     CASE: enthalpy          _new < enthalpy          _old

     new trust radius        =       0.0609875841 bohr
     new conv_thr            =       0.0000000008 Ry

     new unit-cell volume =   2347.38865 a.u.^3 (   347.84711 Ang^3 )
     density =      6.12716 g/cm^3

CELL_PARAMETERS (alat= 12.76591255)
   1.041061697   0.000000000   0.000000000
   0.000000000   1.041061697   0.000000000
   0.000000000   0.000000000   1.041061697

ATOMIC_POSITIONS (crystal)
Fe               0.1262015490        0.1262015490        0.6251984846
Fe               0.6162657999        0.6162657999        0.6162657999
Fe               0.8737984510        0.6251984846        0.8737984510
Fe               0.3748015154        0.8737984510        0.1262015490
Fe               0.1262015490        0.6251984846        0.1262015490
Fe               0.6251984846        0.1262015490        0.1262015490
Fe               0.8737984510        0.3748015154        0.1262015490
Fe               0.3837342001        0.6162657999        0.3837342001
Fe               0.6162657999        0.3837342001        0.3837342001
Fe               0.6251984846        0.8737984510        0.8737984510
Fe               0.3748015154        0.1262015490        0.8737984510
Fe               0.8737984510        0.8737984510        0.6251984846
Fe               0.3837342001        0.3837342001        0.6162657999
Fe               0.8737984510        0.1262015490        0.3748015154
Fe               0.1262015490        0.3748015154        0.8737984510
Fe               0.1262015490        0.8737984510        0.3748015154
Ti               0.0000000000        0.0000000000        0.0000000000
Ti               0.7493503783        0.7493503783        0.2506496217
Ti               0.5000000000        0.0000000000        0.5000000000
Ti               0.7493503783        0.2506496217        0.7493503783
Ti               0.0000000000        0.5000000000        0.5000000000
Ti               0.2506496217        0.2506496217        0.2506496217
Ti               0.2506496217        0.7493503783        0.7493503783
Ti               0.5000000000        0.5000000000        0.0000000000
H                0.2564509078        0.2564509078        0.7435490922
H                0.0000000000        0.5000000000        0.0000000000
H                0.2564509078        0.7435490922        0.2564509078
H                0.5000000000        0.0000000000        0.0000000000
H                0.7435490922        0.7435490922        0.7435490922
H                0.7435490922        0.2564509078        0.2564509078
H                0.0000000000        0.0000000000        0.5000000000



     Writing config-only to output data dir ./TiFe2_cub_8b_8H.save/ :
     XML data file     NEW-OLD atomic charge density approx. for the potential
     New effective cutoffs (rho, wfc): 1601.70  114.39

     negative rho (up, down):  7.278E-03 1.099E-03
     Generating pointlists ...

     total cpu time spent up to now is    42697.9 secs

     per-process dynamical memory:   530.5 Mb

     Self-consistent Calculation

     iteration #  1     ecut=   124.00 Ry     beta= 0.20
     CG style diagonalization
     c_bands:  1 eigenvalues not converged
     c_bands:  1 eigenvalues not converged
     ethr =  1.00E-06,  avg # of iterations = 14.9

     negative rho (up, down):  7.279E-03 1.097E-03

     total cpu time spent up to now is    44472.6 secs

     total energy              =   -6230.61002308 Ry
     estimated scf accuracy    <       0.02914638 Ry

     total magnetization       =    19.73 Bohr mag/cell
     absolute magnetization    =    38.95 Bohr mag/cell

     iteration #  2     ecut=   124.00 Ry     beta= 0.20
     CG style diagonalization
     ethr =  8.12E-06,  avg # of iterations =  3.0

     negative rho (up, down):  7.280E-03 1.098E-03

     total cpu time spent up to now is    44751.6 secs

     total energy              =   -6230.61088295 Ry
     estimated scf accuracy    <       0.00166484 Ry

     total magnetization       =    19.69 Bohr mag/cell
     absolute magnetization    =    38.92 Bohr mag/cell

     iteration #  3     ecut=   124.00 Ry     beta= 0.20
     CG style diagonalization
     ethr =  4.64E-07,  avg # of iterations =  3.2

     negative rho (up, down):  7.282E-03 1.096E-03

     total cpu time spent up to now is    45057.7 secs

     total energy              =   -6230.61078389 Ry
     estimated scf accuracy    <       0.00144108 Ry

     total magnetization       =    19.70 Bohr mag/cell
     absolute magnetization    =    38.92 Bohr mag/cell

     iteration #  4     ecut=   124.00 Ry     beta= 0.20
     CG style diagonalization
     ethr =  4.01E-07,  avg # of iterations =  3.2

     negative rho (up, down):  7.283E-03 1.096E-03

     total cpu time spent up to now is    45363.8 secs

     total energy              =   -6230.61091185 Ry
     estimated scf accuracy    <       0.00025731 Ry

     total magnetization       =    19.68 Bohr mag/cell
     absolute magnetization    =    38.91 Bohr mag/cell

     iteration #  5     ecut=   124.00 Ry     beta= 0.20
     CG style diagonalization
     ethr =  7.17E-08,  avg # of iterations =  4.3

     negative rho (up, down):  7.284E-03 1.095E-03

     total cpu time spent up to now is    45807.7 secs

     total energy              =   -6230.61103680 Ry
     estimated scf accuracy    <       0.00008701 Ry

     total magnetization       =    19.68 Bohr mag/cell
     absolute magnetization    =    38.91 Bohr mag/cell

     iteration #  6     ecut=   124.00 Ry     beta= 0.20
     CG style diagonalization
     ethr =  2.42E-08,  avg # of iterations =  4.0

     negative rho (up, down):  7.284E-03 1.095E-03

     total cpu time spent up to now is    46209.6 secs

     total energy              =   -6230.61107309 Ry
     estimated scf accuracy    <       0.00002506 Ry

     total magnetization       =    19.68 Bohr mag/cell
     absolute magnetization    =    38.91 Bohr mag/cell

     iteration #  7     ecut=   124.00 Ry     beta= 0.20
     CG style diagonalization
     ethr =  6.98E-09,  avg # of iterations =  4.2

     negative rho (up, down):  7.285E-03 1.095E-03

     total cpu time spent up to now is    46637.5 secs

     total energy              =   -6230.61108771 Ry
     estimated scf accuracy    <       0.00001035 Ry

     total magnetization       =    19.67 Bohr mag/cell
     absolute magnetization    =    38.91 Bohr mag/cell

     iteration #  8     ecut=   124.00 Ry     beta= 0.20
     CG style diagonalization
     ethr =  2.88E-09,  avg # of iterations =  4.0

     negative rho (up, down):  7.286E-03 1.094E-03

     total cpu time spent up to now is    47047.0 secs

     total energy              =   -6230.61109360 Ry
     estimated scf accuracy    <       0.00002827 Ry

     total magnetization       =    19.67 Bohr mag/cell
     absolute magnetization    =    38.91 Bohr mag/cell

     iteration #  9     ecut=   124.00 Ry     beta= 0.20
     CG style diagonalization
     ethr =  2.88E-09,  avg # of iterations =  3.4

     negative rho (up, down):  7.285E-03 1.094E-03

     total cpu time spent up to now is    47370.0 secs

     total energy              =   -6230.61109734 Ry
     estimated scf accuracy    <       0.00000080 Ry

     total magnetization       =    19.67 Bohr mag/cell
     absolute magnetization    =    38.91 Bohr mag/cell

     iteration # 10     ecut=   124.00 Ry     beta= 0.20
     CG style diagonalization
     ethr =  2.22E-10,  avg # of iterations =  5.9

     negative rho (up, down):  7.285E-03 1.094E-03

     total cpu time spent up to now is    48007.8 secs

     total energy              =   -6230.61109961 Ry
     estimated scf accuracy    <       0.00000515 Ry

     total magnetization       =    19.67 Bohr mag/cell
     absolute magnetization    =    38.91 Bohr mag/cell

     iteration # 11     ecut=   124.00 Ry     beta= 0.20
     CG style diagonalization
     ethr =  2.22E-10,  avg # of iterations =  3.6

     negative rho (up, down):  7.285E-03 1.094E-03

     total cpu time spent up to now is    48360.1 secs

     total energy              =   -6230.61110054 Ry
     estimated scf accuracy    <       0.00000023 Ry

     total magnetization       =    19.67 Bohr mag/cell
     absolute magnetization    =    38.90 Bohr mag/cell

     iteration # 12     ecut=   124.00 Ry     beta= 0.20
     CG style diagonalization
     ethr =  6.50E-11,  avg # of iterations =  4.3

     negative rho (up, down):  7.285E-03 1.094E-03

     total cpu time spent up to now is    48810.9 secs

     total energy              =   -6230.61110102 Ry
     estimated scf accuracy    <       0.00000019 Ry

     total magnetization       =    19.67 Bohr mag/cell
     absolute magnetization    =    38.90 Bohr mag/cell

     iteration # 13     ecut=   124.00 Ry     beta= 0.20
     CG style diagonalization
     ethr =  5.35E-11,  avg # of iterations =  3.6

     negative rho (up, down):  7.285E-03 1.094E-03

     total cpu time spent up to now is    49161.9 secs

     total energy              =   -6230.61110124 Ry
     estimated scf accuracy    <       0.00000004 Ry

     total magnetization       =    19.67 Bohr mag/cell
     absolute magnetization    =    38.90 Bohr mag/cell

     iteration # 14     ecut=   124.00 Ry     beta= 0.20
     CG style diagonalization
     ethr =  1.21E-11,  avg # of iterations =  4.8

     negative rho (up, down):  7.285E-03 1.094E-03

     total cpu time spent up to now is    49661.0 secs

     total energy              =   -6230.61110138 Ry
     estimated scf accuracy    <          8.6E-09 Ry

     total magnetization       =    19.67 Bohr mag/cell
     absolute magnetization    =    38.90 Bohr mag/cell

     iteration # 15     ecut=   124.00 Ry     beta= 0.20
     CG style diagonalization
     ethr =  2.38E-12,  avg # of iterations =  5.3

     negative rho (up, down):  7.285E-03 1.094E-03

     total cpu time spent up to now is    50229.7 secs

     total energy              =   -6230.61110146 Ry
     estimated scf accuracy    <          4.0E-09 Ry

     total magnetization       =    19.67 Bohr mag/cell
     absolute magnetization    =    38.90 Bohr mag/cell

     iteration # 16     ecut=   124.00 Ry     beta= 0.20
     CG style diagonalization
     ethr =  1.10E-12,  avg # of iterations =  4.1

     negative rho (up, down):  7.285E-03 1.094E-03

     Magnetic moment per site  (integrated on atomic sphere of radius R)
     atom   1 (R=0.089)  charge= 11.1818  magn=  1.3866
     atom   2 (R=0.089)  charge= 11.1716  magn=  1.4093
     atom   3 (R=0.089)  charge= 11.1818  magn=  1.3866
     atom   4 (R=0.089)  charge= 11.1818  magn=  1.3866
     atom   5 (R=0.089)  charge= 11.1818  magn=  1.3866
     atom   6 (R=0.089)  charge= 11.1818  magn=  1.3866
     atom   7 (R=0.089)  charge= 11.1818  magn=  1.3866
     atom   8 (R=0.089)  charge= 11.1716  magn=  1.4093
     atom   9 (R=0.089)  charge= 11.1716  magn=  1.4093
     atom  10 (R=0.089)  charge= 11.1818  magn=  1.3866
     atom  11 (R=0.089)  charge= 11.1818  magn=  1.3866
     atom  12 (R=0.089)  charge= 11.1818  magn=  1.3866
     atom  13 (R=0.089)  charge= 11.1716  magn=  1.4093
     atom  14 (R=0.089)  charge= 11.1818  magn=  1.3866
     atom  15 (R=0.089)  charge= 11.1818  magn=  1.3866
     atom  16 (R=0.089)  charge= 11.1818  magn=  1.3866
     atom  17 (R=0.171)  charge= 10.1855  magn= -0.7969
     atom  18 (R=0.171)  charge= 10.1954  magn= -0.8228
     atom  19 (R=0.171)  charge= 10.1939  magn= -0.8426
     atom  20 (R=0.171)  charge= 10.1954  magn= -0.8228
     atom  21 (R=0.171)  charge= 10.1939  magn= -0.8426
     atom  22 (R=0.171)  charge= 10.1954  magn= -0.8228
     atom  23 (R=0.171)  charge= 10.1954  magn= -0.8228
     atom  24 (R=0.171)  charge= 10.1939  magn= -0.8426
     atom  25 (R=0.089)  charge=  0.9798  magn= -0.0059
     atom  26 (R=0.089)  charge=  0.9931  magn= -0.0059
     atom  27 (R=0.089)  charge=  0.9798  magn= -0.0059
     atom  28 (R=0.089)  charge=  0.9931  magn= -0.0059
     atom  29 (R=0.089)  charge=  0.9798  magn= -0.0059
     atom  30 (R=0.089)  charge=  0.9798  magn= -0.0059
     atom  31 (R=0.089)  charge=  0.9931  magn= -0.0059

     total cpu time spent up to now is    50644.7 secs

     End of self-consistent calculation

 ------ SPIN UP ------------


          k = 0.0000 0.0000 0.0000 ( 48489 PWs)   bands (ev):

   -73.0107 -72.9700 -72.9506 -72.9506 -72.9506 -72.9471 -72.9471 -72.9308
   -72.9308 -72.9308 -72.9180 -72.9180 -72.9180 -72.9175 -72.9175 -72.9175
   -41.7389 -41.6951 -41.6839 -41.6839 -41.6839 -41.6694 -41.6694 -41.6550
   -39.4580 -39.3263 -39.2523 -39.2523 -39.2465 -39.2465 -39.2465 -39.1313
   -39.1313 -39.1313 -39.0689 -39.0689 -39.0689 -39.0593 -39.0593 -39.0593
   -39.0231 -39.0231 -38.9724 -38.9724 -38.9712 -38.9592 -38.9592 -38.9592
   -38.9522 -38.9522 -38.9522 -38.9343 -38.9343 -38.9343 -38.9294 -38.9294
   -38.9118 -38.9118 -38.9118 -38.9073 -38.8839 -38.8839 -38.8839 -38.8655
   -38.8655 -38.8655 -38.8611 -38.8611 -38.8611 -38.8473 -38.8473 -38.8473
   -18.0018 -18.0018 -18.0018 -17.9741 -17.9741 -17.9741 -17.9645 -17.9645
   -17.9645 -17.9064 -17.9064 -17.9064 -17.9061 -17.9061 -17.9018 -17.8442
   -17.8442 -17.8442 -17.8320 -17.8320 -17.8320 -17.8118 -17.8118 -17.8118
     4.0433   5.9046   5.9046   5.9813   5.9813   5.9813   7.9981   9.1489
    10.8158  10.8158  10.8158  10.8705  11.0599  11.0599  11.0701  11.0701
    11.0701  11.6121  11.6716  11.6716  11.6716  11.7964  11.8031  11.8031
    11.8031  11.8058  11.8058  11.8058  11.8398  11.8398  11.8658  11.8658
    11.8658  12.0655  12.0655  12.2794  12.2794  12.2794  12.3735  12.3735
    12.3735  12.3848  12.3848  12.3848  12.4114  12.4114  12.4786  12.8380
    12.8380  12.9150  12.9150  12.9150  12.9231  12.9231  12.9231  12.9288
    13.0099  13.0099  13.0099  13.0178  13.0178  13.0178  13.1117  13.1117
    13.1117  13.5780  13.5780  13.5780  13.6465  13.6465  13.6465  13.6561
    13.6561  13.6561  13.7962  13.7962  13.8095  13.8095  13.8320  13.8320
    13.8320  13.8501  13.8745  13.8745  13.8745  14.4420  14.4420  14.6544
    14.6544  14.6544  14.8809  14.9215  14.9215  14.9215  14.9969  14.9969
    15.2444  15.2444  15.2444  16.0955  16.0955  16.0955  16.0985  16.0985
    16.0985  16.1433  16.1433  16.1433  16.4500  16.4500  16.4500  16.5114
    16.5114  16.5114  16.6195  16.6195  16.6727  16.6903  16.6903  16.6903

          k = 0.0000 0.0000 0.1921 ( 48469 PWs)   bands (ev):

   -73.0104 -72.9700 -72.9554 -72.9506 -72.9506 -72.9471 -72.9417 -72.9308
   -72.9308 -72.9306 -72.9186 -72.9180 -72.9180 -72.9180 -72.9175 -72.9175
   -41.7389 -41.6948 -41.6854 -41.6839 -41.6839 -41.6694 -41.6673 -41.6559
   -39.4490 -39.3389 -39.2869 -39.2517 -39.2459 -39.2459 -39.2039 -39.1341
   -39.1275 -39.1275 -39.0744 -39.0744 -39.0703 -39.0636 -39.0636 -39.0633
   -39.0231 -39.0203 -38.9772 -38.9733 -38.9705 -38.9629 -38.9629 -38.9559
   -38.9485 -38.9444 -38.9444 -38.9403 -38.9328 -38.9300 -38.9300 -38.9201
   -38.9110 -38.9077 -38.9077 -38.8937 -38.8888 -38.8855 -38.8855 -38.8684
   -38.8676 -38.8676 -38.8655 -38.8622 -38.8622 -38.8508 -38.8493 -38.8493
   -18.0020 -18.0011 -18.0011 -17.9744 -17.9744 -17.9744 -17.9654 -17.9654
   -17.9624 -17.9206 -17.9063 -17.9063 -17.9058 -17.9029 -17.8904 -17.8462
   -17.8433 -17.8433 -17.8323 -17.8312 -17.8312 -17.8130 -17.8130 -17.8118
     4.1281   5.3607   5.9070   5.9838   5.9838   6.5197   7.9754   9.2381
    10.5248  10.7299  10.8664  10.8664  11.0310  11.1020  11.1050  11.1050
    11.2036  11.5291  11.5291  11.5378  11.6310  11.6418  11.6418  11.6578
    11.6785  11.8188  11.8945  11.8945  11.8973  11.9295  11.9295  11.9494
    12.0243  12.0740  12.1034  12.1626  12.2075  12.2075  12.2196  12.3349
    12.3349  12.3869  12.4270  12.4275  12.4564  12.4564  12.6611  12.7397
    12.7898  12.7898  12.8023  12.8656  12.8668  12.8668  12.9196  13.0170
    13.0266  13.0266  13.1372  13.1869  13.1967  13.1967  13.2288  13.2697
    13.2697  13.5483  13.5483  13.5613  13.5898  13.6049  13.6066  13.6066
    13.6664  13.7177  13.7267  13.7267  13.7775  13.7775  13.7807  13.7966
    13.9103  13.9440  13.9586  13.9586  14.0042  14.4435  14.5580  14.5580
    14.5788  14.6108  14.7348  14.8635  14.8635  14.8769  14.9425  15.1052
    15.3301  15.3992  15.3992  16.0392  16.0392  16.0769  16.0798  16.0838
    16.0838  16.1165  16.1165  16.1926  16.2609  16.2986  16.3158  16.3160
    16.3648  16.4115  16.4122  16.7705  16.8062  16.8130  16.9618  17.3431

          k = 0.0000 0.0000 0.3842 ( 48538 PWs)   bands (ev):

   -73.0100 -72.9700 -72.9591 -72.9506 -72.9506 -72.9471 -72.9370 -72.9308
   -72.9308 -72.9295 -72.9211 -72.9180 -72.9180 -72.9180 -72.9175 -72.9175
   -41.7388 -41.6941 -41.6877 -41.6839 -41.6839 -41.6694 -41.6636 -41.6581
   -39.4253 -39.3744 -39.2982 -39.2507 -39.2450 -39.2450 -39.1686 -39.1440
   -39.1190 -39.1190 -39.0865 -39.0865 -39.0727 -39.0691 -39.0691 -39.0690
   -39.0231 -39.0164 -38.9829 -38.9746 -38.9649 -38.9649 -38.9649 -38.9564
   -38.9544 -38.9388 -38.9388 -38.9345 -38.9321 -38.9191 -38.9191 -38.9111
   -38.9041 -38.8995 -38.8995 -38.8925 -38.8885 -38.8885 -38.8775 -38.8761
   -38.8759 -38.8759 -38.8747 -38.8621 -38.8621 -38.8605 -38.8530 -38.8530
   -18.0023 -18.0000 -18.0000 -17.9749 -17.9748 -17.9748 -17.9670 -17.9670
   -17.9578 -17.9318 -17.9061 -17.9061 -17.9054 -17.9025 -17.8789 -17.8507
   -17.8420 -17.8420 -17.8328 -17.8296 -17.8296 -17.8153 -17.8153 -17.8117
     4.3570   4.8704   5.9109   5.9878   5.9878   6.9411   7.9090   9.5104
     9.9731  10.6136  11.0144  11.0144  11.1498  11.1798  11.1798  11.1820
    11.1981  11.2523  11.2523  11.3978  11.5273  11.5273  11.5566  11.6185
    11.6284  11.7148  11.9120  11.9739  11.9874  11.9874  12.0331  12.0331
    12.0663  12.0692  12.0692  12.0746  12.0862  12.0987  12.2298  12.2453
    12.2453  12.3065  12.3065  12.3698  12.4048  12.4380  12.7367  12.8139
    12.8919  12.8919  12.9044  12.9186  13.0058  13.0089  13.0089  13.0844
    13.0844  13.1495  13.2446  13.3298  13.3454  13.3454  13.3646  13.3833
    13.3835  13.3835  13.4337  13.4337  13.4693  13.4974  13.4974  13.5104
    13.5141  13.5517  13.5615  13.5615  13.7641  13.7775  14.0548  14.0548
    14.1258  14.1492  14.1492  14.1544  14.2174  14.3515  14.3515  14.3674
    14.5576  14.5809  14.7068  14.7185  14.7185  14.7858  14.9199  15.1209
    15.5765  15.6847  15.6847  15.9077  15.9077  15.9240  16.0450  16.0494
    16.0494  16.0521  16.0864  16.0864  16.1275  16.1380  16.1624  16.1624
    16.2452  16.2452  16.4042  16.8017  16.9866  16.9870  17.0003  17.0163

          k = 0.0000 0.1921 0.1921 ( 48486 PWs)   bands (ev):

   -73.0102 -72.9697 -72.9576 -72.9537 -72.9495 -72.9430 -72.9413 -72.9317
   -72.9306 -72.9297 -72.9197 -72.9180 -72.9180 -72.9180 -72.9175 -72.9175
   -41.7389 -41.6944 -41.6865 -41.6847 -41.6835 -41.6682 -41.6667 -41.6567
   -39.4408 -39.3440 -39.3045 -39.2785 -39.2383 -39.2097 -39.1987 -39.1341
   -39.1266 -39.1242 -39.0790 -39.0772 -39.0739 -39.0693 -39.0677 -39.0657
   -39.0219 -39.0188 -38.9785 -38.9725 -38.9704 -38.9647 -38.9601 -38.9586
   -38.9545 -38.9415 -38.9378 -38.9343 -38.9305 -38.9279 -38.9236 -38.9235
   -38.9119 -38.9037 -38.9010 -38.8931 -38.8884 -38.8862 -38.8837 -38.8771
   -38.8677 -38.8668 -38.8666 -38.8650 -38.8622 -38.8558 -38.8516 -38.8488
   -18.0021 -18.0004 -18.0003 -17.9765 -17.9747 -17.9721 -17.9666 -17.9646
   -17.9619 -17.9213 -17.9209 -17.9137 -17.8968 -17.8897 -17.8894 -17.8478
   -17.8426 -17.8421 -17.8332 -17.8316 -17.8298 -17.8145 -17.8135 -17.8122
     4.2093   5.2904   5.5013   5.9500   6.3572   6.6699   7.9300   9.3284
    10.5131  10.6545  10.7585  10.9058  10.9099  11.0974  11.1304  11.1872
    11.2444  11.4295  11.4714  11.5022  11.5287  11.5600  11.5640  11.6115
    11.6878  11.7234  11.8016  11.8564  11.9351  11.9354  12.0225  12.0455
    12.0489  12.0552  12.1034  12.1364  12.2028  12.2671  12.2845  12.3111
    12.3590  12.3942  12.4077  12.4303  12.4756  12.5864  12.6104  12.6881
    12.7174  12.7286  12.7698  12.8256  12.8668  12.8881  12.9651  13.0336
    13.0870  13.0906  13.1724  13.2363  13.2563  13.2729  13.2934  13.3632
    13.3817  13.4496  13.4879  13.4979  13.5253  13.5817  13.5883  13.6084
    13.6878  13.6983  13.7112  13.7395  13.7396  13.7919  13.8325  13.8338
    13.8688  13.9301  14.0629  14.1580  14.1965  14.2270  14.4685  14.5507
    14.5913  14.6079  14.6806  14.7424  14.9020  15.0377  15.0479  15.1380
    15.3080  15.5105  15.5288  15.9300  16.0089  16.0178  16.0236  16.0458
    16.0584  16.0786  16.0905  16.1513  16.2033  16.2652  16.2986  16.3151
    16.3346  16.4232  16.4700  16.4966  16.5375  16.9941  17.0318  17.1584

          k = 0.0000 0.1921 0.3842 ( 48550 PWs)   bands (ev):

   -73.0099 -72.9691 -72.9609 -72.9552 -72.9481 -72.9428 -72.9373 -72.9328
   -72.9303 -72.9284 -72.9221 -72.9180 -72.9180 -72.9180 -72.9176 -72.9175
   -41.7388 -41.6935 -41.6885 -41.6854 -41.6830 -41.6678 -41.6636 -41.6588
   -39.4194 -39.3697 -39.3172 -39.2896 -39.2283 -39.2044 -39.1678 -39.1425
   -39.1186 -39.1170 -39.0913 -39.0859 -39.0773 -39.0770 -39.0726 -39.0700
   -39.0217 -39.0149 -38.9812 -38.9734 -38.9682 -38.9656 -38.9633 -38.9569
   -38.9498 -38.9456 -38.9381 -38.9286 -38.9278 -38.9186 -38.9168 -38.9146
   -38.9050 -38.9038 -38.8980 -38.8923 -38.8910 -38.8867 -38.8822 -38.8770
   -38.8748 -38.8704 -38.8666 -38.8658 -38.8640 -38.8624 -38.8554 -38.8521
   -18.0022 -17.9992 -17.9988 -17.9776 -17.9748 -17.9714 -17.9677 -17.9658
   -17.9575 -17.9331 -17.9219 -17.9190 -17.8913 -17.8883 -17.8774 -17.8523
   -17.8410 -17.8407 -17.8340 -17.8311 -17.8275 -17.8174 -17.8155 -17.8125
     4.4291   4.8991   5.4577   5.8978   6.4677   7.0277   7.8100   9.5995
    10.0533  10.6066  10.8515  11.0368  11.0421  11.0795  11.1713  11.1937
    11.2194  11.2531  11.2605  11.3077  11.3796  11.4533  11.5550  11.6020
    11.6411  11.7174  11.7212  11.7902  12.0083  12.0203  12.0573  12.0909
    12.0963  12.1199  12.1323  12.1456  12.1716  12.2041  12.2228  12.2721
    12.2956  12.3017  12.3101  12.4985  12.5047  12.5338  12.6530  12.6969
    12.7200  12.7273  12.8091  12.9013  13.0385  13.0784  13.1031  13.1432
    13.1628  13.1819  13.1979  13.2133  13.2493  13.2801  13.3312  13.3712
    13.3875  13.4105  13.4347  13.4519  13.4683  13.4908  13.5287  13.5692
    13.5932  13.6082  13.6468  13.6778  13.7745  13.8032  13.9331  13.9738
    14.0308  14.0619  14.1094  14.2691  14.3047  14.4023  14.4299  14.4854
    14.5001  14.5313  14.5721  14.6834  14.9860  15.0296  15.1026  15.1612
    15.5825  15.7282  15.7514  15.8717  15.8996  15.9125  15.9642  15.9780
    15.9854  15.9999  16.0286  16.0375  16.0686  16.1184  16.1314  16.1793
    16.2187  16.2908  16.5366  16.7333  16.7789  16.9378  16.9786  17.0458

          k = 0.0000 0.3842 0.3842 ( 48478 PWs)   bands (ev):

   -73.0097 -72.9667 -72.9630 -72.9602 -72.9441 -72.9389 -72.9383 -72.9357
   -72.9287 -72.9274 -72.9244 -72.9180 -72.9180 -72.9180 -72.9176 -72.9174
   -41.7388 -41.6920 -41.6896 -41.6880 -41.6819 -41.6650 -41.6634 -41.6607
   -39.4057 -39.3599 -39.3413 -39.3220 -39.2077 -39.1706 -39.1661 -39.1435
   -39.1146 -39.1130 -39.1033 -39.0893 -39.0841 -39.0838 -39.0784 -39.0754
   -39.0208 -39.0109 -38.9771 -38.9711 -38.9694 -38.9667 -38.9634 -38.9561
   -38.9526 -38.9455 -38.9403 -38.9357 -38.9185 -38.9184 -38.9133 -38.9110
   -38.9030 -38.9023 -38.8979 -38.8947 -38.8888 -38.8833 -38.8802 -38.8796
   -38.8781 -38.8730 -38.8720 -38.8666 -38.8639 -38.8614 -38.8558 -38.8511
   -18.0016 -17.9978 -17.9976 -17.9798 -17.9749 -17.9689 -17.9688 -17.9633
   -17.9547 -17.9351 -17.9348 -17.9295 -17.8820 -17.8757 -17.8742 -17.8573
   -17.8385 -17.8382 -17.8356 -17.8343 -17.8234 -17.8214 -17.8160 -17.8149
     4.6293   4.9152   5.0843   5.7611   6.9149   7.1738   7.5516   9.8580
    10.2342  10.3617  10.6357  10.7586  11.1092  11.1498  11.1623  11.1727
    11.1937  11.2317  11.2385  11.2441  11.3183  11.3838  11.3921  11.5451
    11.6025  11.6226  11.6504  11.7118  12.0357  12.0837  12.1052  12.1283
    12.1432  12.1679  12.1851  12.2229  12.2304  12.2675  12.3097  12.3776
    12.3873  12.4273  12.4460  12.4625  12.4797  12.5365  12.5402  12.6019
    12.6245  12.6578  12.7982  12.8465  12.9148  12.9454  13.0419  13.0472
    13.0829  13.1263  13.2067  13.2152  13.2469  13.2813  13.2896  13.3354
    13.4068  13.4255  13.4703  13.5599  13.5953  13.6071  13.6225  13.6244
    13.6674  13.7074  13.7459  13.7468  13.8176  13.8196  13.8493  14.0068
    14.0260  14.0589  14.1172  14.2498  14.3071  14.3210  14.3717  14.4026
    14.4326  14.5530  14.5863  14.6478  15.3003  15.3353  15.4442  15.5110
    15.6273  15.8127  15.8439  15.8569  15.8790  15.8847  15.8937  15.9063
    15.9142  15.9275  15.9393  15.9545  15.9834  16.0528  16.0612  16.0829
    16.2014  16.3458  16.3616  16.6318  16.7717  16.8763  17.0829  17.1201

          k = 0.1921 0.1921 0.1921 ( 48503 PWs)   bands (ev):

   -73.0101 -72.9693 -72.9576 -72.9576 -72.9471 -72.9413 -72.9413 -72.9325
   -72.9297 -72.9297 -72.9207 -72.9180 -72.9180 -72.9180 -72.9175 -72.9175
   -41.7388 -41.6940 -41.6865 -41.6865 -41.6828 -41.6667 -41.6667 -41.6574
   -39.4333 -39.3482 -39.3055 -39.3055 -39.2225 -39.1952 -39.1952 -39.1334
   -39.1238 -39.1238 -39.0823 -39.0793 -39.0793 -39.0733 -39.0700 -39.0700
   -39.0188 -39.0188 -38.9782 -38.9696 -38.9696 -38.9645 -38.9645 -38.9610
   -38.9463 -38.9463 -38.9396 -38.9316 -38.9316 -38.9255 -38.9186 -38.9185
   -38.9185 -38.8971 -38.8961 -38.8961 -38.8844 -38.8844 -38.8841 -38.8777
   -38.8759 -38.8759 -38.8629 -38.8621 -38.8621 -38.8566 -38.8566 -38.8469
   -18.0016 -17.9998 -17.9998 -17.9760 -17.9760 -17.9701 -17.9656 -17.9656
   -17.9625 -17.9239 -17.9239 -17.9231 -17.8870 -17.8870 -17.8870 -17.8478
   -17.8422 -17.8422 -17.8324 -17.8324 -17.8297 -17.8156 -17.8137 -17.8137
     4.2859   5.2942   5.2942   5.8580   6.6692   6.6692   7.8740   9.4192
    10.5035  10.7218  10.7218  10.7999  10.9493  10.9493  11.1658  11.2263
    11.2263  11.3417  11.4646  11.4646  11.5129  11.5504  11.5504  11.5759
    11.5759  11.5960  11.6281  11.7847  11.9607  11.9607  12.0784  12.0784
    12.0945  12.1459  12.1459  12.2187  12.2187  12.2641  12.2646  12.3681
    12.3681  12.3827  12.4288  12.4288  12.5707  12.5940  12.5940  12.6179
    12.6179  12.6807  12.8418  12.8418  12.9220  12.9220  12.9224  13.0240
    13.0278  13.0553  13.0553  13.3035  13.3035  13.3136  13.3649  13.3649
    13.4032  13.4032  13.4419  13.4617  13.4810  13.4810  13.6516  13.6516
    13.6652  13.7946  13.7953  13.7953  13.8182  13.8182  13.8189  13.8561
    13.8561  13.8753  14.1970  14.1970  14.2611  14.2863  14.2863  14.4853
    14.5633  14.5925  14.5925  14.9951  14.9951  15.1507  15.1893  15.1893
    15.2417  15.5811  15.5811  15.8697  15.8697  15.9113  16.0134  16.0207
    16.0207  16.0551  16.0551  16.1967  16.1967  16.2777  16.2954  16.3242
    16.3242  16.3584  16.3936  16.4411  16.4411  17.0902  17.0906  17.1465

          k = 0.1921 0.1921 0.3842 ( 48490 PWs)   bands (ev):

   -73.0098 -72.9683 -72.9617 -72.9576 -72.9461 -72.9413 -72.9376 -72.9339
   -72.9297 -72.9280 -72.9229 -72.9180 -72.9180 -72.9180 -72.9175 -72.9174
   -41.7388 -41.6930 -41.6889 -41.6866 -41.6824 -41.6667 -41.6637 -41.6594
   -39.4147 -39.3667 -39.3266 -39.3070 -39.2154 -39.1891 -39.1652 -39.1406
   -39.1178 -39.1165 -39.0930 -39.0889 -39.0814 -39.0806 -39.0766 -39.0730
   -39.0189 -39.0142 -38.9794 -38.9706 -38.9695 -38.9653 -38.9600 -38.9580
   -38.9488 -38.9456 -38.9416 -38.9329 -38.9279 -38.9208 -38.9167 -38.9121
   -38.9111 -38.8995 -38.8985 -38.8933 -38.8913 -38.8879 -38.8784 -38.8774
   -38.8739 -38.8732 -38.8663 -38.8659 -38.8621 -38.8600 -38.8583 -38.8484
   -18.0013 -17.9988 -17.9980 -17.9770 -17.9758 -17.9692 -17.9668 -17.9661
   -17.9586 -17.9355 -17.9277 -17.9270 -17.8834 -17.8830 -17.8752 -17.8516
   -17.8420 -17.8394 -17.8347 -17.8301 -17.8287 -17.8182 -17.8167 -17.8138
     4.4935   4.9182   5.3005   5.8306   6.6681   7.0694   7.7239   9.6879
    10.1332  10.6094  10.8993  10.9014  11.0593  11.0779  11.1401  11.1735
    11.1743  11.2075  11.2716  11.2791  11.3137  11.3762  11.5051  11.5444
    11.5879  11.6068  11.6115  11.7059  12.0408  12.0513  12.1192  12.1280
    12.1359  12.1674  12.1782  12.2042  12.2110  12.2239  12.2576  12.2971
    12.3361  12.3729  12.3988  12.5112  12.5490  12.5834  12.5901  12.6201
    12.6599  12.7617  12.8349  12.8363  12.8895  12.9665  13.0347  13.0523
    13.1031  13.1314  13.1628  13.1927  13.2124  13.2126  13.2717  13.3201
    13.3683  13.3756  13.4822  13.5239  13.5296  13.5631  13.6326  13.6359
    13.6932  13.7071  13.7385  13.7419  13.7771  13.8102  13.8609  13.9388
    13.9659  13.9846  14.1229  14.2281  14.3616  14.3713  14.4998  14.5395
    14.5885  14.5899  14.6298  14.9204  15.1341  15.2042  15.2199  15.2405
    15.5764  15.6800  15.7715  15.7773  15.8503  15.8717  15.8909  15.9123
    15.9305  15.9825  16.0057  16.0584  16.0925  16.1061  16.1313  16.2015
    16.2328  16.2795  16.5374  16.5912  16.6010  16.8707  16.9400  16.9565

          k = 0.1921 0.3842 0.3842 ( 48499 PWs)   bands (ev):

   -73.0097 -72.9663 -72.9630 -72.9611 -72.9432 -72.9388 -72.9383 -72.9361
   -72.9283 -72.9274 -72.9249 -72.9180 -72.9180 -72.9180 -72.9175 -72.9174
   -41.7388 -41.6917 -41.6897 -41.6885 -41.6818 -41.6645 -41.6634 -41.6611
   -39.4044 -39.3597 -39.3428 -39.3301 -39.2001 -39.1629 -39.1594 -39.1404
   -39.1146 -39.1144 -39.1040 -39.0906 -39.0877 -39.0869 -39.0820 -39.0793
   -39.0167 -39.0106 -38.9757 -38.9689 -38.9687 -38.9640 -38.9623 -38.9539
   -38.9528 -38.9454 -38.9407 -38.9370 -38.9271 -38.9239 -38.9178 -38.9156
   -38.9095 -38.9082 -38.8988 -38.8977 -38.8853 -38.8824 -38.8794 -38.8760
   -38.8729 -38.8722 -38.8709 -38.8677 -38.8588 -38.8584 -38.8554 -38.8470
   -17.9999 -17.9971 -17.9971 -17.9780 -17.9750 -17.9675 -17.9673 -17.9635
   -17.9575 -17.9392 -17.9389 -17.9356 -17.8764 -17.8722 -17.8711 -17.8543
   -17.8395 -17.8388 -17.8345 -17.8336 -17.8256 -17.8216 -17.8177 -17.8167
     4.6703   4.9200   5.0413   5.7463   6.9867   7.1664   7.4981   9.9367
    10.2980  10.4536  10.6782  10.8312  11.0891  11.1120  11.1275  11.1475
    11.1636  11.1740  11.2216  11.2490  11.2834  11.3379  11.3675  11.4584
    11.4736  11.4852  11.5400  11.6390  12.0685  12.1181  12.1240  12.1593
    12.1781  12.2071  12.2262  12.2703  12.3031  12.3065  12.3332  12.3740
    12.4180  12.4520  12.4797  12.5261  12.5387  12.5391  12.5854  12.6449
    12.6452  12.6687  12.7016  12.7854  12.8114  12.8459  12.8771  12.9726
    12.9833  13.0209  13.1036  13.1207  13.1265  13.1864  13.1927  13.2623
    13.4961  13.5384  13.5522  13.6009  13.6172  13.6202  13.6879  13.6932
    13.7282  13.7467  13.7488  13.7960  13.8114  13.8355  13.8495  13.8974
    13.9617  14.0048  14.0384  14.0850  14.4564  14.4788  14.5063  14.5941
    14.6651  14.8023  14.8254  14.9642  15.3987  15.4186  15.5073  15.5732
    15.5976  15.7308  15.7366  15.7665  15.7681  15.7950  15.8126  15.8368
    15.8423  15.9621  15.9661  15.9986  16.0424  16.0484  16.0956  16.1039
    16.1834  16.3111  16.3112  16.5227  16.6220  16.6839  16.7487  16.8269

          k = 0.3842 0.3842 0.3842 ( 48449 PWs)   bands (ev):

   -73.0097 -72.9651 -72.9630 -72.9630 -72.9419 -72.9383 -72.9383 -72.9372
   -72.9274 -72.9274 -72.9260 -72.9180 -72.9180 -72.9180 -72.9174 -72.9174
   -41.7388 -41.6910 -41.6897 -41.6897 -41.6816 -41.6633 -41.6633 -41.6620
   -39.4020 -39.3565 -39.3450 -39.3450 -39.1887 -39.1460 -39.1460 -39.1359
   -39.1156 -39.1156 -39.1085 -39.0933 -39.0933 -39.0927 -39.0879 -39.0879
   -39.0100 -39.0100 -38.9727 -38.9696 -38.9696 -38.9637 -38.9530 -38.9530
   -38.9437 -38.9432 -38.9404 -38.9404 -38.9323 -38.9323 -38.9232 -38.9232
   -38.9197 -38.9160 -38.9116 -38.9116 -38.8757 -38.8757 -38.8729 -38.8725
   -38.8723 -38.8723 -38.8679 -38.8679 -38.8540 -38.8540 -38.8531 -38.8432
   -17.9968 -17.9959 -17.9959 -17.9752 -17.9752 -17.9643 -17.9643 -17.9632
   -17.9601 -17.9465 -17.9462 -17.9462 -17.8674 -17.8665 -17.8665 -17.8514
   -17.8394 -17.8394 -17.8316 -17.8316 -17.8309 -17.8222 -17.8209 -17.8209
     4.7788   4.9279   4.9279   5.7270   7.1545   7.1545   7.3577  10.1232
    10.4455  10.7004  10.7004  10.8550  11.0280  11.0455  11.0455  11.0816
    11.1044  11.1044  11.2055  11.2134  11.2134  11.3141  11.3141  11.3419
    11.3444  11.3444  11.3464  11.4905  12.1458  12.1458  12.1996  12.1996
    12.2050  12.2729  12.2729  12.2772  12.3597  12.4135  12.4135  12.5004
    12.5004  12.5169  12.5169  12.5451  12.5918  12.6008  12.6008  12.6047
    12.6444  12.6444  12.6796  12.7294  12.7294  12.7324  12.7324  12.7686
    12.8749  12.8749  12.9720  13.0120  13.0234  13.0234  13.0724  13.0724
    13.6076  13.6076  13.6522  13.6522  13.6536  13.6551  13.7146  13.7146
    13.7639  13.7699  13.7699  13.7981  13.8807  13.8862  13.8862  13.9088
    13.9088  13.9163  13.9326  13.9326  14.7812  14.7812  14.8045  14.9462
    15.0272  15.0337  15.0337  15.2358  15.5650  15.5703  15.5703  15.6033
    15.6033  15.6478  15.6478  15.7161  15.7446  15.7446  15.7542  15.7967
    15.7967  15.9637  15.9637  15.9708  15.9963  15.9963  16.0425  16.0425
    16.0930  16.2016  16.2477  16.2477  16.4655  16.4655  16.4739  16.5173

 ------ SPIN DOWN ----------


          k = 0.0000 0.0000 0.0000 ( 48489 PWs)   bands (ev):

   -70.8912 -70.8707 -70.8535 -70.8535 -70.8516 -70.8516 -70.8516 -70.8222
   -70.8222 -70.8222 -70.8217 -70.8217 -70.8217 -70.8045 -70.8045 -70.8045
   -42.4864 -42.4699 -42.4564 -42.4564 -42.4518 -42.4518 -42.4518 -42.4325
   -37.5196 -37.3526 -37.3102 -37.3102 -37.2968 -37.2968 -37.2968 -37.1309
   -37.1309 -37.1309 -37.0976 -37.0976 -37.0976 -37.0579 -37.0579 -37.0579
   -36.9187 -36.9187 -36.8936 -36.8936 -36.8822 -36.8791 -36.8791 -36.8791
   -36.8599 -36.8599 -36.8599 -36.8501 -36.8501 -36.8501 -36.8349 -36.8349
   -36.8228 -36.8175 -36.8175 -36.8175 -36.8145 -36.8145 -36.8145 -36.7712
   -36.7712 -36.7712 -36.7658 -36.7658 -36.7658 -36.7454 -36.7454 -36.7454
   -18.7661 -18.7661 -18.7661 -18.7563 -18.7563 -18.7563 -18.7395 -18.7395
   -18.7395 -18.6856 -18.6856 -18.6856 -18.6766 -18.6766 -18.6727 -18.6195
   -18.6195 -18.6195 -18.6029 -18.6029 -18.6029 -18.5925 -18.5925 -18.5925
     4.3646   6.2464   6.2464   6.3228   6.3228   6.3228   8.2413   9.3795
    11.0353  11.3506  11.3506  11.3726  11.3726  11.3726  11.8241  11.8241
    11.8241  12.1110  12.3753  12.3753  12.3753  12.3905  12.3905  12.7985
    12.8184  12.8184  12.8184  12.8514  12.8514  12.8514  12.9395  12.9395
    12.9395  13.0324  13.0324  13.0324  13.1281  13.1281  13.1281  13.3146
    13.3146  13.5848  13.5848  13.5848  13.5910  13.5910  13.6060  13.7413
    13.7413  13.7820  13.7820  13.7820  13.7921  13.7961  13.7961  13.7961
    13.8611  13.8611  13.8611  13.8983  13.8983  14.1824  14.1824  14.1824
    14.3717  14.3717  14.3717  14.4820  14.4820  14.4820  15.0282  15.0282
    15.0282  15.3511  15.3511  15.3511  15.3829  15.3829  15.3829  15.5452
    15.5452  15.5925  15.6239  15.6239  15.6262  15.6262  15.6262  15.6676
    15.7325  15.7325  15.7325  15.7728  15.7728  15.9609  15.9609  15.9609
    16.3262  16.3262  16.3262  16.3855  16.3855  16.3855  16.4332  16.4332
    16.4332  16.8367  16.8368  16.8383  16.8525  16.8531  16.8692  16.9263
    16.9537  16.9537  16.9537  16.9851  16.9863  17.0700  17.0700  17.0700

          k = 0.0000 0.0000 0.1921 ( 48469 PWs)   bands (ev):

   -70.8900 -70.8720 -70.8603 -70.8535 -70.8516 -70.8516 -70.8434 -70.8230
   -70.8222 -70.8222 -70.8222 -70.8217 -70.8217 -70.8047 -70.8045 -70.8045
   -42.4860 -42.4700 -42.4600 -42.4564 -42.4518 -42.4518 -42.4475 -42.4336
   -37.5091 -37.3784 -37.3371 -37.3099 -37.2964 -37.2964 -37.2478 -37.1370
   -37.1280 -37.1280 -37.1001 -37.1001 -37.0986 -37.0608 -37.0608 -37.0584
   -36.9187 -36.9176 -36.8946 -36.8920 -36.8868 -36.8810 -36.8810 -36.8734
   -36.8603 -36.8573 -36.8573 -36.8552 -36.8472 -36.8472 -36.8416 -36.8296
   -36.8218 -36.8186 -36.8184 -36.8184 -36.8111 -36.8111 -36.8007 -36.7752
   -36.7733 -36.7733 -36.7681 -36.7659 -36.7659 -36.7483 -36.7472 -36.7472
   -18.7664 -18.7652 -18.7652 -18.7566 -18.7557 -18.7557 -18.7417 -18.7417
   -18.7368 -18.6980 -18.6854 -18.6854 -18.6763 -18.6738 -18.6625 -18.6226
   -18.6173 -18.6173 -18.6035 -18.6035 -18.6028 -18.5935 -18.5935 -18.5924
     4.4531   5.7073   6.2499   6.3265   6.3265   6.8449   8.2221   9.4498
    10.6663  11.1348  11.3621  11.3807  11.3807  11.6525  11.8730  11.8730
    11.9228  12.0526  12.2377  12.2612  12.2612  12.2712  12.5641  12.5641
    12.6567  12.7846  12.8178  12.8233  12.8233  12.8295  12.8613  12.9749
    12.9749  13.0982  13.1148  13.1148  13.1731  13.3178  13.3178  13.3306
    13.3490  13.5198  13.5507  13.5507  13.5908  13.5963  13.6796  13.6796
    13.7031  13.7130  13.7836  13.8039  13.8297  13.8473  13.8473  13.8573
    13.8873  13.9257  13.9257  13.9377  13.9419  14.0321  14.1403  14.1403
    14.3940  14.4576  14.4576  14.5103  14.6175  14.6175  15.0376  15.0376
    15.0390  15.1901  15.1927  15.1927  15.1954  15.3853  15.4542  15.4542
    15.5140  15.5874  15.6146  15.7021  15.7267  15.7326  15.7326  15.7927
    15.8479  15.8549  15.8549  15.8653  15.9505  15.9505  15.9519  16.0242
    16.2956  16.2956  16.3091  16.3091  16.3453  16.3688  16.3689  16.3935
    16.4603  16.6592  16.6967  16.7580  16.7597  16.7632  16.7634  16.8182
    16.8659  16.8683  16.9228  16.9350  16.9363  17.0255  17.1130  17.2374

          k = 0.0000 0.0000 0.3842 ( 48538 PWs)   bands (ev):

   -70.8870 -70.8757 -70.8637 -70.8535 -70.8516 -70.8516 -70.8356 -70.8263
   -70.8222 -70.8222 -70.8222 -70.8217 -70.8217 -70.8049 -70.8045 -70.8045
   -42.4853 -42.4703 -42.4631 -42.4564 -42.4518 -42.4518 -42.4419 -42.4364
   -37.4789 -37.4325 -37.3399 -37.3094 -37.2959 -37.2959 -37.2037 -37.1532
   -37.1211 -37.1211 -37.1061 -37.1061 -37.1001 -37.0654 -37.0654 -37.0592
   -36.9188 -36.9159 -36.8960 -36.8907 -36.8865 -36.8833 -36.8833 -36.8687
   -36.8685 -36.8569 -36.8546 -36.8546 -36.8443 -36.8417 -36.8417 -36.8329
   -36.8202 -36.8202 -36.8168 -36.8084 -36.8041 -36.8041 -36.7854 -36.7843
   -36.7791 -36.7791 -36.7733 -36.7646 -36.7646 -36.7548 -36.7509 -36.7509
   -18.7668 -18.7640 -18.7640 -18.7570 -18.7530 -18.7530 -18.7468 -18.7468
   -18.7298 -18.7118 -18.6851 -18.6851 -18.6759 -18.6732 -18.6477 -18.6307
   -18.6122 -18.6122 -18.6060 -18.6060 -18.6028 -18.5952 -18.5952 -18.5924
     4.6922   5.2105   6.2557   6.3325   6.3325   7.2487   8.1605   9.6784
    10.1166  11.1520  11.3841  11.3959  11.3959  11.4547  11.9886  12.0139
    12.0139  12.0452  12.1147  12.1194  12.1194  12.2590  12.2590  12.4259
    12.6729  12.7345  12.7518  12.7633  12.7633  12.8042  13.0738  13.0738
    13.0845  13.2003  13.2003  13.2019  13.2285  13.2723  13.2723  13.3455
    13.4395  13.4876  13.4879  13.4879  13.5495  13.5820  13.5975  13.6593
    13.7951  13.7951  13.8123  13.8432  13.8731  13.8778  13.8979  13.9120
    13.9120  13.9689  14.0118  14.0118  14.0827  14.1709  14.1709  14.1782
    14.3218  14.4274  14.4274  14.4370  14.8306  14.8306  14.9915  14.9915
    15.0369  15.0511  15.0586  15.0586  15.0918  15.2001  15.4956  15.5455
    15.6333  15.6947  15.6947  15.7435  15.9072  15.9072  15.9236  15.9259
    15.9259  15.9272  15.9997  16.0291  16.0291  16.0571  16.1340  16.1412
    16.1412  16.1912  16.1913  16.2006  16.2594  16.2642  16.2642  16.2984
    16.4460  16.5203  16.5464  16.5882  16.5883  16.6522  16.7928  16.8353
    16.8768  16.8771  16.8838  16.9058  16.9060  16.9128  17.0094  17.0389

          k = 0.0000 0.1921 0.1921 ( 48486 PWs)   bands (ev):

   -70.8888 -70.8726 -70.8627 -70.8582 -70.8509 -70.8454 -70.8424 -70.8243
   -70.8222 -70.8222 -70.8222 -70.8217 -70.8217 -70.8047 -70.8045 -70.8045
   -42.4857 -42.4699 -42.4613 -42.4587 -42.4515 -42.4486 -42.4469 -42.4345
   -37.4992 -37.3810 -37.3665 -37.3339 -37.2870 -37.2558 -37.2427 -37.1406
   -37.1276 -37.1253 -37.1031 -37.1019 -37.0997 -37.0634 -37.0615 -37.0610
   -36.9181 -36.9169 -36.8934 -36.8914 -36.8890 -36.8808 -36.8775 -36.8756
   -36.8688 -36.8595 -36.8564 -36.8501 -36.8459 -36.8441 -36.8358 -36.8314
   -36.8242 -36.8241 -36.8183 -36.8151 -36.8079 -36.8026 -36.7961 -36.7835
   -36.7743 -36.7721 -36.7686 -36.7671 -36.7653 -36.7521 -36.7491 -36.7468
   -18.7666 -18.7643 -18.7641 -18.7567 -18.7557 -18.7540 -18.7439 -18.7412
   -18.7366 -18.6984 -18.6984 -18.6907 -18.6695 -18.6621 -18.6614 -18.6231
   -18.6175 -18.6152 -18.6048 -18.6040 -18.6026 -18.5950 -18.5941 -18.5926
     4.5379   5.6402   5.8498   6.2937   6.6864   6.9901   8.1802   9.5220
    10.6385  10.7948  11.2130  11.3251  11.6010  11.8129  11.8867  11.9083
    11.9589  12.0163  12.1154  12.1622  12.2837  12.2950  12.3358  12.5039
    12.5437  12.5634  12.7385  12.8129  12.9099  12.9237  13.0030  13.0473
    13.0517  13.1438  13.1507  13.2208  13.2777  13.3189  13.3488  13.3590
    13.3703  13.4871  13.4949  13.5079  13.6418  13.6847  13.6855  13.7171
    13.7362  13.7439  13.7525  13.7620  13.7926  13.7948  13.8437  13.8757
    13.8978  13.9198  13.9245  13.9609  13.9629  13.9686  14.0465  14.1359
    14.5038  14.5420  14.6137  14.6413  14.6528  14.6900  15.0312  15.0616
    15.0625  15.0753  15.1317  15.1569  15.2220  15.2926  15.3161  15.5444
    15.5856  15.5930  15.6265  15.6364  15.6658  15.7869  15.8048  15.8937
    15.9027  15.9285  15.9304  15.9446  15.9800  16.0171  16.0235  16.0836
    16.1979  16.2132  16.2908  16.2998  16.3155  16.3308  16.3366  16.3887
    16.4462  16.6123  16.6251  16.6466  16.6985  16.7640  16.7853  16.8056
    16.8128  16.8521  16.8540  16.9067  16.9238  16.9371  16.9846  17.0800

          k = 0.0000 0.1921 0.3842 ( 48550 PWs)   bands (ev):

   -70.8863 -70.8748 -70.8659 -70.8599 -70.8497 -70.8449 -70.8360 -70.8276
   -70.8222 -70.8222 -70.8222 -70.8217 -70.8216 -70.8049 -70.8046 -70.8045
   -42.4851 -42.4697 -42.4639 -42.4596 -42.4507 -42.4485 -42.4424 -42.4372
   -37.4708 -37.4269 -37.3674 -37.3482 -37.2746 -37.2530 -37.2040 -37.1565
   -37.1217 -37.1195 -37.1091 -37.1069 -37.1017 -37.0677 -37.0662 -37.0620
   -36.9178 -36.9151 -36.8935 -36.8903 -36.8862 -36.8828 -36.8803 -36.8728
   -36.8696 -36.8654 -36.8587 -36.8509 -36.8457 -36.8401 -36.8318 -36.8274
   -36.8214 -36.8208 -36.8182 -36.8121 -36.8032 -36.7994 -36.7942 -36.7840
   -36.7796 -36.7745 -36.7710 -36.7668 -36.7658 -36.7544 -36.7526 -36.7499
   -18.7669 -18.7637 -18.7618 -18.7551 -18.7542 -18.7517 -18.7486 -18.7454
   -18.7302 -18.7128 -18.6987 -18.6962 -18.6637 -18.6608 -18.6466 -18.6303
   -18.6131 -18.6106 -18.6074 -18.6055 -18.6037 -18.5976 -18.5954 -18.5928
     4.7674   5.2435   5.8118   6.2416   6.7936   7.3298   8.0672   9.7489
    10.1763  10.8458  11.0704  11.2459  11.6650  11.7797  11.9060  11.9867
    12.0129  12.0520  12.0701  12.1318  12.1767  12.1901  12.2502  12.3344
    12.4411  12.4689  12.5437  12.8181  13.0383  13.0586  13.1037  13.1623
    13.1847  13.2140  13.2353  13.2630  13.2886  13.2902  13.3719  13.3778
    13.4242  13.4349  13.4491  13.5122  13.5755  13.6127  13.6490  13.6922
    13.7304  13.7435  13.7718  13.7827  13.7966  13.8435  13.9057  13.9197
    13.9322  13.9408  13.9725  13.9791  14.0080  14.0376  14.0724  14.1247
    14.5761  14.6081  14.6375  14.6636  14.8568  14.8806  14.9785  14.9883
    15.0286  15.0692  15.0860  15.1015  15.1637  15.1775  15.4522  15.5081
    15.5395  15.5933  15.7222  15.7888  15.8160  15.8673  15.9086  15.9285
    15.9609  15.9727  15.9997  16.0401  16.0491  16.0965  16.1229  16.1491
    16.1575  16.1596  16.1793  16.2045  16.2288  16.2715  16.3280  16.3492
    16.3688  16.4913  16.5578  16.5607  16.6148  16.6681  16.6969  16.7355
    16.7683  16.7916  16.8041  16.8273  16.8595  16.8993  16.9582  17.0649

          k = 0.0000 0.3842 0.3842 ( 48478 PWs)   bands (ev):

   -70.8849 -70.8726 -70.8688 -70.8656 -70.8471 -70.8388 -70.8362 -70.8311
   -70.8222 -70.8222 -70.8222 -70.8217 -70.8215 -70.8048 -70.8047 -70.8046
   -42.4848 -42.4680 -42.4653 -42.4633 -42.4488 -42.4445 -42.4428 -42.4396
   -37.4475 -37.4138 -37.4069 -37.3828 -37.2509 -37.2142 -37.2027 -37.1709
   -37.1206 -37.1155 -37.1146 -37.1099 -37.1043 -37.0708 -37.0677 -37.0669
   -36.9167 -36.9130 -36.8886 -36.8875 -36.8834 -36.8821 -36.8792 -36.8770
   -36.8762 -36.8682 -36.8651 -36.8561 -36.8397 -36.8367 -36.8280 -36.8232
   -36.8215 -36.8194 -36.8157 -36.8117 -36.8071 -36.7970 -36.7905 -36.7866
   -36.7811 -36.7800 -36.7753 -36.7649 -36.7635 -36.7553 -36.7521 -36.7498
   -18.7655 -18.7621 -18.7597 -18.7556 -18.7549 -18.7499 -18.7487 -18.7443
   -18.7278 -18.7142 -18.7128 -18.7079 -18.6521 -18.6464 -18.6449 -18.6334
   -18.6127 -18.6100 -18.6093 -18.6062 -18.6019 -18.6016 -18.5963 -18.5948
     4.9753   5.2672   5.4389   6.1006   7.2200   7.4660   7.8233   9.9550
    10.3037  10.4448  10.6983  11.2604  11.8606  11.9130  11.9607  12.0121
    12.0163  12.0273  12.0292  12.0654  12.0724  12.1215  12.1646  12.2497
    12.3143  12.3153  12.3445  12.8439  13.1490  13.2342  13.2479  13.2662
    13.2813  13.3187  13.3239  13.3578  13.3746  13.4040  13.4207  13.4221
    13.4533  13.4586  13.4727  13.4797  13.5522  13.5650  13.6146  13.6271
    13.6433  13.6543  13.6613  13.7180  13.7183  13.7294  13.7811  13.8105
    13.9462  13.9629  13.9835  14.0636  14.0640  14.0709  14.1338  14.1366
    14.8360  14.8415  14.8574  14.8905  14.8963  14.9387  14.9527  14.9836
    15.0263  15.1066  15.1135  15.1691  15.2294  15.2995  15.3131  15.3600
    15.4563  15.5017  15.5893  15.7639  15.7836  15.8486  15.8817  15.9677
    16.0071  16.0329  16.0427  16.0552  16.0562  16.0804  16.1103  16.1180
    16.1349  16.1882  16.2221  16.2323  16.2453  16.2811  16.2835  16.3045
    16.3411  16.3696  16.4945  16.5287  16.5832  16.6170  16.6242  16.7019
    16.7508  16.7744  16.7952  16.8065  16.8166  16.8250  16.9235  16.9940

          k = 0.1921 0.1921 0.1921 ( 48503 PWs)   bands (ev):

   -70.8878 -70.8729 -70.8627 -70.8627 -70.8489 -70.8424 -70.8424 -70.8255
   -70.8222 -70.8222 -70.8222 -70.8217 -70.8217 -70.8047 -70.8045 -70.8045
   -42.4854 -42.4697 -42.4613 -42.4613 -42.4501 -42.4469 -42.4469 -42.4354
   -37.4901 -37.3849 -37.3672 -37.3672 -37.2663 -37.2405 -37.2405 -37.1438
   -37.1254 -37.1254 -37.1059 -37.1023 -37.1023 -37.0640 -37.0640 -37.0636
   -36.9168 -36.9168 -36.8911 -36.8911 -36.8888 -36.8799 -36.8799 -36.8775
   -36.8627 -36.8627 -36.8627 -36.8476 -36.8445 -36.8445 -36.8327 -36.8327
   -36.8261 -36.8195 -36.8194 -36.8194 -36.7995 -36.7995 -36.7928 -36.7866
   -36.7783 -36.7783 -36.7670 -36.7670 -36.7631 -36.7528 -36.7528 -36.7453
   -18.7657 -18.7637 -18.7637 -18.7560 -18.7560 -18.7522 -18.7429 -18.7429
   -18.7375 -18.7011 -18.7011 -18.7008 -18.6594 -18.6594 -18.6583 -18.6227
   -18.6158 -18.6158 -18.6055 -18.6055 -18.6022 -18.5963 -18.5941 -18.5941
     4.6181   5.6472   5.6472   6.1995   6.9862   6.9862   8.1252   9.5952
    10.6169  10.8298  10.8298  11.3906  11.7923  11.7923  11.8560  11.8775
    11.8775  12.0794  12.0828  12.0828  12.2712  12.2919  12.2919  12.4172
    12.4172  12.4275  12.6271  12.8023  13.0448  13.0531  13.0531  13.0841
    13.0841  13.2446  13.2446  13.2877  13.3069  13.3354  13.3354  13.3853
    13.3853  13.5301  13.5376  13.5376  13.6350  13.6730  13.6730  13.7021
    13.7028  13.7028  13.7398  13.7398  13.7842  13.8085  13.8346  13.8346
    13.8627  13.8651  13.8651  13.9465  13.9465  14.0188  14.1058  14.1058
    14.6657  14.6731  14.6731  14.7266  14.7428  14.7428  15.0529  15.0529
    15.0991  15.1488  15.1488  15.1576  15.1927  15.2117  15.2117  15.5515
    15.5515  15.6312  15.6312  15.6582  15.7175  15.7175  15.7205  15.9385
    15.9727  15.9945  15.9945  16.0133  16.0134  16.0638  16.1067  16.1067
    16.1840  16.1944  16.1944  16.2444  16.2444  16.2949  16.2949  16.3032
    16.5784  16.5784  16.6085  16.6171  16.6576  16.6638  16.6639  16.7601
    16.7601  16.8779  16.8822  16.8919  16.8921  16.9378  16.9426  16.9928

          k = 0.1921 0.1921 0.3842 ( 48490 PWs)   bands (ev):

   -70.8857 -70.8741 -70.8669 -70.8626 -70.8483 -70.8424 -70.8363 -70.8288
   -70.8222 -70.8222 -70.8222 -70.8217 -70.8216 -70.8048 -70.8046 -70.8045
   -42.4850 -42.4692 -42.4644 -42.4613 -42.4498 -42.4469 -42.4426 -42.4380
   -37.4637 -37.4231 -37.3793 -37.3683 -37.2598 -37.2368 -37.2028 -37.1587
   -37.1206 -37.1204 -37.1111 -37.1084 -37.1037 -37.0685 -37.0683 -37.0645
   -36.9165 -36.9145 -36.8908 -36.8887 -36.8869 -36.8809 -36.8796 -36.8759
   -36.8701 -36.8658 -36.8574 -36.8542 -36.8466 -36.8418 -36.8312 -36.8251
   -36.8248 -36.8198 -36.8186 -36.8123 -36.8012 -36.8003 -36.7925 -36.7841
   -36.7811 -36.7763 -36.7721 -36.7695 -36.7618 -36.7541 -36.7524 -36.7473
   -18.7654 -18.7632 -18.7603 -18.7543 -18.7541 -18.7505 -18.7471 -18.7467
   -18.7318 -18.7151 -18.7049 -18.7044 -18.6555 -18.6545 -18.6444 -18.6288
   -18.6121 -18.6116 -18.6073 -18.6072 -18.6041 -18.5987 -18.5965 -18.5941
     4.8352   5.2671   5.6587   6.1750   6.9798   7.3637   7.9810   9.8155
    10.2389  10.7845  10.9000  11.2631  11.6395  11.7216  11.9017  11.9873
    11.9998  12.0675  12.0808  12.1083  12.1689  12.1701  12.2029  12.2797
    12.3353  12.3498  12.4324  12.8042  13.1621  13.1642  13.1820  13.2282
    13.2359  13.2663  13.2834  13.3122  13.3164  13.3472  13.3997  13.4082
    13.4567  13.4753  13.4834  13.5385  13.5491  13.6212  13.6330  13.6637
    13.6851  13.7250  13.7375  13.7466  13.7642  13.7841  13.8438  13.8702
    13.8773  13.9025  13.9348  13.9686  13.9959  14.0575  14.0801  14.1241
    14.7214  14.7518  14.7799  14.8219  14.9002  14.9408  15.0107  15.0513
    15.0560  15.0704  15.1227  15.1927  15.1969  15.2272  15.3851  15.4812
    15.5491  15.6006  15.6189  15.7128  15.7470  15.8032  15.8366  15.8602
    15.9820  16.0034  16.0558  16.0586  16.0702  16.1171  16.1237  16.1332
    16.1510  16.1625  16.1879  16.1981  16.2658  16.2729  16.3059  16.3099
    16.3869  16.3988  16.4545  16.4964  16.5599  16.5850  16.6159  16.6858
    16.6990  16.7459  16.8546  16.8645  16.9039  16.9619  16.9667  17.0012

          k = 0.1921 0.3842 0.3842 ( 48499 PWs)   bands (ev):

   -70.8847 -70.8722 -70.8688 -70.8666 -70.8466 -70.8381 -70.8362 -70.8318
   -70.8222 -70.8222 -70.8222 -70.8217 -70.8215 -70.8048 -70.8047 -70.8046
   -42.4848 -42.4677 -42.4653 -42.4639 -42.4485 -42.4441 -42.4428 -42.4400
   -37.4436 -37.4149 -37.4080 -37.3920 -37.2438 -37.2074 -37.1984 -37.1706
   -37.1203 -37.1175 -37.1156 -37.1113 -37.1071 -37.0716 -37.0698 -37.0692
   -36.9150 -36.9127 -36.8866 -36.8858 -36.8835 -36.8815 -36.8803 -36.8773
   -36.8739 -36.8657 -36.8633 -36.8556 -36.8419 -36.8415 -36.8316 -36.8300
   -36.8233 -36.8222 -36.8176 -36.8169 -36.7994 -36.7942 -36.7897 -36.7848
   -36.7832 -36.7791 -36.7774 -36.7707 -36.7581 -36.7518 -36.7499 -36.7471
   -18.7631 -18.7603 -18.7585 -18.7542 -18.7539 -18.7490 -18.7479 -18.7448
   -18.7314 -18.7186 -18.7174 -18.7141 -18.6460 -18.6421 -18.6408 -18.6301
   -18.6121 -18.6103 -18.6100 -18.6076 -18.6035 -18.6021 -18.5981 -18.5968
     5.0202   5.2761   5.4001   6.0898   7.2761   7.4472   7.7609   9.9919
    10.3578  10.5247  10.7192  11.2587  11.6516  11.7890  11.8608  11.9294
    11.9790  12.0431  12.0616  12.0748  12.0974  12.1098  12.1322  12.1987
    12.2480  12.2545  12.2838  12.7965  13.2478  13.3058  13.3134  13.3226
    13.3343  13.3499  13.3825  13.3864  13.4062  13.4232  13.4500  13.4632
    13.4712  13.4790  13.4984  13.5125  13.5603  13.5828  13.6077  13.6117
    13.6170  13.6474  13.6678  13.6775  13.6997  13.7129  13.7609  13.8043
    13.9070  13.9291  13.9332  13.9834  14.0381  14.0730  14.1115  14.1245
    14.9108  14.9412  14.9673  14.9947  15.0013  15.0377  15.0432  15.0740
    15.1519  15.1703  15.2366  15.2597  15.3013  15.3431  15.3526  15.4305
    15.4333  15.4932  15.5723  15.6260  15.6932  15.7156  15.8347  15.8666
    15.8940  15.9024  15.9856  15.9953  16.0460  16.0934  16.0987  16.1068
    16.1305  16.1741  16.1886  16.2066  16.2210  16.2284  16.2598  16.2655
    16.3475  16.3584  16.4068  16.4561  16.5516  16.6572  16.6705  16.6908
    16.7049  16.7876  16.7919  16.8383  16.8831  16.9653  16.9703  17.0622

          k = 0.3842 0.3842 0.3842 ( 48449 PWs)   bands (ev):

   -70.8844 -70.8711 -70.8688 -70.8688 -70.8460 -70.8362 -70.8362 -70.8337
   -70.8222 -70.8222 -70.8222 -70.8215 -70.8215 -70.8047 -70.8047 -70.8047
   -42.4847 -42.4669 -42.4654 -42.4654 -42.4481 -42.4428 -42.4428 -42.4411
   -37.4326 -37.4173 -37.4097 -37.4097 -37.2338 -37.1907 -37.1907 -37.1745
   -37.1200 -37.1200 -37.1188 -37.1126 -37.1126 -37.0732 -37.0732 -37.0728
   -36.9121 -36.9121 -36.8850 -36.8850 -36.8834 -36.8794 -36.8776 -36.8776
   -36.8732 -36.8593 -36.8563 -36.8563 -36.8454 -36.8454 -36.8384 -36.8384
   -36.8297 -36.8267 -36.8235 -36.8235 -36.7921 -36.7921 -36.7873 -36.7834
   -36.7834 -36.7788 -36.7766 -36.7766 -36.7532 -36.7468 -36.7468 -36.7448
   -18.7572 -18.7569 -18.7569 -18.7524 -18.7524 -18.7460 -18.7460 -18.7453
   -18.7365 -18.7265 -18.7255 -18.7255 -18.6351 -18.6342 -18.6342 -18.6262
   -18.6122 -18.6122 -18.6094 -18.6094 -18.6071 -18.6029 -18.6015 -18.6015
     5.1368   5.2908   5.2908   6.0761   7.4169   7.4169   7.6097  10.0477
    10.5044  10.6909  10.6909  11.2419  11.5191  11.5191  11.6722  11.9570
    11.9736  11.9736  12.0306  12.0306  12.0518  12.0518  12.0536  12.1459
    12.2007  12.2007  12.2198  12.7304  13.3787  13.3787  13.3919  13.4170
    13.4170  13.4261  13.4261  13.4326  13.4645  13.4760  13.4760  13.4957
    13.4977  13.4977  13.5456  13.5456  13.5468  13.5672  13.5736  13.5736
    13.6361  13.6361  13.6398  13.6681  13.6681  13.6951  13.7246  13.7246
    13.9024  13.9172  13.9172  13.9863  13.9863  14.0837  14.0837  14.0859
    15.0878  15.1334  15.1334  15.1725  15.1725  15.2040  15.2040  15.2432
    15.2688  15.2688  15.3491  15.4168  15.4655  15.4655  15.4669  15.5073
    15.5073  15.5378  15.5503  15.5503  15.6264  15.6264  15.6457  15.6710
    15.6710  15.7466  15.7772  15.7772  15.9061  16.0247  16.0288  16.0288
    16.0844  16.0844  16.1093  16.1249  16.1249  16.1328  16.1855  16.1855
    16.3790  16.3790  16.3834  16.6177  16.6754  16.6754  16.7289  16.7289
    16.7291  16.7323  16.7623  16.7624  16.8395  16.8933  16.8934  16.9389

     the Fermi energy is    15.1212 ev

!    total energy              =   -6230.61110160 Ry
     estimated scf accuracy    <          6.9E-10 Ry
     smearing contrib. (-TS)   =       0.00057804 Ry
     internal energy E=F+TS    =   -6230.61167964 Ry

     The total energy is F=E-TS. E is the sum of the following terms:
     one-electron contribution =   -2597.86680721 Ry
     hartree contribution      =    1476.87309183 Ry
     xc contribution           =    -706.33801223 Ry
     ewald contribution        =   -3184.80846107 Ry
     one-center paw contrib.   =   -1218.47149096 Ry

     total magnetization       =    19.67 Bohr mag/cell
     absolute magnetization    =    38.90 Bohr mag/cell

     convergence has been achieved in  16 iterations

     negative rho (up, down):  7.285E-03 1.094E-03

     Forces acting on atoms (cartesian axes, Ry/au):

     atom    1 type  1   force =    -0.00057989   -0.00057989    0.00195284
     atom    2 type  1   force =     0.00123418    0.00123418    0.00123418
     atom    3 type  1   force =     0.00057989    0.00195284    0.00057989
     atom    4 type  1   force =    -0.00195284    0.00057989   -0.00057989
     atom    5 type  1   force =    -0.00057989    0.00195284   -0.00057989
     atom    6 type  1   force =     0.00195284   -0.00057989   -0.00057989
     atom    7 type  1   force =     0.00057989   -0.00195284   -0.00057989
     atom    8 type  1   force =    -0.00123418    0.00123418   -0.00123418
     atom    9 type  1   force =     0.00123418   -0.00123418   -0.00123418
     atom   10 type  1   force =     0.00195284    0.00057989    0.00057989
     atom   11 type  1   force =    -0.00195284   -0.00057989    0.00057989
     atom   12 type  1   force =     0.00057989    0.00057989    0.00195284
     atom   13 type  1   force =    -0.00123418   -0.00123418    0.00123418
     atom   14 type  1   force =     0.00057989   -0.00057989   -0.00195284
     atom   15 type  1   force =    -0.00057989   -0.00195284    0.00057989
     atom   16 type  1   force =    -0.00057989    0.00057989   -0.00195284
     atom   17 type  2   force =     0.00000000    0.00000000    0.00000000
     atom   18 type  2   force =    -0.00050688   -0.00050688    0.00050688
     atom   19 type  2   force =     0.00000000    0.00000000    0.00000000
     atom   20 type  2   force =    -0.00050688    0.00050688   -0.00050688
     atom   21 type  2   force =     0.00000000    0.00000000    0.00000000
     atom   22 type  2   force =     0.00050688    0.00050688    0.00050688
     atom   23 type  2   force =     0.00050688   -0.00050688   -0.00050688
     atom   24 type  2   force =     0.00000000    0.00000000    0.00000000
     atom   25 type  3   force =     0.00354997    0.00354997   -0.00354997
     atom   26 type  3   force =     0.00000000    0.00000000    0.00000000
     atom   27 type  3   force =     0.00354997   -0.00354997    0.00354997
     atom   28 type  3   force =     0.00000000    0.00000000    0.00000000
     atom   29 type  3   force =    -0.00354997   -0.00354997   -0.00354997
     atom   30 type  3   force =    -0.00354997    0.00354997    0.00354997
     atom   31 type  3   force =     0.00000000    0.00000000    0.00000000

     Total force =     0.015047     Total SCF correction =     0.000347


     Computing stress (Cartesian axis) and pressure


     negative rho (up, down):  7.285E-03 1.094E-03
          total   stress  (Ry/bohr**3)                   (kbar)     P=       -5.69
  -0.00003869   0.00000000   0.00000000           -5.69        0.00        0.00
   0.00000000  -0.00003869   0.00000000            0.00       -5.69        0.00
   0.00000000   0.00000000  -0.00003869            0.00        0.00       -5.69

     Energy error            =      2.5E-03 Ry
     Gradient error          =      3.5E-03 Ry/Bohr
     Cell gradient error     =      5.7E+00 kbar

     number of scf cycles    =   6
     number of bfgs steps    =   5

     enthalpy           old  =   -6230.6085535751 Ry
     enthalpy           new  =   -6230.6111015959 Ry

     CASE: enthalpy          _new < enthalpy          _old

     new trust radius        =       0.0385351101 bohr
     new conv_thr            =       0.0000000004 Ry

     new unit-cell volume =   2342.44718 a.u.^3 (   347.11486 Ang^3 )
     density =      6.14009 g/cm^3

CELL_PARAMETERS (alat= 12.76591255)
   1.040330674   0.000000000   0.000000000
   0.000000000   1.040330674   0.000000000
   0.000000000   0.000000000   1.040330674

ATOMIC_POSITIONS (crystal)
Fe               0.1263529001        0.1263529001        0.6255520104
Fe               0.6157949138        0.6157949138        0.6157949138
Fe               0.8736470999        0.6255520104        0.8736470999
Fe               0.3744479896        0.8736470999        0.1263529001
Fe               0.1263529001        0.6255520104        0.1263529001
Fe               0.6255520104        0.1263529001        0.1263529001
Fe               0.8736470999        0.3744479896        0.1263529001
Fe               0.3842050862        0.6157949138        0.3842050862
Fe               0.6157949138        0.3842050862        0.3842050862
Fe               0.6255520104        0.8736470999        0.8736470999
Fe               0.3744479896        0.1263529001        0.8736470999
Fe               0.8736470999        0.8736470999        0.6255520104
Fe               0.3842050862        0.3842050862        0.6157949138
Fe               0.8736470999        0.1263529001        0.3744479896
Fe               0.1263529001        0.3744479896        0.8736470999
Fe               0.1263529001        0.8736470999        0.3744479896
Ti               0.0000000000        0.0000000000        0.0000000000
Ti               0.7491876797        0.7491876797        0.2508123203
Ti               0.5000000000        0.0000000000        0.5000000000
Ti               0.7491876797        0.2508123203        0.7491876797
Ti               0.0000000000        0.5000000000        0.5000000000
Ti               0.2508123203        0.2508123203        0.2508123203
Ti               0.2508123203        0.7491876797        0.7491876797
Ti               0.5000000000        0.5000000000        0.0000000000
H                0.2581249547        0.2581249547        0.7418750453
H                0.0000000000        0.5000000000        0.0000000000
H                0.2581249547        0.7418750453        0.2581249547
H                0.5000000000        0.0000000000        0.0000000000
H                0.7418750453        0.7418750453        0.7418750453
H                0.7418750453        0.2581249547        0.2581249547
H                0.0000000000        0.0000000000        0.5000000000



     Writing config-only to output data dir ./TiFe2_cub_8b_8H.save/ :
     XML data file     NEW-OLD atomic charge density approx. for the potential
     New effective cutoffs (rho, wfc): 1603.95  114.55

     negative rho (up, down):  7.318E-03 1.083E-03
     Generating pointlists ...

     total cpu time spent up to now is    50692.3 secs

     per-process dynamical memory:   530.5 Mb

     Self-consistent Calculation

     iteration #  1     ecut=   124.00 Ry     beta= 0.20
     CG style diagonalization
     c_bands:  4 eigenvalues not converged
     c_bands:  5 eigenvalues not converged
     ethr =  1.00E-06,  avg # of iterations = 11.5

     negative rho (up, down):  7.320E-03 1.087E-03

     total cpu time spent up to now is    52057.6 secs

     total energy              =   -6230.61091032 Ry
     estimated scf accuracy    <       0.01062430 Ry

     total magnetization       =    19.64 Bohr mag/cell
     absolute magnetization    =    38.85 Bohr mag/cell

     iteration #  2     ecut=   124.00 Ry     beta= 0.20
     CG style diagonalization
     ethr =  2.96E-06,  avg # of iterations =  3.0

     negative rho (up, down):  7.321E-03 1.089E-03

     total cpu time spent up to now is    52337.5 secs

     total energy              =   -6230.61140048 Ry
     estimated scf accuracy    <       0.00058304 Ry

     total magnetization       =    19.62 Bohr mag/cell
     absolute magnetization    =    38.83 Bohr mag/cell

     iteration #  3     ecut=   124.00 Ry     beta= 0.20
     CG style diagonalization
     ethr =  1.62E-07,  avg # of iterations =  4.1

     negative rho (up, down):  7.319E-03 1.092E-03

     total cpu time spent up to now is    52751.6 secs

     total energy              =   -6230.61156128 Ry
     estimated scf accuracy    <       0.00048379 Ry

     total magnetization       =    19.62 Bohr mag/cell
     absolute magnetization    =    38.83 Bohr mag/cell

     iteration #  4     ecut=   124.00 Ry     beta= 0.20
     CG style diagonalization
     ethr =  1.35E-07,  avg # of iterations =  3.3

     negative rho (up, down):  7.317E-03 1.096E-03

     total cpu time spent up to now is    53067.4 secs

     total energy              =   -6230.61162239 Ry
     estimated scf accuracy    <       0.00010399 Ry

     total magnetization       =    19.61 Bohr mag/cell
     absolute magnetization    =    38.81 Bohr mag/cell

     iteration #  5     ecut=   124.00 Ry     beta= 0.20
     CG style diagonalization
     ethr =  2.90E-08,  avg # of iterations =  4.5

     negative rho (up, down):  7.315E-03 1.096E-03

     total cpu time spent up to now is    53538.2 secs

     total energy              =   -6230.61169144 Ry
     estimated scf accuracy    <       0.00001574 Ry

     total magnetization       =    19.60 Bohr mag/cell
     absolute magnetization    =    38.79 Bohr mag/cell

     iteration #  6     ecut=   124.00 Ry     beta= 0.20
     CG style diagonalization
     ethr =  4.39E-09,  avg # of iterations =  5.4

     negative rho (up, down):  7.314E-03 1.095E-03

     total cpu time spent up to now is    54120.4 secs

     total energy              =   -6230.61171978 Ry
     estimated scf accuracy    <       0.00000622 Ry

     total magnetization       =    19.59 Bohr mag/cell
     absolute magnetization    =    38.78 Bohr mag/cell

     iteration #  7     ecut=   124.00 Ry     beta= 0.20
     CG style diagonalization
     ethr =  1.73E-09,  avg # of iterations =  3.9

     negative rho (up, down):  7.308E-03 1.095E-03

     total cpu time spent up to now is    54514.7 secs

     total energy              =   -6230.61172630 Ry
     estimated scf accuracy    <       0.00000464 Ry

     total magnetization       =    19.59 Bohr mag/cell
     absolute magnetization    =    38.77 Bohr mag/cell

     iteration #  8     ecut=   124.00 Ry     beta= 0.20
     CG style diagonalization
     ethr =  1.29E-09,  avg # of iterations =  3.7

     negative rho (up, down):  7.308E-03 1.096E-03

     total cpu time spent up to now is    54883.1 secs

     total energy              =   -6230.61173135 Ry
     estimated scf accuracy    <       0.00000382 Ry

     total magnetization       =    19.59 Bohr mag/cell
     absolute magnetization    =    38.76 Bohr mag/cell

     iteration #  9     ecut=   124.00 Ry     beta= 0.20
     CG style diagonalization
     ethr =  1.06E-09,  avg # of iterations =  3.1

     negative rho (up, down):  7.306E-03 1.096E-03

     total cpu time spent up to now is    55173.8 secs

     total energy              =   -6230.61173385 Ry
     estimated scf accuracy    <       0.00000034 Ry

     total magnetization       =    19.59 Bohr mag/cell
     absolute magnetization    =    38.76 Bohr mag/cell

     iteration # 10     ecut=   124.00 Ry     beta= 0.20
     CG style diagonalization
     ethr =  9.49E-11,  avg # of iterations =  5.6

     negative rho (up, down):  7.305E-03 1.097E-03

     total cpu time spent up to now is    55777.5 secs

     total energy              =   -6230.61173574 Ry
     estimated scf accuracy    <       0.00000050 Ry

     total magnetization       =    19.59 Bohr mag/cell
     absolute magnetization    =    38.75 Bohr mag/cell

     iteration # 11     ecut=   124.00 Ry     beta= 0.20
     CG style diagonalization
     ethr =  9.49E-11,  avg # of iterations =  3.7

     negative rho (up, down):  7.304E-03 1.097E-03

     total cpu time spent up to now is    56139.3 secs

     total energy              =   -6230.61173672 Ry
     estimated scf accuracy    <       0.00000011 Ry

     total magnetization       =    19.59 Bohr mag/cell
     absolute magnetization    =    38.75 Bohr mag/cell

     iteration # 12     ecut=   124.00 Ry     beta= 0.20
     CG style diagonalization
     ethr =  2.98E-11,  avg # of iterations =  3.9

     negative rho (up, down):  7.303E-03 1.098E-03

     total cpu time spent up to now is    56531.4 secs

     total energy              =   -6230.61173731 Ry
     estimated scf accuracy    <       0.00000003 Ry

     total magnetization       =    19.59 Bohr mag/cell
     absolute magnetization    =    38.75 Bohr mag/cell

     iteration # 13     ecut=   124.00 Ry     beta= 0.20
     CG style diagonalization
     ethr =  8.10E-12,  avg # of iterations =  4.9

     negative rho (up, down):  7.303E-03 1.098E-03

     total cpu time spent up to now is    57046.2 secs

     total energy              =   -6230.61173765 Ry
     estimated scf accuracy    <       0.00000001 Ry

     total magnetization       =    19.59 Bohr mag/cell
     absolute magnetization    =    38.75 Bohr mag/cell

     iteration # 14     ecut=   124.00 Ry     beta= 0.20
     CG style diagonalization
     ethr =  3.85E-12,  avg # of iterations =  4.3

     negative rho (up, down):  7.303E-03 1.098E-03

     total cpu time spent up to now is    57492.8 secs

     total energy              =   -6230.61173787 Ry
     estimated scf accuracy    <          5.2E-09 Ry

     total magnetization       =    19.59 Bohr mag/cell
     absolute magnetization    =    38.74 Bohr mag/cell

     iteration # 15     ecut=   124.00 Ry     beta= 0.20
     CG style diagonalization
     ethr =  1.45E-12,  avg # of iterations =  4.2

     negative rho (up, down):  7.302E-03 1.098E-03

     total cpu time spent up to now is    57920.2 secs

     total energy              =   -6230.61173801 Ry
     estimated scf accuracy    <          1.3E-09 Ry

     total magnetization       =    19.59 Bohr mag/cell
     absolute magnetization    =    38.74 Bohr mag/cell

     iteration # 16     ecut=   124.00 Ry     beta= 0.20
     CG style diagonalization
     ethr =  3.73E-13,  avg # of iterations =  5.0

     negative rho (up, down):  7.302E-03 1.098E-03

     Magnetic moment per site  (integrated on atomic sphere of radius R)
     atom   1 (R=0.089)  charge= 11.1816  magn=  1.3887
     atom   2 (R=0.089)  charge= 11.1730  magn=  1.3809
     atom   3 (R=0.089)  charge= 11.1816  magn=  1.3887
     atom   4 (R=0.089)  charge= 11.1816  magn=  1.3887
     atom   5 (R=0.089)  charge= 11.1816  magn=  1.3887
     atom   6 (R=0.089)  charge= 11.1816  magn=  1.3887
     atom   7 (R=0.089)  charge= 11.1816  magn=  1.3887
     atom   8 (R=0.089)  charge= 11.1730  magn=  1.3809
     atom   9 (R=0.089)  charge= 11.1730  magn=  1.3809
     atom  10 (R=0.089)  charge= 11.1816  magn=  1.3887
     atom  11 (R=0.089)  charge= 11.1816  magn=  1.3887
     atom  12 (R=0.089)  charge= 11.1816  magn=  1.3887
     atom  13 (R=0.089)  charge= 11.1730  magn=  1.3809
     atom  14 (R=0.089)  charge= 11.1816  magn=  1.3887
     atom  15 (R=0.089)  charge= 11.1816  magn=  1.3887
     atom  16 (R=0.089)  charge= 11.1816  magn=  1.3887
     atom  17 (R=0.171)  charge= 10.1881  magn= -0.7912
     atom  18 (R=0.171)  charge= 10.1975  magn= -0.8198
     atom  19 (R=0.171)  charge= 10.1961  magn= -0.8407
     atom  20 (R=0.171)  charge= 10.1975  magn= -0.8198
     atom  21 (R=0.171)  charge= 10.1961  magn= -0.8407
     atom  22 (R=0.171)  charge= 10.1975  magn= -0.8198
     atom  23 (R=0.171)  charge= 10.1975  magn= -0.8198
     atom  24 (R=0.171)  charge= 10.1961  magn= -0.8407
     atom  25 (R=0.089)  charge=  0.9808  magn= -0.0057
     atom  26 (R=0.089)  charge=  0.9906  magn= -0.0058
     atom  27 (R=0.089)  charge=  0.9808  magn= -0.0057
     atom  28 (R=0.089)  charge=  0.9906  magn= -0.0058
     atom  29 (R=0.089)  charge=  0.9808  magn= -0.0057
     atom  30 (R=0.089)  charge=  0.9808  magn= -0.0057
     atom  31 (R=0.089)  charge=  0.9906  magn= -0.0058

     total cpu time spent up to now is    58455.8 secs

     End of self-consistent calculation

 ------ SPIN UP ------------


          k = 0.0000 0.0000 0.0000 ( 48489 PWs)   bands (ev):

   -72.9543 -72.9326 -72.9120 -72.9120 -72.9117 -72.9117 -72.9117 -72.8833
   -72.8833 -72.8833 -72.8829 -72.8829 -72.8829 -72.8722 -72.8722 -72.8722
   -41.6996 -41.6555 -41.6445 -41.6445 -41.6445 -41.6286 -41.6286 -41.6145
   -39.4192 -39.2828 -39.2162 -39.2162 -39.2120 -39.2120 -39.2120 -39.0870
   -39.0870 -39.0870 -39.0260 -39.0260 -39.0260 -39.0246 -39.0246 -39.0246
   -38.9681 -38.9681 -38.9375 -38.9375 -38.9344 -38.9223 -38.9223 -38.9223
   -38.9085 -38.9085 -38.9085 -38.8990 -38.8990 -38.8990 -38.8909 -38.8909
   -38.8720 -38.8706 -38.8706 -38.8706 -38.8413 -38.8413 -38.8413 -38.8171
   -38.8171 -38.8171 -38.8104 -38.8104 -38.8104 -38.8042 -38.8042 -38.8042
   -17.9627 -17.9627 -17.9627 -17.9354 -17.9354 -17.9354 -17.9262 -17.9262
   -17.9262 -17.8677 -17.8677 -17.8665 -17.8665 -17.8665 -17.8618 -17.8037
   -17.8037 -17.8037 -17.7924 -17.7924 -17.7924 -17.7712 -17.7712 -17.7712
     4.0848   5.9532   5.9532   6.0110   6.0110   6.0110   7.9975   9.1776
    10.8464  10.8464  10.8464  10.9315  11.0944  11.0944  11.1035  11.1035
    11.1035  11.6570  11.7011  11.7011  11.7011  11.8254  11.8396  11.8396
    11.8396  11.8413  11.8413  11.8413  11.8748  11.8748  11.8988  11.8988
    11.8988  12.1003  12.1003  12.3094  12.3094  12.3094  12.4092  12.4092
    12.4092  12.4257  12.4257  12.4257  12.4500  12.4500  12.5009  12.8746
    12.8746  12.9519  12.9519  12.9519  12.9527  12.9527  12.9527  12.9692
    13.0491  13.0491  13.0491  13.0525  13.0525  13.0525  13.1580  13.1580
    13.1580  13.6161  13.6161  13.6161  13.6918  13.6918  13.6918  13.6983
    13.6983  13.6983  13.8366  13.8366  13.8505  13.8505  13.8771  13.8771
    13.8771  13.8942  13.9179  13.9179  13.9179  14.4779  14.4779  14.6917
    14.6917  14.6917  14.9113  14.9659  14.9659  14.9659  15.0458  15.0458
    15.2927  15.2927  15.2927  16.1362  16.1362  16.1362  16.1363  16.1363
    16.1363  16.1831  16.1831  16.1831  16.4902  16.4902  16.4902  16.5558
    16.5558  16.5558  16.6604  16.6604  16.7152  16.7397  16.7397  16.7397

          k = 0.0000 0.0000 0.1922 ( 48469 PWs)   bands (ev):

   -72.9535 -72.9330 -72.9193 -72.9120 -72.9117 -72.9117 -72.9035 -72.8841
   -72.8833 -72.8833 -72.8833 -72.8829 -72.8829 -72.8723 -72.8722 -72.8722
   -41.6996 -41.6552 -41.6460 -41.6445 -41.6445 -41.6286 -41.6267 -41.6154
   -39.4099 -39.2974 -39.2506 -39.2156 -39.2114 -39.2114 -39.1679 -39.0903
   -39.0828 -39.0828 -39.0329 -39.0329 -39.0277 -39.0277 -39.0275 -39.0272
   -38.9681 -38.9661 -38.9393 -38.9377 -38.9357 -38.9252 -38.9252 -38.9194
   -38.9076 -38.9047 -38.9031 -38.9031 -38.8946 -38.8935 -38.8935 -38.8816
   -38.8726 -38.8673 -38.8673 -38.8564 -38.8450 -38.8425 -38.8425 -38.8202
   -38.8185 -38.8185 -38.8145 -38.8124 -38.8124 -38.8066 -38.8055 -38.8055
   -17.9629 -17.9620 -17.9620 -17.9358 -17.9358 -17.9357 -17.9269 -17.9269
   -17.9241 -17.8813 -17.8674 -17.8664 -17.8664 -17.8634 -17.8509 -17.8057
   -17.8029 -17.8029 -17.7927 -17.7915 -17.7915 -17.7724 -17.7724 -17.7711
     4.1700   5.4019   5.9557   6.0135   6.0135   6.5530   7.9788   9.2686
    10.5669  10.7655  10.8972  10.8972  11.0765  11.1361  11.1381  11.1381
    11.2392  11.5609  11.5609  11.5730  11.6628  11.6758  11.6758  11.6911
    11.7147  11.8535  11.9290  11.9299  11.9299  11.9627  11.9627  11.9870
    12.0589  12.1085  12.1384  12.1937  12.2417  12.2417  12.2592  12.3691
    12.3691  12.4209  12.4558  12.4653  12.4942  12.4942  12.6967  12.7756
    12.8250  12.8250  12.8366  12.9007  12.9007  12.9045  12.9561  13.0573
    13.0657  13.0657  13.1738  13.2210  13.2357  13.2357  13.2723  13.3084
    13.3084  13.5878  13.5878  13.5973  13.6298  13.6490  13.6490  13.6492
    13.7103  13.7616  13.7708  13.7708  13.8200  13.8221  13.8221  13.8403
    13.9493  13.9887  14.0026  14.0026  14.0490  14.4820  14.5988  14.5988
    14.6145  14.6493  14.7726  14.9083  14.9083  14.9194  14.9924  15.1483
    15.3764  15.4449  15.4449  16.0782  16.0782  16.1152  16.1207  16.1230
    16.1230  16.1557  16.1557  16.2327  16.2974  16.3401  16.3560  16.3560
    16.4152  16.4594  16.4594  16.8103  16.8512  16.8518  16.8571  17.3845

          k = 0.0000 0.0000 0.3845 ( 48538 PWs)   bands (ev):

   -72.9521 -72.9342 -72.9234 -72.9120 -72.9117 -72.9117 -72.8961 -72.8873
   -72.8833 -72.8833 -72.8833 -72.8829 -72.8829 -72.8726 -72.8722 -72.8722
   -41.6995 -41.6545 -41.6481 -41.6445 -41.6445 -41.6286 -41.6230 -41.6176
   -39.3841 -39.3376 -39.2595 -39.2147 -39.2105 -39.2105 -39.1327 -39.1001
   -39.0719 -39.0719 -39.0485 -39.0485 -39.0320 -39.0318 -39.0318 -39.0292
   -38.9683 -38.9629 -38.9431 -38.9398 -38.9302 -38.9273 -38.9273 -38.9187
   -38.9184 -38.8993 -38.8993 -38.8980 -38.8949 -38.8820 -38.8820 -38.8732
   -38.8668 -38.8606 -38.8606 -38.8483 -38.8458 -38.8458 -38.8403 -38.8283
   -38.8239 -38.8212 -38.8212 -38.8171 -38.8171 -38.8116 -38.8070 -38.8070
   -17.9632 -17.9608 -17.9608 -17.9365 -17.9365 -17.9361 -17.9283 -17.9283
   -17.9195 -17.8925 -17.8670 -17.8663 -17.8663 -17.8629 -17.8395 -17.8102
   -17.8018 -17.8018 -17.7932 -17.7895 -17.7895 -17.7747 -17.7747 -17.7710
     4.4006   4.9103   5.9596   6.0175   6.0175   6.9650   7.9236   9.5447
    10.0093  10.6539  11.0458  11.0458  11.1759  11.2121  11.2121  11.2306
    11.2310  11.2854  11.2854  11.4359  11.5600  11.5600  11.5935  11.6452
    11.6620  11.7479  11.9444  12.0140  12.0210  12.0210  12.0692  12.0692
    12.1026  12.1026  12.1037  12.1068  12.1225  12.1327  12.2645  12.2803
    12.2803  12.3426  12.3426  12.3970  12.4421  12.4740  12.7712  12.8503
    12.9233  12.9233  12.9440  12.9542  13.0454  13.0454  13.0468  13.1258
    13.1258  13.1868  13.2795  13.3660  13.3824  13.3824  13.4053  13.4177
    13.4206  13.4206  13.4753  13.4753  13.5118  13.5343  13.5343  13.5509
    13.5517  13.6022  13.6125  13.6125  13.8043  13.8208  14.0976  14.0976
    14.1627  14.1939  14.1939  14.1971  14.2661  14.3960  14.3960  14.4104
    14.5955  14.6188  14.7473  14.7643  14.7643  14.8367  14.9622  15.1617
    15.6188  15.7266  15.7266  15.9468  15.9468  15.9653  16.0849  16.0881
    16.0881  16.0917  16.1254  16.1254  16.1693  16.1810  16.2016  16.2016
    16.2953  16.2953  16.4482  16.8452  17.0296  17.0298  17.0436  17.0585

          k = 0.0000 0.1922 0.1922 ( 48486 PWs)   bands (ev):

   -72.9529 -72.9331 -72.9213 -72.9172 -72.9111 -72.9054 -72.9024 -72.8853
   -72.8833 -72.8833 -72.8833 -72.8829 -72.8829 -72.8724 -72.8722 -72.8722
   -41.6995 -41.6548 -41.6470 -41.6453 -41.6441 -41.6275 -41.6261 -41.6162
   -39.4012 -39.3024 -39.2699 -39.2429 -39.2034 -39.1743 -39.1622 -39.0901
   -39.0821 -39.0790 -39.0361 -39.0354 -39.0345 -39.0330 -39.0314 -39.0282
   -38.9673 -38.9648 -38.9396 -38.9376 -38.9356 -38.9270 -38.9226 -38.9214
   -38.9144 -38.9025 -38.9018 -38.8956 -38.8923 -38.8917 -38.8860 -38.8834
   -38.8731 -38.8640 -38.8617 -38.8507 -38.8506 -38.8429 -38.8404 -38.8238
   -38.8199 -38.8193 -38.8181 -38.8145 -38.8124 -38.8090 -38.8072 -38.8053
   -17.9631 -17.9613 -17.9612 -17.9379 -17.9362 -17.9333 -17.9281 -17.9261
   -17.9236 -17.8823 -17.8814 -17.8741 -17.8575 -17.8500 -17.8500 -17.8075
   -17.8021 -17.8018 -17.7936 -17.7918 -17.7899 -17.7739 -17.7729 -17.7716
     4.2516   5.3333   5.5413   5.9783   6.3918   6.7038   7.9371   9.3602
    10.5609  10.6885  10.7880  10.9380  10.9410  11.1362  11.1653  11.2263
    11.2742  11.4623  11.5033  11.5378  11.5626  11.5929  11.5990  11.6416
    11.7197  11.7591  11.8368  11.8917  11.9698  11.9700  12.0562  12.0812
    12.0816  12.0914  12.1382  12.1706  12.2366  12.3024  12.3187  12.3432
    12.3920  12.4323  12.4444  12.4681  12.5096  12.6196  12.6481  12.7242
    12.7532  12.7637  12.8062  12.8571  12.9072  12.9211  13.0049  13.0671
    13.1265  13.1318  13.2102  13.2773  13.2948  13.3099  13.3307  13.4023
    13.4186  13.4904  13.5291  13.5396  13.5635  13.6222  13.6314  13.6505
    13.7280  13.7435  13.7514  13.7846  13.7849  13.8362  13.8739  13.8761
    13.9124  13.9748  14.1068  14.2002  14.2413  14.2687  14.5078  14.5926
    14.6290  14.6475  14.7247  14.7913  14.9411  15.0784  15.0928  15.1836
    15.3546  15.5546  15.5728  15.9698  16.0477  16.0563  16.0632  16.0846
    16.0971  16.1164  16.1307  16.1905  16.2470  16.3058  16.3404  16.3584
    16.3822  16.4632  16.5092  16.5435  16.5866  17.0348  17.0742  17.2015

          k = 0.0000 0.1922 0.3845 ( 48550 PWs)   bands (ev):

   -72.9517 -72.9333 -72.9249 -72.9187 -72.9102 -72.9048 -72.8964 -72.8885
   -72.8833 -72.8833 -72.8833 -72.8829 -72.8828 -72.8726 -72.8722 -72.8722
   -41.6995 -41.6539 -41.6490 -41.6459 -41.6436 -41.6271 -41.6231 -41.6183
   -39.3775 -39.3330 -39.2802 -39.2545 -39.1934 -39.1688 -39.1314 -39.0989
   -39.0724 -39.0694 -39.0510 -39.0477 -39.0404 -39.0376 -39.0336 -39.0318
   -38.9670 -38.9615 -38.9415 -38.9384 -38.9320 -38.9288 -38.9257 -38.9207
   -38.9143 -38.9063 -38.8996 -38.8925 -38.8899 -38.8814 -38.8791 -38.8756
   -38.8676 -38.8624 -38.8595 -38.8536 -38.8468 -38.8444 -38.8353 -38.8285
   -38.8234 -38.8219 -38.8198 -38.8194 -38.8166 -38.8106 -38.8092 -38.8077
   -17.9632 -17.9601 -17.9596 -17.9393 -17.9366 -17.9328 -17.9290 -17.9270
   -17.9192 -17.8939 -17.8828 -17.8795 -17.8521 -17.8485 -17.8380 -17.8120
   -17.8008 -17.8005 -17.7944 -17.7911 -17.7875 -17.7768 -17.7749 -17.7719
     4.4728   4.9404   5.4997   5.9236   6.5025   7.0548   7.8269   9.6345
    10.0897  10.6485  10.8826  11.0683  11.0740  11.1105  11.2042  11.2321
    11.2499  11.2868  11.2935  11.3446  11.4139  11.4861  11.5899  11.6331
    11.6737  11.7516  11.7541  11.8251  12.0419  12.0560  12.0927  12.1274
    12.1321  12.1528  12.1672  12.1800  12.2068  12.2380  12.2583  12.3065
    12.3288  12.3369  12.3463  12.5337  12.5383  12.5702  12.6891  12.7319
    12.7569  12.7622  12.8443  12.9380  13.0727  13.1158  13.1385  13.1811
    13.2009  13.2207  13.2345  13.2510  13.2855  13.3209  13.3707  13.4101
    13.4252  13.4493  13.4765  13.4916  13.5077  13.5340  13.5699  13.6100
    13.6386  13.6502  13.6923  13.7231  13.8167  13.8459  13.9754  14.0153
    14.0729  14.1080  14.1537  14.3127  14.3472  14.4455  14.4702  14.5301
    14.5448  14.5739  14.6172  14.7294  15.0298  15.0701  15.1440  15.2067
    15.6250  15.7689  15.7920  15.9117  15.9382  15.9522  16.0043  16.0152
    16.0250  16.0381  16.0688  16.0784  16.1083  16.1590  16.1730  16.2230
    16.2656  16.3387  16.5822  16.7743  16.8213  16.9822  17.0233  17.0878

          k = 0.0000 0.3845 0.3845 ( 48478 PWs)   bands (ev):

   -72.9511 -72.9309 -72.9271 -72.9241 -72.9079 -72.8991 -72.8966 -72.8918
   -72.8833 -72.8833 -72.8833 -72.8829 -72.8827 -72.8725 -72.8724 -72.8723
   -41.6995 -41.6524 -41.6501 -41.6485 -41.6426 -41.6244 -41.6229 -41.6202
   -39.3609 -39.3237 -39.3071 -39.2870 -39.1737 -39.1348 -39.1276 -39.1025
   -39.0693 -39.0638 -39.0560 -39.0534 -39.0477 -39.0458 -39.0406 -39.0371
   -38.9661 -38.9576 -38.9379 -38.9348 -38.9319 -38.9295 -38.9287 -38.9185
   -38.9169 -38.9070 -38.9028 -38.8988 -38.8818 -38.8806 -38.8762 -38.8736
   -38.8638 -38.8635 -38.8604 -38.8496 -38.8466 -38.8443 -38.8362 -38.8331
   -38.8248 -38.8217 -38.8206 -38.8195 -38.8173 -38.8118 -38.8090 -38.8066
   -17.9624 -17.9586 -17.9584 -17.9417 -17.9369 -17.9301 -17.9300 -17.9245
   -17.9164 -17.8960 -17.8958 -17.8899 -17.8429 -17.8359 -17.8345 -17.8172
   -17.7984 -17.7980 -17.7958 -17.7941 -17.7832 -17.7809 -17.7754 -17.7743
     4.6734   4.9596   5.1271   5.7808   6.9457   7.2038   7.5742   9.8952
    10.2722  10.3965  10.6725  10.7898  11.1396  11.1810  11.1915  11.1999
    11.2305  11.2647  11.2738  11.2784  11.3521  11.4206  11.4222  11.5791
    11.6383  11.6594  11.6862  11.7392  12.0724  12.1193  12.1367  12.1612
    12.1788  12.2048  12.2204  12.2584  12.2651  12.3027  12.3426  12.4140
    12.4206  12.4617  12.4819  12.4982  12.5159  12.5728  12.5731  12.6402
    12.6593  12.6959  12.8322  12.8837  12.9506  12.9784  13.0800  13.0853
    13.1192  13.1624  13.2428  13.2552  13.2852  13.3201  13.3265  13.3732
    13.4462  13.4687  13.5159  13.6002  13.6346  13.6478  13.6633  13.6705
    13.7092  13.7537  13.7848  13.7921  13.8560  13.8613  13.8990  14.0482
    14.0658  14.1002  14.1651  14.2893  14.3513  14.3660  14.4142  14.4464
    14.4800  14.5964  14.6329  14.6928  15.3423  15.3774  15.4858  15.5541
    15.6708  15.8515  15.8827  15.8951  15.9162  15.9219  15.9311  15.9455
    15.9542  15.9671  15.9767  15.9964  16.0249  16.0968  16.1083  16.1233
    16.2518  16.3883  16.4039  16.6747  16.8202  16.9173  17.1236  17.1613

          k = 0.1922 0.1922 0.1922 ( 48503 PWs)   bands (ev):

   -72.9524 -72.9329 -72.9213 -72.9213 -72.9095 -72.9024 -72.9024 -72.8865
   -72.8833 -72.8833 -72.8833 -72.8829 -72.8829 -72.8724 -72.8722 -72.8722
   -41.6995 -41.6544 -41.6470 -41.6470 -41.6434 -41.6260 -41.6260 -41.6169
   -39.3932 -39.3069 -39.2708 -39.2708 -39.1877 -39.1589 -39.1589 -39.0895
   -39.0787 -39.0787 -39.0388 -39.0383 -39.0383 -39.0383 -39.0330 -39.0330
   -38.9648 -38.9648 -38.9393 -38.9350 -38.9350 -38.9256 -38.9256 -38.9252
   -38.9063 -38.9063 -38.9044 -38.8941 -38.8941 -38.8889 -38.8809 -38.8809
   -38.8781 -38.8581 -38.8581 -38.8518 -38.8460 -38.8432 -38.8432 -38.8239
   -38.8237 -38.8237 -38.8158 -38.8158 -38.8157 -38.8081 -38.8081 -38.8042
   -17.9625 -17.9606 -17.9606 -17.9376 -17.9376 -17.9313 -17.9270 -17.9270
   -17.9241 -17.8849 -17.8849 -17.8833 -17.8476 -17.8476 -17.8472 -17.8075
   -17.8018 -17.8018 -17.7926 -17.7926 -17.7897 -17.7750 -17.7731 -17.7731
     4.3285   5.3372   5.3372   5.8816   6.7031   6.7031   7.8844   9.4521
    10.5531  10.7557  10.7557  10.8263  10.9816  10.9816  11.2107  11.2558
    11.2558  11.3739  11.4996  11.4996  11.5465  11.5830  11.5830  11.6103
    11.6103  11.6231  11.6662  11.8197  11.9952  11.9952  12.1145  12.1145
    12.1279  12.1796  12.1796  12.2523  12.2523  12.2959  12.3013  12.4062
    12.4062  12.4128  12.4657  12.4657  12.6013  12.6304  12.6304  12.6537
    12.6537  12.7188  12.8779  12.8779  12.9530  12.9530  12.9635  13.0558
    13.0740  13.0946  13.0946  13.3413  13.3413  13.3502  13.4042  13.4042
    13.4417  13.4417  13.4792  13.5054  13.5255  13.5255  13.6934  13.6934
    13.7100  13.8243  13.8390  13.8390  13.8617  13.8617  13.8639  13.9014
    13.9014  13.9204  14.2376  14.2376  14.3039  14.3324  14.3324  14.5202
    14.6065  14.6401  14.6401  15.0341  15.0341  15.1893  15.2346  15.2346
    15.2894  15.6242  15.6242  15.9087  15.9087  15.9515  16.0527  16.0586
    16.0586  16.0959  16.0959  16.2362  16.2362  16.3278  16.3343  16.3635
    16.3635  16.4010  16.4336  16.4902  16.4902  17.1368  17.1369  17.1848

          k = 0.1922 0.1922 0.3845 ( 48490 PWs)   bands (ev):

   -72.9515 -72.9325 -72.9257 -72.9213 -72.9089 -72.9024 -72.8967 -72.8896
   -72.8833 -72.8833 -72.8833 -72.8829 -72.8828 -72.8725 -72.8723 -72.8722
   -41.6995 -41.6535 -41.6494 -41.6471 -41.6431 -41.6260 -41.6231 -41.6189
   -39.3720 -39.3300 -39.2903 -39.2722 -39.1807 -39.1533 -39.1285 -39.0973
   -39.0704 -39.0701 -39.0508 -39.0503 -39.0449 -39.0422 -39.0369 -39.0354
   -38.9646 -38.9607 -38.9399 -38.9355 -38.9332 -38.9269 -38.9236 -38.9226
   -38.9133 -38.9067 -38.9014 -38.8959 -38.8911 -38.8840 -38.8769 -38.8738
   -38.8735 -38.8597 -38.8593 -38.8533 -38.8529 -38.8398 -38.8350 -38.8270
   -38.8266 -38.8239 -38.8182 -38.8173 -38.8157 -38.8103 -38.8087 -38.8057
   -17.9622 -17.9596 -17.9588 -17.9386 -17.9376 -17.9305 -17.9281 -17.9273
   -17.9202 -17.8962 -17.8887 -17.8875 -17.8441 -17.8433 -17.8357 -17.8113
   -17.8019 -17.7991 -17.7950 -17.7901 -17.7885 -17.7777 -17.7761 -17.7732
     4.5374   4.9606   5.3436   5.8530   6.7019   7.0978   7.7428   9.7235
    10.1700  10.6513  10.9290  10.9353  11.0908  11.1099  11.1699  11.2046
    11.2126  11.2381  11.3093  11.3097  11.3493  11.4084  11.5419  11.5763
    11.6205  11.6397  11.6478  11.7374  12.0760  12.0862  12.1536  12.1654
    12.1690  12.2015  12.2111  12.2390  12.2475  12.2578  12.2944  12.3323
    12.3711  12.4059  12.4347  12.5453  12.5851  12.6193  12.6242  12.6564
    12.6963  12.7951  12.8725  12.8734  12.9268  12.9995  13.0719  13.0929
    13.1409  13.1658  13.1987  13.2303  13.2480  13.2540  13.3082  13.3575
    13.4106  13.4196  13.5229  13.5652  13.5708  13.6040  13.6756  13.6779
    13.7374  13.7494  13.7821  13.7841  13.8200  13.8540  13.9045  13.9790
    14.0109  14.0287  14.1657  14.2713  14.4018  14.4182  14.5402  14.5852
    14.6326  14.6342  14.6783  14.9646  15.1735  15.2444  15.2627  15.2860
    15.6185  15.7197  15.8109  15.8163  15.8898  15.9117  15.9289  15.9503
    15.9693  16.0224  16.0468  16.1009  16.1322  16.1453  16.1738  16.2480
    16.2762  16.3280  16.5821  16.6321  16.6429  16.9191  16.9864  16.9939

          k = 0.1922 0.3845 0.3845 ( 48499 PWs)   bands (ev):

   -72.9510 -72.9305 -72.9271 -72.9251 -72.9075 -72.8984 -72.8966 -72.8925
   -72.8833 -72.8833 -72.8833 -72.8828 -72.8827 -72.8724 -72.8724 -72.8723
   -41.6995 -41.6521 -41.6501 -41.6490 -41.6424 -41.6239 -41.6228 -41.6205
   -39.3590 -39.3239 -39.3085 -39.2954 -39.1664 -39.1270 -39.1215 -39.0995
   -39.0684 -39.0650 -39.0565 -39.0549 -39.0503 -39.0492 -39.0443 -39.0414
   -38.9625 -38.9572 -38.9368 -38.9314 -38.9308 -38.9282 -38.9270 -38.9181
   -38.9157 -38.9066 -38.9033 -38.9001 -38.8889 -38.8854 -38.8793 -38.8777
   -38.8707 -38.8677 -38.8588 -38.8575 -38.8478 -38.8404 -38.8320 -38.8307
   -38.8247 -38.8235 -38.8175 -38.8157 -38.8132 -38.8086 -38.8077 -38.8056
   -17.9607 -17.9578 -17.9578 -17.9399 -17.9370 -17.9287 -17.9285 -17.9246
   -17.9190 -17.9001 -17.8999 -17.8963 -17.8371 -17.8325 -17.8315 -17.8141
   -17.7994 -17.7989 -17.7945 -17.7933 -17.7854 -17.7810 -17.7771 -17.7762
     4.7146   4.9645   5.0849   5.7646   7.0173   7.1962   7.5220   9.9748
    10.3362  10.4884  10.7141  10.8634  11.1204  11.1430  11.1559  11.1787
    11.1942  11.2081  11.2545  11.2826  11.3173  11.3692  11.4042  11.4920
    11.5113  11.5229  11.5741  11.6663  12.1042  12.1539  12.1582  12.1919
    12.2109  12.2442  12.2610  12.3064  12.3380  12.3419  12.3662  12.4089
    12.4551  12.4871  12.5113  12.5621  12.5711  12.5762  12.6230  12.6801
    12.6812  12.7060  12.7375  12.8173  12.8488  12.8816  12.9186  13.0072
    13.0200  13.0603  13.1406  13.1585  13.1636  13.2253  13.2309  13.2999
    13.5374  13.5798  13.5928  13.6413  13.6588  13.6609  13.7313  13.7356
    13.7740  13.7907  13.7933  13.8387  13.8568  13.8761  13.8938  13.9404
    14.0047  14.0443  14.0843  14.1312  14.4954  14.5195  14.5555  14.6402
    14.7103  14.8459  14.8710  15.0095  15.4399  15.4600  15.5471  15.6163
    15.6397  15.7682  15.7736  15.8035  15.8061  15.8325  15.8531  15.8756
    15.8832  16.0004  16.0064  16.0406  16.0874  16.0889  16.1398  16.1459
    16.2334  16.3521  16.3546  16.5647  16.6684  16.7279  16.7977  16.8651

          k = 0.3845 0.3845 0.3845 ( 48449 PWs)   bands (ev):

   -72.9509 -72.9293 -72.9271 -72.9271 -72.9070 -72.8966 -72.8966 -72.8942
   -72.8833 -72.8833 -72.8833 -72.8827 -72.8827 -72.8724 -72.8724 -72.8724
   -41.6995 -41.6514 -41.6502 -41.6502 -41.6422 -41.6228 -41.6228 -41.6214
   -39.3553 -39.3219 -39.3106 -39.3106 -39.1556 -39.1098 -39.1098 -39.0969
   -39.0657 -39.0657 -39.0586 -39.0579 -39.0558 -39.0558 -39.0508 -39.0508
   -38.9565 -38.9565 -38.9343 -38.9314 -38.9314 -38.9273 -38.9176 -38.9176
   -38.9079 -38.9053 -38.9024 -38.9024 -38.8943 -38.8943 -38.8839 -38.8839
   -38.8788 -38.8748 -38.8709 -38.8709 -38.8390 -38.8390 -38.8283 -38.8275
   -38.8275 -38.8164 -38.8132 -38.8132 -38.8091 -38.8056 -38.8056 -38.8040
   -17.9575 -17.9566 -17.9566 -17.9372 -17.9372 -17.9255 -17.9255 -17.9243
   -17.9215 -17.9073 -17.9073 -17.9073 -17.8277 -17.8269 -17.8269 -17.8113
   -17.7997 -17.7997 -17.7913 -17.7913 -17.7905 -17.7816 -17.7803 -17.7803
     4.8235   4.9725   4.9725   5.7432   7.1840   7.1840   7.3844  10.1655
    10.4819  10.7351  10.7351  10.8884  11.0588  11.0773  11.0773  11.1150
    11.1335  11.1335  11.2362  11.2455  11.2455  11.3479  11.3479  11.3788
    11.3816  11.3816  11.3845  11.5135  12.1807  12.1807  12.2347  12.2347
    12.2392  12.3081  12.3081  12.3126  12.3899  12.4493  12.4493  12.5337
    12.5337  12.5515  12.5515  12.5770  12.6223  12.6384  12.6384  12.6455
    12.6812  12.6812  12.7152  12.7664  12.7664  12.7710  12.7710  12.8079
    12.9076  12.9076  13.0164  13.0466  13.0607  13.0607  13.1117  13.1117
    13.6441  13.6441  13.6950  13.6950  13.6960  13.6987  13.7586  13.7586
    13.8050  13.8166  13.8166  13.8438  13.9180  13.9264  13.9264  13.9551
    13.9551  13.9617  13.9789  13.9789  14.8351  14.8351  14.8436  14.9793
    15.0691  15.0808  15.0808  15.2819  15.6017  15.6070  15.6070  15.6437
    15.6437  15.6850  15.6850  15.7582  15.7843  15.7843  15.7921  15.8376
    15.8376  16.0021  16.0021  16.0099  16.0383  16.0383  16.0866  16.0866
    16.1451  16.2387  16.2966  16.2966  16.5074  16.5074  16.5142  16.5581

 ------ SPIN DOWN ----------


          k = 0.0000 0.0000 0.0000 ( 48489 PWs)   bands (ev):

   -70.8694 -70.8391 -70.8158 -70.8158 -70.8158 -70.8152 -70.8152 -70.7843
   -70.7843 -70.7843 -70.7839 -70.7839 -70.7839 -70.7830 -70.7830 -70.7830
   -42.4421 -42.4267 -42.4135 -42.4135 -42.4094 -42.4094 -42.4094 -42.3896
   -37.4924 -37.3431 -37.2676 -37.2676 -37.2617 -37.2617 -37.2617 -37.0961
   -37.0961 -37.0961 -37.0566 -37.0566 -37.0566 -37.0394 -37.0394 -37.0394
   -36.8972 -36.8972 -36.8579 -36.8579 -36.8458 -36.8453 -36.8453 -36.8453
   -36.8273 -36.8273 -36.8273 -36.8142 -36.8142 -36.8142 -36.7983 -36.7983
   -36.7854 -36.7854 -36.7854 -36.7849 -36.7796 -36.7796 -36.7796 -36.7363
   -36.7363 -36.7363 -36.7326 -36.7326 -36.7326 -36.7132 -36.7132 -36.7132
   -18.7234 -18.7234 -18.7234 -18.7150 -18.7150 -18.7150 -18.6972 -18.6972
   -18.6972 -18.6427 -18.6427 -18.6427 -18.6349 -18.6349 -18.6298 -18.5766
   -18.5766 -18.5766 -18.5595 -18.5595 -18.5595 -18.5497 -18.5497 -18.5497
     4.4064   6.2959   6.2959   6.3524   6.3524   6.3524   8.2445   9.4085
    11.0963  11.3857  11.3857  11.4038  11.4038  11.4038  11.8540  11.8540
    11.8540  12.1439  12.4042  12.4042  12.4042  12.4253  12.4253  12.7995
    12.8515  12.8515  12.8515  12.8897  12.8897  12.8897  12.9639  12.9639
    12.9639  13.0566  13.0566  13.0566  13.1629  13.1629  13.1629  13.3414
    13.3414  13.6159  13.6159  13.6159  13.6213  13.6213  13.6315  13.7712
    13.7712  13.8115  13.8115  13.8115  13.8278  13.8278  13.8278  13.8331
    13.8995  13.8995  13.8995  13.9356  13.9356  14.2175  14.2175  14.2175
    14.3958  14.3958  14.3958  14.5229  14.5229  14.5229  15.0642  15.0642
    15.0642  15.4005  15.4005  15.4005  15.4043  15.4043  15.4043  15.5733
    15.5733  15.6216  15.6633  15.6633  15.6646  15.6646  15.6646  15.7154
    15.7690  15.7690  15.7690  15.8156  15.8156  15.9975  15.9975  15.9975
    16.3645  16.3645  16.3645  16.4248  16.4248  16.4248  16.4720  16.4720
    16.4720  16.8743  16.8744  16.8755  16.8942  16.8946  16.9123  16.9664
    16.9962  16.9962  16.9962  17.0308  17.0323  17.1136  17.1137  17.1137

          k = 0.0000 0.0000 0.1922 ( 48469 PWs)   bands (ev):

   -70.8689 -70.8392 -70.8233 -70.8158 -70.8158 -70.8152 -70.8065 -70.7853
   -70.7843 -70.7843 -70.7843 -70.7839 -70.7839 -70.7831 -70.7830 -70.7830
   -42.4416 -42.4270 -42.4173 -42.4135 -42.4094 -42.4094 -42.4048 -42.3906
   -37.4823 -37.3592 -37.3061 -37.2673 -37.2614 -37.2614 -37.2103 -37.1022
   -37.0926 -37.0926 -37.0594 -37.0594 -37.0577 -37.0424 -37.0424 -37.0400
   -36.8972 -36.8963 -36.8589 -36.8559 -36.8525 -36.8471 -36.8471 -36.8380
   -36.8266 -36.8246 -36.8246 -36.8194 -36.8114 -36.8114 -36.8047 -36.7923
   -36.7882 -36.7865 -36.7865 -36.7847 -36.7764 -36.7764 -36.7648 -36.7402
   -36.7385 -36.7385 -36.7347 -36.7320 -36.7320 -36.7166 -36.7155 -36.7155
   -18.7237 -18.7226 -18.7226 -18.7153 -18.7143 -18.7143 -18.6994 -18.6994
   -18.6944 -18.6556 -18.6425 -18.6425 -18.6346 -18.6313 -18.6198 -18.5798
   -18.5744 -18.5744 -18.5602 -18.5602 -18.5595 -18.5507 -18.5507 -18.5496
     4.4953   5.7490   6.2996   6.3561   6.3561   6.8784   8.2287   9.4817
    10.7098  11.1818  11.3962  11.4128  11.4128  11.6781  11.9024  11.9024
    11.9588  12.0858  12.2710  12.2910  12.2910  12.3083  12.5960  12.5960
    12.6872  12.8028  12.8416  12.8546  12.8558  12.8558  12.8897  13.0017
    13.0017  13.1234  13.1429  13.1429  13.2051  13.3504  13.3504  13.3573
    13.3760  13.5498  13.5826  13.5826  13.6177  13.6269  13.7126  13.7126
    13.7353  13.7429  13.8125  13.8352  13.8694  13.8802  13.8802  13.8865
    13.9243  13.9589  13.9589  13.9744  13.9823  14.0680  14.1759  14.1759
    14.4185  14.4867  14.4867  14.5517  14.6544  14.6544  15.0735  15.0735
    15.0764  15.2121  15.2267  15.2267  15.2438  15.4202  15.4918  15.4918
    15.5462  15.6260  15.6516  15.7370  15.7689  15.7700  15.7700  15.8211
    15.8887  15.8920  15.8920  15.9062  15.9874  15.9874  15.9914  16.0632
    16.3345  16.3345  16.3474  16.3474  16.3846  16.4078  16.4078  16.4326
    16.4998  16.6973  16.7399  16.8002  16.8016  16.8024  16.8025  16.8603
    16.9068  16.9093  16.9645  16.9781  16.9829  17.0671  17.1553  17.2808

          k = 0.0000 0.0000 0.3845 ( 48538 PWs)   bands (ev):

   -70.8680 -70.8395 -70.8280 -70.8158 -70.8158 -70.8152 -70.7983 -70.7894
   -70.7843 -70.7843 -70.7843 -70.7839 -70.7839 -70.7831 -70.7830 -70.7830
   -42.4406 -42.4277 -42.4202 -42.4135 -42.4094 -42.4094 -42.3991 -42.3935
   -37.4548 -37.4027 -37.3165 -37.2667 -37.2608 -37.2608 -37.1656 -37.1191
   -37.0839 -37.0839 -37.0674 -37.0674 -37.0595 -37.0470 -37.0470 -37.0409
   -36.8971 -36.8947 -36.8604 -36.8566 -36.8503 -36.8492 -36.8492 -36.8338
   -36.8325 -36.8213 -36.8213 -36.8211 -36.8071 -36.8058 -36.8058 -36.7994
   -36.7891 -36.7891 -36.7800 -36.7767 -36.7693 -36.7693 -36.7494 -36.7475
   -36.7448 -36.7448 -36.7383 -36.7286 -36.7286 -36.7255 -36.7207 -36.7207
   -18.7242 -18.7216 -18.7216 -18.7158 -18.7112 -18.7112 -18.7048 -18.7048
   -18.6872 -18.6697 -18.6422 -18.6422 -18.6342 -18.6307 -18.6049 -18.5880
   -18.5690 -18.5690 -18.5630 -18.5630 -18.5595 -18.5524 -18.5524 -18.5496
     4.7364   5.2507   6.3054   6.3621   6.3621   7.2730   8.1766   9.7164
    10.1556  11.1919  11.4163  11.4294  11.4294  11.4859  12.0204  12.0404
    12.0404  12.0829  12.1504  12.1504  12.1549  12.2914  12.2914  12.4563
    12.6990  12.7643  12.7870  12.7937  12.7937  12.8063  13.0992  13.0992
    13.1133  13.2284  13.2284  13.2310  13.2572  13.3045  13.3045  13.3720
    13.4660  13.5176  13.5215  13.5215  13.5760  13.6151  13.6294  13.6935
    13.8296  13.8296  13.8442  13.8715  13.9087  13.9104  13.9377  13.9454
    13.9454  14.0048  14.0476  14.0476  14.1117  14.2033  14.2033  14.2199
    14.3487  14.4600  14.4600  14.4792  14.8636  14.8636  15.0235  15.0235
    15.0672  15.0965  15.0965  15.0981  15.1230  15.2335  15.5300  15.5842
    15.6690  15.7335  15.7335  15.7820  15.9428  15.9428  15.9610  15.9645
    15.9645  15.9678  16.0304  16.0670  16.0670  16.0995  16.1678  16.1808
    16.1809  16.2285  16.2285  16.2429  16.2989  16.3037  16.3037  16.3376
    16.4824  16.5573  16.5931  16.6256  16.6257  16.6930  16.8352  16.8774
    16.9175  16.9178  16.9262  16.9486  16.9488  16.9584  17.0487  17.0826

          k = 0.0000 0.1922 0.1922 ( 48486 PWs)   bands (ev):

   -70.8685 -70.8390 -70.8255 -70.8212 -70.8151 -70.8086 -70.8055 -70.7868
   -70.7843 -70.7843 -70.7843 -70.7839 -70.7838 -70.7831 -70.7830 -70.7830
   -42.4411 -42.4270 -42.4186 -42.4160 -42.4089 -42.4060 -42.4042 -42.3916
   -37.4729 -37.3649 -37.3273 -37.2972 -37.2530 -37.2192 -37.2044 -37.1053
   -37.0922 -37.0894 -37.0624 -37.0612 -37.0595 -37.0459 -37.0431 -37.0426
   -36.8967 -36.8956 -36.8575 -36.8555 -36.8548 -36.8468 -36.8422 -36.8415
   -36.8353 -36.8235 -36.8232 -36.8148 -36.8100 -36.8090 -36.7995 -36.7950
   -36.7940 -36.7874 -36.7867 -36.7835 -36.7725 -36.7674 -36.7607 -36.7492
   -36.7390 -36.7370 -36.7335 -36.7333 -36.7313 -36.7220 -36.7178 -36.7149
   -18.7240 -18.7218 -18.7215 -18.7151 -18.7144 -18.7127 -18.7017 -18.6989
   -18.6942 -18.6562 -18.6559 -18.6481 -18.6272 -18.6198 -18.6185 -18.5803
   -18.5746 -18.5722 -18.5616 -18.5608 -18.5593 -18.5523 -18.5513 -18.5498
     4.5805   5.6838   5.8903   6.3219   6.7213   7.0241   8.1897   9.5561
    10.6838  10.8309  11.2505  11.3582  11.6295  11.8400  11.9192  11.9374
    11.9956  12.0478  12.1481  12.1949  12.3162  12.3274  12.3678  12.5368
    12.5765  12.5951  12.7651  12.8173  12.9351  12.9580  13.0290  13.0783
    13.0784  13.1729  13.1777  13.2484  13.3117  13.3475  13.3822  13.3864
    13.3982  13.5169  13.5272  13.5387  13.6670  13.7151  13.7193  13.7496
    13.7691  13.7754  13.7826  13.7973  13.8268  13.8269  13.8758  13.9083
    13.9322  13.9536  13.9594  13.9964  14.0009  14.0056  14.0823  14.1723
    14.5339  14.5692  14.6424  14.6800  14.6902  14.7299  15.0684  15.0987
    15.0996  15.1099  15.1606  15.1875  15.2616  15.3332  15.3525  15.5733
    15.6240  15.6304  15.6659  15.6699  15.7084  15.8233  15.8415  15.9286
    15.9394  15.9657  15.9696  15.9846  16.0147  16.0526  16.0647  16.1247
    16.2380  16.2519  16.3293  16.3387  16.3526  16.3711  16.3751  16.4271
    16.4855  16.6516  16.6619  16.6890  16.7416  16.8048  16.8279  16.8470
    16.8544  16.8934  16.8962  16.9465  16.9647  16.9795  17.0275  17.1242

          k = 0.0000 0.1922 0.3845 ( 48550 PWs)   bands (ev):

   -70.8678 -70.8385 -70.8295 -70.8228 -70.8140 -70.8079 -70.7989 -70.7907
   -70.7843 -70.7843 -70.7843 -70.7839 -70.7838 -70.7831 -70.7831 -70.7830
   -42.4404 -42.4271 -42.4212 -42.4169 -42.4081 -42.4058 -42.3996 -42.3944
   -37.4477 -37.3975 -37.3389 -37.3100 -37.2419 -37.2148 -37.1659 -37.1212
   -37.0847 -37.0819 -37.0696 -37.0676 -37.0623 -37.0509 -37.0478 -37.0435
   -36.8964 -36.8939 -36.8578 -36.8563 -36.8507 -36.8484 -36.8457 -36.8374
   -36.8340 -36.8313 -36.8248 -36.8147 -36.8103 -36.8041 -36.7965 -36.7954
   -36.7879 -36.7867 -36.7853 -36.7789 -36.7685 -36.7654 -36.7592 -36.7483
   -36.7450 -36.7383 -36.7346 -36.7314 -36.7309 -36.7254 -36.7231 -36.7189
   -18.7242 -18.7216 -18.7193 -18.7131 -18.7126 -18.7099 -18.7069 -18.7033
   -18.6876 -18.6708 -18.6564 -18.6537 -18.6213 -18.6180 -18.6038 -18.5876
   -18.5700 -18.5673 -18.5643 -18.5624 -18.5605 -18.5548 -18.5526 -18.5500
     4.8117   5.2852   5.8545   6.2674   6.8286   7.3571   8.0854   9.7876
    10.2148  10.8839  11.1041  11.2793  11.6961  11.8122  11.9356  12.0157
    12.0459  12.0856  12.0981  12.1629  12.2099  12.2229  12.2858  12.3651
    12.4729  12.4991  12.5726  12.8194  13.0666  13.0881  13.1301  13.1918
    13.2108  13.2425  13.2644  13.2931  13.3174  13.3225  13.4012  13.4047
    13.4562  13.4671  13.4769  13.5436  13.6082  13.6450  13.6829  13.7213
    13.7636  13.7763  13.8021  13.8163  13.8310  13.8760  13.9382  13.9544
    13.9653  13.9748  14.0066  14.0135  14.0450  14.0706  14.1083  14.1641
    14.6058  14.6404  14.6740  14.7013  14.8912  14.9142  15.0093  15.0267
    15.0660  15.1031  15.1221  15.1350  15.2053  15.2101  15.4873  15.5456
    15.5738  15.6336  15.7586  15.8290  15.8529  15.9040  15.9457  15.9659
    15.9979  16.0125  16.0367  16.0811  16.0866  16.1353  16.1605  16.1853
    16.1955  16.1995  16.2204  16.2416  16.2640  16.3115  16.3670  16.3876
    16.4080  16.5281  16.5950  16.6059  16.6513  16.7082  16.7377  16.7774
    16.8103  16.8332  16.8455  16.8683  16.9036  16.9415  17.0007  17.1083

          k = 0.0000 0.3845 0.3845 ( 48478 PWs)   bands (ev):

   -70.8674 -70.8358 -70.8317 -70.8285 -70.8112 -70.8018 -70.7993 -70.7942
   -70.7843 -70.7843 -70.7843 -70.7839 -70.7837 -70.7831 -70.7831 -70.7830
   -42.4400 -42.4254 -42.4227 -42.4206 -42.4061 -42.4018 -42.4001 -42.3967
   -37.4303 -37.3870 -37.3678 -37.3459 -37.2193 -37.1759 -37.1646 -37.1338
   -37.0826 -37.0774 -37.0750 -37.0703 -37.0655 -37.0563 -37.0500 -37.0489
   -36.8956 -36.8920 -36.8534 -36.8525 -36.8481 -36.8470 -36.8449 -36.8424
   -36.8405 -36.8334 -36.8313 -36.8203 -36.8040 -36.8001 -36.7936 -36.7922
   -36.7849 -36.7839 -36.7837 -36.7809 -36.7722 -36.7631 -36.7546 -36.7525
   -36.7458 -36.7439 -36.7394 -36.7299 -36.7274 -36.7252 -36.7230 -36.7193
   -18.7228 -18.7203 -18.7170 -18.7136 -18.7128 -18.7081 -18.7069 -18.7025
   -18.6853 -18.6720 -18.6708 -18.6655 -18.6095 -18.6035 -18.6021 -18.5905
   -18.5698 -18.5668 -18.5659 -18.5629 -18.5591 -18.5587 -18.5535 -18.5520
     5.0202   5.3121   5.4823   6.1200   7.2511   7.4959   7.8466   9.9962
    10.3406  10.4821  10.7332  11.2906  11.8910  11.9412  11.9912  12.0429
    12.0465  12.0584  12.0612  12.1007  12.1023  12.1516  12.1974  12.2826
    12.3399  12.3452  12.3819  12.8440  13.1692  13.2645  13.2739  13.2979
    13.3113  13.3520  13.3528  13.3844  13.4081  13.4350  13.4517  13.4533
    13.4814  13.4828  13.5023  13.5166  13.5771  13.5969  13.6458  13.6619
    13.6760  13.6861  13.6933  13.7514  13.7521  13.7647  13.8125  13.8446
    13.9776  13.9937  14.0195  14.0961  14.1011  14.1064  14.1731  14.1756
    14.8657  14.8741  14.8924  14.9277  14.9297  14.9703  14.9925  15.0233
    15.0576  15.1446  15.1530  15.2054  15.2608  15.3350  15.3499  15.4004
    15.4911  15.5352  15.6316  15.8016  15.8169  15.8912  15.9189  16.0039
    16.0468  16.0742  16.0815  16.0921  16.0973  16.1193  16.1490  16.1541
    16.1737  16.2236  16.2633  16.2683  16.2849  16.3149  16.3225  16.3398
    16.3801  16.4085  16.5316  16.5672  16.6261  16.6530  16.6653  16.7460
    16.7944  16.8164  16.8369  16.8483  16.8573  16.8691  16.9674  17.0370

          k = 0.1922 0.1922 0.1922 ( 48503 PWs)   bands (ev):

   -70.8682 -70.8386 -70.8255 -70.8255 -70.8131 -70.8055 -70.8055 -70.7882
   -70.7843 -70.7843 -70.7843 -70.7838 -70.7838 -70.7831 -70.7830 -70.7830
   -42.4408 -42.4269 -42.4186 -42.4186 -42.4075 -42.4042 -42.4042 -42.3925
   -37.4644 -37.3697 -37.3280 -37.3280 -37.2349 -37.2020 -37.2020 -37.1079
   -37.0894 -37.0894 -37.0652 -37.0621 -37.0621 -37.0463 -37.0460 -37.0460
   -36.8954 -36.8954 -36.8550 -36.8550 -36.8548 -36.8463 -36.8463 -36.8415
   -36.8293 -36.8293 -36.8265 -36.8121 -36.8090 -36.8090 -36.7968 -36.7968
   -36.7914 -36.7895 -36.7862 -36.7862 -36.7645 -36.7645 -36.7574 -36.7510
   -36.7444 -36.7444 -36.7306 -36.7306 -36.7290 -36.7233 -36.7233 -36.7132
   -18.7229 -18.7212 -18.7212 -18.7144 -18.7144 -18.7109 -18.7007 -18.7007
   -18.6952 -18.6589 -18.6589 -18.6581 -18.6170 -18.6170 -18.6153 -18.5798
   -18.5728 -18.5728 -18.5623 -18.5623 -18.5589 -18.5535 -18.5513 -18.5513
     4.6611   5.6909   5.6909   6.2231   7.0202   7.0202   8.1376   9.6308
    10.6616  10.8656  10.8656  11.4217  11.8230  11.8230  11.8872  11.9069
    11.9069  12.1148  12.1167  12.1167  12.3047  12.3216  12.3216  12.4478
    12.4478  12.4635  12.6547  12.8055  13.0702  13.0824  13.0824  13.1126
    13.1126  13.2720  13.2720  13.3115  13.3422  13.3695  13.3695  13.4128
    13.4128  13.5604  13.5689  13.5689  13.6581  13.7033  13.7033  13.7374
    13.7374  13.7380  13.7697  13.7697  13.8227  13.8385  13.8697  13.8697
    13.8981  13.8981  13.8982  13.9800  13.9800  14.0570  14.1422  14.1422
    14.6914  14.7028  14.7028  14.7674  14.7825  14.7825  15.0905  15.0905
    15.1323  15.1781  15.1781  15.1857  15.2391  15.2525  15.2525  15.5866
    15.5866  15.6650  15.6650  15.6901  15.7585  15.7585  15.7670  15.9745
    16.0058  16.0303  16.0303  16.0510  16.0510  16.1046  16.1472  16.1472
    16.2228  16.2346  16.2346  16.2828  16.2828  16.3325  16.3325  16.3415
    16.6152  16.6152  16.6511  16.6558  16.6938  16.7066  16.7066  16.8026
    16.8027  16.9189  16.9225  16.9355  16.9357  16.9782  16.9830  17.0354

          k = 0.1922 0.1922 0.3845 ( 48490 PWs)   bands (ev):

   -70.8676 -70.8376 -70.8303 -70.8255 -70.8125 -70.8055 -70.7992 -70.7919
   -70.7843 -70.7843 -70.7843 -70.7838 -70.7838 -70.7831 -70.7831 -70.7830
   -42.4402 -42.4266 -42.4217 -42.4186 -42.4071 -42.4042 -42.3998 -42.3951
   -37.4418 -37.3940 -37.3497 -37.3292 -37.2282 -37.1979 -37.1645 -37.1226
   -37.0833 -37.0826 -37.0709 -37.0691 -37.0648 -37.0523 -37.0507 -37.0466
   -36.8952 -36.8934 -36.8550 -36.8547 -36.8521 -36.8456 -36.8455 -36.8406
   -36.8339 -36.8322 -36.8234 -36.8188 -36.8114 -36.8063 -36.7971 -36.7907
   -36.7892 -36.7872 -36.7832 -36.7823 -36.7657 -36.7653 -36.7577 -36.7501
   -36.7466 -36.7408 -36.7363 -36.7327 -36.7274 -36.7255 -36.7221 -36.7158
   -18.7227 -18.7212 -18.7179 -18.7122 -18.7120 -18.7090 -18.7053 -18.7048
   -18.6893 -18.6730 -18.6628 -18.6620 -18.6131 -18.6116 -18.6016 -18.5860
   -18.5689 -18.5685 -18.5642 -18.5642 -18.5609 -18.5560 -18.5536 -18.5513
     4.8797   5.3099   5.7025   6.1974   7.0137   7.3922   8.0010   9.8548
    10.2770  10.8214  10.9353  11.2979  11.6729  11.7487  11.9303  12.0157
    12.0324  12.0981  12.1129  12.1433  12.2002  12.2034  12.2361  12.3113
    12.3678  12.3782  12.4608  12.8045  13.1891  13.1895  13.2122  13.2549
    13.2654  13.2943  13.3141  13.3425  13.3460  13.3792  13.4271  13.4361
    13.4861  13.5074  13.5155  13.5700  13.5825  13.6524  13.6649  13.6960
    13.7155  13.7599  13.7712  13.7749  13.7995  13.8180  13.8740  13.9020
    13.9116  13.9383  13.9703  13.9998  14.0296  14.0940  14.1180  14.1611
    14.7505  14.7905  14.8117  14.8595  14.9349  14.9767  15.0437  15.0898
    15.0921  15.1068  15.1523  15.2269  15.2376  15.2645  15.4214  15.5186
    15.5842  15.6371  15.6577  15.7507  15.7874  15.8373  15.8762  15.9003
    16.0182  16.0405  16.0946  16.0959  16.1086  16.1560  16.1638  16.1717
    16.1899  16.2001  16.2242  16.2362  16.3060  16.3093  16.3434  16.3503
    16.4259  16.4382  16.4905  16.5370  16.5999  16.6253  16.6581  16.7253
    16.7383  16.7907  16.8949  16.9071  16.9465  17.0050  17.0081  17.0433

          k = 0.1922 0.3845 0.3845 ( 48499 PWs)   bands (ev):

   -70.8674 -70.8354 -70.8317 -70.8295 -70.8108 -70.8012 -70.7993 -70.7949
   -70.7843 -70.7843 -70.7843 -70.7838 -70.7837 -70.7831 -70.7831 -70.7830
   -42.4399 -42.4251 -42.4227 -42.4213 -42.4058 -42.4013 -42.4000 -42.3972
   -37.4282 -37.3868 -37.3690 -37.3546 -37.2125 -37.1685 -37.1598 -37.1329
   -37.0819 -37.0788 -37.0757 -37.0718 -37.0682 -37.0571 -37.0531 -37.0523
   -36.8940 -36.8917 -36.8524 -36.8497 -36.8490 -36.8474 -36.8446 -36.8417
   -36.8381 -36.8316 -36.8294 -36.8202 -36.8074 -36.8059 -36.7986 -36.7952
   -36.7882 -36.7865 -36.7847 -36.7838 -36.7642 -36.7600 -36.7545 -36.7508
   -36.7490 -36.7443 -36.7429 -36.7364 -36.7222 -36.7208 -36.7196 -36.7156
   -18.7205 -18.7184 -18.7161 -18.7124 -18.7108 -18.7075 -18.7062 -18.7031
   -18.6890 -18.6765 -18.6754 -18.6719 -18.6032 -18.5992 -18.5980 -18.5872
   -18.5693 -18.5671 -18.5666 -18.5645 -18.5605 -18.5594 -18.5553 -18.5540
     5.0652   5.3212   5.4444   6.1079   7.3067   7.4769   7.7853  10.0328
    10.3940  10.5618  10.7544  11.2932  11.6828  11.8214  11.8882  11.9591
    12.0087  12.0773  12.0920  12.1102  12.1289  12.1430  12.1659  12.2269
    12.2785  12.2785  12.3161  12.7940  13.2700  13.3310  13.3430  13.3507
    13.3638  13.3784  13.4132  13.4178  13.4388  13.4523  13.4815  13.4938
    13.5005  13.5098  13.5321  13.5431  13.5915  13.6113  13.6393  13.6424
    13.6507  13.6776  13.7024  13.7086  13.7317  13.7486  13.7945  13.8374
    13.9396  13.9608  13.9677  14.0200  14.0702  14.1087  14.1501  14.1613
    14.9397  14.9761  15.0026  15.0307  15.0376  15.0764  15.0764  15.1145
    15.1829  15.2074  15.2771  15.2915  15.3363  15.3816  15.3911  15.4665
    15.4695  15.5296  15.6147  15.6636  15.7287  15.7551  15.8739  15.9053
    15.9315  15.9411  16.0229  16.0352  16.0833  16.1307  16.1375  16.1436
    16.1695  16.2089  16.2261  16.2449  16.2608  16.2643  16.2968  16.3072
    16.3878  16.3980  16.4474  16.4955  16.5886  16.6985  16.7072  16.7311
    16.7483  16.8317  16.8328  16.8802  16.9221  17.0072  17.0141  17.1054

          k = 0.3845 0.3845 0.3845 ( 48449 PWs)   bands (ev):

   -70.8673 -70.8340 -70.8317 -70.8317 -70.8101 -70.7993 -70.7993 -70.7968
   -70.7843 -70.7843 -70.7843 -70.7837 -70.7837 -70.7831 -70.7831 -70.7831
   -42.4399 -42.4243 -42.4228 -42.4228 -42.4053 -42.4000 -42.4000 -42.3983
   -37.4244 -37.3835 -37.3708 -37.3708 -37.2030 -37.1512 -37.1512 -37.1356
   -37.0804 -37.0804 -37.0784 -37.0737 -37.0737 -37.0586 -37.0586 -37.0585
   -36.8912 -36.8912 -36.8510 -36.8510 -36.8494 -36.8433 -36.8414 -36.8414
   -36.8367 -36.8254 -36.8229 -36.8229 -36.8103 -36.8103 -36.8046 -36.8046
   -36.7974 -36.7902 -36.7874 -36.7874 -36.7550 -36.7550 -36.7549 -36.7510
   -36.7510 -36.7452 -36.7430 -36.7430 -36.7167 -36.7155 -36.7155 -36.7131
   -18.7151 -18.7151 -18.7140 -18.7094 -18.7094 -18.7044 -18.7044 -18.7039
   -18.6942 -18.6845 -18.6837 -18.6837 -18.5920 -18.5913 -18.5913 -18.5832
   -18.5691 -18.5691 -18.5665 -18.5665 -18.5639 -18.5602 -18.5587 -18.5587
     5.1823   5.3361   5.3361   6.0926   7.4463   7.4463   7.6365  10.0871
    10.5401  10.7275  10.7275  11.2783  11.5539  11.5539  11.7012  11.9898
    12.0031  12.0031  12.0631  12.0631  12.0851  12.0851  12.0886  12.1835
    12.2230  12.2230  12.2440  12.7236  13.4029  13.4029  13.4192  13.4400
    13.4400  13.4582  13.4582  13.4593  13.5005  13.5079  13.5079  13.5275
    13.5316  13.5316  13.5765  13.5765  13.5768  13.6018  13.6065  13.6065
    13.6631  13.6655  13.6655  13.7001  13.7001  13.7341  13.7610  13.7610
    13.9322  13.9503  13.9503  14.0178  14.0178  14.1205  14.1205  14.1250
    15.1148  15.1720  15.1720  15.2042  15.2042  15.2414  15.2414  15.2884
    15.3029  15.3029  15.3918  15.4432  15.5007  15.5007  15.5023  15.5460
    15.5460  15.5748  15.5891  15.5891  15.6690  15.6690  15.6919  15.7099
    15.7099  15.7797  15.8176  15.8176  15.9425  16.0622  16.0654  16.0654
    16.1207  16.1207  16.1481  16.1632  16.1632  16.1699  16.2247  16.2247
    16.4203  16.4210  16.4210  16.6579  16.7177  16.7177  16.7628  16.7628
    16.7685  16.7738  16.8067  16.8067  16.8831  16.9343  16.9343  16.9803

     the Fermi energy is    15.1576 ev

!    total energy              =   -6230.61173825 Ry
     estimated scf accuracy    <          2.7E-10 Ry
     smearing contrib. (-TS)   =       0.00057018 Ry
     internal energy E=F+TS    =   -6230.61230843 Ry

     The total energy is F=E-TS. E is the sum of the following terms:
     one-electron contribution =   -2595.21088398 Ry
     hartree contribution      =    1476.05110598 Ry
     xc contribution           =    -706.36563889 Ry
     ewald contribution        =   -3186.61420983 Ry
     one-center paw contrib.   =   -1218.47268171 Ry

     total magnetization       =    19.59 Bohr mag/cell
     absolute magnetization    =    38.74 Bohr mag/cell

     convergence has been achieved in  16 iterations

     negative rho (up, down):  7.302E-03 1.098E-03

     Forces acting on atoms (cartesian axes, Ry/au):

     atom    1 type  1   force =    -0.00114180   -0.00114180    0.00221892
     atom    2 type  1   force =     0.00092228    0.00092228    0.00092228
     atom    3 type  1   force =     0.00114180    0.00221892    0.00114180
     atom    4 type  1   force =    -0.00221892    0.00114180   -0.00114180
     atom    5 type  1   force =    -0.00114180    0.00221892   -0.00114180
     atom    6 type  1   force =     0.00221892   -0.00114180   -0.00114180
     atom    7 type  1   force =     0.00114180   -0.00221892   -0.00114180
     atom    8 type  1   force =    -0.00092228    0.00092228   -0.00092228
     atom    9 type  1   force =     0.00092228   -0.00092228   -0.00092228
     atom   10 type  1   force =     0.00221892    0.00114180    0.00114180
     atom   11 type  1   force =    -0.00221892   -0.00114180    0.00114180
     atom   12 type  1   force =     0.00114180    0.00114180    0.00221892
     atom   13 type  1   force =    -0.00092228   -0.00092228    0.00092228
     atom   14 type  1   force =     0.00114180   -0.00114180   -0.00221892
     atom   15 type  1   force =    -0.00114180   -0.00221892    0.00114180
     atom   16 type  1   force =    -0.00114180    0.00114180   -0.00221892
     atom   17 type  2   force =     0.00000000    0.00000000    0.00000000
     atom   18 type  2   force =    -0.00042907   -0.00042907    0.00042907
     atom   19 type  2   force =     0.00000000    0.00000000    0.00000000
     atom   20 type  2   force =    -0.00042907    0.00042907   -0.00042907
     atom   21 type  2   force =     0.00000000    0.00000000    0.00000000
     atom   22 type  2   force =     0.00042907    0.00042907    0.00042907
     atom   23 type  2   force =     0.00042907   -0.00042907   -0.00042907
     atom   24 type  2   force =     0.00000000    0.00000000    0.00000000
     atom   25 type  3   force =     0.00001827    0.00001827   -0.00001827
     atom   26 type  3   force =     0.00000000    0.00000000    0.00000000
     atom   27 type  3   force =     0.00001827   -0.00001827    0.00001827
     atom   28 type  3   force =     0.00000000    0.00000000    0.00000000
     atom   29 type  3   force =    -0.00001827   -0.00001827   -0.00001827
     atom   30 type  3   force =    -0.00001827    0.00001827    0.00001827
     atom   31 type  3   force =     0.00000000    0.00000000    0.00000000

     Total force =     0.010139     Total SCF correction =     0.000245


     Computing stress (Cartesian axis) and pressure


     negative rho (up, down):  7.302E-03 1.098E-03
          total   stress  (Ry/bohr**3)                   (kbar)     P=       -2.76
  -0.00001875   0.00000000   0.00000000           -2.76        0.00        0.00
   0.00000000  -0.00001875   0.00000000            0.00       -2.76        0.00
   0.00000000   0.00000000  -0.00001875            0.00        0.00       -2.76

     Energy error            =      6.4E-04 Ry
     Gradient error          =      2.2E-03 Ry/Bohr
     Cell gradient error     =      2.8E+00 kbar

     number of scf cycles    =   7
     number of bfgs steps    =   6

     enthalpy           old  =   -6230.6111015959 Ry
     enthalpy           new  =   -6230.6117382504 Ry

     CASE: enthalpy          _new < enthalpy          _old

     new trust radius        =       0.0042992242 bohr
     new conv_thr            =       0.0000000002 Ry

     new unit-cell volume =   2339.32740 a.u.^3 (   346.65256 Ang^3 )
     density =      6.14828 g/cm^3

CELL_PARAMETERS (alat= 12.76591255)
   1.039868616   0.000000000   0.000000000
   0.000000000   1.039868616   0.000000000
   0.000000000   0.000000000   1.039868616

ATOMIC_POSITIONS (crystal)
Fe               0.1262695197        0.1262695197        0.6257802825
Fe               0.6158107561        0.6158107561        0.6158107561
Fe               0.8737304803        0.6257802825        0.8737304803
Fe               0.3742197175        0.8737304803        0.1262695197
Fe               0.1262695197        0.6257802825        0.1262695197
Fe               0.6257802825        0.1262695197        0.1262695197
Fe               0.8737304803        0.3742197175        0.1262695197
Fe               0.3841892439        0.6158107561        0.3841892439
Fe               0.6158107561        0.3841892439        0.3841892439
Fe               0.6257802825        0.8737304803        0.8737304803
Fe               0.3742197175        0.1262695197        0.8737304803
Fe               0.8737304803        0.8737304803        0.6257802825
Fe               0.3841892439        0.3841892439        0.6158107561
Fe               0.8737304803        0.1262695197        0.3742197175
Fe               0.1262695197        0.3742197175        0.8737304803
Fe               0.1262695197        0.8737304803        0.3742197175
Ti               0.0000000000        0.0000000000        0.0000000000
Ti               0.7491367216        0.7491367216        0.2508632784
Ti               0.5000000000        0.0000000000        0.5000000000
Ti               0.7491367216        0.2508632784        0.7491367216
Ti               0.0000000000        0.5000000000        0.5000000000
Ti               0.2508632784        0.2508632784        0.2508632784
Ti               0.2508632784        0.7491367216        0.7491367216
Ti               0.5000000000        0.5000000000        0.0000000000
H                0.2582492636        0.2582492636        0.7417507364
H                0.0000000000        0.5000000000        0.0000000000
H                0.2582492636        0.7417507364        0.2582492636
H                0.5000000000        0.0000000000        0.0000000000
H                0.7417507364        0.7417507364        0.7417507364
H                0.7417507364        0.2582492636        0.2582492636
H                0.0000000000        0.0000000000        0.5000000000



     Writing config-only to output data dir ./TiFe2_cub_8b_8H.save/ :
     XML data file     NEW-OLD atomic charge density approx. for the potential
     New effective cutoffs (rho, wfc): 1605.37  114.66

     negative rho (up, down):  7.309E-03 1.097E-03
     Generating pointlists ...

     total cpu time spent up to now is    58503.6 secs

     per-process dynamical memory:   530.5 Mb

     Self-consistent Calculation

     iteration #  1     ecut=   124.00 Ry     beta= 0.20
     CG style diagonalization
     c_bands:  1 eigenvalues not converged
     ethr =  1.00E-06,  avg # of iterations =  3.8

     Threshold (ethr) on eigenvalues was too large:
     Diagonalizing with lowered threshold

     CG style diagonalization
     c_bands:  3 eigenvalues not converged
     c_bands:  1 eigenvalues not converged
     c_bands:  3 eigenvalues not converged
     c_bands:  5 eigenvalues not converged
     c_bands:  5 eigenvalues not converged
     c_bands:  2 eigenvalues not converged
     c_bands:  3 eigenvalues not converged
     c_bands:  5 eigenvalues not converged
     c_bands:  3 eigenvalues not converged
     c_bands:  3 eigenvalues not converged
     c_bands:  4 eigenvalues not converged
     c_bands:  3 eigenvalues not converged
     c_bands:  5 eigenvalues not converged
     c_bands:  5 eigenvalues not converged
     c_bands:  4 eigenvalues not converged
     ethr =  2.68E-08,  avg # of iterations =  7.9

     negative rho (up, down):  7.310E-03 1.100E-03

     total cpu time spent up to now is    59985.2 secs

     total energy              =   -6230.61181445 Ry
     estimated scf accuracy    <       0.00014161 Ry

     total magnetization       =    19.57 Bohr mag/cell
     absolute magnetization    =    38.70 Bohr mag/cell

     iteration #  2     ecut=   124.00 Ry     beta= 0.20
     CG style diagonalization
     ethr =  3.94E-08,  avg # of iterations =  3.2

     negative rho (up, down):  7.310E-03 1.101E-03

     total cpu time spent up to now is    60284.5 secs

     total energy              =   -6230.61184135 Ry
     estimated scf accuracy    <       0.00005049 Ry

     total magnetization       =    19.57 Bohr mag/cell
     absolute magnetization    =    38.70 Bohr mag/cell

     iteration #  3     ecut=   124.00 Ry     beta= 0.20
     CG style diagonalization
     ethr =  1.41E-08,  avg # of iterations =  3.2

     negative rho (up, down):  7.309E-03 1.104E-03

     total cpu time spent up to now is    60583.7 secs

     total energy              =   -6230.61185286 Ry
     estimated scf accuracy    <       0.00002587 Ry

     total magnetization       =    19.57 Bohr mag/cell
     absolute magnetization    =    38.70 Bohr mag/cell

     iteration #  4     ecut=   124.00 Ry     beta= 0.20
     CG style diagonalization
     ethr =  7.21E-09,  avg # of iterations =  3.9

     negative rho (up, down):  7.307E-03 1.104E-03

     total cpu time spent up to now is    60972.9 secs

     total energy              =   -6230.61186659 Ry
     estimated scf accuracy    <       0.00000598 Ry

     total magnetization       =    19.56 Bohr mag/cell
     absolute magnetization    =    38.68 Bohr mag/cell

     iteration #  5     ecut=   124.00 Ry     beta= 0.20
     CG style diagonalization
     ethr =  1.67E-09,  avg # of iterations =  5.1

     negative rho (up, down):  7.306E-03 1.105E-03

     total cpu time spent up to now is    61522.2 secs

     total energy              =   -6230.61187801 Ry
     estimated scf accuracy    <       0.00000298 Ry

     total magnetization       =    19.56 Bohr mag/cell
     absolute magnetization    =    38.68 Bohr mag/cell

     iteration #  6     ecut=   124.00 Ry     beta= 0.20
     CG style diagonalization
     ethr =  8.30E-10,  avg # of iterations =  3.8

     negative rho (up, down):  7.305E-03 1.105E-03

     total cpu time spent up to now is    61906.8 secs

     total energy              =   -6230.61188156 Ry
     estimated scf accuracy    <       0.00000125 Ry

     total magnetization       =    19.56 Bohr mag/cell
     absolute magnetization    =    38.67 Bohr mag/cell

     iteration #  7     ecut=   124.00 Ry     beta= 0.20
     CG style diagonalization
     ethr =  3.48E-10,  avg # of iterations =  3.9

     negative rho (up, down):  7.302E-03 1.105E-03

     total cpu time spent up to now is    62301.9 secs

     total energy              =   -6230.61188343 Ry
     estimated scf accuracy    <       0.00000251 Ry

     total magnetization       =    19.56 Bohr mag/cell
     absolute magnetization    =    38.67 Bohr mag/cell

     iteration #  8     ecut=   124.00 Ry     beta= 0.20
     CG style diagonalization
     ethr =  3.48E-10,  avg # of iterations =  3.3

     negative rho (up, down):  7.301E-03 1.105E-03

     total cpu time spent up to now is    62622.7 secs

     total energy              =   -6230.61188483 Ry
     estimated scf accuracy    <       0.00000037 Ry

     total magnetization       =    19.56 Bohr mag/cell
     absolute magnetization    =    38.66 Bohr mag/cell

     iteration #  9     ecut=   124.00 Ry     beta= 0.20
     CG style diagonalization
     ethr =  1.03E-10,  avg # of iterations =  3.8

     negative rho (up, down):  7.300E-03 1.106E-03

     total cpu time spent up to now is    62985.7 secs

     total energy              =   -6230.61188563 Ry
     estimated scf accuracy    <       0.00000015 Ry

     total magnetization       =    19.56 Bohr mag/cell
     absolute magnetization    =    38.66 Bohr mag/cell

     iteration # 10     ecut=   124.00 Ry     beta= 0.20
     CG style diagonalization
     ethr =  4.28E-11,  avg # of iterations =  4.0

     negative rho (up, down):  7.298E-03 1.107E-03

     total cpu time spent up to now is    63373.2 secs

     total energy              =   -6230.61188612 Ry
     estimated scf accuracy    <       0.00000005 Ry

     total magnetization       =    19.56 Bohr mag/cell
     absolute magnetization    =    38.66 Bohr mag/cell

     iteration # 11     ecut=   124.00 Ry     beta= 0.20
     CG style diagonalization
     ethr =  1.50E-11,  avg # of iterations =  4.6

     negative rho (up, down):  7.297E-03 1.107E-03

     total cpu time spent up to now is    63833.4 secs

     total energy              =   -6230.61188649 Ry
     estimated scf accuracy    <       0.00000004 Ry

     total magnetization       =    19.56 Bohr mag/cell
     absolute magnetization    =    38.65 Bohr mag/cell

     iteration # 12     ecut=   124.00 Ry     beta= 0.20
     CG style diagonalization
     ethr =  1.24E-11,  avg # of iterations =  3.4

     negative rho (up, down):  7.297E-03 1.107E-03

     total cpu time spent up to now is    64139.5 secs

     total energy              =   -6230.61188669 Ry
     estimated scf accuracy    <          8.6E-09 Ry

     total magnetization       =    19.56 Bohr mag/cell
     absolute magnetization    =    38.65 Bohr mag/cell

     iteration # 13     ecut=   124.00 Ry     beta= 0.20
     CG style diagonalization
     ethr =  2.38E-12,  avg # of iterations =  4.8

     negative rho (up, down):  7.297E-03 1.107E-03

     total cpu time spent up to now is    64613.5 secs

     total energy              =   -6230.61188681 Ry
     estimated scf accuracy    <          3.3E-09 Ry

     total magnetization       =    19.56 Bohr mag/cell
     absolute magnetization    =    38.65 Bohr mag/cell

     iteration # 14     ecut=   124.00 Ry     beta= 0.20
     CG style diagonalization
     ethr =  9.22E-13,  avg # of iterations =  4.4

     negative rho (up, down):  7.297E-03 1.107E-03

     total cpu time spent up to now is    65039.0 secs

     total energy              =   -6230.61188688 Ry
     estimated scf accuracy    <          1.0E-09 Ry

     total magnetization       =    19.56 Bohr mag/cell
     absolute magnetization    =    38.65 Bohr mag/cell

     iteration # 15     ecut=   124.00 Ry     beta= 0.20
     CG style diagonalization
     ethr =  2.84E-13,  avg # of iterations =  4.6

     negative rho (up, down):  7.296E-03 1.107E-03

     Magnetic moment per site  (integrated on atomic sphere of radius R)
     atom   1 (R=0.089)  charge= 11.1817  magn=  1.3865
     atom   2 (R=0.089)  charge= 11.1730  magn=  1.3757
     atom   3 (R=0.089)  charge= 11.1817  magn=  1.3865
     atom   4 (R=0.089)  charge= 11.1817  magn=  1.3865
     atom   5 (R=0.089)  charge= 11.1817  magn=  1.3865
     atom   6 (R=0.089)  charge= 11.1817  magn=  1.3865
     atom   7 (R=0.089)  charge= 11.1817  magn=  1.3865
     atom   8 (R=0.089)  charge= 11.1730  magn=  1.3757
     atom   9 (R=0.089)  charge= 11.1730  magn=  1.3757
     atom  10 (R=0.089)  charge= 11.1817  magn=  1.3865
     atom  11 (R=0.089)  charge= 11.1817  magn=  1.3865
     atom  12 (R=0.089)  charge= 11.1817  magn=  1.3865
     atom  13 (R=0.089)  charge= 11.1730  magn=  1.3757
     atom  14 (R=0.089)  charge= 11.1817  magn=  1.3865
     atom  15 (R=0.089)  charge= 11.1817  magn=  1.3865
     atom  16 (R=0.089)  charge= 11.1817  magn=  1.3865
     atom  17 (R=0.171)  charge= 10.1905  magn= -0.7857
     atom  18 (R=0.171)  charge= 10.1989  magn= -0.8174
     atom  19 (R=0.171)  charge= 10.1971  magn= -0.8391
     atom  20 (R=0.171)  charge= 10.1989  magn= -0.8174
     atom  21 (R=0.171)  charge= 10.1971  magn= -0.8391
     atom  22 (R=0.171)  charge= 10.1989  magn= -0.8174
     atom  23 (R=0.171)  charge= 10.1989  magn= -0.8174
     atom  24 (R=0.171)  charge= 10.1971  magn= -0.8391
     atom  25 (R=0.089)  charge=  0.9820  magn= -0.0056
     atom  26 (R=0.089)  charge=  0.9913  magn= -0.0057
     atom  27 (R=0.089)  charge=  0.9820  magn= -0.0056
     atom  28 (R=0.089)  charge=  0.9913  magn= -0.0057
     atom  29 (R=0.089)  charge=  0.9820  magn= -0.0056
     atom  30 (R=0.089)  charge=  0.9820  magn= -0.0056
     atom  31 (R=0.089)  charge=  0.9913  magn= -0.0057

     total cpu time spent up to now is    65491.1 secs

     End of self-consistent calculation

 ------ SPIN UP ------------


          k = 0.0000 0.0000 0.0000 ( 48489 PWs)   bands (ev):

   -72.9272 -72.9069 -72.8871 -72.8871 -72.8868 -72.8868 -72.8868 -72.8581
   -72.8581 -72.8581 -72.8579 -72.8579 -72.8579 -72.8439 -72.8439 -72.8439
   -41.6753 -41.6315 -41.6204 -41.6204 -41.6204 -41.6046 -41.6046 -41.5903
   -39.3950 -39.2565 -39.1918 -39.1918 -39.1882 -39.1882 -39.1882 -39.0613
   -39.0613 -39.0613 -38.9998 -38.9998 -38.9998 -38.9993 -38.9993 -38.9993
   -38.9409 -38.9409 -38.9123 -38.9123 -38.9100 -38.8975 -38.8975 -38.8975
   -38.8828 -38.8828 -38.8828 -38.8739 -38.8739 -38.8739 -38.8658 -38.8658
   -38.8462 -38.8450 -38.8450 -38.8450 -38.8158 -38.8158 -38.8158 -38.7911
   -38.7911 -38.7911 -38.7827 -38.7827 -38.7827 -38.7770 -38.7770 -38.7770
   -17.9389 -17.9389 -17.9389 -17.9119 -17.9119 -17.9119 -17.9025 -17.9025
   -17.9025 -17.8438 -17.8438 -17.8426 -17.8426 -17.8426 -17.8377 -17.7795
   -17.7795 -17.7795 -17.7680 -17.7680 -17.7680 -17.7469 -17.7469 -17.7469
     4.1011   5.9731   5.9731   6.0283   6.0283   6.0283   8.0144   9.1958
    10.8662  10.8662  10.8662  10.9565  11.1155  11.1155  11.1244  11.1244
    11.1244  11.6859  11.7230  11.7230  11.7230  11.8458  11.8606  11.8606
    11.8606  11.8627  11.8627  11.8627  11.8958  11.8958  11.9203  11.9203
    11.9203  12.1228  12.1228  12.3310  12.3310  12.3310  12.4320  12.4320
    12.4320  12.4487  12.4487  12.4487  12.4749  12.4749  12.5167  12.8971
    12.8971  12.9740  12.9740  12.9740  12.9748  12.9748  12.9748  12.9944
    13.0708  13.0708  13.0708  13.0780  13.0780  13.0780  13.1843  13.1843
    13.1843  13.6413  13.6413  13.6413  13.7194  13.7194  13.7194  13.7229
    13.7229  13.7229  13.8614  13.8614  13.8754  13.8754  13.9036  13.9036
    13.9036  13.9249  13.9451  13.9451  13.9451  14.4993  14.4993  14.7140
    14.7140  14.7140  14.9331  14.9916  14.9916  14.9916  15.0720  15.0720
    15.3214  15.3214  15.3214  16.1597  16.1597  16.1597  16.1614  16.1614
    16.1614  16.2078  16.2078  16.2078  16.5190  16.5190  16.5190  16.5832
    16.5832  16.5832  16.6856  16.6856  16.7404  16.7670  16.7670  16.7670

          k = 0.0000 0.0000 0.1923 ( 48469 PWs)   bands (ev):

   -72.9263 -72.9075 -72.8943 -72.8871 -72.8868 -72.8868 -72.8784 -72.8591
   -72.8581 -72.8581 -72.8581 -72.8579 -72.8579 -72.8441 -72.8439 -72.8439
   -41.6752 -41.6312 -41.6218 -41.6204 -41.6204 -41.6046 -41.6026 -41.5912
   -39.3855 -39.2718 -39.2263 -39.1912 -39.1876 -39.1876 -39.1435 -39.0646
   -39.0570 -39.0570 -39.0072 -39.0072 -39.0022 -39.0021 -39.0021 -39.0011
   -38.9410 -38.9390 -38.9143 -38.9130 -38.9105 -38.9003 -38.9003 -38.8946
   -38.8821 -38.8797 -38.8775 -38.8775 -38.8694 -38.8683 -38.8683 -38.8565
   -38.8469 -38.8418 -38.8418 -38.8309 -38.8195 -38.8170 -38.8170 -38.7943
   -38.7926 -38.7926 -38.7868 -38.7849 -38.7849 -38.7793 -38.7782 -38.7782
   -17.9392 -17.9382 -17.9382 -17.9123 -17.9123 -17.9122 -17.9033 -17.9033
   -17.9004 -17.8575 -17.8435 -17.8426 -17.8426 -17.8394 -17.8269 -17.7815
   -17.7787 -17.7787 -17.7684 -17.7672 -17.7672 -17.7481 -17.7481 -17.7468
     4.1865   5.4199   5.9756   6.0308   6.0308   6.5719   7.9960   9.2871
    10.5883  10.7867  10.9172  10.9172  11.0989  11.1573  11.1591  11.1591
    11.2619  11.5823  11.5823  11.5949  11.6877  11.6966  11.6966  11.7122
    11.7354  11.8754  11.9508  11.9519  11.9519  11.9841  11.9841  12.0088
    12.0809  12.1309  12.1612  12.2148  12.2636  12.2636  12.2824  12.3917
    12.3917  12.4425  12.4758  12.4893  12.5171  12.5171  12.7191  12.7982
    12.8471  12.8471  12.8586  12.9233  12.9233  12.9288  12.9782  13.0837
    13.0900  13.0900  13.1967  13.2435  13.2597  13.2597  13.2984  13.3335
    13.3335  13.6132  13.6132  13.6213  13.6541  13.6744  13.6744  13.6765
    13.7362  13.7867  13.7971  13.7971  13.8450  13.8481  13.8481  13.8668
    13.9730  14.0184  14.0299  14.0299  14.0756  14.5055  14.6231  14.6231
    14.6371  14.6723  14.7961  14.9346  14.9346  14.9441  15.0197  15.1733
    15.4039  15.4723  15.4723  16.1024  16.1024  16.1387  16.1455  16.1472
    16.1472  16.1802  16.1802  16.2581  16.3217  16.3672  16.3832  16.3832
    16.4428  16.4876  16.4876  16.8357  16.8777  16.8782  16.8835  17.4097

          k = 0.0000 0.0000 0.3847 ( 48538 PWs)   bands (ev):

   -72.9244 -72.9093 -72.8983 -72.8871 -72.8868 -72.8868 -72.8710 -72.8623
   -72.8581 -72.8581 -72.8581 -72.8579 -72.8579 -72.8443 -72.8439 -72.8439
   -41.6752 -41.6305 -41.6240 -41.6204 -41.6204 -41.6046 -41.5989 -41.5934
   -39.3591 -39.3136 -39.2345 -39.1903 -39.1867 -39.1867 -39.1082 -39.0745
   -39.0459 -39.0459 -39.0232 -39.0232 -39.0067 -39.0062 -39.0062 -39.0031
   -38.9411 -38.9357 -38.9184 -38.9148 -38.9051 -38.9025 -38.9025 -38.8938
   -38.8934 -38.8737 -38.8737 -38.8726 -38.8696 -38.8566 -38.8566 -38.8482
   -38.8411 -38.8353 -38.8353 -38.8230 -38.8203 -38.8203 -38.8149 -38.8027
   -38.7959 -38.7946 -38.7946 -38.7903 -38.7903 -38.7839 -38.7794 -38.7794
   -17.9395 -17.9370 -17.9370 -17.9130 -17.9130 -17.9127 -17.9047 -17.9047
   -17.8958 -17.8688 -17.8431 -17.8424 -17.8424 -17.8388 -17.8155 -17.7861
   -17.7776 -17.7776 -17.7689 -17.7653 -17.7653 -17.7505 -17.7505 -17.7467
     4.4174   4.9277   5.9795   6.0348   6.0348   6.9838   7.9415   9.5639
    10.0290  10.6768  11.0661  11.0661  11.1960  11.2332  11.2332  11.2525
    11.2542  11.3062  11.3062  11.4573  11.5808  11.5808  11.6139  11.6691
    11.6828  11.7694  11.9674  12.0361  12.0426  12.0426  12.0918  12.0918
    12.1242  12.1242  12.1273  12.1275  12.1454  12.1548  12.2871  12.3026
    12.3026  12.3649  12.3649  12.4165  12.4653  12.4963  12.7937  12.8731
    12.9456  12.9456  12.9688  12.9761  13.0685  13.0685  13.0732  13.1504
    13.1504  13.2105  13.3021  13.3891  13.4068  13.4068  13.4320  13.4405
    13.4453  13.4453  13.5002  13.5002  13.5364  13.5590  13.5590  13.5749
    13.5774  13.6274  13.6389  13.6389  13.8296  13.8474  14.1237  14.1237
    14.1867  14.2212  14.2212  14.2258  14.2932  14.4224  14.4224  14.4361
    14.6187  14.6427  14.7730  14.7917  14.7917  14.8659  14.9857  15.1856
    15.6443  15.7526  15.7526  15.9713  15.9713  15.9899  16.1098  16.1119
    16.1119  16.1153  16.1508  16.1508  16.1949  16.2068  16.2273  16.2273
    16.3223  16.3223  16.4744  16.8728  17.0557  17.0558  17.0701  17.0837

          k = 0.0000 0.1923 0.1923 ( 48486 PWs)   bands (ev):

   -72.9255 -72.9077 -72.8964 -72.8923 -72.8862 -72.8804 -72.8774 -72.8603
   -72.8581 -72.8581 -72.8581 -72.8579 -72.8579 -72.8441 -72.8440 -72.8439
   -41.6752 -41.6308 -41.6229 -41.6211 -41.6199 -41.6034 -41.6020 -41.5920
   -39.3766 -39.2768 -39.2462 -39.2189 -39.1795 -39.1500 -39.1377 -39.0644
   -39.0564 -39.0532 -39.0100 -39.0096 -39.0094 -39.0079 -39.0053 -39.0027
   -38.9401 -38.9377 -38.9150 -38.9124 -38.9105 -38.9022 -38.8978 -38.8966
   -38.8888 -38.8771 -38.8765 -38.8701 -38.8670 -38.8664 -38.8607 -38.8581
   -38.8476 -38.8386 -38.8362 -38.8252 -38.8251 -38.8174 -38.8149 -38.7978
   -38.7941 -38.7922 -38.7917 -38.7868 -38.7849 -38.7813 -38.7798 -38.7779
   -17.9393 -17.9375 -17.9374 -17.9145 -17.9127 -17.9098 -17.9045 -17.9025
   -17.8999 -17.8585 -17.8576 -17.8503 -17.8335 -17.8260 -17.8259 -17.7833
   -17.7779 -17.7776 -17.7693 -17.7675 -17.7657 -17.7496 -17.7486 -17.7473
     4.2681   5.3514   5.5594   5.9956   6.4106   6.7229   7.9546   9.3789
    10.5831  10.7091  10.8086  10.9583  10.9610  11.1577  11.1865  11.2499
    11.2951  11.4829  11.5248  11.5590  11.5833  11.6142  11.6197  11.6654
    11.7408  11.7806  11.8591  11.9137  11.9915  11.9921  12.0777  12.1032
    12.1036  12.1140  12.1606  12.1931  12.2588  12.3240  12.3414  12.3649
    12.4138  12.4557  12.4669  12.4906  12.5318  12.6410  12.6718  12.7469
    12.7759  12.7860  12.8291  12.8783  12.9315  12.9425  13.0297  13.0905
    13.1506  13.1558  13.2348  13.3031  13.3188  13.3338  13.3548  13.4271
    13.4432  13.5152  13.5543  13.5652  13.5880  13.6469  13.6575  13.6747
    13.7532  13.7699  13.7764  13.8107  13.8123  13.8624  13.8982  13.9023
    13.9391  14.0033  14.1336  14.2274  14.2681  14.2933  14.5314  14.6176
    14.6530  14.6725  14.7513  14.8173  14.9644  15.1029  15.1192  15.2095
    15.3824  15.5814  15.5993  15.9943  16.0715  16.0801  16.0879  16.1083
    16.1216  16.1403  16.1557  16.2164  16.2734  16.3330  16.3660  16.3849
    16.4096  16.4884  16.5344  16.5699  16.6137  17.0603  17.0995  17.2274

          k = 0.0000 0.1923 0.3847 ( 48550 PWs)   bands (ev):

   -72.9240 -72.9084 -72.9000 -72.8938 -72.8852 -72.8798 -72.8714 -72.8635
   -72.8581 -72.8581 -72.8581 -72.8579 -72.8579 -72.8443 -72.8440 -72.8439
   -41.6752 -41.6299 -41.6249 -41.6218 -41.6195 -41.6030 -41.5989 -41.5941
   -39.3523 -39.3088 -39.2557 -39.2306 -39.1693 -39.1445 -39.1068 -39.0734
   -39.0464 -39.0433 -39.0254 -39.0224 -39.0149 -39.0120 -39.0078 -39.0062
   -38.9398 -38.9343 -38.9168 -38.9134 -38.9071 -38.9040 -38.9008 -38.8959
   -38.8892 -38.8809 -38.8741 -38.8671 -38.8644 -38.8560 -38.8539 -38.8502
   -38.8422 -38.8370 -38.8342 -38.8284 -38.8212 -38.8189 -38.8099 -38.8030
   -38.7964 -38.7951 -38.7938 -38.7920 -38.7889 -38.7828 -38.7815 -38.7802
   -17.9394 -17.9363 -17.9358 -17.9158 -17.9131 -17.9092 -17.9054 -17.9035
   -17.8955 -17.8702 -17.8590 -17.8556 -17.8281 -17.8245 -17.8139 -17.7878
   -17.7765 -17.7762 -17.7701 -17.7668 -17.7632 -17.7526 -17.7506 -17.7476
     4.4897   4.9579   5.5179   5.9407   6.5214   7.0739   7.8450   9.6539
    10.1095  10.6718  10.9029  11.0886  11.0944  11.1313  11.2260  11.2538
    11.2711  11.3077  11.3139  11.3658  11.4347  11.5076  11.6105  11.6555
    11.6950  11.7734  11.7761  11.8466  12.0638  12.0786  12.1149  12.1504
    12.1549  12.1750  12.1891  12.2021  12.2283  12.2604  12.2812  12.3283
    12.3503  12.3585  12.3688  12.5556  12.5607  12.5929  12.7118  12.7549
    12.7798  12.7846  12.8673  12.9608  13.0956  13.1397  13.1621  13.2047
    13.2248  13.2455  13.2590  13.2750  13.3087  13.3450  13.3950  13.4349
    13.4495  13.4735  13.5025  13.5167  13.5325  13.5596  13.5943  13.6353
    13.6636  13.6765  13.7181  13.7488  13.8426  13.8721  14.0019  14.0408
    14.0986  14.1361  14.1805  14.3397  14.3726  14.4723  14.4957  14.5563
    14.5710  14.6001  14.6440  14.7555  15.0566  15.0946  15.1685  15.2335
    15.6506  15.7946  15.8175  15.9363  15.9621  15.9764  16.0286  16.0389
    16.0494  16.0627  16.0934  16.1034  16.1331  16.1848  16.1992  16.2487
    16.2917  16.3646  16.6092  16.7994  16.8472  17.0093  17.0499  17.1134

          k = 0.0000 0.3847 0.3847 ( 48478 PWs)   bands (ev):

   -72.9232 -72.9061 -72.9023 -72.8993 -72.8829 -72.8740 -72.8714 -72.8667
   -72.8581 -72.8581 -72.8581 -72.8579 -72.8578 -72.8442 -72.8441 -72.8440
   -41.6752 -41.6283 -41.6260 -41.6244 -41.6184 -41.6003 -41.5987 -41.5960
   -39.3348 -39.2996 -39.2837 -39.2633 -39.1497 -39.1103 -39.1026 -39.0774
   -39.0434 -39.0376 -39.0291 -39.0283 -39.0229 -39.0205 -39.0149 -39.0116
   -38.9388 -38.9304 -38.9132 -38.9099 -38.9071 -38.9047 -38.9040 -38.8931
   -38.8919 -38.8819 -38.8771 -38.8735 -38.8565 -38.8551 -38.8504 -38.8483
   -38.8385 -38.8384 -38.8352 -38.8243 -38.8210 -38.8189 -38.8108 -38.8078
   -38.7968 -38.7958 -38.7930 -38.7925 -38.7905 -38.7842 -38.7813 -38.7791
   -17.9387 -17.9347 -17.9346 -17.9182 -17.9134 -17.9066 -17.9064 -17.9009
   -17.8927 -17.8722 -17.8721 -17.8661 -17.8189 -17.8118 -17.8104 -17.7930
   -17.7742 -17.7737 -17.7716 -17.7699 -17.7590 -17.7566 -17.7512 -17.7500
     4.6905   4.9773   5.1448   5.7975   6.9646   7.2233   7.5929   9.9153
    10.2922  10.4169  10.6942  10.8111  11.1600  11.2011  11.2128  11.2210
    11.2513  11.2856  11.2950  11.2987  11.3735  11.4417  11.4430  11.6001
    11.6601  11.6812  11.7076  11.7615  12.0954  12.1416  12.1587  12.1833
    12.2015  12.2278  12.2428  12.2813  12.2862  12.3258  12.3641  12.4364
    12.4420  12.4839  12.5046  12.5212  12.5378  12.5941  12.5955  12.6636
    12.6819  12.7191  12.8552  12.9069  12.9732  13.0014  13.1012  13.1096
    13.1433  13.1861  13.2663  13.2791  13.3106  13.3453  13.3508  13.3979
    13.4700  13.4946  13.5421  13.6249  13.6596  13.6739  13.6889  13.6962
    13.7346  13.7795  13.8100  13.8190  13.8803  13.8876  13.9270  14.0745
    14.0907  14.1260  14.1934  14.3135  14.3772  14.3927  14.4411  14.4737
    14.5074  14.6240  14.6587  14.7190  15.3682  15.4032  15.5107  15.5791
    15.6974  15.8763  15.9075  15.9203  15.9400  15.9458  15.9545  15.9701
    15.9784  15.9912  16.0008  16.0213  16.0494  16.1222  16.1351  16.1479
    16.2776  16.4137  16.4292  16.7002  16.8482  16.9422  17.0927  17.1863

          k = 0.1923 0.1923 0.1923 ( 48503 PWs)   bands (ev):

   -72.9248 -72.9077 -72.8964 -72.8964 -72.8845 -72.8774 -72.8774 -72.8614
   -72.8581 -72.8581 -72.8581 -72.8579 -72.8579 -72.8442 -72.8440 -72.8440
   -41.6752 -41.6304 -41.6229 -41.6229 -41.6192 -41.6019 -41.6019 -41.5927
   -39.3686 -39.2813 -39.2471 -39.2471 -39.1637 -39.1344 -39.1344 -39.0639
   -39.0529 -39.0529 -39.0137 -39.0126 -39.0126 -39.0120 -39.0075 -39.0075
   -38.9376 -38.9376 -38.9147 -38.9099 -38.9099 -38.9007 -38.9006 -38.9006
   -38.8809 -38.8809 -38.8790 -38.8689 -38.8689 -38.8635 -38.8556 -38.8556
   -38.8523 -38.8328 -38.8328 -38.8264 -38.8205 -38.8178 -38.8178 -38.7980
   -38.7980 -38.7959 -38.7898 -38.7882 -38.7882 -38.7804 -38.7804 -38.7770
   -17.9387 -17.9368 -17.9368 -17.9141 -17.9141 -17.9078 -17.9035 -17.9035
   -17.9004 -17.8611 -17.8611 -17.8594 -17.8236 -17.8236 -17.8231 -17.7833
   -17.7776 -17.7776 -17.7684 -17.7684 -17.7655 -17.7507 -17.7488 -17.7488
     4.3452   5.3553   5.3553   5.8984   6.7222   6.7222   7.9022   9.4710
    10.5757  10.7764  10.7764  10.8463  11.0020  11.0020  11.2347  11.2767
    11.2767  11.3944  11.5205  11.5205  11.5680  11.6037  11.6037  11.6319
    11.6319  11.6460  11.6876  11.8421  12.0171  12.0171  12.1372  12.1372
    12.1495  12.2022  12.2022  12.2739  12.2739  12.3182  12.3241  12.4290
    12.4290  12.4338  12.4884  12.4884  12.6210  12.6539  12.6539  12.6761
    12.6761  12.7419  12.9004  12.9004  12.9751  12.9751  12.9889  13.0766
    13.0993  13.1191  13.1191  13.3671  13.3671  13.3738  13.4281  13.4281
    13.4662  13.4662  13.5048  13.5305  13.5509  13.5509  13.7182  13.7182
    13.7381  13.8470  13.8647  13.8647  13.8875  13.8875  13.8903  13.9276
    13.9276  13.9497  14.2626  14.2626  14.3319  14.3591  14.3591  14.5441
    14.6315  14.6676  14.6676  15.0577  15.0577  15.2132  15.2604  15.2604
    15.3180  15.6504  15.6504  15.9329  15.9329  15.9753  16.0781  16.0826
    16.0826  16.1206  16.1206  16.2621  16.2621  16.3546  16.3594  16.3886
    16.3886  16.4262  16.4594  16.5172  16.5172  17.1642  17.1643  17.2102

          k = 0.1923 0.1923 0.3847 ( 48490 PWs)   bands (ev):

   -72.9237 -72.9077 -72.9008 -72.8964 -72.8840 -72.8774 -72.8716 -72.8645
   -72.8581 -72.8581 -72.8581 -72.8579 -72.8578 -72.8443 -72.8440 -72.8440
   -41.6752 -41.6294 -41.6253 -41.6229 -41.6189 -41.6019 -41.5989 -41.5947
   -39.3467 -39.3058 -39.2661 -39.2485 -39.1567 -39.1289 -39.1038 -39.0718
   -39.0445 -39.0440 -39.0255 -39.0245 -39.0195 -39.0166 -39.0110 -39.0100
   -38.9375 -38.9335 -38.9152 -38.9105 -38.9083 -38.9021 -38.8985 -38.8980
   -38.8881 -38.8813 -38.8760 -38.8706 -38.8657 -38.8586 -38.8513 -38.8484
   -38.8480 -38.8344 -38.8340 -38.8281 -38.8274 -38.8143 -38.8094 -38.8015
   -38.8007 -38.7962 -38.7903 -38.7903 -38.7891 -38.7826 -38.7811 -38.7783
   -17.9385 -17.9358 -17.9350 -17.9151 -17.9141 -17.9070 -17.9045 -17.9038
   -17.8965 -17.8725 -17.8649 -17.8637 -17.8201 -17.8192 -17.8116 -17.7871
   -17.7776 -17.7749 -17.7707 -17.7658 -17.7643 -17.7534 -17.7518 -17.7489
     4.5543   4.9782   5.3618   5.8696   6.7210   7.1171   7.7612   9.7431
    10.1899  10.6745  10.9488  10.9562  11.1111  11.1305  11.1912  11.2256
    11.2338  11.2587  11.3295  11.3311  11.3702  11.4298  11.5631  11.5979
    11.6423  11.6612  11.6692  11.7596  12.0984  12.1085  12.1761  12.1889
    12.1911  12.2231  12.2328  12.2616  12.2699  12.2803  12.3169  12.3542
    12.3929  12.4272  12.4573  12.5674  12.6079  12.6415  12.6459  12.6797
    12.7193  12.8166  12.8956  12.8975  12.9501  13.0220  13.0954  13.1173
    13.1653  13.1886  13.2220  13.2541  13.2708  13.2789  13.3325  13.3817
    13.4362  13.4448  13.5484  13.5905  13.5966  13.6293  13.7003  13.7044
    13.7632  13.7742  13.8074  13.8105  13.8463  13.8802  13.9309  14.0039
    14.0384  14.0559  14.1920  14.2974  14.4276  14.4456  14.5661  14.6113
    14.6601  14.6602  14.7062  14.9912  15.1980  15.2689  15.2875  15.3132
    15.6440  15.7445  15.8360  15.8401  15.9136  15.9356  15.9533  15.9736
    15.9935  16.0469  16.0719  16.1269  16.1578  16.1695  16.1999  16.2744
    16.3021  16.3538  16.6090  16.6567  16.6682  16.9473  17.0132  17.0195

          k = 0.1923 0.3847 0.3847 ( 48499 PWs)   bands (ev):

   -72.9231 -72.9057 -72.9023 -72.9002 -72.8826 -72.8733 -72.8715 -72.8674
   -72.8581 -72.8581 -72.8581 -72.8579 -72.8578 -72.8442 -72.8441 -72.8440
   -41.6752 -41.6281 -41.6260 -41.6249 -41.6182 -41.5998 -41.5987 -41.5963
   -39.3327 -39.3000 -39.2850 -39.2717 -39.1425 -39.1024 -39.0966 -39.0744
   -39.0424 -39.0388 -39.0299 -39.0297 -39.0254 -39.0237 -39.0186 -39.0159
   -38.9353 -38.9300 -38.9121 -38.9065 -38.9058 -38.9032 -38.9023 -38.8930
   -38.8903 -38.8816 -38.8777 -38.8749 -38.8636 -38.8600 -38.8539 -38.8521
   -38.8453 -38.8422 -38.8334 -38.8321 -38.8226 -38.8151 -38.8065 -38.8052
   -38.7991 -38.7953 -38.7895 -38.7878 -38.7875 -38.7811 -38.7802 -38.7782
   -17.9369 -17.9340 -17.9340 -17.9164 -17.9135 -17.9052 -17.9049 -17.9011
   -17.8954 -17.8763 -17.8762 -17.8725 -17.8130 -17.8084 -17.8073 -17.7900
   -17.7752 -17.7746 -17.7702 -17.7691 -17.7612 -17.7568 -17.7528 -17.7519
     4.7319   4.9822   5.1026   5.7809   7.0365   7.2157   7.5408   9.9951
    10.3564  10.5089  10.7359  10.8844  11.1411  11.1636  11.1764  11.1994
    11.2146  11.2291  11.2752  11.3032  11.3389  11.3898  11.4253  11.5127
    11.5331  11.5448  11.5959  11.6885  12.1269  12.1764  12.1804  12.2140
    12.2330  12.2680  12.2836  12.3287  12.3604  12.3642  12.3875  12.4316
    12.4766  12.5092  12.5326  12.5850  12.5924  12.5993  12.6459  12.7028
    12.7040  12.7290  12.7605  12.8389  12.8722  12.9044  12.9431  13.0297
    13.0432  13.0845  13.1640  13.1825  13.1877  13.2499  13.2545  13.3239
    13.5627  13.6057  13.6180  13.6669  13.6840  13.6868  13.7571  13.7616
    13.8000  13.8163  13.8205  13.8645  13.8833  13.9007  13.9212  13.9668
    14.0318  14.0703  14.1113  14.1584  14.5200  14.5457  14.5837  14.6667
    14.7374  14.8732  14.8976  15.0363  15.4654  15.4852  15.5717  15.6410
    15.6655  15.7924  15.7977  15.8265  15.8291  15.8560  15.8770  15.8991
    15.9072  16.0259  16.0318  16.0659  16.1136  16.1147  16.1653  16.1713
    16.2593  16.3771  16.3801  16.5899  16.6957  16.7541  16.8257  16.8914

          k = 0.3847 0.3847 0.3847 ( 48449 PWs)   bands (ev):

   -72.9229 -72.9045 -72.9023 -72.9023 -72.8821 -72.8715 -72.8715 -72.8691
   -72.8581 -72.8581 -72.8581 -72.8578 -72.8578 -72.8441 -72.8441 -72.8441
   -41.6752 -41.6273 -41.6261 -41.6261 -41.6180 -41.5986 -41.5986 -41.5973
   -39.3284 -39.2983 -39.2872 -39.2872 -39.1319 -39.0851 -39.0851 -39.0719
   -39.0396 -39.0396 -39.0337 -39.0308 -39.0302 -39.0302 -39.0255 -39.0255
   -38.9293 -38.9293 -38.9097 -38.9064 -38.9064 -38.9026 -38.8924 -38.8924
   -38.8823 -38.8803 -38.8774 -38.8774 -38.8691 -38.8691 -38.8584 -38.8584
   -38.8531 -38.8494 -38.8453 -38.8453 -38.8139 -38.8139 -38.8026 -38.8018
   -38.8018 -38.7884 -38.7853 -38.7853 -38.7835 -38.7782 -38.7782 -38.7767
   -17.9337 -17.9328 -17.9328 -17.9137 -17.9137 -17.9019 -17.9019 -17.9008
   -17.8978 -17.8836 -17.8836 -17.8836 -17.8035 -17.8027 -17.8027 -17.7871
   -17.7754 -17.7754 -17.7671 -17.7671 -17.7662 -17.7574 -17.7561 -17.7561
     4.8409   4.9903   4.9903   5.7590   7.2035   7.2035   7.4036  10.1865
    10.5023  10.7559  10.7559  10.9094  11.0789  11.0984  11.0984  11.1359
    11.1530  11.1530  11.2573  11.2664  11.2664  11.3688  11.3688  11.4001
    11.4031  11.4031  11.4068  11.5359  12.2034  12.2034  12.2571  12.2571
    12.2624  12.3304  12.3304  12.3347  12.4105  12.4717  12.4717  12.5554
    12.5554  12.5735  12.5735  12.5985  12.6425  12.6620  12.6620  12.6692
    12.7038  12.7038  12.7381  12.7893  12.7893  12.7948  12.7948  12.8322
    12.9296  12.9296  13.0421  13.0682  13.0843  13.0843  13.1361  13.1361
    13.6688  13.6688  13.7212  13.7212  13.7218  13.7258  13.7849  13.7849
    13.8334  13.8425  13.8425  13.8700  13.9423  13.9518  13.9518  13.9816
    13.9816  13.9907  14.0073  14.0073  14.8639  14.8639  14.8694  15.0033
    15.0966  15.1084  15.1084  15.3103  15.6251  15.6303  15.6303  15.6680
    15.6680  15.7081  15.7081  15.7822  15.8079  15.8079  15.8156  15.8615
    15.8615  16.0282  16.0282  16.0350  16.0636  16.0636  16.1122  16.1122
    16.1721  16.2648  16.3231  16.3231  16.5330  16.5330  16.5389  16.5832

 ------ SPIN DOWN ----------


          k = 0.0000 0.0000 0.0000 ( 48489 PWs)   bands (ev):

   -70.8490 -70.8180 -70.7945 -70.7945 -70.7945 -70.7936 -70.7936 -70.7625
   -70.7625 -70.7625 -70.7624 -70.7624 -70.7624 -70.7622 -70.7622 -70.7622
   -42.4136 -42.3994 -42.3878 -42.3878 -42.3827 -42.3827 -42.3827 -42.3630
   -37.4731 -37.3237 -37.2463 -37.2463 -37.2416 -37.2416 -37.2416 -37.0752
   -37.0752 -37.0752 -37.0343 -37.0343 -37.0343 -37.0191 -37.0191 -37.0191
   -36.8766 -36.8766 -36.8364 -36.8364 -36.8248 -36.8242 -36.8242 -36.8242
   -36.8063 -36.8063 -36.8063 -36.7928 -36.7928 -36.7928 -36.7769 -36.7769
   -36.7640 -36.7640 -36.7640 -36.7627 -36.7581 -36.7581 -36.7581 -36.7145
   -36.7145 -36.7145 -36.7110 -36.7110 -36.7110 -36.6916 -36.6916 -36.6916
   -18.6967 -18.6967 -18.6967 -18.6896 -18.6896 -18.6896 -18.6706 -18.6706
   -18.6706 -18.6162 -18.6162 -18.6162 -18.6086 -18.6086 -18.6030 -18.5500
   -18.5500 -18.5500 -18.5322 -18.5322 -18.5322 -18.5234 -18.5234 -18.5234
     4.4227   6.3160   6.3160   6.3696   6.3696   6.3696   8.2620   9.4262
    11.1209  11.4071  11.4071  11.4241  11.4241  11.4241  11.8726  11.8726
    11.8726  12.1650  12.4231  12.4231  12.4231  12.4446  12.4446  12.8202
    12.8735  12.8735  12.8735  12.9119  12.9119  12.9119  12.9835  12.9835
    12.9835  13.0749  13.0749  13.0749  13.1823  13.1823  13.1823  13.3606
    13.3606  13.6363  13.6363  13.6363  13.6442  13.6442  13.6450  13.7910
    13.7910  13.8301  13.8301  13.8301  13.8487  13.8487  13.8487  13.8568
    13.9221  13.9221  13.9221  13.9575  13.9575  14.2412  14.2412  14.2412
    14.4140  14.4140  14.4140  14.5458  14.5458  14.5458  15.0865  15.0865
    15.0865  15.4228  15.4228  15.4228  15.4262  15.4262  15.4262  15.5956
    15.5956  15.6440  15.6848  15.6848  15.6881  15.6881  15.6881  15.7446
    15.7926  15.7926  15.7926  15.8396  15.8396  16.0199  16.0199  16.0199
    16.3893  16.3893  16.3893  16.4504  16.4504  16.4504  16.4958  16.4958
    16.4958  16.8996  16.8996  16.9006  16.9213  16.9216  16.9377  16.9920
    17.0241  17.0241  17.0241  17.0577  17.0594  17.1413  17.1413  17.1414

          k = 0.0000 0.0000 0.1923 ( 48469 PWs)   bands (ev):

   -70.8485 -70.8181 -70.8020 -70.7945 -70.7945 -70.7936 -70.7850 -70.7639
   -70.7625 -70.7625 -70.7625 -70.7624 -70.7624 -70.7623 -70.7622 -70.7622
   -42.4130 -42.4000 -42.3912 -42.3878 -42.3827 -42.3827 -42.3783 -42.3641
   -37.4630 -37.3397 -37.2857 -37.2460 -37.2412 -37.2412 -37.1894 -37.0813
   -37.0716 -37.0716 -37.0373 -37.0373 -37.0354 -37.0221 -37.0221 -37.0198
   -36.8766 -36.8757 -36.8375 -36.8345 -36.8316 -36.8260 -36.8260 -36.8168
   -36.8056 -36.8035 -36.8035 -36.7980 -36.7899 -36.7899 -36.7832 -36.7706
   -36.7670 -36.7651 -36.7651 -36.7627 -36.7548 -36.7548 -36.7430 -36.7184
   -36.7168 -36.7168 -36.7132 -36.7105 -36.7105 -36.6950 -36.6939 -36.6939
   -18.6969 -18.6959 -18.6959 -18.6899 -18.6888 -18.6888 -18.6729 -18.6729
   -18.6677 -18.6293 -18.6160 -18.6160 -18.6083 -18.6048 -18.5932 -18.5532
   -18.5477 -18.5477 -18.5330 -18.5330 -18.5322 -18.5244 -18.5244 -18.5233
     4.5118   5.7671   6.3196   6.3733   6.3733   6.8973   8.2464   9.4999
    10.7313  11.2048  11.4178  11.4334  11.4334  11.6974  11.9209  11.9209
    11.9795  12.1063  12.2905  12.3102  12.3102  12.3279  12.6164  12.6164
    12.7069  12.8234  12.8625  12.8759  12.8766  12.8766  12.9089  13.0211
    13.0211  13.1419  13.1620  13.1620  13.2249  13.3711  13.3711  13.3765
    13.3952  13.5702  13.6028  13.6028  13.6341  13.6493  13.7329  13.7329
    13.7552  13.7633  13.8325  13.8559  13.8931  13.9011  13.9011  13.9055
    13.9462  13.9798  13.9798  13.9964  14.0053  14.0912  14.1992  14.1992
    14.4373  14.5068  14.5068  14.5749  14.6765  14.6765  15.0958  15.0958
    15.0989  15.2308  15.2483  15.2483  15.2698  15.4433  15.5146  15.5146
    15.5687  15.6493  15.6746  15.7598  15.7934  15.7934  15.7941  15.8418
    15.9124  15.9159  15.9159  15.9308  16.0098  16.0098  16.0159  16.0864
    16.3595  16.3595  16.3720  16.3720  16.4101  16.4321  16.4322  16.4565
    16.5251  16.7222  16.7672  16.8255  16.8282  16.8283  16.8289  16.8863
    16.9321  16.9341  16.9898  17.0051  17.0114  17.0928  17.1821  17.3078

          k = 0.0000 0.0000 0.3847 ( 48538 PWs)   bands (ev):

   -70.8477 -70.8182 -70.8067 -70.7945 -70.7945 -70.7936 -70.7768 -70.7680
   -70.7625 -70.7625 -70.7625 -70.7624 -70.7624 -70.7623 -70.7622 -70.7622
   -42.4116 -42.4015 -42.3938 -42.3878 -42.3827 -42.3827 -42.3726 -42.3670
   -37.4355 -37.3830 -37.2964 -37.2454 -37.2407 -37.2407 -37.1444 -37.0983
   -37.0626 -37.0626 -37.0458 -37.0458 -37.0372 -37.0264 -37.0264 -37.0207
   -36.8766 -36.8741 -36.8392 -36.8356 -36.8288 -36.8282 -36.8282 -36.8126
   -36.8111 -36.8001 -36.8001 -36.7997 -36.7854 -36.7842 -36.7842 -36.7781
   -36.7678 -36.7678 -36.7580 -36.7553 -36.7477 -36.7477 -36.7276 -36.7256
   -36.7231 -36.7231 -36.7167 -36.7069 -36.7069 -36.7042 -36.6993 -36.6993
   -18.6974 -18.6952 -18.6952 -18.6903 -18.6852 -18.6852 -18.6784 -18.6784
   -18.6603 -18.6437 -18.6157 -18.6157 -18.6079 -18.6041 -18.5781 -18.5616
   -18.5421 -18.5421 -18.5361 -18.5361 -18.5322 -18.5259 -18.5259 -18.5233
     4.7532   5.2680   6.3255   6.3793   6.3793   7.2919   8.1950   9.7357
    10.1755  11.2141  11.4382  11.4508  11.4508  11.5059  12.0400  12.0585
    12.0585  12.1032  12.1699  12.1699  12.1746  12.3113  12.3113  12.4762
    12.7184  12.7844  12.8073  12.8133  12.8133  12.8260  13.1190  13.1190
    13.1336  13.2475  13.2475  13.2496  13.2775  13.3242  13.3242  13.3913
    13.4857  13.5378  13.5419  13.5419  13.5936  13.6360  13.6494  13.7154
    13.8513  13.8513  13.8656  13.8922  13.9295  13.9323  13.9608  13.9666
    13.9666  14.0263  14.0701  14.0701  14.1311  14.2242  14.2242  14.2433
    14.3681  14.4812  14.4812  14.5028  14.8855  14.8855  15.0451  15.0451
    15.0855  15.1184  15.1184  15.1242  15.1454  15.2566  15.5534  15.6070
    15.6920  15.7566  15.7566  15.8050  15.9661  15.9661  15.9846  15.9878
    15.9878  15.9927  16.0518  16.0915  16.0915  16.1249  16.1905  16.2054
    16.2054  16.2522  16.2522  16.2674  16.3247  16.3286  16.3286  16.3612
    16.5071  16.5819  16.6197  16.6505  16.6505  16.7178  16.8622  16.9046
    16.9432  16.9434  16.9521  16.9753  16.9755  16.9863  17.0749  17.1100

          k = 0.0000 0.1923 0.1923 ( 48486 PWs)   bands (ev):

   -70.8482 -70.8178 -70.8042 -70.7998 -70.7938 -70.7871 -70.7840 -70.7653
   -70.7625 -70.7625 -70.7625 -70.7624 -70.7624 -70.7623 -70.7622 -70.7622
   -42.4124 -42.4002 -42.3926 -42.3900 -42.3822 -42.3794 -42.3778 -42.3651
   -37.4536 -37.3454 -37.3068 -37.2767 -37.2328 -37.1984 -37.1834 -37.0843
   -37.0712 -37.0683 -37.0403 -37.0390 -37.0375 -37.0257 -37.0229 -37.0223
   -36.8761 -36.8750 -36.8361 -36.8344 -36.8336 -36.8258 -36.8210 -36.8204
   -36.8143 -36.8021 -36.8019 -36.7935 -36.7885 -36.7878 -36.7780 -36.7734
   -36.7727 -36.7656 -36.7653 -36.7620 -36.7509 -36.7457 -36.7390 -36.7276
   -36.7172 -36.7152 -36.7119 -36.7118 -36.7098 -36.7005 -36.6962 -36.6933
   -18.6973 -18.6953 -18.6949 -18.6892 -18.6888 -18.6872 -18.6752 -18.6723
   -18.6677 -18.6299 -18.6295 -18.6217 -18.6008 -18.5933 -18.5918 -18.5537
   -18.5480 -18.5454 -18.5343 -18.5336 -18.5321 -18.5260 -18.5250 -18.5235
     4.5971   5.7019   5.9084   6.3390   6.7401   7.0433   8.2077   9.5746
    10.7055  10.8517  11.2725  11.3795  11.6494  11.8585  11.9397  11.9559
    12.0164  12.0677  12.1675  12.2142  12.3360  12.3471  12.3874  12.5569
    12.5970  12.6161  12.7842  12.8374  12.9549  12.9780  13.0488  13.0977
    13.0987  13.1920  13.1969  13.2678  13.3323  13.3676  13.4021  13.4065
    13.4175  13.5365  13.5483  13.5586  13.6840  13.7358  13.7411  13.7687
    13.7906  13.7957  13.8023  13.8194  13.8464  13.8486  13.8973  13.9291
    13.9533  13.9754  13.9814  14.0192  14.0227  14.0275  14.1051  14.1953
    14.5539  14.5896  14.6625  14.7034  14.7125  14.7522  15.0910  15.1210
    15.1220  15.1318  15.1807  15.2093  15.2851  15.3575  15.3751  15.5956
    15.6477  15.6519  15.6894  15.6920  15.7337  15.8472  15.8649  15.9517
    15.9630  15.9883  15.9931  16.0082  16.0376  16.0758  16.0891  16.1490
    16.2625  16.2769  16.3541  16.3639  16.3767  16.3959  16.3992  16.4513
    16.5105  16.6769  16.6864  16.7147  16.7689  16.8317  16.8545  16.8724
    16.8807  16.9192  16.9220  16.9719  16.9909  17.0054  17.0537  17.1509

          k = 0.0000 0.1923 0.3847 ( 48550 PWs)   bands (ev):

   -70.8475 -70.8172 -70.8082 -70.8014 -70.7927 -70.7865 -70.7773 -70.7693
   -70.7625 -70.7625 -70.7625 -70.7624 -70.7624 -70.7623 -70.7622 -70.7622
   -42.4113 -42.4009 -42.3950 -42.3909 -42.3814 -42.3793 -42.3730 -42.3679
   -37.4284 -37.3777 -37.3188 -37.2896 -37.2217 -37.1939 -37.1447 -37.1004
   -37.0635 -37.0605 -37.0479 -37.0459 -37.0404 -37.0306 -37.0272 -37.0232
   -36.8758 -36.8733 -36.8366 -36.8352 -36.8294 -36.8273 -36.8245 -36.8163
   -36.8127 -36.8099 -36.8035 -36.7932 -36.7889 -36.7826 -36.7754 -36.7738
   -36.7664 -36.7652 -36.7636 -36.7573 -36.7470 -36.7439 -36.7375 -36.7266
   -36.7233 -36.7165 -36.7127 -36.7098 -36.7092 -36.7041 -36.7017 -36.6974
   -18.6975 -18.6955 -18.6929 -18.6872 -18.6865 -18.6838 -18.6807 -18.6770
   -18.6608 -18.6447 -18.6300 -18.6273 -18.5948 -18.5914 -18.5770 -18.5611
   -18.5432 -18.5403 -18.5374 -18.5355 -18.5335 -18.5284 -18.5261 -18.5236
     4.8286   5.3027   5.8727   6.2843   6.8475   7.3762   8.1039   9.8072
    10.2348  10.9054  11.1253  11.3010  11.7162  11.8329  11.9543  12.0340
    12.0655  12.1052  12.1169  12.1827  12.2295  12.2429  12.3067  12.3846
    12.4927  12.5191  12.5918  12.8388  13.0868  13.1080  13.1499  13.2118
    13.2304  13.2620  13.2836  13.3122  13.3375  13.3424  13.4212  13.4240
    13.4755  13.4870  13.4967  13.5641  13.6282  13.6659  13.7044  13.7410
    13.7849  13.7976  13.8217  13.8375  13.8525  13.8973  13.9589  13.9765
    13.9860  13.9962  14.0281  14.0355  14.0668  14.0919  14.1305  14.1866
    14.6260  14.6614  14.6963  14.7244  14.9132  14.9364  15.0312  15.0485
    15.0871  15.1249  15.1440  15.1573  15.2283  15.2339  15.5106  15.5687
    15.5960  15.6570  15.7816  15.8535  15.8767  15.9275  15.9695  15.9890
    16.0211  16.0367  16.0600  16.1062  16.1109  16.1591  16.1841  16.2087
    16.2206  16.2237  16.2452  16.2653  16.2873  16.3354  16.3915  16.4115
    16.4331  16.5533  16.6195  16.6320  16.6760  16.7339  16.7639  16.8030
    16.8363  16.8601  16.8717  16.8937  16.9303  16.9684  17.0264  17.1354

          k = 0.0000 0.3847 0.3847 ( 48478 PWs)   bands (ev):

   -70.8471 -70.8146 -70.8104 -70.8072 -70.7899 -70.7804 -70.7778 -70.7728
   -70.7625 -70.7625 -70.7625 -70.7624 -70.7624 -70.7624 -70.7623 -70.7621
   -42.4106 -42.3993 -42.3967 -42.3946 -42.3791 -42.3753 -42.3737 -42.3703
   -37.4112 -37.3672 -37.3476 -37.3257 -37.1990 -37.1548 -37.1432 -37.1128
   -37.0612 -37.0557 -37.0533 -37.0487 -37.0441 -37.0363 -37.0295 -37.0284
   -36.8751 -36.8715 -36.8325 -36.8311 -36.8269 -36.8258 -36.8239 -36.8210
   -36.8192 -36.8119 -36.8101 -36.7992 -36.7824 -36.7786 -36.7727 -36.7706
   -36.7636 -36.7622 -36.7619 -36.7595 -36.7507 -36.7414 -36.7329 -36.7309
   -36.7241 -36.7220 -36.7177 -36.7084 -36.7055 -36.7037 -36.7017 -36.6978
   -18.6961 -18.6943 -18.6904 -18.6880 -18.6860 -18.6818 -18.6810 -18.6764
   -18.6586 -18.6459 -18.6446 -18.6393 -18.5828 -18.5767 -18.5754 -18.5640
   -18.5433 -18.5397 -18.5386 -18.5358 -18.5328 -18.5321 -18.5272 -18.5255
     5.0374   5.3298   5.5000   6.1365   7.2701   7.5154   7.8655  10.0167
    10.3606  10.5029  10.7539  11.3122  11.9105  11.9597  12.0100  12.0624
    12.0656  12.0778  12.0813  12.1208  12.1222  12.1713  12.2172  12.3024
    12.3593  12.3650  12.4016  12.8631  13.1896  13.2837  13.2932  13.3174
    13.3308  13.3722  13.3726  13.4044  13.4280  13.4538  13.4729  13.4732
    13.5012  13.5029  13.5218  13.5382  13.5952  13.6175  13.6658  13.6827
    13.6967  13.7057  13.7143  13.7716  13.7742  13.7861  13.8321  13.8663
    13.9982  14.0157  14.0416  14.1172  14.1244  14.1282  14.1957  14.1984
    14.8884  14.8946  14.9148  14.9503  14.9515  14.9908  15.0145  15.0480
    15.0778  15.1678  15.1768  15.2279  15.2822  15.3575  15.3720  15.4242
    15.5145  15.5572  15.6566  15.8246  15.8410  15.9163  15.9435  16.0268
    16.0713  16.0991  16.1048  16.1162  16.1205  16.1436  16.1731  16.1774
    16.1979  16.2472  16.2873  16.2916  16.3095  16.3385  16.3460  16.3646
    16.4048  16.4330  16.5565  16.5916  16.6521  16.6778  16.6915  16.7708
    16.8205  16.8428  16.8626  16.8748  16.8830  16.8955  16.9950  17.0637

          k = 0.1923 0.1923 0.1923 ( 48503 PWs)   bands (ev):

   -70.8479 -70.8174 -70.8042 -70.8042 -70.7919 -70.7840 -70.7840 -70.7667
   -70.7625 -70.7625 -70.7625 -70.7624 -70.7624 -70.7624 -70.7622 -70.7622
   -42.4119 -42.4002 -42.3926 -42.3926 -42.3806 -42.3778 -42.3778 -42.3660
   -37.4451 -37.3502 -37.3076 -37.3076 -37.2148 -37.1809 -37.1809 -37.0868
   -37.0683 -37.0683 -37.0430 -37.0402 -37.0402 -37.0261 -37.0257 -37.0257
   -36.8749 -36.8749 -36.8339 -36.8335 -36.8335 -36.8252 -36.8252 -36.8204
   -36.8082 -36.8082 -36.8049 -36.7907 -36.7877 -36.7877 -36.7753 -36.7753
   -36.7704 -36.7676 -36.7647 -36.7647 -36.7428 -36.7428 -36.7357 -36.7293
   -36.7228 -36.7228 -36.7088 -36.7088 -36.7073 -36.7020 -36.7020 -36.6916
   -18.6961 -18.6948 -18.6948 -18.6885 -18.6885 -18.6855 -18.6742 -18.6742
   -18.6686 -18.6326 -18.6326 -18.6316 -18.5905 -18.5905 -18.5885 -18.5532
   -18.5462 -18.5462 -18.5351 -18.5351 -18.5317 -18.5273 -18.5249 -18.5249
     4.6778   5.7090   5.7090   6.2397   7.0393   7.0393   8.1558   9.6497
    10.6833  10.8867  10.8867  11.4428  11.8435  11.8435  11.9067  11.9257
    11.9257  12.1356  12.1359  12.1359  12.3244  12.3406  12.3406  12.4681
    12.4681  12.4843  12.6738  12.8255  13.0898  13.1025  13.1025  13.1318
    13.1318  13.2913  13.2913  13.3309  13.3627  13.3904  13.3904  13.4321
    13.4321  13.5798  13.5901  13.5901  13.6737  13.7228  13.7228  13.7591
    13.7591  13.7599  13.7891  13.7891  13.8456  13.8571  13.8923  13.8923
    13.9200  13.9200  13.9204  14.0008  14.0008  14.0787  14.1649  14.1649
    14.7123  14.7231  14.7231  14.7914  14.8048  14.8048  15.1131  15.1131
    15.1527  15.1991  15.1991  15.2070  15.2646  15.2765  15.2765  15.6096
    15.6096  15.6860  15.6860  15.7128  15.7829  15.7829  15.7944  15.9969
    16.0285  16.0530  16.0530  16.0740  16.0740  16.1296  16.1720  16.1720
    16.2474  16.2592  16.2592  16.3080  16.3080  16.3561  16.3561  16.3658
    16.6397  16.6397  16.6764  16.6812  16.7188  16.7330  16.7330  16.8283
    16.8283  16.9461  16.9473  16.9624  16.9626  17.0042  17.0086  17.0613

          k = 0.1923 0.1923 0.3847 ( 48490 PWs)   bands (ev):

   -70.8474 -70.8164 -70.8089 -70.8041 -70.7913 -70.7840 -70.7777 -70.7704
   -70.7625 -70.7625 -70.7625 -70.7624 -70.7624 -70.7624 -70.7622 -70.7622
   -42.4110 -42.4004 -42.3956 -42.3926 -42.3802 -42.3778 -42.3734 -42.3686
   -37.4226 -37.3742 -37.3296 -37.3088 -37.2081 -37.1768 -37.1432 -37.1016
   -37.0620 -37.0612 -37.0490 -37.0475 -37.0431 -37.0321 -37.0302 -37.0263
   -36.8746 -36.8728 -36.8341 -36.8333 -36.8309 -36.8244 -36.8242 -36.8194
   -36.8123 -36.8109 -36.8022 -36.7975 -36.7900 -36.7848 -36.7756 -36.7696
   -36.7675 -36.7655 -36.7614 -36.7610 -36.7440 -36.7437 -36.7361 -36.7285
   -36.7250 -36.7190 -36.7145 -36.7109 -36.7058 -36.7043 -36.7006 -36.6942
   -18.6959 -18.6951 -18.6917 -18.6859 -18.6858 -18.6833 -18.6790 -18.6785
   -18.6626 -18.6470 -18.6366 -18.6356 -18.5865 -18.5849 -18.5747 -18.5595
   -18.5419 -18.5416 -18.5374 -18.5372 -18.5340 -18.5297 -18.5271 -18.5250
     4.8967   5.3274   5.7206   6.2139   7.0328   7.4114   8.0197   9.8746
    10.2971  10.8427  10.9569  11.3193  11.6932  11.7678  11.9489  12.0342
    12.0522  12.1171  12.1325  12.1640  12.2195  12.2237  12.2563  12.3307
    12.3874  12.3979  12.4798  12.8237  13.2092  13.2095  13.2318  13.2743
    13.2849  13.3138  13.3339  13.3622  13.3651  13.3996  13.4468  13.4559
    13.5058  13.5262  13.5363  13.5909  13.6028  13.6730  13.6852  13.7164
    13.7359  13.7813  13.7928  13.7940  13.8207  13.8396  13.8939  13.9223
    13.9342  13.9606  13.9922  14.0203  14.0510  14.1163  14.1399  14.1835
    14.7722  14.8124  14.8323  14.8831  14.9571  14.9992  15.0659  15.1129
    15.1130  15.1297  15.1720  15.2500  15.2613  15.2884  15.4448  15.5419
    15.6069  15.6595  15.6813  15.7755  15.8112  15.8595  15.8999  15.9255
    16.0411  16.0642  16.1187  16.1191  16.1336  16.1808  16.1877  16.1954
    16.2137  16.2244  16.2481  16.2596  16.3307  16.3329  16.3671  16.3742
    16.4512  16.4635  16.5142  16.5624  16.6259  16.6505  16.6838  16.7511
    16.7643  16.8167  16.9212  16.9329  16.9725  17.0320  17.0337  17.0702

          k = 0.1923 0.3847 0.3847 ( 48499 PWs)   bands (ev):

   -70.8471 -70.8141 -70.8104 -70.8082 -70.7895 -70.7797 -70.7778 -70.7735
   -70.7625 -70.7625 -70.7625 -70.7624 -70.7624 -70.7624 -70.7622 -70.7621
   -42.4106 -42.3991 -42.3967 -42.3953 -42.3788 -42.3749 -42.3737 -42.3707
   -37.4092 -37.3669 -37.3488 -37.3343 -37.1925 -37.1472 -37.1383 -37.1117
   -37.0604 -37.0571 -37.0539 -37.0503 -37.0469 -37.0371 -37.0328 -37.0320
   -36.8734 -36.8712 -36.8314 -36.8283 -36.8279 -36.8263 -36.8233 -36.8203
   -36.8166 -36.8104 -36.8082 -36.7991 -36.7862 -36.7844 -36.7773 -36.7737
   -36.7669 -36.7648 -36.7631 -36.7621 -36.7426 -36.7383 -36.7328 -36.7292
   -36.7272 -36.7227 -36.7213 -36.7149 -36.7004 -36.6992 -36.6981 -36.6940
   -18.6940 -18.6921 -18.6898 -18.6863 -18.6837 -18.6816 -18.6803 -18.6770
   -18.6623 -18.6504 -18.6493 -18.6458 -18.5764 -18.5723 -18.5712 -18.5606
   -18.5427 -18.5400 -18.5392 -18.5377 -18.5338 -18.5331 -18.5290 -18.5277
     5.0825   5.3389   5.4622   6.1240   7.3260   7.4964   7.8043  10.0535
    10.4141  10.5827  10.7755  11.3145  11.7022  11.8413  11.9072  11.9780
    12.0278  12.0968  12.1115  12.1306  12.1483  12.1628  12.1859  12.2461
    12.2974  12.2979  12.3353  12.8128  13.2899  13.3501  13.3625  13.3704
    13.3835  13.3980  13.4327  13.4380  13.4593  13.4719  13.5021  13.5137
    13.5209  13.5284  13.5532  13.5629  13.6118  13.6304  13.6595  13.6618
    13.6713  13.6979  13.7243  13.7287  13.7528  13.7699  13.8158  13.8577
    13.9607  13.9819  13.9907  14.0416  14.0913  14.1306  14.1722  14.1834
    14.9623  14.9979  15.0251  15.0527  15.0588  15.0978  15.0996  15.1389
    15.2043  15.2299  15.3015  15.3133  15.3591  15.4049  15.4149  15.4892
    15.4931  15.5523  15.6396  15.6880  15.7509  15.7794  15.8980  15.9294
    15.9557  15.9653  16.0468  16.0591  16.1069  16.1544  16.1611  16.1672
    16.1934  16.2315  16.2502  16.2687  16.2849  16.2878  16.3208  16.3322
    16.4129  16.4221  16.4729  16.5207  16.6133  16.7241  16.7322  16.7576
    16.7742  16.8570  16.8584  16.9059  16.9478  17.0333  17.0408  17.1323

          k = 0.3847 0.3847 0.3847 ( 48449 PWs)   bands (ev):

   -70.8470 -70.8127 -70.8104 -70.8104 -70.7889 -70.7778 -70.7778 -70.7753
   -70.7625 -70.7625 -70.7625 -70.7624 -70.7624 -70.7624 -70.7621 -70.7621
   -42.4105 -42.3982 -42.3967 -42.3967 -42.3783 -42.3736 -42.3736 -42.3719
   -37.4055 -37.3634 -37.3506 -37.3506 -37.1832 -37.1297 -37.1297 -37.1141
   -37.0586 -37.0586 -37.0563 -37.0525 -37.0525 -37.0385 -37.0385 -37.0385
   -36.8706 -36.8706 -36.8299 -36.8299 -36.8284 -36.8222 -36.8198 -36.8198
   -36.8150 -36.8043 -36.8018 -36.8018 -36.7891 -36.7891 -36.7833 -36.7833
   -36.7763 -36.7683 -36.7656 -36.7656 -36.7333 -36.7332 -36.7332 -36.7295
   -36.7295 -36.7237 -36.7214 -36.7214 -36.6948 -36.6939 -36.6939 -36.6915
   -18.6892 -18.6892 -18.6868 -18.6822 -18.6822 -18.6785 -18.6785 -18.6784
   -18.6678 -18.6584 -18.6577 -18.6577 -18.5650 -18.5643 -18.5643 -18.5564
   -18.5422 -18.5422 -18.5397 -18.5397 -18.5369 -18.5340 -18.5325 -18.5325
     5.1998   5.3539   5.3539   6.1081   7.4658   7.4658   7.6559  10.1082
    10.5606  10.7489  10.7489  11.2987  11.5737  11.5737  11.7204  12.0100
    12.0221  12.0221  12.0825  12.0825  12.1048  12.1048  12.1087  12.2035
    12.2411  12.2411  12.2623  12.7422  13.4221  13.4221  13.4373  13.4600
    13.4600  13.4785  13.4785  13.4786  13.5218  13.5275  13.5275  13.5474
    13.5521  13.5521  13.5943  13.5958  13.5958  13.6226  13.6276  13.6276
    13.6830  13.6857  13.6857  13.7210  13.7210  13.7569  13.7819  13.7819
    13.9512  13.9735  13.9735  14.0380  14.0380  14.1423  14.1423  14.1468
    15.1373  15.1944  15.1944  15.2269  15.2269  15.2633  15.2633  15.3133
    15.3257  15.3257  15.4172  15.4631  15.5240  15.5240  15.5270  15.5701
    15.5701  15.5988  15.6129  15.6129  15.6931  15.6931  15.7184  15.7340
    15.7340  15.8023  15.8420  15.8420  15.9649  16.0866  16.0877  16.0877
    16.1432  16.1432  16.1729  16.1873  16.1873  16.1920  16.2482  16.2482
    16.4438  16.4476  16.4476  16.6844  16.7436  16.7436  16.7880  16.7880
    16.7935  16.7997  16.8327  16.8328  16.9087  16.9593  16.9593  17.0049

     the Fermi energy is    15.1804 ev

!    total energy              =   -6230.61188700 Ry
     estimated scf accuracy    <          2.1E-10 Ry
     smearing contrib. (-TS)   =       0.00058695 Ry
     internal energy E=F+TS    =   -6230.61247395 Ry

     The total energy is F=E-TS. E is the sum of the following terms:
     one-electron contribution =   -2592.94766996 Ry
     hartree contribution      =    1475.23583760 Ry
     xc contribution           =    -706.38349412 Ry
     ewald contribution        =   -3188.04375606 Ry
     one-center paw contrib.   =   -1218.47339142 Ry

     total magnetization       =    19.56 Bohr mag/cell
     absolute magnetization    =    38.65 Bohr mag/cell

     convergence has been achieved in  15 iterations

     negative rho (up, down):  7.296E-03 1.107E-03

     Forces acting on atoms (cartesian axes, Ry/au):

     atom    1 type  1   force =    -0.00115173   -0.00115173    0.00198414
     atom    2 type  1   force =     0.00038734    0.00038734    0.00038734
     atom    3 type  1   force =     0.00115173    0.00198414    0.00115173
     atom    4 type  1   force =    -0.00198414    0.00115173   -0.00115173
     atom    5 type  1   force =    -0.00115173    0.00198414   -0.00115173
     atom    6 type  1   force =     0.00198414   -0.00115173   -0.00115173
     atom    7 type  1   force =     0.00115173   -0.00198414   -0.00115173
     atom    8 type  1   force =    -0.00038734    0.00038734   -0.00038734
     atom    9 type  1   force =     0.00038734   -0.00038734   -0.00038734
     atom   10 type  1   force =     0.00198414    0.00115173    0.00115173
     atom   11 type  1   force =    -0.00198414   -0.00115173    0.00115173
     atom   12 type  1   force =     0.00115173    0.00115173    0.00198414
     atom   13 type  1   force =    -0.00038734   -0.00038734    0.00038734
     atom   14 type  1   force =     0.00115173   -0.00115173   -0.00198414
     atom   15 type  1   force =    -0.00115173   -0.00198414    0.00115173
     atom   16 type  1   force =    -0.00115173    0.00115173   -0.00198414
     atom   17 type  2   force =     0.00000000    0.00000000    0.00000000
     atom   18 type  2   force =    -0.00042123   -0.00042123    0.00042123
     atom   19 type  2   force =     0.00000000    0.00000000    0.00000000
     atom   20 type  2   force =    -0.00042123    0.00042123   -0.00042123
     atom   21 type  2   force =     0.00000000    0.00000000    0.00000000
     atom   22 type  2   force =     0.00042123    0.00042123    0.00042123
     atom   23 type  2   force =     0.00042123   -0.00042123   -0.00042123
     atom   24 type  2   force =     0.00000000    0.00000000    0.00000000
     atom   25 type  3   force =    -0.00027110   -0.00027110    0.00027110
     atom   26 type  3   force =     0.00000000    0.00000000    0.00000000
     atom   27 type  3   force =    -0.00027110    0.00027110   -0.00027110
     atom   28 type  3   force =     0.00000000    0.00000000    0.00000000
     atom   29 type  3   force =     0.00027110    0.00027110    0.00027110
     atom   30 type  3   force =     0.00027110   -0.00027110   -0.00027110
     atom   31 type  3   force =     0.00000000    0.00000000    0.00000000

     Total force =     0.009159     Total SCF correction =     0.000100


     Computing stress (Cartesian axis) and pressure


     negative rho (up, down):  7.296E-03 1.107E-03
          total   stress  (Ry/bohr**3)                   (kbar)     P=       -0.87
  -0.00000591   0.00000000   0.00000000           -0.87        0.00        0.00
   0.00000000  -0.00000591   0.00000000            0.00       -0.87        0.00
   0.00000000   0.00000000  -0.00000591            0.00        0.00       -0.87

     Energy error            =      1.5E-04 Ry
     Gradient error          =      2.0E-03 Ry/Bohr
     Cell gradient error     =      8.7E-01 kbar

     number of scf cycles    =   8
     number of bfgs steps    =   7

     enthalpy           old  =   -6230.6117382504 Ry
     enthalpy           new  =   -6230.6118870034 Ry

     CASE: enthalpy          _new < enthalpy          _old

     new trust radius        =       0.0064474040 bohr
     new conv_thr            =       0.0000000001 Ry

     new unit-cell volume =   2336.00424 a.u.^3 (   346.16011 Ang^3 )
     density =      6.15702 g/cm^3

CELL_PARAMETERS (alat= 12.76591255)
   1.039375982   0.000000000   0.000000000
   0.000000000   1.039375982   0.000000000
   0.000000000   0.000000000   1.039375982

ATOMIC_POSITIONS (crystal)
Fe               0.1260729003        0.1260729003        0.6261784928
Fe               0.6158593914        0.6158593914        0.6158593914
Fe               0.8739270997        0.6261784928        0.8739270997
Fe               0.3738215072        0.8739270997        0.1260729003
Fe               0.1260729003        0.6261784928        0.1260729003
Fe               0.6261784928        0.1260729003        0.1260729003
Fe               0.8739270997        0.3738215072        0.1260729003
Fe               0.3841406086        0.6158593914        0.3841406086
Fe               0.6158593914        0.3841406086        0.3841406086
Fe               0.6261784928        0.8739270997        0.8739270997
Fe               0.3738215072        0.1260729003        0.8739270997
Fe               0.8739270997        0.8739270997        0.6261784928
Fe               0.3841406086        0.3841406086        0.6158593914
Fe               0.8739270997        0.1260729003        0.3738215072
Fe               0.1260729003        0.3738215072        0.8739270997
Fe               0.1260729003        0.8739270997        0.3738215072
Ti               0.0000000000        0.0000000000        0.0000000000
Ti               0.7490505282        0.7490505282        0.2509494718
Ti               0.5000000000        0.0000000000        0.5000000000
Ti               0.7490505282        0.2509494718        0.7490505282
Ti               0.0000000000        0.5000000000        0.5000000000
Ti               0.2509494718        0.2509494718        0.2509494718
Ti               0.2509494718        0.7490505282        0.7490505282
Ti               0.5000000000        0.5000000000        0.0000000000
H                0.2582979433        0.2582979433        0.7417020567
H                0.0000000000        0.5000000000        0.0000000000
H                0.2582979433        0.7417020567        0.2582979433
H                0.5000000000        0.0000000000        0.0000000000
H                0.7417020567        0.7417020567        0.7417020567
H                0.7417020567        0.2582979433        0.2582979433
H                0.0000000000        0.0000000000        0.5000000000



     Writing config-only to output data dir ./TiFe2_cub_8b_8H.save/ :
     XML data file     NEW-OLD atomic charge density approx. for the potential
     New effective cutoffs (rho, wfc): 1606.89  114.77

     negative rho (up, down):  7.308E-03 1.107E-03
     Generating pointlists ...

     total cpu time spent up to now is    65534.4 secs

     per-process dynamical memory:   530.5 Mb

     Self-consistent Calculation

     iteration #  1     ecut=   124.00 Ry     beta= 0.20
     CG style diagonalization
     ethr =  1.00E-06,  avg # of iterations =  4.9

     Threshold (ethr) on eigenvalues was too large:
     Diagonalizing with lowered threshold

     CG style diagonalization
     c_bands:  5 eigenvalues not converged
     c_bands:  2 eigenvalues not converged
     c_bands:  4 eigenvalues not converged
     c_bands:  4 eigenvalues not converged
     c_bands:  3 eigenvalues not converged
     c_bands:  3 eigenvalues not converged
     c_bands:  3 eigenvalues not converged
     c_bands:  1 eigenvalues not converged
     c_bands:  5 eigenvalues not converged
     c_bands:  5 eigenvalues not converged
     ethr =  6.69E-08,  avg # of iterations =  8.2

     negative rho (up, down):  7.309E-03 1.110E-03

     total cpu time spent up to now is    67062.0 secs

     total energy              =   -6230.61199245 Ry
     estimated scf accuracy    <       0.00033543 Ry

     total magnetization       =    19.53 Bohr mag/cell
     absolute magnetization    =    38.60 Bohr mag/cell

     iteration #  2     ecut=   124.00 Ry     beta= 0.20
     CG style diagonalization
     ethr =  9.34E-08,  avg # of iterations =  3.1

     negative rho (up, down):  7.309E-03 1.112E-03

     total cpu time spent up to now is    67331.0 secs

     total energy              =   -6230.61201228 Ry
     estimated scf accuracy    <       0.00016031 Ry

     total magnetization       =    19.53 Bohr mag/cell
     absolute magnetization    =    38.60 Bohr mag/cell

     iteration #  3     ecut=   124.00 Ry     beta= 0.20
     CG style diagonalization
     ethr =  4.47E-08,  avg # of iterations =  3.1

     negative rho (up, down):  7.308E-03 1.114E-03

     total cpu time spent up to now is    67601.0 secs

     total energy              =   -6230.61202376 Ry
     estimated scf accuracy    <       0.00006040 Ry

     total magnetization       =    19.53 Bohr mag/cell
     absolute magnetization    =    38.59 Bohr mag/cell

     iteration #  4     ecut=   124.00 Ry     beta= 0.20
     CG style diagonalization
     ethr =  1.68E-08,  avg # of iterations =  3.4

     negative rho (up, down):  7.306E-03 1.114E-03

     total cpu time spent up to now is    67905.8 secs

     total energy              =   -6230.61203802 Ry
     estimated scf accuracy    <       0.00001748 Ry

     total magnetization       =    19.53 Bohr mag/cell
     absolute magnetization    =    38.58 Bohr mag/cell

     iteration #  5     ecut=   124.00 Ry     beta= 0.20
     CG style diagonalization
     ethr =  4.87E-09,  avg # of iterations =  4.3

     negative rho (up, down):  7.304E-03 1.115E-03

     total cpu time spent up to now is    68316.8 secs

     total energy              =   -6230.61205172 Ry
     estimated scf accuracy    <       0.00000578 Ry

     total magnetization       =    19.52 Bohr mag/cell
     absolute magnetization    =    38.57 Bohr mag/cell

     iteration #  6     ecut=   124.00 Ry     beta= 0.20
     CG style diagonalization
     ethr =  1.61E-09,  avg # of iterations =  5.2

     negative rho (up, down):  7.304E-03 1.115E-03

     total cpu time spent up to now is    68842.0 secs

     total energy              =   -6230.61206288 Ry
     estimated scf accuracy    <       0.00000162 Ry

     total magnetization       =    19.52 Bohr mag/cell
     absolute magnetization    =    38.57 Bohr mag/cell

     iteration #  7     ecut=   124.00 Ry     beta= 0.20
     CG style diagonalization
     ethr =  4.50E-10,  avg # of iterations =  4.1

     negative rho (up, down):  7.304E-03 1.115E-03

     total cpu time spent up to now is    69239.1 secs

     total energy              =   -6230.61206582 Ry
     estimated scf accuracy    <       0.00000147 Ry

     total magnetization       =    19.52 Bohr mag/cell
     absolute magnetization    =    38.57 Bohr mag/cell

     iteration #  8     ecut=   124.00 Ry     beta= 0.20
     CG style diagonalization
     ethr =  4.10E-10,  avg # of iterations =  3.2

     negative rho (up, down):  7.298E-03 1.116E-03

     total cpu time spent up to now is    69527.6 secs

     total energy              =   -6230.61206671 Ry
     estimated scf accuracy    <       0.00000132 Ry

     total magnetization       =    19.52 Bohr mag/cell
     absolute magnetization    =    38.57 Bohr mag/cell

     iteration #  9     ecut=   124.00 Ry     beta= 0.20
     CG style diagonalization
     ethr =  3.67E-10,  avg # of iterations =  3.5

     negative rho (up, down):  7.298E-03 1.116E-03

     total cpu time spent up to now is    69854.3 secs

     total energy              =   -6230.61206807 Ry
     estimated scf accuracy    <       0.00000056 Ry

     total magnetization       =    19.52 Bohr mag/cell
     absolute magnetization    =    38.55 Bohr mag/cell

     iteration # 10     ecut=   124.00 Ry     beta= 0.20
     CG style diagonalization
     ethr =  1.55E-10,  avg # of iterations =  3.3

     negative rho (up, down):  7.297E-03 1.116E-03

     total cpu time spent up to now is    70145.0 secs

     total energy              =   -6230.61206873 Ry
     estimated scf accuracy    <       0.00000015 Ry

     total magnetization       =    19.52 Bohr mag/cell
     absolute magnetization    =    38.55 Bohr mag/cell

     iteration # 11     ecut=   124.00 Ry     beta= 0.20
     CG style diagonalization
     ethr =  4.09E-11,  avg # of iterations =  4.2

     negative rho (up, down):  7.298E-03 1.116E-03

     total cpu time spent up to now is    70549.5 secs

     total energy              =   -6230.61206914 Ry
     estimated scf accuracy    <       0.00000015 Ry

     total magnetization       =    19.52 Bohr mag/cell
     absolute magnetization    =    38.55 Bohr mag/cell

     iteration # 12     ecut=   124.00 Ry     beta= 0.20
     CG style diagonalization
     ethr =  4.09E-11,  avg # of iterations =  3.2

     negative rho (up, down):  7.297E-03 1.116E-03

     total cpu time spent up to now is    70830.2 secs

     total energy              =   -6230.61206941 Ry
     estimated scf accuracy    <       0.00000014 Ry

     total magnetization       =    19.52 Bohr mag/cell
     absolute magnetization    =    38.55 Bohr mag/cell

     iteration # 13     ecut=   124.00 Ry     beta= 0.20
     CG style diagonalization
     ethr =  3.93E-11,  avg # of iterations =  3.0

     negative rho (up, down):  7.296E-03 1.117E-03

     total cpu time spent up to now is    71094.5 secs

     total energy              =   -6230.61206964 Ry
     estimated scf accuracy    <       0.00000009 Ry

     total magnetization       =    19.52 Bohr mag/cell
     absolute magnetization    =    38.55 Bohr mag/cell

     iteration # 14     ecut=   124.00 Ry     beta= 0.20
     CG style diagonalization
     ethr =  2.57E-11,  avg # of iterations =  3.6

     negative rho (up, down):  7.296E-03 1.117E-03

     total cpu time spent up to now is    71424.5 secs

     total energy              =   -6230.61206977 Ry
     estimated scf accuracy    <       0.00000002 Ry

     total magnetization       =    19.52 Bohr mag/cell
     absolute magnetization    =    38.55 Bohr mag/cell

     iteration # 15     ecut=   124.00 Ry     beta= 0.20
     CG style diagonalization
     ethr =  5.65E-12,  avg # of iterations =  4.2

     negative rho (up, down):  7.296E-03 1.117E-03

     total cpu time spent up to now is    71833.4 secs

     total energy              =   -6230.61206984 Ry
     estimated scf accuracy    <       0.00000001 Ry

     total magnetization       =    19.52 Bohr mag/cell
     absolute magnetization    =    38.55 Bohr mag/cell

     iteration # 16     ecut=   124.00 Ry     beta= 0.20
     CG style diagonalization
     ethr =  3.01E-12,  avg # of iterations =  3.7

     negative rho (up, down):  7.296E-03 1.117E-03

     total cpu time spent up to now is    72175.5 secs

     total energy              =   -6230.61206988 Ry
     estimated scf accuracy    <       0.00000001 Ry

     total magnetization       =    19.52 Bohr mag/cell
     absolute magnetization    =    38.54 Bohr mag/cell

     iteration # 17     ecut=   124.00 Ry     beta= 0.20
     CG style diagonalization
     ethr =  2.89E-12,  avg # of iterations =  3.1

     negative rho (up, down):  7.295E-03 1.117E-03

     total cpu time spent up to now is    72446.2 secs

     total energy              =   -6230.61206989 Ry
     estimated scf accuracy    <          9.9E-09 Ry

     total magnetization       =    19.52 Bohr mag/cell
     absolute magnetization    =    38.54 Bohr mag/cell

     iteration # 18     ecut=   124.00 Ry     beta= 0.20
     CG style diagonalization
     ethr =  2.76E-12,  avg # of iterations =  3.8

     negative rho (up, down):  7.294E-03 1.117E-03

     total cpu time spent up to now is    72802.6 secs

     total energy              =   -6230.61206994 Ry
     estimated scf accuracy    <          6.7E-09 Ry

     total magnetization       =    19.52 Bohr mag/cell
     absolute magnetization    =    38.54 Bohr mag/cell

     iteration # 19     ecut=   124.00 Ry     beta= 0.20
     CG style diagonalization
     ethr =  1.87E-12,  avg # of iterations =  3.6

     negative rho (up, down):  7.294E-03 1.117E-03

     total cpu time spent up to now is    73137.4 secs

     total energy              =   -6230.61206994 Ry
     estimated scf accuracy    <          2.1E-09 Ry

     total magnetization       =    19.52 Bohr mag/cell
     absolute magnetization    =    38.54 Bohr mag/cell

     iteration # 20     ecut=   124.00 Ry     beta= 0.20
     CG style diagonalization
     ethr =  5.99E-13,  avg # of iterations =  3.6

     negative rho (up, down):  7.294E-03 1.117E-03

     total cpu time spent up to now is    73472.1 secs

     total energy              =   -6230.61206995 Ry
     estimated scf accuracy    <          1.0E-09 Ry

     total magnetization       =    19.52 Bohr mag/cell
     absolute magnetization    =    38.54 Bohr mag/cell

     iteration # 21     ecut=   124.00 Ry     beta= 0.20
     CG style diagonalization
     ethr =  2.81E-13,  avg # of iterations =  4.0

     negative rho (up, down):  7.294E-03 1.117E-03

     total cpu time spent up to now is    73851.0 secs

     total energy              =   -6230.61206995 Ry
     estimated scf accuracy    <          5.6E-10 Ry

     total magnetization       =    19.52 Bohr mag/cell
     absolute magnetization    =    38.54 Bohr mag/cell

     iteration # 22     ecut=   124.00 Ry     beta= 0.20
     CG style diagonalization
     ethr =  1.55E-13,  avg # of iterations =  3.6

     negative rho (up, down):  7.294E-03 1.117E-03

     total cpu time spent up to now is    74184.2 secs

     total energy              =   -6230.61206995 Ry
     estimated scf accuracy    <          3.5E-10 Ry

     total magnetization       =    19.52 Bohr mag/cell
     absolute magnetization    =    38.54 Bohr mag/cell

     iteration # 23     ecut=   124.00 Ry     beta= 0.20
     CG style diagonalization
     ethr =  1.00E-13,  avg # of iterations =  3.4

     negative rho (up, down):  7.294E-03 1.117E-03

     total cpu time spent up to now is    74489.4 secs

     total energy              =   -6230.61206996 Ry
     estimated scf accuracy    <          2.2E-10 Ry

     total magnetization       =    19.52 Bohr mag/cell
     absolute magnetization    =    38.54 Bohr mag/cell

     iteration # 24     ecut=   124.00 Ry     beta= 0.20
     CG style diagonalization
     ethr =  1.00E-13,  avg # of iterations =  3.2

     negative rho (up, down):  7.294E-03 1.117E-03

     Magnetic moment per site  (integrated on atomic sphere of radius R)
     atom   1 (R=0.089)  charge= 11.1817  magn=  1.3839
     atom   2 (R=0.089)  charge= 11.1730  magn=  1.3703
     atom   3 (R=0.089)  charge= 11.1817  magn=  1.3839
     atom   4 (R=0.089)  charge= 11.1817  magn=  1.3839
     atom   5 (R=0.089)  charge= 11.1817  magn=  1.3839
     atom   6 (R=0.089)  charge= 11.1817  magn=  1.3839
     atom   7 (R=0.089)  charge= 11.1817  magn=  1.3839
     atom   8 (R=0.089)  charge= 11.1730  magn=  1.3703
     atom   9 (R=0.089)  charge= 11.1730  magn=  1.3703
     atom  10 (R=0.089)  charge= 11.1817  magn=  1.3839
     atom  11 (R=0.089)  charge= 11.1817  magn=  1.3839
     atom  12 (R=0.089)  charge= 11.1817  magn=  1.3839
     atom  13 (R=0.089)  charge= 11.1730  magn=  1.3703
     atom  14 (R=0.089)  charge= 11.1817  magn=  1.3839
     atom  15 (R=0.089)  charge= 11.1817  magn=  1.3839
     atom  16 (R=0.089)  charge= 11.1817  magn=  1.3839
     atom  17 (R=0.171)  charge= 10.1941  magn= -0.7774
     atom  18 (R=0.171)  charge= 10.2003  magn= -0.8148
     atom  19 (R=0.171)  charge= 10.1978  magn= -0.8382
     atom  20 (R=0.171)  charge= 10.2003  magn= -0.8148
     atom  21 (R=0.171)  charge= 10.1978  magn= -0.8382
     atom  22 (R=0.171)  charge= 10.2003  magn= -0.8148
     atom  23 (R=0.171)  charge= 10.2003  magn= -0.8148
     atom  24 (R=0.171)  charge= 10.1978  magn= -0.8382
     atom  25 (R=0.089)  charge=  0.9831  magn= -0.0055
     atom  26 (R=0.089)  charge=  0.9924  magn= -0.0056
     atom  27 (R=0.089)  charge=  0.9831  magn= -0.0055
     atom  28 (R=0.089)  charge=  0.9924  magn= -0.0056
     atom  29 (R=0.089)  charge=  0.9831  magn= -0.0055
     atom  30 (R=0.089)  charge=  0.9831  magn= -0.0055
     atom  31 (R=0.089)  charge=  0.9924  magn= -0.0056

     total cpu time spent up to now is    74770.5 secs

     End of self-consistent calculation

 ------ SPIN UP ------------


          k = 0.0000 0.0000 0.0000 ( 48489 PWs)   bands (ev):

   -72.8981 -72.8789 -72.8603 -72.8603 -72.8601 -72.8601 -72.8601 -72.8311
   -72.8311 -72.8311 -72.8311 -72.8311 -72.8311 -72.8133 -72.8133 -72.8133
   -41.6492 -41.6059 -41.5946 -41.5946 -41.5946 -41.5791 -41.5791 -41.5645
   -39.3686 -39.2275 -39.1657 -39.1657 -39.1627 -39.1627 -39.1627 -39.0336
   -39.0336 -39.0336 -38.9719 -38.9719 -38.9719 -38.9715 -38.9715 -38.9715
   -38.9117 -38.9117 -38.8849 -38.8849 -38.8845 -38.8712 -38.8712 -38.8712
   -38.8552 -38.8552 -38.8552 -38.8468 -38.8468 -38.8468 -38.8395 -38.8395
   -38.8180 -38.8175 -38.8175 -38.8175 -38.7888 -38.7888 -38.7888 -38.7633
   -38.7633 -38.7633 -38.7529 -38.7529 -38.7529 -38.7477 -38.7477 -38.7477
   -17.9136 -17.9136 -17.9136 -17.8869 -17.8869 -17.8869 -17.8773 -17.8773
   -17.8773 -17.8183 -17.8183 -17.8172 -17.8172 -17.8172 -17.8121 -17.7539
   -17.7539 -17.7539 -17.7421 -17.7421 -17.7421 -17.7210 -17.7210 -17.7210
     4.1178   5.9924   5.9924   6.0482   6.0482   6.0482   8.0329   9.2156
    10.8875  10.8875  10.8875  10.9835  11.1384  11.1384  11.1470  11.1470
    11.1470  11.7190  11.7472  11.7472  11.7472  11.8678  11.8832  11.8832
    11.8832  11.8853  11.8853  11.8853  11.9182  11.9182  11.9432  11.9432
    11.9432  12.1474  12.1474  12.3538  12.3538  12.3538  12.4566  12.4566
    12.4566  12.4734  12.4734  12.4734  12.5034  12.5034  12.5285  12.9201
    12.9201  12.9959  12.9959  12.9959  12.9987  12.9987  12.9987  13.0226
    13.0931  13.0931  13.0931  13.1065  13.1065  13.1065  13.2141  13.2141
    13.2141  13.6678  13.6678  13.6678  13.7483  13.7483  13.7483  13.7498
    13.7498  13.7498  13.8861  13.8861  13.9018  13.9018  13.9318  13.9318
    13.9318  13.9614  13.9756  13.9756  13.9756  14.5227  14.5227  14.7377
    14.7377  14.7377  14.9547  15.0191  15.0191  15.0191  15.1005  15.1005
    15.3521  15.3521  15.3521  16.1842  16.1842  16.1842  16.1889  16.1889
    16.1889  16.2342  16.2342  16.2342  16.5503  16.5503  16.5503  16.6116
    16.6116  16.6116  16.7124  16.7124  16.7670  16.7967  16.7967  16.7967

          k = 0.0000 0.0000 0.1924 ( 48469 PWs)   bands (ev):

   -72.8969 -72.8798 -72.8676 -72.8603 -72.8601 -72.8601 -72.8516 -72.8323
   -72.8311 -72.8311 -72.8311 -72.8311 -72.8311 -72.8134 -72.8133 -72.8133
   -41.6492 -41.6055 -41.5961 -41.5946 -41.5946 -41.5791 -41.5770 -41.5654
   -39.3590 -39.2438 -39.2000 -39.1652 -39.1622 -39.1622 -39.1173 -39.0369
   -39.0292 -39.0292 -38.9795 -38.9795 -38.9747 -38.9743 -38.9743 -38.9728
   -38.9118 -38.9097 -38.8881 -38.8862 -38.8831 -38.8740 -38.8740 -38.8683
   -38.8547 -38.8528 -38.8499 -38.8499 -38.8426 -38.8412 -38.8412 -38.8299
   -38.8189 -38.8144 -38.8144 -38.8034 -38.7925 -38.7900 -38.7900 -38.7666
   -38.7648 -38.7648 -38.7569 -38.7550 -38.7550 -38.7499 -38.7487 -38.7487
   -17.9138 -17.9128 -17.9128 -17.8873 -17.8873 -17.8872 -17.8782 -17.8782
   -17.8752 -17.8321 -17.8180 -17.8171 -17.8171 -17.8137 -17.8013 -17.7559
   -17.7530 -17.7530 -17.7424 -17.7413 -17.7413 -17.7222 -17.7222 -17.7210
     4.2032   5.4387   5.9949   6.0507   6.0507   6.5922   8.0147   9.3070
    10.6109  10.8097  10.9387  10.9387  11.1229  11.1805  11.1818  11.1818
    11.2873  11.6056  11.6056  11.6183  11.7155  11.7189  11.7189  11.7352
    11.7572  11.8990  11.9743  11.9758  11.9758  12.0069  12.0069  12.0318
    12.1048  12.1554  12.1862  12.2367  12.2872  12.2872  12.3076  12.4157
    12.4157  12.4645  12.4965  12.5165  12.5415  12.5415  12.7427  12.8220
    12.8700  12.8700  12.8812  12.9476  12.9476  12.9553  13.0002  13.1136
    13.1165  13.1165  13.2211  13.2666  13.2853  13.2853  13.3275  13.3609
    13.3609  13.6403  13.6403  13.6459  13.6796  13.7013  13.7013  13.7070
    13.7640  13.8134  13.8257  13.8257  13.8711  13.8757  13.8757  13.8958
    13.9962  14.0531  14.0601  14.0601  14.1045  14.5310  14.6491  14.6491
    14.6617  14.6969  14.8202  14.9628  14.9628  14.9700  15.0496  15.2002
    15.4332  15.5017  15.5017  16.1283  16.1283  16.1635  16.1725  16.1730
    16.1730  16.2064  16.2064  16.2855  16.3468  16.3963  16.4125  16.4125
    16.4725  16.5173  16.5173  16.8627  16.9061  16.9064  16.9119  17.4365

          k = 0.0000 0.0000 0.3848 ( 48538 PWs)   bands (ev):

   -72.8945 -72.8826 -72.8713 -72.8603 -72.8601 -72.8601 -72.8442 -72.8356
   -72.8311 -72.8311 -72.8311 -72.8311 -72.8311 -72.8137 -72.8133 -72.8133
   -41.6492 -41.6049 -41.5983 -41.5946 -41.5946 -41.5791 -41.5732 -41.5676
   -39.3319 -39.2875 -39.2073 -39.1643 -39.1612 -39.1612 -39.0818 -39.0468
   -39.0177 -39.0177 -38.9958 -38.9958 -38.9791 -38.9784 -38.9784 -38.9748
   -38.9119 -38.9063 -38.8924 -38.8879 -38.8779 -38.8762 -38.8762 -38.8675
   -38.8668 -38.8460 -38.8460 -38.8452 -38.8426 -38.8292 -38.8292 -38.8217
   -38.8132 -38.8083 -38.8083 -38.7961 -38.7932 -38.7932 -38.7875 -38.7752
   -38.7666 -38.7666 -38.7656 -38.7607 -38.7607 -38.7542 -38.7497 -38.7497
   -17.9141 -17.9116 -17.9116 -17.8879 -17.8879 -17.8877 -17.8797 -17.8797
   -17.8705 -17.8435 -17.8176 -17.8170 -17.8170 -17.8132 -17.7898 -17.7605
   -17.7518 -17.7518 -17.7429 -17.7394 -17.7394 -17.7246 -17.7246 -17.7209
     4.4344   4.9459   5.9988   6.0547   6.0547   7.0045   7.9605   9.5845
    10.0497  10.7020  11.0880  11.0880  11.2178  11.2559  11.2559  11.2767
    11.2803  11.3284  11.3284  11.4799  11.6033  11.6033  11.6347  11.6960
    11.7052  11.7928  11.9922  12.0587  12.0661  12.0661  12.1164  12.1164
    12.1473  12.1473  12.1490  12.1538  12.1704  12.1787  12.3117  12.3264
    12.3264  12.3881  12.3881  12.4362  12.4914  12.5198  12.8177  12.8966
    12.9692  12.9692  12.9956  12.9978  13.0929  13.0929  13.1032  13.1775
    13.1775  13.2360  13.3254  13.4136  13.4329  13.4329  13.4620  13.4639
    13.4718  13.4718  13.5269  13.5269  13.5624  13.5854  13.5854  13.6000
    13.6060  13.6542  13.6675  13.6675  13.8563  13.8764  14.1514  14.1514
    14.2106  14.2510  14.2510  14.2584  14.3226  14.4507  14.4507  14.4639
    14.6429  14.6678  14.8003  14.8213  14.8213  14.8988  15.0107  15.2109
    15.6714  15.7805  15.7805  15.9975  15.9975  16.0158  16.1371  16.1371
    16.1371  16.1399  16.1782  16.1782  16.2224  16.2344  16.2549  16.2549
    16.3510  16.3510  16.5023  16.9027  17.0836  17.0836  17.0990  17.1098

          k = 0.0000 0.1924 0.1924 ( 48486 PWs)   bands (ev):

   -72.8960 -72.8802 -72.8698 -72.8656 -72.8594 -72.8536 -72.8505 -72.8335
   -72.8311 -72.8311 -72.8311 -72.8311 -72.8311 -72.8135 -72.8133 -72.8133
   -41.6492 -41.6052 -41.5972 -41.5953 -41.5941 -41.5779 -41.5764 -41.5662
   -39.3500 -39.2485 -39.2210 -39.1931 -39.1539 -39.1240 -39.1113 -39.0368
   -39.0285 -39.0253 -38.9822 -38.9820 -38.9813 -38.9806 -38.9771 -38.9748
   -38.9108 -38.9085 -38.8891 -38.8853 -38.8835 -38.8759 -38.8715 -38.8703
   -38.8613 -38.8496 -38.8495 -38.8427 -38.8397 -38.8391 -38.8338 -38.8311
   -38.8200 -38.8112 -38.8089 -38.7981 -38.7978 -38.7904 -38.7878 -38.7702
   -38.7664 -38.7643 -38.7618 -38.7568 -38.7551 -38.7517 -38.7503 -38.7485
   -17.9139 -17.9121 -17.9120 -17.8895 -17.8876 -17.8848 -17.8794 -17.8774
   -17.8747 -17.8332 -17.8322 -17.8248 -17.8080 -17.8005 -17.8003 -17.7576
   -17.7522 -17.7518 -17.7433 -17.7416 -17.7398 -17.7238 -17.7228 -17.7215
     4.2850   5.3701   5.5784   6.0154   6.4306   6.7435   7.9735   9.3990
    10.6064  10.7313  10.8309  10.9801  10.9826  11.1809  11.2092  11.2767
    11.3182  11.5046  11.5484  11.5816  11.6054  11.6372  11.6413  11.6920
    11.7634  11.8035  11.8834  11.9372  12.0147  12.0159  12.1007  12.1262
    12.1280  12.1387  12.1848  12.2178  12.2824  12.3464  12.3661  12.3874
    12.4366  12.4814  12.4910  12.5146  12.5556  12.6629  12.6978  12.7708
    12.7999  12.8095  12.8536  12.8996  12.9581  12.9641  13.0575  13.1158
    13.1765  13.1816  13.2617  13.3316  13.3442  13.3592  13.3809  13.4538
    13.4695  13.5416  13.5815  13.5930  13.6140  13.6733  13.6856  13.6996
    13.7798  13.7983  13.8029  13.8388  13.8426  13.8904  13.9228  13.9301
    13.9679  14.0357  14.1627  14.2572  14.2968  14.3199  14.5567  14.6442
    14.6795  14.6983  14.7803  14.8450  14.9894  15.1286  15.1479  15.2374
    15.4121  15.6100  15.6276  16.0205  16.0968  16.1053  16.1147  16.1333
    16.1480  16.1655  16.1828  16.2444  16.3017  16.3626  16.3931  16.4129
    16.4388  16.5152  16.5612  16.5983  16.6430  17.0878  17.1264  17.2550

          k = 0.0000 0.1924 0.3848 ( 48550 PWs)   bands (ev):

   -72.8939 -72.8817 -72.8732 -72.8672 -72.8584 -72.8530 -72.8445 -72.8367
   -72.8311 -72.8311 -72.8311 -72.8311 -72.8311 -72.8136 -72.8134 -72.8133
   -41.6492 -41.6043 -41.5992 -41.5960 -41.5936 -41.5775 -41.5733 -41.5684
   -39.3248 -39.2827 -39.2293 -39.2052 -39.1436 -39.1184 -39.0802 -39.0458
   -39.0184 -39.0151 -38.9978 -38.9951 -38.9872 -38.9843 -38.9798 -38.9783
   -38.9105 -38.9049 -38.8908 -38.8865 -38.8803 -38.8776 -38.8744 -38.8695
   -38.8623 -38.8535 -38.8465 -38.8398 -38.8368 -38.8287 -38.8267 -38.8231
   -38.8149 -38.8100 -38.8072 -38.8013 -38.7940 -38.7917 -38.7827 -38.7758
   -38.7686 -38.7663 -38.7648 -38.7618 -38.7589 -38.7531 -38.7518 -38.7506
   -17.9141 -17.9108 -17.9104 -17.8907 -17.8880 -17.8842 -17.8804 -17.8784
   -17.8702 -17.8449 -17.8336 -17.8302 -17.8025 -17.7989 -17.7882 -17.7622
   -17.7507 -17.7505 -17.7442 -17.7410 -17.7373 -17.7268 -17.7248 -17.7218
     4.5068   4.9761   5.5368   5.9605   6.5415   7.0948   7.8644   9.6747
    10.1303  10.6972  10.9246  11.1105  11.1163  11.1538  11.2502  11.2776
    11.2945  11.3303  11.3356  11.3883  11.4567  11.5309  11.6323  11.6800
    11.7179  11.7969  11.8001  11.8695  12.0875  12.1032  12.1388  12.1756
    12.1798  12.1992  12.2127  12.2258  12.2507  12.2846  12.3061  12.3514
    12.3726  12.3811  12.3930  12.5785  12.5850  12.6175  12.7357  12.7795
    12.8042  12.8081  12.8920  12.9852  13.1197  13.1655  13.1874  13.2296
    13.2503  13.2726  13.2860  13.3010  13.3332  13.3706  13.4210  13.4616
    13.4755  13.4991  13.5309  13.5439  13.5593  13.5872  13.6197  13.6626
    13.6898  13.7054  13.7459  13.7762  13.8703  13.9003  14.0306  14.0675
    14.1256  14.1676  14.2099  14.3688  14.3994  14.5010  14.5224  14.5843
    14.5992  14.6287  14.6735  14.7834  15.0854  15.1210  15.1946  15.2624
    15.6778  15.8221  15.8449  15.9625  15.9875  16.0020  16.0544  16.0641
    16.0759  16.0893  16.1197  16.1305  16.1593  16.2124  16.2274  16.2758
    16.3195  16.3922  16.6380  16.8262  16.8748  17.0384  17.0782  17.1407

          k = 0.0000 0.3848 0.3848 ( 48478 PWs)   bands (ev):

   -72.8928 -72.8795 -72.8757 -72.8727 -72.8562 -72.8472 -72.8445 -72.8399
   -72.8312 -72.8311 -72.8311 -72.8311 -72.8311 -72.8136 -72.8134 -72.8134
   -41.6492 -41.6027 -41.6003 -41.5986 -41.5925 -41.5747 -41.5731 -41.5703
   -39.3060 -39.2733 -39.2588 -39.2380 -39.1240 -39.0840 -39.0755 -39.0504
   -39.0153 -39.0092 -39.0013 -38.9996 -38.9961 -38.9932 -38.9869 -38.9839
   -38.9093 -38.9010 -38.8873 -38.8831 -38.8808 -38.8784 -38.8775 -38.8656
   -38.8652 -38.8552 -38.8491 -38.8460 -38.8295 -38.8277 -38.8224 -38.8212
   -38.8117 -38.8116 -38.8082 -38.7972 -38.7938 -38.7916 -38.7835 -38.7806
   -38.7684 -38.7665 -38.7649 -38.7621 -38.7608 -38.7546 -38.7517 -38.7495
   -17.9133 -17.9093 -17.9091 -17.8931 -17.8883 -17.8816 -17.8814 -17.8759
   -17.8674 -17.8469 -17.8469 -17.8407 -17.7932 -17.7861 -17.7847 -17.7673
   -17.7484 -17.7479 -17.7457 -17.7441 -17.7331 -17.7309 -17.7254 -17.7242
     4.7080   4.9955   5.1629   5.8173   6.9849   7.2445   7.6128   9.9368
    10.3127  10.4391  10.7174  10.8346  11.1821  11.2221  11.2366  11.2450
    11.2735  11.3081  11.3181  11.3201  11.3966  11.4644  11.4650  11.6224
    11.6838  11.7047  11.7304  11.7862  12.1207  12.1655  12.1824  12.2071
    12.2261  12.2524  12.2672  12.3063  12.3076  12.3511  12.3868  12.4603
    12.4640  12.5074  12.5290  12.5461  12.5607  12.6161  12.6193  12.6894
    12.7059  12.7440  12.8801  12.9318  12.9970  13.0260  13.1224  13.1357
    13.1700  13.2119  13.2914  13.3045  13.3386  13.3730  13.3765  13.4246
    13.4946  13.5228  13.5704  13.6510  13.6858  13.7028  13.7168  13.7233
    13.7619  13.8069  13.8367  13.8484  13.9054  13.9157  13.9583  14.1029
    14.1168  14.1531  14.2252  14.3380  14.4047  14.4211  14.4708  14.5035
    14.5377  14.6543  14.6855  14.7471  15.3962  15.4311  15.5373  15.6056
    15.7257  15.9032  15.9341  15.9473  15.9654  15.9713  15.9792  15.9971
    16.0040  16.0168  16.0268  16.0477  16.0754  16.1495  16.1639  16.1739
    16.3049  16.4408  16.4562  16.7275  16.8781  16.9691  17.1219  17.2126

          k = 0.1924 0.1924 0.1924 ( 48503 PWs)   bands (ev):

   -72.8951 -72.8804 -72.8698 -72.8698 -72.8578 -72.8505 -72.8505 -72.8346
   -72.8311 -72.8311 -72.8311 -72.8311 -72.8311 -72.8135 -72.8133 -72.8133
   -41.6492 -41.6048 -41.5972 -41.5972 -41.5934 -41.5764 -41.5764 -41.5670
   -39.3418 -39.2530 -39.2219 -39.2219 -39.1381 -39.1081 -39.1081 -39.0362
   -39.0250 -39.0250 -38.9866 -38.9849 -38.9849 -38.9835 -38.9797 -38.9797
   -38.9083 -38.9083 -38.8889 -38.8827 -38.8827 -38.8746 -38.8741 -38.8741
   -38.8538 -38.8538 -38.8513 -38.8418 -38.8418 -38.8362 -38.8285 -38.8285
   -38.8244 -38.8057 -38.8057 -38.7994 -38.7930 -38.7907 -38.7907 -38.7704
   -38.7704 -38.7656 -38.7620 -38.7583 -38.7583 -38.7507 -38.7507 -38.7476
   -17.9133 -17.9114 -17.9114 -17.8891 -17.8891 -17.8828 -17.8783 -17.8783
   -17.8752 -17.8358 -17.8358 -17.8340 -17.7980 -17.7980 -17.7974 -17.7576
   -17.7519 -17.7519 -17.7425 -17.7425 -17.7396 -17.7249 -17.7230 -17.7230
     4.3622   5.3741   5.3741   5.9179   6.7427   6.7427   7.9214   9.4912
    10.5995  10.7987  10.7987  10.8677  11.0239  11.0239  11.2618  11.2998
    11.2998  11.4161  11.5427  11.5427  11.5911  11.6257  11.6257  11.6553
    11.6553  11.6713  11.7104  11.8666  12.0407  12.0407  12.1621  12.1621
    12.1724  12.2269  12.2269  12.2966  12.2966  12.3418  12.3490  12.4530
    12.4530  12.4556  12.5132  12.5132  12.6401  12.6796  12.6796  12.6998
    12.6998  12.7669  12.9236  12.9236  12.9986  12.9986  13.0173  13.0969
    13.1277  13.1461  13.1461  13.3958  13.3958  13.3983  13.4533  13.4533
    13.4923  13.4923  13.5328  13.5574  13.5781  13.5781  13.7442  13.7442
    13.7699  13.8699  13.8916  13.8916  13.9150  13.9150  13.9186  13.9557
    13.9557  13.9837  14.2893  14.2893  14.3631  14.3877  14.3877  14.5692
    14.6575  14.6976  14.6976  15.0832  15.0832  15.2379  15.2881  15.2881
    15.3486  15.6784  15.6784  15.9589  15.9589  16.0006  16.1059  16.1081
    16.1081  16.1472  16.1472  16.2896  16.2896  16.3832  16.3866  16.4155
    16.4155  16.4529  16.4864  16.5462  16.5462  17.1935  17.1936  17.2372

          k = 0.1924 0.1924 0.3848 ( 48490 PWs)   bands (ev):

   -72.8934 -72.8810 -72.8741 -72.8698 -72.8573 -72.8505 -72.8447 -72.8377
   -72.8311 -72.8311 -72.8311 -72.8311 -72.8311 -72.8136 -72.8134 -72.8133
   -41.6492 -41.6038 -41.5996 -41.5972 -41.5931 -41.5763 -41.5733 -41.5690
   -39.3189 -39.2796 -39.2399 -39.2232 -39.1311 -39.1026 -39.0772 -39.0443
   -39.0164 -39.0158 -38.9983 -38.9967 -38.9919 -38.9887 -38.9828 -38.9824
   -38.9081 -38.9041 -38.8893 -38.8836 -38.8816 -38.8757 -38.8718 -38.8717
   -38.8609 -38.8541 -38.8485 -38.8435 -38.8383 -38.8311 -38.8239 -38.8214
   -38.8207 -38.8072 -38.8072 -38.8013 -38.8002 -38.7871 -38.7821 -38.7743
   -38.7732 -38.7660 -38.7624 -38.7601 -38.7591 -38.7529 -38.7515 -38.7489
   -17.9131 -17.9103 -17.9095 -17.8900 -17.8890 -17.8820 -17.8795 -17.8787
   -17.8713 -17.8473 -17.8396 -17.8383 -17.7945 -17.7935 -17.7859 -17.7614
   -17.7518 -17.7491 -17.7448 -17.7400 -17.7384 -17.7276 -17.7260 -17.7231
     4.5715   4.9964   5.3805   5.8890   6.7415   7.1380   7.7808   9.7640
    10.2107  10.6999  10.9696  10.9790  11.1330  11.1528  11.2150  11.2489
    11.2565  11.2811  11.3509  11.3541  11.3926  11.4531  11.5858  11.6214
    11.6658  11.6845  11.6921  11.7837  12.1227  12.1323  12.2003  12.2148
    12.2148  12.2461  12.2559  12.2861  12.2942  12.3047  12.3411  12.3774
    12.4160  12.4490  12.4816  12.5908  12.6328  12.6649  12.6683  12.7051
    12.7442  12.8385  12.9205  12.9241  12.9751  13.0455  13.1204  13.1441
    13.1922  13.2127  13.2468  13.2794  13.2949  13.3061  13.3591  13.4075
    13.4639  13.4718  13.5759  13.6175  13.6246  13.6563  13.7260  13.7336
    13.7910  13.8001  13.8345  13.8393  13.8746  13.9082  13.9595  14.0295
    14.0684  14.0867  14.2202  14.3256  14.4546  14.4752  14.5942  14.6390
    14.6872  14.6901  14.7366  15.0198  15.2246  15.2942  15.3139  15.3429
    15.6710  15.7713  15.8631  15.8654  15.9389  15.9611  15.9801  15.9980
    16.0192  16.0733  16.0988  16.1549  16.1852  16.1952  16.2279  16.3024
    16.3297  16.3813  16.6379  16.6828  16.6953  16.9776  17.0416  17.0469

          k = 0.1924 0.3848 0.3848 ( 48499 PWs)   bands (ev):

   -72.8927 -72.8791 -72.8757 -72.8737 -72.8559 -72.8464 -72.8445 -72.8405
   -72.8312 -72.8311 -72.8311 -72.8311 -72.8311 -72.8135 -72.8134 -72.8134
   -41.6492 -41.6024 -41.6003 -41.5992 -41.5924 -41.5742 -41.5730 -41.5707
   -39.3035 -39.2740 -39.2601 -39.2466 -39.1170 -39.0760 -39.0696 -39.0474
   -39.0144 -39.0105 -39.0028 -39.0004 -38.9986 -38.9961 -38.9905 -38.9881
   -38.9059 -38.9006 -38.8862 -38.8800 -38.8792 -38.8765 -38.8760 -38.8661
   -38.8630 -38.8549 -38.8499 -38.8478 -38.8366 -38.8326 -38.8266 -38.8243
   -38.8181 -38.8150 -38.8064 -38.8050 -38.7957 -38.7881 -38.7792 -38.7779
   -38.7717 -38.7649 -38.7601 -38.7591 -38.7576 -38.7516 -38.7507 -38.7487
   -17.9115 -17.9085 -17.9085 -17.8913 -17.8884 -17.8801 -17.8799 -17.8760
   -17.8701 -17.8511 -17.8510 -17.8472 -17.7873 -17.7827 -17.7816 -17.7642
   -17.7493 -17.7488 -17.7444 -17.7433 -17.7353 -17.7310 -17.7270 -17.7261
     4.7494   5.0004   5.1209   5.8001   7.0572   7.2368   7.5611  10.0167
    10.3772  10.5311  10.7594  10.9072  11.1634  11.1858  11.1988  11.2218
    11.2365  11.2518  11.2972  11.3252  11.3627  11.4118  11.4482  11.5348
    11.5568  11.5688  11.6196  11.7128  12.1515  12.2007  12.2040  12.2378
    12.2564  12.2944  12.3079  12.3525  12.3845  12.3879  12.4097  12.4561
    12.4989  12.5325  12.5545  12.6097  12.6145  12.6244  12.6706  12.7268
    12.7288  12.7537  12.7854  12.8612  12.8973  12.9288  12.9703  13.0530
    13.0682  13.1109  13.1890  13.2086  13.2139  13.2768  13.2797  13.3496
    13.5899  13.6339  13.6447  13.6944  13.7107  13.7149  13.7847  13.7895
    13.8276  13.8433  13.8508  13.8920  13.9115  13.9260  13.9515  13.9955
    14.0615  14.0983  14.1406  14.1885  14.5452  14.5736  14.6148  14.6952
    14.7666  14.9028  14.9257  15.0651  15.4930  15.5123  15.5982  15.6673
    15.6931  15.8186  15.8239  15.8507  15.8531  15.8814  15.9026  15.9240
    15.9330  16.0533  16.0594  16.0927  16.1416  16.1427  16.1922  16.1982
    16.2866  16.4037  16.4074  16.6168  16.7249  16.7819  16.8556  16.9194

          k = 0.3848 0.3848 0.3848 ( 48449 PWs)   bands (ev):

   -72.8924 -72.8779 -72.8757 -72.8757 -72.8555 -72.8445 -72.8445 -72.8421
   -72.8311 -72.8311 -72.8311 -72.8311 -72.8311 -72.8135 -72.8134 -72.8134
   -41.6492 -41.6017 -41.6004 -41.6004 -41.5922 -41.5730 -41.5730 -41.5716
   -39.2983 -39.2732 -39.2622 -39.2622 -39.1068 -39.0583 -39.0583 -39.0449
   -39.0115 -39.0115 -39.0068 -39.0028 -39.0028 -39.0011 -38.9976 -38.9976
   -38.8999 -38.8999 -38.8840 -38.8797 -38.8797 -38.8761 -38.8652 -38.8652
   -38.8542 -38.8536 -38.8508 -38.8508 -38.8420 -38.8420 -38.8310 -38.8310
   -38.8253 -38.8223 -38.8178 -38.8178 -38.7871 -38.7871 -38.7751 -38.7743
   -38.7743 -38.7582 -38.7557 -38.7551 -38.7551 -38.7488 -38.7488 -38.7474
   -17.9082 -17.9073 -17.9073 -17.8886 -17.8886 -17.8769 -17.8769 -17.8758
   -17.8726 -17.8585 -17.8585 -17.8583 -17.7778 -17.7770 -17.7770 -17.7612
   -17.7495 -17.7495 -17.7413 -17.7413 -17.7405 -17.7317 -17.7303 -17.7303
     4.8588   5.0085   5.0085   5.7773   7.2246   7.2246   7.4245  10.2084
    10.5235  10.7784  10.7784  10.9317  11.1002  11.1218  11.1218  11.1588
    11.1734  11.1734  11.2803  11.2888  11.2888  11.3912  11.3912  11.4230
    11.4266  11.4266  11.4311  11.5605  12.2280  12.2280  12.2811  12.2811
    12.2878  12.3543  12.3543  12.3582  12.4314  12.4958  12.4958  12.5779
    12.5779  12.5969  12.5969  12.6206  12.6624  12.6880  12.6880  12.6953
    12.7280  12.7280  12.7629  12.8141  12.8141  12.8207  12.8207  12.8592
    12.9524  12.9524  13.0710  13.0899  13.1097  13.1097  13.1629  13.1629
    13.6945  13.6945  13.7493  13.7495  13.7495  13.7557  13.8129  13.8129
    13.8660  13.8696  13.8696  13.8979  13.9671  13.9783  13.9783  14.0096
    14.0096  14.0241  14.0396  14.0396  14.8952  14.8952  14.8964  15.0281
    15.1263  15.1378  15.1378  15.3406  15.6502  15.6555  15.6555  15.6942
    15.6942  15.7328  15.7328  15.8080  15.8328  15.8328  15.8405  15.8872
    15.8872  16.0564  16.0564  16.0622  16.0906  16.0906  16.1392  16.1392
    16.2007  16.2931  16.3512  16.3512  16.5606  16.5606  16.5648  16.6097

 ------ SPIN DOWN ----------


          k = 0.0000 0.0000 0.0000 ( 48489 PWs)   bands (ev):

   -70.8265 -70.7957 -70.7721 -70.7721 -70.7721 -70.7709 -70.7709 -70.7398
   -70.7398 -70.7398 -70.7395 -70.7395 -70.7395 -70.7395 -70.7395 -70.7395
   -42.3831 -42.3688 -42.3613 -42.3613 -42.3542 -42.3542 -42.3542 -42.3349
   -37.4522 -37.3022 -37.2243 -37.2243 -37.2204 -37.2204 -37.2204 -37.0530
   -37.0530 -37.0530 -37.0105 -37.0105 -37.0105 -36.9972 -36.9972 -36.9972
   -36.8540 -36.8540 -36.8137 -36.8137 -36.8032 -36.8016 -36.8016 -36.8016
   -36.7841 -36.7841 -36.7841 -36.7702 -36.7702 -36.7702 -36.7545 -36.7545
   -36.7411 -36.7411 -36.7411 -36.7389 -36.7351 -36.7351 -36.7351 -36.6915
   -36.6915 -36.6915 -36.6881 -36.6881 -36.6881 -36.6685 -36.6685 -36.6685
   -18.6680 -18.6680 -18.6680 -18.6630 -18.6630 -18.6630 -18.6418 -18.6418
   -18.6418 -18.5881 -18.5881 -18.5881 -18.5807 -18.5807 -18.5743 -18.5219
   -18.5219 -18.5219 -18.5027 -18.5027 -18.5027 -18.4958 -18.4958 -18.4958
     4.4394   6.3355   6.3355   6.3891   6.3891   6.3891   8.2810   9.4454
    11.1464  11.4302  11.4302  11.4457  11.4457  11.4457  11.8925  11.8925
    11.8925  12.1877  12.4434  12.4434  12.4434  12.4644  12.4644  12.8441
    12.8968  12.8968  12.8968  12.9355  12.9355  12.9355  13.0052  13.0052
    13.0052  13.0941  13.0941  13.0941  13.2029  13.2029  13.2029  13.3814
    13.3814  13.6541  13.6580  13.6580  13.6580  13.6715  13.6715  13.8109
    13.8109  13.8479  13.8479  13.8479  13.8715  13.8715  13.8715  13.8838
    13.9470  13.9470  13.9470  13.9803  13.9803  14.2670  14.2670  14.2670
    14.4319  14.4319  14.4319  14.5714  14.5714  14.5714  15.1103  15.1103
    15.1103  15.4406  15.4406  15.4406  15.4553  15.4553  15.4553  15.6187
    15.6187  15.6677  15.7059  15.7059  15.7127  15.7127  15.7127  15.7796
    15.8189  15.8189  15.8189  15.8652  15.8652  16.0434  16.0434  16.0434
    16.4158  16.4158  16.4158  16.4783  16.4783  16.4783  16.5206  16.5206
    16.5206  16.9267  16.9268  16.9275  16.9510  16.9512  16.9642  17.0178
    17.0543  17.0543  17.0543  17.0860  17.0883  17.1707  17.1708  17.1708

          k = 0.0000 0.0000 0.1924 ( 48469 PWs)   bands (ev):

   -70.8260 -70.7958 -70.7795 -70.7721 -70.7721 -70.7709 -70.7624 -70.7411
   -70.7398 -70.7398 -70.7398 -70.7395 -70.7395 -70.7395 -70.7395 -70.7395
   -42.3822 -42.3700 -42.3640 -42.3613 -42.3542 -42.3542 -42.3502 -42.3360
   -37.4420 -37.3183 -37.2643 -37.2239 -37.2201 -37.2201 -37.1674 -37.0591
   -37.0493 -37.0493 -37.0138 -37.0138 -37.0116 -37.0000 -37.0000 -36.9978
   -36.8540 -36.8531 -36.8148 -36.8117 -36.8096 -36.8036 -36.8036 -36.7945
   -36.7834 -36.7811 -36.7811 -36.7755 -36.7673 -36.7673 -36.7605 -36.7479
   -36.7445 -36.7422 -36.7422 -36.7392 -36.7319 -36.7319 -36.7199 -36.6953
   -36.6937 -36.6937 -36.6903 -36.6875 -36.6875 -36.6720 -36.6708 -36.6708
   -18.6682 -18.6675 -18.6675 -18.6633 -18.6619 -18.6619 -18.6442 -18.6442
   -18.6390 -18.6013 -18.5879 -18.5879 -18.5804 -18.5764 -18.5648 -18.5251
   -18.5194 -18.5194 -18.5035 -18.5035 -18.5026 -18.4968 -18.4968 -18.4958
     4.5286   5.7859   6.3392   6.3928   6.3928   6.9175   8.2656   9.5194
    10.7536  11.2291  11.4413  11.4554  11.4554  11.7179  11.9407  11.9407
    12.0021  12.1277  12.3111  12.3309  12.3309  12.3480  12.6380  12.6380
    12.7277  12.8465  12.8856  12.8981  12.8989  12.8989  12.9294  13.0422
    13.0422  13.1613  13.1822  13.1822  13.2464  13.3931  13.3931  13.3973
    13.4161  13.5921  13.6240  13.6240  13.6489  13.6755  13.7538  13.7538
    13.7760  13.7854  13.8529  13.8778  13.9197  13.9234  13.9234  13.9240
    13.9691  14.0023  14.0023  14.0192  14.0307  14.1160  14.2240  14.2240
    14.4559  14.5278  14.5278  14.6007  14.7005  14.7005  15.1195  15.1195
    15.1225  15.2487  15.2709  15.2709  15.2998  15.4677  15.5392  15.5392
    15.5921  15.6740  15.6990  15.7832  15.8179  15.8179  15.8218  15.8623
    15.9375  15.9423  15.9423  15.9579  16.0334  16.0334  16.0427  16.1110
    16.3862  16.3862  16.3983  16.3983  16.4379  16.4578  16.4578  16.4812
    16.5523  16.7486  16.7962  16.8515  16.8559  16.8559  16.8588  16.9143
    16.9588  16.9602  17.0155  17.0338  17.0424  17.1199  17.2106  17.3361

          k = 0.0000 0.0000 0.3848 ( 48538 PWs)   bands (ev):

   -70.8252 -70.7959 -70.7843 -70.7721 -70.7721 -70.7709 -70.7540 -70.7454
   -70.7398 -70.7398 -70.7398 -70.7395 -70.7395 -70.7395 -70.7395 -70.7395
   -42.3797 -42.3736 -42.3656 -42.3613 -42.3542 -42.3542 -42.3443 -42.3390
   -37.4141 -37.3621 -37.2750 -37.2233 -37.2195 -37.2195 -37.1220 -37.0764
   -37.0401 -37.0401 -37.0230 -37.0230 -37.0135 -37.0038 -37.0038 -36.9988
   -36.8540 -36.8515 -36.8169 -36.8134 -36.8060 -36.8059 -36.8059 -36.7905
   -36.7887 -36.7775 -36.7775 -36.7772 -36.7626 -36.7615 -36.7615 -36.7553
   -36.7450 -36.7450 -36.7346 -36.7327 -36.7248 -36.7248 -36.7046 -36.7024
   -36.7001 -36.7001 -36.6937 -36.6838 -36.6838 -36.6813 -36.6763 -36.6763
   -18.6686 -18.6673 -18.6673 -18.6638 -18.6578 -18.6578 -18.6498 -18.6498
   -18.6312 -18.6162 -18.5875 -18.5875 -18.5800 -18.5757 -18.5494 -18.5338
   -18.5136 -18.5136 -18.5072 -18.5072 -18.5026 -18.4981 -18.4981 -18.4957
     4.7702   5.2862   6.3451   6.3988   6.3988   7.3124   8.2147   9.7562
    10.1962  11.2382  11.4625  11.4734  11.4734  11.5267  12.0609  12.0775
    12.0775  12.1252  12.1909  12.1909  12.1943  12.3327  12.3327  12.4975
    12.7396  12.8056  12.8285  12.8344  12.8344  12.8484  13.1407  13.1407
    13.1553  13.2678  13.2678  13.2689  13.3003  13.3448  13.3448  13.4122
    13.5071  13.5591  13.5631  13.5631  13.6108  13.6584  13.6717  13.7386
    13.8743  13.8743  13.8885  13.9134  13.9515  13.9554  13.9861  13.9891
    13.9891  14.0488  14.0940  14.0940  14.1503  14.2463  14.2463  14.2692
    14.3875  14.5041  14.5041  14.5289  14.9088  14.9088  15.0680  15.0680
    15.1020  15.1414  15.1414  15.1544  15.1692  15.2813  15.5787  15.6308
    15.7162  15.7814  15.7814  15.8292  15.9909  15.9909  16.0095  16.0125
    16.0125  16.0197  16.0733  16.1185  16.1185  16.1530  16.2147  16.2316
    16.2316  16.2771  16.2771  16.2939  16.3531  16.3550  16.3550  16.3854
    16.5335  16.6076  16.6484  16.6773  16.6773  16.7438  16.8910  16.9345
    16.9704  16.9706  16.9787  17.0039  17.0040  17.0162  17.1033  17.1391

          k = 0.0000 0.1924 0.1924 ( 48486 PWs)   bands (ev):

   -70.8256 -70.7955 -70.7817 -70.7773 -70.7713 -70.7645 -70.7613 -70.7426
   -70.7398 -70.7398 -70.7398 -70.7395 -70.7395 -70.7395 -70.7395 -70.7395
   -42.3813 -42.3705 -42.3655 -42.3630 -42.3538 -42.3510 -42.3499 -42.3370
   -37.4325 -37.3240 -37.2857 -37.2552 -37.2116 -37.1767 -37.1612 -37.0621
   -37.0489 -37.0460 -37.0168 -37.0154 -37.0141 -37.0035 -37.0007 -37.0001
   -36.8535 -36.8524 -36.8134 -36.8123 -36.8110 -36.8034 -36.7984 -36.7983
   -36.7923 -36.7796 -36.7791 -36.7710 -36.7659 -36.7654 -36.7552 -36.7506
   -36.7500 -36.7425 -36.7424 -36.7391 -36.7280 -36.7227 -36.7159 -36.7046
   -36.6941 -36.6921 -36.6889 -36.6888 -36.6868 -36.6776 -36.6732 -36.6702
   -18.6688 -18.6671 -18.6665 -18.6620 -18.6618 -18.6605 -18.6466 -18.6436
   -18.6390 -18.6020 -18.6014 -18.5936 -18.5725 -18.5651 -18.5632 -18.5254
   -18.5198 -18.5171 -18.5049 -18.5041 -18.5027 -18.4984 -18.4974 -18.4958
     4.6140   5.7206   5.9273   6.3585   6.7601   7.0637   8.2271   9.5944
    10.7278  10.8741  11.2961  11.4025  11.6707  11.8781  11.9619  11.9755
    12.0381  12.0894  12.1880  12.2346  12.3571  12.3677  12.4082  12.5780
    12.6189  12.6386  12.8047  12.8603  12.9764  12.9988  13.0704  13.1188
    13.1202  13.2121  13.2176  13.2881  13.3543  13.3892  13.4235  13.4284
    13.4383  13.5565  13.5718  13.5796  13.6998  13.7580  13.7650  13.7872
    13.8139  13.8172  13.8225  13.8438  13.8660  13.8729  13.9201  13.9512
    13.9755  13.9986  14.0052  14.0435  14.0460  14.0505  14.1293  14.2197
    14.5745  14.6110  14.6831  14.7297  14.7367  14.7760  15.1148  15.1446
    15.1456  15.1549  15.2009  15.2326  15.3108  15.3844  15.3994  15.6191
    15.6730  15.6733  15.7143  15.7147  15.7617  15.8727  15.8900  15.9760
    15.9889  16.0113  16.0180  16.0336  16.0623  16.1007  16.1155  16.1753
    16.2883  16.3038  16.3803  16.3916  16.4021  16.4225  16.4246  16.4770
    16.5373  16.7038  16.7122  16.7421  16.7980  16.8607  16.8826  16.8993
    16.9087  16.9469  16.9493  16.9987  17.0193  17.0328  17.0814  17.1790

          k = 0.0000 0.1924 0.3848 ( 48550 PWs)   bands (ev):

   -70.8249 -70.7949 -70.7858 -70.7789 -70.7702 -70.7638 -70.7546 -70.7466
   -70.7398 -70.7398 -70.7398 -70.7395 -70.7395 -70.7395 -70.7395 -70.7395
   -42.3791 -42.3731 -42.3671 -42.3639 -42.3528 -42.3512 -42.3449 -42.3399
   -37.4070 -37.3569 -37.2976 -37.2683 -37.2005 -37.1720 -37.1222 -37.0784
   -37.0409 -37.0379 -37.0251 -37.0230 -37.0170 -37.0082 -37.0047 -37.0010
   -36.8532 -36.8507 -36.8144 -36.8128 -36.8070 -36.8050 -36.8021 -36.7942
   -36.7901 -36.7873 -36.7809 -36.7706 -36.7663 -36.7598 -36.7529 -36.7509
   -36.7436 -36.7423 -36.7407 -36.7343 -36.7240 -36.7210 -36.7145 -36.7035
   -36.7003 -36.6933 -36.6896 -36.6868 -36.6862 -36.6813 -36.6788 -36.6744
   -18.6691 -18.6678 -18.6650 -18.6604 -18.6588 -18.6564 -18.6520 -18.6485
   -18.6319 -18.6172 -18.6020 -18.5992 -18.5665 -18.5630 -18.5483 -18.5331
   -18.5149 -18.5116 -18.5084 -18.5064 -18.5044 -18.5007 -18.4982 -18.4960
     4.8458   5.3209   5.8915   6.3037   6.8676   7.3970   8.1238   9.8280
    10.2556  10.9283  11.1478  11.3249  11.7375  11.8549  11.9742  12.0528
    12.0864  12.1263  12.1366  12.2042  12.2500  12.2646  12.3291  12.4056
    12.5136  12.5406  12.6122  12.8608  13.1086  13.1292  13.1714  13.2329
    13.2517  13.2830  13.3037  13.3319  13.3596  13.3635  13.4427  13.4448
    13.4949  13.5083  13.5180  13.5861  13.6488  13.6880  13.7269  13.7616
    13.8082  13.8204  13.8416  13.8601  13.8755  13.9200  13.9806  14.0002
    14.0075  14.0190  14.0510  14.0594  14.0896  14.1147  14.1541  14.2109
    14.6466  14.6834  14.7206  14.7497  14.9366  14.9603  15.0546  15.0710
    15.1082  15.1480  15.1670  15.1811  15.2530  15.2603  15.5355  15.5932
    15.6190  15.6818  15.8060  15.8796  15.9020  15.9524  15.9950  16.0136
    16.0457  16.0626  16.0843  16.1336  16.1376  16.1841  16.2090  16.2335
    16.2481  16.2495  16.2720  16.2904  16.3121  16.3607  16.4177  16.4365
    16.4598  16.5805  16.6452  16.6600  16.7025  16.7610  16.7919  16.8302
    16.8641  16.8894  16.8998  16.9206  16.9586  16.9975  17.0534  17.1642

          k = 0.0000 0.3848 0.3848 ( 48478 PWs)   bands (ev):

   -70.8246 -70.7922 -70.7880 -70.7848 -70.7675 -70.7577 -70.7550 -70.7501
   -70.7398 -70.7398 -70.7398 -70.7396 -70.7395 -70.7395 -70.7395 -70.7395
   -42.3777 -42.3718 -42.3695 -42.3674 -42.3502 -42.3472 -42.3459 -42.3424
   -37.3893 -37.3464 -37.3267 -37.3047 -37.1779 -37.1328 -37.1204 -37.0907
   -37.0385 -37.0327 -37.0305 -37.0257 -37.0216 -37.0140 -37.0070 -37.0058
   -36.8525 -36.8489 -36.8104 -36.8084 -36.8047 -36.8035 -36.8018 -36.7983
   -36.7967 -36.7891 -36.7875 -36.7769 -36.7595 -36.7559 -36.7502 -36.7477
   -36.7410 -36.7391 -36.7389 -36.7365 -36.7278 -36.7185 -36.7099 -36.7078
   -36.7011 -36.6989 -36.6947 -36.6854 -36.6824 -36.6807 -36.6789 -36.6748
   -18.6684 -18.6662 -18.6623 -18.6611 -18.6579 -18.6537 -18.6528 -18.6481
   -18.6298 -18.6182 -18.6167 -18.6114 -18.5543 -18.5480 -18.5469 -18.5358
   -18.5153 -18.5105 -18.5090 -18.5070 -18.5051 -18.5036 -18.4995 -18.4977
     5.0548   5.3481   5.5182   6.1557   7.2905   7.5366   7.8858  10.0384
    10.3812  10.5251  10.7758  11.3358  11.9310  11.9793  12.0293  12.0834
    12.0856  12.0981  12.1028  12.1422  12.1435  12.1928  12.2382  12.3236
    12.3805  12.3866  12.4225  12.8845  13.2128  13.3039  13.3138  13.3380
    13.3513  13.3933  13.3936  13.4261  13.4489  13.4727  13.4935  13.4973
    13.5229  13.5245  13.5418  13.5619  13.6138  13.6392  13.6862  13.7053
    13.7186  13.7259  13.7369  13.7928  13.7985  13.8088  13.8528  13.8897
    14.0193  14.0398  14.0649  14.1390  14.1493  14.1514  14.2197  14.2227
    14.9134  14.9151  14.9387  14.9743  14.9744  15.0115  15.0370  15.0762
    15.0976  15.1928  15.2030  15.2523  15.3044  15.3816  15.3952  15.4504
    15.5396  15.5791  15.6840  15.8473  15.8678  15.9436  15.9704  16.0511
    16.0974  16.1256  16.1291  16.1429  16.1441  16.1700  16.1985  16.2022
    16.2241  16.2724  16.3124  16.3161  16.3363  16.3638  16.3703  16.3920
    16.4308  16.4590  16.5828  16.6172  16.6801  16.7045  16.7194  16.7969
    16.8484  16.8710  16.8899  16.9028  16.9108  16.9236  17.0245  17.0917

          k = 0.1924 0.1924 0.1924 ( 48503 PWs)   bands (ev):

   -70.8253 -70.7951 -70.7817 -70.7817 -70.7695 -70.7613 -70.7613 -70.7440
   -70.7398 -70.7398 -70.7398 -70.7395 -70.7395 -70.7395 -70.7395 -70.7395
   -42.3805 -42.3709 -42.3655 -42.3655 -42.3517 -42.3499 -42.3499 -42.3380
   -37.4239 -37.3289 -37.2864 -37.2864 -37.1938 -37.1588 -37.1588 -37.0646
   -37.0460 -37.0460 -37.0193 -37.0170 -37.0170 -37.0040 -37.0034 -37.0034
   -36.8523 -36.8523 -36.8120 -36.8108 -36.8108 -36.8028 -36.8028 -36.7984
   -36.7858 -36.7858 -36.7819 -36.7680 -36.7653 -36.7653 -36.7525 -36.7525
   -36.7478 -36.7442 -36.7418 -36.7418 -36.7198 -36.7198 -36.7126 -36.7063
   -36.6998 -36.6998 -36.6857 -36.6857 -36.6843 -36.6791 -36.6791 -36.6685
   -18.6673 -18.6670 -18.6670 -18.6611 -18.6611 -18.6589 -18.6455 -18.6455
   -18.6401 -18.6047 -18.6047 -18.6034 -18.5623 -18.5623 -18.5598 -18.5249
   -18.5179 -18.5179 -18.5057 -18.5057 -18.5023 -18.4998 -18.4973 -18.4973
     4.6948   5.7277   5.7277   6.2587   7.0598   7.0598   8.1755   9.6698
    10.7055  10.9094  10.9094  11.4657  11.8656  11.8656  11.9268  11.9455
    11.9455  12.1562  12.1562  12.1587  12.3453  12.3606  12.3606  12.4899
    12.4899  12.5065  12.6941  12.8481  13.1109  13.1242  13.1242  13.1522
    13.1522  13.3117  13.3117  13.3513  13.3848  13.4131  13.4131  13.4530
    13.4530  13.5994  13.6136  13.6136  13.6871  13.7425  13.7425  13.7834
    13.7834  13.7840  13.8089  13.8089  13.8713  13.8746  13.9171  13.9171
    13.9436  13.9436  13.9442  14.0226  14.0226  14.1017  14.1890  14.1890
    14.7348  14.7439  14.7439  14.8185  14.8286  14.8286  15.1371  15.1371
    15.1726  15.2208  15.2208  15.2294  15.2933  15.3031  15.3031  15.6341
    15.6341  15.7066  15.7066  15.7365  15.8094  15.8094  15.8268  16.0208
    16.0522  16.0767  16.0767  16.0982  16.0982  16.1572  16.1990  16.1990
    16.2734  16.2851  16.2851  16.3355  16.3355  16.3808  16.3808  16.3918
    16.6655  16.6655  16.7031  16.7080  16.7457  16.7616  16.7616  16.8557
    16.8557  16.9734  16.9754  16.9909  16.9911  17.0321  17.0360  17.0878

          k = 0.1924 0.1924 0.3848 ( 48490 PWs)   bands (ev):

   -70.8248 -70.7941 -70.7865 -70.7817 -70.7689 -70.7613 -70.7549 -70.7477
   -70.7398 -70.7398 -70.7398 -70.7395 -70.7395 -70.7395 -70.7395 -70.7395
   -42.3786 -42.3727 -42.3680 -42.3656 -42.3514 -42.3499 -42.3453 -42.3407
   -37.4010 -37.3534 -37.3085 -37.2877 -37.1871 -37.1547 -37.1207 -37.0795
   -37.0393 -37.0386 -37.0259 -37.0249 -37.0199 -37.0097 -37.0076 -37.0040
   -36.8520 -36.8502 -36.8121 -36.8106 -36.8085 -36.8023 -36.8014 -36.7973
   -36.7895 -36.7884 -36.7797 -36.7749 -36.7675 -36.7622 -36.7529 -36.7470
   -36.7444 -36.7425 -36.7383 -36.7382 -36.7211 -36.7207 -36.7131 -36.7055
   -36.7020 -36.6959 -36.6915 -36.6877 -36.6828 -36.6815 -36.6776 -36.6712
   -18.6677 -18.6672 -18.6642 -18.6583 -18.6578 -18.6562 -18.6505 -18.6498
   -18.6337 -18.6194 -18.6087 -18.6075 -18.5583 -18.5563 -18.5461 -18.5315
   -18.5134 -18.5132 -18.5084 -18.5079 -18.5050 -18.5021 -18.4991 -18.4973
     4.9139   5.3457   5.7393   6.2328   7.0533   7.4323   8.0398   9.8956
    10.3180  10.8653  10.9802  11.3422  11.7149  11.7879  11.9686  12.0537
    12.0734  12.1368  12.1531  12.1864  12.2396  12.2458  12.2782  12.3517
    12.4083  12.4191  12.5000  12.8455  13.2311  13.2314  13.2524  13.2951
    13.3055  13.3350  13.3550  13.3834  13.3847  13.4219  13.4682  13.4770
    13.5268  13.5448  13.5587  13.6136  13.6241  13.6943  13.7065  13.7381
    13.7578  13.8044  13.8134  13.8162  13.8436  13.8625  13.9141  13.9430
    13.9594  13.9849  14.0156  14.0420  14.0737  14.1400  14.1631  14.2072
    14.7955  14.8353  14.8531  14.9093  14.9807  15.0234  15.0896  15.1335
    15.1380  15.1544  15.1909  15.2747  15.2873  15.3144  15.4698  15.5667
    15.6306  15.6829  15.7065  15.8023  15.8359  15.8823  15.9254  15.9542
    16.0654  16.0894  16.1431  16.1442  16.1611  16.2076  16.2132  16.2205
    16.2386  16.2509  16.2736  16.2841  16.3575  16.3577  16.3922  16.3997
    16.4785  16.4905  16.5388  16.5897  16.6537  16.6775  16.7114  16.7786
    16.7924  16.8445  16.9496  16.9601  16.9999  17.0598  17.0618  17.0989

          k = 0.1924 0.3848 0.3848 ( 48499 PWs)   bands (ev):

   -70.8245 -70.7917 -70.7880 -70.7858 -70.7671 -70.7570 -70.7550 -70.7507
   -70.7398 -70.7398 -70.7398 -70.7396 -70.7395 -70.7395 -70.7395 -70.7395
   -42.3776 -42.3716 -42.3695 -42.3681 -42.3496 -42.3469 -42.3459 -42.3428
   -37.3873 -37.3461 -37.3279 -37.3133 -37.1717 -37.1249 -37.1156 -37.0894
   -37.0376 -37.0342 -37.0309 -37.0276 -37.0245 -37.0148 -37.0103 -37.0095
   -36.8508 -36.8486 -36.8092 -36.8058 -36.8056 -36.8039 -36.8010 -36.7976
   -36.7937 -36.7877 -36.7857 -36.7768 -36.7638 -36.7617 -36.7547 -36.7510
   -36.7443 -36.7416 -36.7400 -36.7390 -36.7196 -36.7154 -36.7098 -36.7062
   -36.7041 -36.6997 -36.6983 -36.6919 -36.6774 -36.6762 -36.6752 -36.6710
   -18.6665 -18.6636 -18.6624 -18.6586 -18.6557 -18.6532 -18.6526 -18.6486
   -18.6335 -18.6228 -18.6215 -18.6179 -18.5479 -18.5436 -18.5427 -18.5323
   -18.5148 -18.5107 -18.5096 -18.5092 -18.5055 -18.5051 -18.5013 -18.4999
     5.1001   5.3571   5.4804   6.1427   7.3467   7.5176   7.8249  10.0752
    10.4349  10.6051  10.7980  11.3375  11.7226  11.8624  11.9271  11.9982
    12.0480  12.1174  12.1323  12.1525  12.1688  12.1838  12.2073  12.2669
    12.3183  12.3189  12.3557  12.8341  13.3120  13.3704  13.3833  13.3914
    13.4045  13.4186  13.4531  13.4596  13.4814  13.4923  13.5244  13.5346
    13.5433  13.5470  13.5763  13.5836  13.6332  13.6503  13.6806  13.6822
    13.6935  13.7193  13.7485  13.7499  13.7752  13.7928  13.8387  13.8794
    13.9829  14.0045  14.0162  14.0642  14.1133  14.1539  14.1955  14.2069
    14.9870  15.0206  15.0489  15.0756  15.0798  15.1199  15.1248  15.1662
    15.2258  15.2535  15.3283  15.3360  15.3833  15.4297  15.4407  15.5132
    15.5186  15.5757  15.6667  15.7145  15.7731  15.8056  15.9239  15.9554
    15.9818  15.9917  16.0723  16.0844  16.1322  16.1797  16.1862  16.1924
    16.2192  16.2548  16.2764  16.2938  16.3104  16.3126  16.3459  16.3592
    16.4398  16.4474  16.5001  16.5479  16.6397  16.7511  16.7586  16.7865
    16.8018  16.8842  16.8853  16.9333  16.9754  17.0608  17.0692  17.1608

          k = 0.3848 0.3848 0.3848 ( 48449 PWs)   bands (ev):

   -70.8245 -70.7903 -70.7880 -70.7880 -70.7667 -70.7550 -70.7550 -70.7525
   -70.7398 -70.7398 -70.7398 -70.7396 -70.7396 -70.7395 -70.7395 -70.7395
   -42.3773 -42.3710 -42.3696 -42.3696 -42.3489 -42.3458 -42.3458 -42.3441
   -37.3835 -37.3427 -37.3297 -37.3297 -37.1629 -37.1069 -37.1069 -37.0914
   -37.0356 -37.0356 -37.0328 -37.0305 -37.0305 -37.0161 -37.0161 -37.0161
   -36.8481 -36.8481 -36.8076 -36.8076 -36.8062 -36.8002 -36.7968 -36.7968
   -36.7918 -36.7820 -36.7795 -36.7795 -36.7669 -36.7669 -36.7608 -36.7608
   -36.7538 -36.7450 -36.7424 -36.7424 -36.7103 -36.7102 -36.7102 -36.7064
   -36.7064 -36.7007 -36.6985 -36.6985 -36.6716 -36.6709 -36.6709 -36.6685
   -18.6622 -18.6622 -18.6574 -18.6538 -18.6538 -18.6518 -18.6499 -18.6499
   -18.6393 -18.6308 -18.6300 -18.6300 -18.5361 -18.5356 -18.5356 -18.5280
   -18.5138 -18.5138 -18.5108 -18.5108 -18.5077 -18.5065 -18.5049 -18.5049
     5.2177   5.3721   5.3721   6.1260   7.4870   7.4870   7.6769  10.1298
    10.5821  10.7718  10.7718  11.3204  11.5944  11.5944  11.7405  12.0317
    12.0422  12.0422  12.1030  12.1030  12.1259  12.1259  12.1303  12.2251
    12.2609  12.2609  12.2821  12.7633  13.4426  13.4426  13.4552  13.4819
    13.4819  13.4990  13.5003  13.5003  13.5449  13.5481  13.5481  13.5681
    13.5738  13.5738  13.6109  13.6155  13.6155  13.6452  13.6506  13.6506
    13.7045  13.7073  13.7073  13.7438  13.7438  13.7828  13.8044  13.8044
    13.9695  13.9997  13.9997  14.0586  14.0586  14.1653  14.1653  14.1697
    15.1619  15.2176  15.2176  15.2511  15.2511  15.2852  15.2852  15.3408
    15.3501  15.3501  15.4454  15.4819  15.5486  15.5486  15.5539  15.5960
    15.5960  15.6243  15.6379  15.6379  15.7187  15.7187  15.7489  15.7600
    15.7600  15.8261  15.8685  15.8685  15.9886  16.1107  16.1107  16.1139
    16.1665  16.1665  16.2006  16.2136  16.2136  16.2141  16.2733  16.2733
    16.4672  16.4769  16.4769  16.7133  16.7711  16.7711  16.8157  16.8157
    16.8200  16.8273  16.8604  16.8605  16.9358  16.9856  16.9856  17.0305

     the Fermi energy is    15.2045 ev

!    total energy              =   -6230.61206996 Ry
     estimated scf accuracy    <          9.0E-11 Ry
     smearing contrib. (-TS)   =       0.00059366 Ry
     internal energy E=F+TS    =   -6230.61266362 Ry

     The total energy is F=E-TS. E is the sum of the following terms:
     one-electron contribution =   -2590.48698716 Ry
     hartree contribution      =    1474.34325264 Ry
     xc contribution           =    -706.40234517 Ry
     ewald contribution        =   -3189.59242233 Ry
     one-center paw contrib.   =   -1218.47416159 Ry

     total magnetization       =    19.52 Bohr mag/cell
     absolute magnetization    =    38.54 Bohr mag/cell

     convergence has been achieved in  24 iterations

     negative rho (up, down):  7.294E-03 1.117E-03

     Forces acting on atoms (cartesian axes, Ry/au):

     atom    1 type  1   force =    -0.00094157   -0.00094157    0.00165334
     atom    2 type  1   force =    -0.00024209   -0.00024209   -0.00024209
     atom    3 type  1   force =     0.00094157    0.00165334    0.00094157
     atom    4 type  1   force =    -0.00165334    0.00094157   -0.00094157
     atom    5 type  1   force =    -0.00094157    0.00165334   -0.00094157
     atom    6 type  1   force =     0.00165334   -0.00094157   -0.00094157
     atom    7 type  1   force =     0.00094157   -0.00165334   -0.00094157
     atom    8 type  1   force =     0.00024209   -0.00024209    0.00024209
     atom    9 type  1   force =    -0.00024209    0.00024209    0.00024209
     atom   10 type  1   force =     0.00165334    0.00094157    0.00094157
     atom   11 type  1   force =    -0.00165334   -0.00094157    0.00094157
     atom   12 type  1   force =     0.00094157    0.00094157    0.00165334
     atom   13 type  1   force =     0.00024209    0.00024209   -0.00024209
     atom   14 type  1   force =     0.00094157   -0.00094157   -0.00165334
     atom   15 type  1   force =    -0.00094157   -0.00165334    0.00094157
     atom   16 type  1   force =    -0.00094157    0.00094157   -0.00165334
     atom   17 type  2   force =     0.00000000    0.00000000    0.00000000
     atom   18 type  2   force =    -0.00035797   -0.00035797    0.00035797
     atom   19 type  2   force =     0.00000000    0.00000000    0.00000000
     atom   20 type  2   force =    -0.00035797    0.00035797   -0.00035797
     atom   21 type  2   force =     0.00000000    0.00000000    0.00000000
     atom   22 type  2   force =     0.00035797    0.00035797    0.00035797
     atom   23 type  2   force =     0.00035797   -0.00035797   -0.00035797
     atom   24 type  2   force =     0.00000000    0.00000000    0.00000000
     atom   25 type  3   force =    -0.00035095   -0.00035095    0.00035095
     atom   26 type  3   force =     0.00000000    0.00000000    0.00000000
     atom   27 type  3   force =    -0.00035095    0.00035095   -0.00035095
     atom   28 type  3   force =     0.00000000    0.00000000    0.00000000
     atom   29 type  3   force =     0.00035095    0.00035095    0.00035095
     atom   30 type  3   force =     0.00035095   -0.00035095   -0.00035095
     atom   31 type  3   force =     0.00000000    0.00000000    0.00000000

     Total force =     0.007603     Total SCF correction =     0.000083


     Computing stress (Cartesian axis) and pressure


     negative rho (up, down):  7.294E-03 1.117E-03
          total   stress  (Ry/bohr**3)                   (kbar)     P=        1.14
   0.00000774   0.00000000   0.00000000            1.14        0.00        0.00
   0.00000000   0.00000774   0.00000000            0.00        1.14        0.00
   0.00000000   0.00000000   0.00000774            0.00        0.00        1.14

     Energy error            =      1.8E-04 Ry
     Gradient error          =      1.7E-03 Ry/Bohr
     Cell gradient error     =      1.1E+00 kbar

     number of scf cycles    =   9
     number of bfgs steps    =   8

     enthalpy           old  =   -6230.6118870034 Ry
     enthalpy           new  =   -6230.6120699607 Ry

     CASE: enthalpy          _new < enthalpy          _old

     new trust radius        =       0.0096665244 bohr
     new conv_thr            =       0.0000000002 Ry

     new unit-cell volume =   2333.48242 a.u.^3 (   345.78642 Ang^3 )
     density =      6.16368 g/cm^3

CELL_PARAMETERS (alat= 12.76591255)
   1.039001831   0.000000000   0.000000000
   0.000000000   1.039001831   0.000000000
   0.000000000   0.000000000   1.039001831

ATOMIC_POSITIONS (crystal)
Fe               0.1257778345        0.1257778345        0.6267756731
Fe               0.6158875535        0.6158875535        0.6158875535
Fe               0.8742221655        0.6267756731        0.8742221655
Fe               0.3732243269        0.8742221655        0.1257778345
Fe               0.1257778345        0.6267756731        0.1257778345
Fe               0.6267756731        0.1257778345        0.1257778345
Fe               0.8742221655        0.3732243269        0.1257778345
Fe               0.3841124465        0.6158875535        0.3841124465
Fe               0.6158875535        0.3841124465        0.3841124465
Fe               0.6267756731        0.8742221655        0.8742221655
Fe               0.3732243269        0.1257778345        0.8742221655
Fe               0.8742221655        0.8742221655        0.6267756731
Fe               0.3841124465        0.3841124465        0.6158875535
Fe               0.8742221655        0.1257778345        0.3732243269
Fe               0.1257778345        0.3732243269        0.8742221655
Fe               0.1257778345        0.8742221655        0.3732243269
Ti               0.0000000000        0.0000000000        0.0000000000
Ti               0.7489204236        0.7489204236        0.2510795764
Ti               0.5000000000        0.0000000000        0.5000000000
Ti               0.7489204236        0.2510795764        0.7489204236
Ti               0.0000000000        0.5000000000        0.5000000000
Ti               0.2510795764        0.2510795764        0.2510795764
Ti               0.2510795764        0.7489204236        0.7489204236
Ti               0.5000000000        0.5000000000        0.0000000000
H                0.2583715059        0.2583715059        0.7416284941
H                0.0000000000        0.5000000000        0.0000000000
H                0.2583715059        0.7416284941        0.2583715059
H                0.5000000000        0.0000000000        0.0000000000
H                0.7416284941        0.7416284941        0.7416284941
H                0.7416284941        0.2583715059        0.2583715059
H                0.0000000000        0.0000000000        0.5000000000



     Writing config-only to output data dir ./TiFe2_cub_8b_8H.save/ :
     XML data file     NEW-OLD atomic charge density approx. for the potential
     New effective cutoffs (rho, wfc): 1608.05  114.85

     negative rho (up, down):  7.309E-03 1.116E-03
     Generating pointlists ...

     total cpu time spent up to now is    74814.8 secs

     per-process dynamical memory:   530.5 Mb

     Self-consistent Calculation

     iteration #  1     ecut=   124.00 Ry     beta= 0.20
     CG style diagonalization
     ethr =  1.00E-06,  avg # of iterations =  5.7

     negative rho (up, down):  7.311E-03 1.117E-03

     total cpu time spent up to now is    75510.4 secs

     total energy              =   -6230.61162052 Ry
     estimated scf accuracy    <       0.00043940 Ry

     total magnetization       =    19.49 Bohr mag/cell
     absolute magnetization    =    38.52 Bohr mag/cell

     iteration #  2     ecut=   124.00 Ry     beta= 0.20
     CG style diagonalization
     ethr =  1.22E-07,  avg # of iterations =  4.8

     negative rho (up, down):  7.311E-03 1.117E-03

     total cpu time spent up to now is    75994.3 secs

     total energy              =   -6230.61220689 Ry
     estimated scf accuracy    <       0.00046236 Ry

     total magnetization       =    19.49 Bohr mag/cell
     absolute magnetization    =    38.50 Bohr mag/cell

     iteration #  3     ecut=   124.00 Ry     beta= 0.20
     CG style diagonalization
     ethr =  1.22E-07,  avg # of iterations =  3.2

     negative rho (up, down):  7.309E-03 1.120E-03

     total cpu time spent up to now is    76279.4 secs

     total energy              =   -6230.61217917 Ry
     estimated scf accuracy    <       0.00036188 Ry

     total magnetization       =    19.49 Bohr mag/cell
     absolute magnetization    =    38.50 Bohr mag/cell

     iteration #  4     ecut=   124.00 Ry     beta= 0.20
     CG style diagonalization
     ethr =  1.01E-07,  avg # of iterations =  3.1

     negative rho (up, down):  7.308E-03 1.121E-03

     total cpu time spent up to now is    76547.5 secs

     total energy              =   -6230.61220554 Ry
     estimated scf accuracy    <       0.00005324 Ry

     total magnetization       =    19.49 Bohr mag/cell
     absolute magnetization    =    38.49 Bohr mag/cell

     iteration #  5     ecut=   124.00 Ry     beta= 0.20
     CG style diagonalization
     ethr =  1.48E-08,  avg # of iterations =  4.1

     negative rho (up, down):  7.307E-03 1.121E-03

     total cpu time spent up to now is    76934.0 secs

     total energy              =   -6230.61222092 Ry
     estimated scf accuracy    <       0.00007020 Ry

     total magnetization       =    19.48 Bohr mag/cell
     absolute magnetization    =    38.48 Bohr mag/cell

     iteration #  6     ecut=   124.00 Ry     beta= 0.20
     CG style diagonalization
     ethr =  1.48E-08,  avg # of iterations =  3.3

     negative rho (up, down):  7.307E-03 1.121E-03

     total cpu time spent up to now is    77231.2 secs

     total energy              =   -6230.61223539 Ry
     estimated scf accuracy    <       0.00000621 Ry

     total magnetization       =    19.48 Bohr mag/cell
     absolute magnetization    =    38.48 Bohr mag/cell

     iteration #  7     ecut=   124.00 Ry     beta= 0.20
     CG style diagonalization
     ethr =  1.73E-09,  avg # of iterations =  4.6

     negative rho (up, down):  7.306E-03 1.121E-03

     total cpu time spent up to now is    77689.0 secs

     total energy              =   -6230.61224039 Ry
     estimated scf accuracy    <       0.00001412 Ry

     total magnetization       =    19.48 Bohr mag/cell
     absolute magnetization    =    38.47 Bohr mag/cell

     iteration #  8     ecut=   124.00 Ry     beta= 0.20
     CG style diagonalization
     ethr =  1.73E-09,  avg # of iterations =  3.4

     negative rho (up, down):  7.303E-03 1.121E-03

     total cpu time spent up to now is    78000.1 secs

     total energy              =   -6230.61224245 Ry
     estimated scf accuracy    <       0.00000356 Ry

     total magnetization       =    19.48 Bohr mag/cell
     absolute magnetization    =    38.47 Bohr mag/cell

     iteration #  9     ecut=   124.00 Ry     beta= 0.20
     CG style diagonalization
     ethr =  9.91E-10,  avg # of iterations =  3.3

     negative rho (up, down):  7.303E-03 1.122E-03

     total cpu time spent up to now is    78301.7 secs

     total energy              =   -6230.61224394 Ry
     estimated scf accuracy    <       0.00000053 Ry

     total magnetization       =    19.48 Bohr mag/cell
     absolute magnetization    =    38.47 Bohr mag/cell

     iteration # 10     ecut=   124.00 Ry     beta= 0.20
     CG style diagonalization
     ethr =  1.48E-10,  avg # of iterations =  4.7

     negative rho (up, down):  7.302E-03 1.122E-03

     total cpu time spent up to now is    78772.3 secs

     total energy              =   -6230.61224486 Ry
     estimated scf accuracy    <       0.00000109 Ry

     total magnetization       =    19.48 Bohr mag/cell
     absolute magnetization    =    38.46 Bohr mag/cell

     iteration # 11     ecut=   124.00 Ry     beta= 0.20
     CG style diagonalization
     ethr =  1.48E-10,  avg # of iterations =  3.4

     negative rho (up, down):  7.302E-03 1.122E-03

     total cpu time spent up to now is    79077.6 secs

     total energy              =   -6230.61224528 Ry
     estimated scf accuracy    <       0.00000027 Ry

     total magnetization       =    19.48 Bohr mag/cell
     absolute magnetization    =    38.46 Bohr mag/cell

     iteration # 12     ecut=   124.00 Ry     beta= 0.20
     CG style diagonalization
     ethr =  7.53E-11,  avg # of iterations =  3.4

     negative rho (up, down):  7.301E-03 1.122E-03

     total cpu time spent up to now is    79391.4 secs

     total energy              =   -6230.61224555 Ry
     estimated scf accuracy    <       0.00000004 Ry

     total magnetization       =    19.48 Bohr mag/cell
     absolute magnetization    =    38.46 Bohr mag/cell

     iteration # 13     ecut=   124.00 Ry     beta= 0.20
     CG style diagonalization
     ethr =  1.06E-11,  avg # of iterations =  5.5

     negative rho (up, down):  7.301E-03 1.122E-03

     total cpu time spent up to now is    79951.9 secs

     total energy              =   -6230.61224575 Ry
     estimated scf accuracy    <       0.00000012 Ry

     total magnetization       =    19.48 Bohr mag/cell
     absolute magnetization    =    38.46 Bohr mag/cell

     iteration # 14     ecut=   124.00 Ry     beta= 0.20
     CG style diagonalization
     ethr =  1.06E-11,  avg # of iterations =  3.5

     negative rho (up, down):  7.300E-03 1.122E-03

     total cpu time spent up to now is    80272.2 secs

     total energy              =   -6230.61224585 Ry
     estimated scf accuracy    <       0.00000001 Ry

     total magnetization       =    19.48 Bohr mag/cell
     absolute magnetization    =    38.46 Bohr mag/cell

     iteration # 15     ecut=   124.00 Ry     beta= 0.20
     CG style diagonalization
     ethr =  3.45E-12,  avg # of iterations =  3.8

     negative rho (up, down):  7.300E-03 1.123E-03

     total cpu time spent up to now is    80637.3 secs

     total energy              =   -6230.61224591 Ry
     estimated scf accuracy    <          4.9E-09 Ry

     total magnetization       =    19.48 Bohr mag/cell
     absolute magnetization    =    38.46 Bohr mag/cell

     iteration # 16     ecut=   124.00 Ry     beta= 0.20
     CG style diagonalization
     ethr =  1.37E-12,  avg # of iterations =  4.5

     negative rho (up, down):  7.300E-03 1.123E-03

     total cpu time spent up to now is    81090.1 secs

     total energy              =   -6230.61224595 Ry
     estimated scf accuracy    <          2.6E-09 Ry

     total magnetization       =    19.48 Bohr mag/cell
     absolute magnetization    =    38.46 Bohr mag/cell

     iteration # 17     ecut=   124.00 Ry     beta= 0.20
     CG style diagonalization
     ethr =  7.36E-13,  avg # of iterations =  4.3

     negative rho (up, down):  7.299E-03 1.123E-03

     total cpu time spent up to now is    81502.9 secs

     total energy              =   -6230.61224598 Ry
     estimated scf accuracy    <          4.4E-09 Ry

     total magnetization       =    19.48 Bohr mag/cell
     absolute magnetization    =    38.45 Bohr mag/cell

     iteration # 18     ecut=   124.00 Ry     beta= 0.20
     CG style diagonalization
     ethr =  7.36E-13,  avg # of iterations =  3.4

     negative rho (up, down):  7.299E-03 1.123E-03

     total cpu time spent up to now is    81808.4 secs

     total energy              =   -6230.61224600 Ry
     estimated scf accuracy    <          3.6E-10 Ry

     total magnetization       =    19.48 Bohr mag/cell
     absolute magnetization    =    38.45 Bohr mag/cell

     iteration # 19     ecut=   124.00 Ry     beta= 0.20
     CG style diagonalization
     ethr =  1.00E-13,  avg # of iterations =  5.1

     negative rho (up, down):  7.299E-03 1.123E-03

     total cpu time spent up to now is    82317.7 secs

     total energy              =   -6230.61224601 Ry
     estimated scf accuracy    <          1.9E-10 Ry

     total magnetization       =    19.48 Bohr mag/cell
     absolute magnetization    =    38.45 Bohr mag/cell

     iteration # 20     ecut=   124.00 Ry     beta= 0.20
     CG style diagonalization
     ethr =  1.00E-13,  avg # of iterations =  3.8

     negative rho (up, down):  7.299E-03 1.123E-03

     total cpu time spent up to now is    82675.8 secs

     total energy              =   -6230.61224601 Ry
     estimated scf accuracy    <          2.1E-10 Ry

     total magnetization       =    19.48 Bohr mag/cell
     absolute magnetization    =    38.45 Bohr mag/cell

     iteration # 21     ecut=   124.00 Ry     beta= 0.20
     CG style diagonalization
     ethr =  1.00E-13,  avg # of iterations =  3.1

     negative rho (up, down):  7.299E-03 1.123E-03

     Magnetic moment per site  (integrated on atomic sphere of radius R)
     atom   1 (R=0.089)  charge= 11.1818  magn=  1.3821
     atom   2 (R=0.089)  charge= 11.1730  magn=  1.3637
     atom   3 (R=0.089)  charge= 11.1818  magn=  1.3821
     atom   4 (R=0.089)  charge= 11.1818  magn=  1.3821
     atom   5 (R=0.089)  charge= 11.1818  magn=  1.3821
     atom   6 (R=0.089)  charge= 11.1818  magn=  1.3821
     atom   7 (R=0.089)  charge= 11.1818  magn=  1.3821
     atom   8 (R=0.089)  charge= 11.1730  magn=  1.3637
     atom   9 (R=0.089)  charge= 11.1730  magn=  1.3637
     atom  10 (R=0.089)  charge= 11.1818  magn=  1.3821
     atom  11 (R=0.089)  charge= 11.1818  magn=  1.3821
     atom  12 (R=0.089)  charge= 11.1818  magn=  1.3821
     atom  13 (R=0.089)  charge= 11.1730  magn=  1.3637
     atom  14 (R=0.089)  charge= 11.1818  magn=  1.3821
     atom  15 (R=0.089)  charge= 11.1818  magn=  1.3821
     atom  16 (R=0.089)  charge= 11.1818  magn=  1.3821
     atom  17 (R=0.171)  charge= 10.1984  magn= -0.7672
     atom  18 (R=0.171)  charge= 10.2014  magn= -0.8131
     atom  19 (R=0.171)  charge= 10.1979  magn= -0.8391
     atom  20 (R=0.171)  charge= 10.2014  magn= -0.8131
     atom  21 (R=0.171)  charge= 10.1979  magn= -0.8391
     atom  22 (R=0.171)  charge= 10.2014  magn= -0.8131
     atom  23 (R=0.171)  charge= 10.2014  magn= -0.8131
     atom  24 (R=0.171)  charge= 10.1979  magn= -0.8391
     atom  25 (R=0.089)  charge=  0.9836  magn= -0.0054
     atom  26 (R=0.089)  charge=  0.9933  magn= -0.0055
     atom  27 (R=0.089)  charge=  0.9836  magn= -0.0054
     atom  28 (R=0.089)  charge=  0.9933  magn= -0.0055
     atom  29 (R=0.089)  charge=  0.9836  magn= -0.0054
     atom  30 (R=0.089)  charge=  0.9836  magn= -0.0054
     atom  31 (R=0.089)  charge=  0.9933  magn= -0.0055

     total cpu time spent up to now is    82945.8 secs

     End of self-consistent calculation

 ------ SPIN UP ------------


          k = 0.0000 0.0000 0.0000 ( 48489 PWs)   bands (ev):

   -72.8751 -72.8556 -72.8405 -72.8405 -72.8403 -72.8403 -72.8403 -72.8113
   -72.8113 -72.8113 -72.8109 -72.8109 -72.8109 -72.7867 -72.7867 -72.7867
   -41.6291 -41.5863 -41.5748 -41.5748 -41.5748 -41.5596 -41.5596 -41.5449
   -39.3479 -39.2029 -39.1460 -39.1460 -39.1439 -39.1439 -39.1439 -39.0117
   -39.0117 -39.0117 -38.9509 -38.9509 -38.9509 -38.9485 -38.9485 -38.9485
   -38.8876 -38.8876 -38.8663 -38.8637 -38.8637 -38.8520 -38.8520 -38.8520
   -38.8335 -38.8335 -38.8335 -38.8265 -38.8265 -38.8265 -38.8200 -38.8200
   -38.7964 -38.7964 -38.7964 -38.7961 -38.7689 -38.7689 -38.7689 -38.7423
   -38.7423 -38.7423 -38.7275 -38.7275 -38.7275 -38.7233 -38.7233 -38.7233
   -17.8940 -17.8940 -17.8940 -17.8679 -17.8679 -17.8679 -17.8581 -17.8581
   -17.8581 -17.7988 -17.7988 -17.7978 -17.7978 -17.7978 -17.7924 -17.7343
   -17.7343 -17.7343 -17.7222 -17.7222 -17.7222 -17.7013 -17.7013 -17.7013
     4.1315   6.0073   6.0073   6.0653   6.0653   6.0653   8.0445   9.2311
    10.9038  10.9038  10.9038  11.0071  11.1567  11.1567  11.1649  11.1649
    11.1649  11.7481  11.7661  11.7661  11.7661  11.8841  11.9006  11.9006
    11.9006  11.9026  11.9026  11.9026  11.9354  11.9354  11.9605  11.9605
    11.9605  12.1668  12.1668  12.3700  12.3700  12.3700  12.4757  12.4757
    12.4757  12.4933  12.4933  12.4933  12.5281  12.5285  12.5285  12.9360
    12.9360  13.0099  13.0099  13.0099  13.0157  13.0157  13.0157  13.0467
    13.1077  13.1077  13.1077  13.1311  13.1311  13.1311  13.2405  13.2405
    13.2405  13.6869  13.6869  13.6869  13.7667  13.7667  13.7667  13.7748
    13.7748  13.7748  13.9010  13.9010  13.9228  13.9228  13.9538  13.9538
    13.9538  13.9957  14.0017  14.0017  14.0017  14.5417  14.5417  14.7559
    14.7559  14.7559  14.9673  15.0410  15.0410  15.0410  15.1242  15.1242
    15.3757  15.3757  15.3757  16.2022  16.2022  16.2022  16.2110  16.2110
    16.2110  16.2545  16.2545  16.2545  16.5740  16.5740  16.5740  16.6316
    16.6316  16.6316  16.7328  16.7328  16.7872  16.8215  16.8215  16.8215

          k = 0.0000 0.0000 0.1925 ( 48469 PWs)   bands (ev):

   -72.8737 -72.8572 -72.8476 -72.8405 -72.8403 -72.8403 -72.8317 -72.8125
   -72.8113 -72.8113 -72.8109 -72.8109 -72.8109 -72.7868 -72.7867 -72.7867
   -41.6291 -41.5860 -41.5764 -41.5748 -41.5748 -41.5596 -41.5575 -41.5458
   -39.3382 -39.2208 -39.1797 -39.1454 -39.1433 -39.1433 -39.0974 -39.0151
   -39.0073 -39.0073 -38.9578 -38.9578 -38.9536 -38.9520 -38.9520 -38.9498
   -38.8876 -38.8856 -38.8694 -38.8657 -38.8623 -38.8546 -38.8546 -38.8490
   -38.8337 -38.8327 -38.8284 -38.8284 -38.8225 -38.8207 -38.8207 -38.8102
   -38.7973 -38.7935 -38.7935 -38.7824 -38.7725 -38.7700 -38.7700 -38.7456
   -38.7438 -38.7438 -38.7314 -38.7297 -38.7297 -38.7253 -38.7241 -38.7241
   -17.8942 -17.8933 -17.8933 -17.8683 -17.8683 -17.8682 -17.8590 -17.8590
   -17.8560 -17.8128 -17.7985 -17.7978 -17.7978 -17.7941 -17.7817 -17.7363
   -17.7334 -17.7334 -17.7225 -17.7214 -17.7214 -17.7025 -17.7025 -17.7013
     4.2170   5.4542   6.0098   6.0678   6.0678   6.6086   8.0268   9.3226
    10.6288  10.8281  10.9551  10.9551  11.1424  11.1993  11.1996  11.1996
    11.3090  11.6236  11.6236  11.6360  11.7360  11.7360  11.7376  11.7538
    11.7737  11.9175  11.9922  11.9944  11.9944  12.0241  12.0241  12.0493
    12.1236  12.1748  12.2061  12.2518  12.3049  12.3049  12.3281  12.4339
    12.4339  12.4775  12.5119  12.5400  12.5602  12.5602  12.7600  12.8397
    12.8860  12.8860  12.8966  12.9656  12.9656  12.9766  13.0143  13.1379
    13.1379  13.1397  13.2395  13.2821  13.3049  13.3049  13.3526  13.3828
    13.3828  13.6606  13.6606  13.6624  13.6988  13.7218  13.7218  13.7326
    13.7859  13.8337  13.8486  13.8486  13.8894  13.8967  13.8967  13.9191
    14.0103  14.0849  14.0854  14.0854  14.1277  14.5515  14.6692  14.6692
    14.6814  14.7162  14.8366  14.9850  14.9850  14.9891  15.0749  15.2216
    15.4556  15.5243  15.5243  16.1482  16.1482  16.1817  16.1930  16.1930
    16.1940  16.2265  16.2265  16.3069  16.3642  16.4186  16.4349  16.4349
    16.4966  16.5399  16.5399  16.8829  16.9285  16.9287  16.9340  17.4569

          k = 0.0000 0.0000 0.3850 ( 48538 PWs)   bands (ev):

   -72.8700 -72.8622 -72.8504 -72.8405 -72.8403 -72.8403 -72.8241 -72.8158
   -72.8113 -72.8113 -72.8109 -72.8109 -72.8109 -72.7870 -72.7867 -72.7867
   -41.6291 -41.5853 -41.5787 -41.5748 -41.5748 -41.5596 -41.5537 -41.5480
   -39.3103 -39.2670 -39.1854 -39.1446 -39.1424 -39.1424 -39.0618 -39.0250
   -38.9955 -38.9955 -38.9744 -38.9744 -38.9577 -38.9563 -38.9563 -38.9519
   -38.8877 -38.8818 -38.8734 -38.8676 -38.8574 -38.8569 -38.8569 -38.8480
   -38.8469 -38.8245 -38.8245 -38.8243 -38.8222 -38.8085 -38.8085 -38.8024
   -38.7917 -38.7881 -38.7881 -38.7763 -38.7731 -38.7731 -38.7669 -38.7544
   -38.7458 -38.7458 -38.7395 -38.7351 -38.7351 -38.7291 -38.7248 -38.7248
   -17.8946 -17.8920 -17.8920 -17.8689 -17.8689 -17.8687 -17.8606 -17.8606
   -17.8512 -17.8242 -17.7981 -17.7976 -17.7976 -17.7936 -17.7701 -17.7410
   -17.7321 -17.7321 -17.7230 -17.7196 -17.7196 -17.7049 -17.7049 -17.7012
     4.4482   4.9611   6.0137   6.0718   6.0718   7.0207   7.9734   9.6007
    10.0656  10.7229  11.1048  11.1048  11.2338  11.2737  11.2737  11.2972
    11.3034  11.3454  11.3454  11.4973  11.6206  11.6206  11.6496  11.7171
    11.7224  11.8111  12.0115  12.0755  12.0843  12.0843  12.1355  12.1355
    12.1638  12.1648  12.1648  12.1763  12.1904  12.1975  12.3310  12.3442
    12.3442  12.4053  12.4053  12.4479  12.5133  12.5376  12.8357  12.9128
    12.9857  12.9857  13.0115  13.0172  13.1109  13.1109  13.1296  13.2000
    13.2000  13.2556  13.3415  13.4317  13.4526  13.4526  13.4796  13.4875
    13.4918  13.4918  13.5481  13.5481  13.5823  13.6051  13.6051  13.6185
    13.6294  13.6760  13.6914  13.6914  13.8757  13.8999  14.1722  14.1722
    14.2256  14.2753  14.2753  14.2866  14.3467  14.4731  14.4731  14.4860
    14.6598  14.6863  14.8210  14.8448  14.8448  14.9276  15.0303  15.2307
    15.6919  15.8019  15.8019  16.0177  16.0177  16.0348  16.1557  16.1557
    16.1581  16.1589  16.1995  16.1995  16.2436  16.2560  16.2760  16.2760
    16.3736  16.3736  16.5238  16.9263  17.1051  17.1051  17.1223  17.1286

          k = 0.0000 0.1925 0.1925 ( 48486 PWs)   bands (ev):

   -72.8724 -72.8579 -72.8501 -72.8457 -72.8395 -72.8337 -72.8305 -72.8136
   -72.8114 -72.8113 -72.8109 -72.8109 -72.8109 -72.7869 -72.7868 -72.7867
   -41.6291 -41.5856 -41.5775 -41.5756 -41.5744 -41.5584 -41.5569 -41.5466
   -39.3290 -39.2249 -39.2023 -39.1737 -39.1347 -39.1046 -39.0912 -39.0151
   -39.0067 -39.0033 -38.9614 -38.9600 -38.9597 -38.9581 -38.9541 -38.9527
   -38.8866 -38.8843 -38.8704 -38.8646 -38.8631 -38.8565 -38.8521 -38.8510
   -38.8400 -38.8296 -38.8283 -38.8216 -38.8190 -38.8184 -38.8135 -38.8108
   -38.7988 -38.7905 -38.7882 -38.7781 -38.7771 -38.7703 -38.7678 -38.7494
   -38.7456 -38.7433 -38.7361 -38.7313 -38.7297 -38.7267 -38.7256 -38.7240
   -17.8944 -17.8925 -17.8924 -17.8704 -17.8686 -17.8658 -17.8603 -17.8582
   -17.8555 -17.8139 -17.8128 -17.8054 -17.7885 -17.7809 -17.7807 -17.7380
   -17.7326 -17.7322 -17.7234 -17.7217 -17.7199 -17.7041 -17.7030 -17.7018
     4.2988   5.3855   5.5939   6.0325   6.4467   6.7601   7.9860   9.4146
    10.6252  10.7487  10.8480  10.9970  10.9991  11.1995  11.2271  11.3004
    11.3366  11.5205  11.5668  11.5988  11.6227  11.6549  11.6576  11.7131
    11.7805  11.8213  11.9026  11.9552  12.0323  12.0343  12.1180  12.1435
    12.1475  12.1584  12.2038  12.2373  12.3001  12.3621  12.3854  12.4031
    12.4529  12.5026  12.5097  12.5330  12.5737  12.6781  12.7189  12.7882
    12.8175  12.8265  12.8723  12.9130  12.9778  12.9796  13.0809  13.1349
    13.1971  13.2023  13.2831  13.3550  13.3628  13.3781  13.4012  13.4745
    13.4895  13.5620  13.6027  13.6150  13.6336  13.6931  13.7080  13.7174
    13.7995  13.8210  13.8229  13.8612  13.8677  13.9125  13.9392  13.9512
    13.9904  14.0647  14.1858  14.2814  14.3188  14.3418  14.5764  14.6647
    14.7009  14.7162  14.8040  14.8672  15.0087  15.1475  15.1713  15.2598
    15.4349  15.6321  15.6495  16.0408  16.1159  16.1245  16.1359  16.1519
    16.1683  16.1840  16.2041  16.2659  16.3236  16.3857  16.4136  16.4335
    16.4612  16.5354  16.5813  16.6212  16.6667  17.1089  17.1469  17.2762

          k = 0.0000 0.1925 0.3850 ( 48550 PWs)   bands (ev):

   -72.8691 -72.8614 -72.8527 -72.8474 -72.8385 -72.8331 -72.8244 -72.8169
   -72.8114 -72.8113 -72.8109 -72.8109 -72.8109 -72.7870 -72.7868 -72.7867
   -41.6290 -41.5847 -41.5796 -41.5763 -41.5739 -41.5580 -41.5537 -41.5487
   -39.3029 -39.2621 -39.2085 -39.1861 -39.1244 -39.0988 -39.0601 -39.0243
   -38.9963 -38.9929 -38.9761 -38.9738 -38.9654 -38.9620 -38.9576 -38.9558
   -38.8862 -38.8805 -38.8719 -38.8664 -38.8604 -38.8581 -38.8549 -38.8501
   -38.8420 -38.8327 -38.8253 -38.8190 -38.8156 -38.8080 -38.8064 -38.8026
   -38.7942 -38.7897 -38.7869 -38.7811 -38.7737 -38.7714 -38.7624 -38.7554
   -38.7479 -38.7453 -38.7389 -38.7359 -38.7332 -38.7280 -38.7269 -38.7259
   -17.8945 -17.8913 -17.8908 -17.8717 -17.8689 -17.8652 -17.8614 -17.8594
   -17.8510 -17.8256 -17.8143 -17.8107 -17.7830 -17.7793 -17.7685 -17.7425
   -17.7311 -17.7308 -17.7243 -17.7212 -17.7175 -17.7071 -17.7051 -17.7020
     4.5207   4.9913   5.5522   5.9776   6.5577   7.1114   7.8779   9.6909
    10.1461  10.7184  10.9410  11.1272  11.1332  11.1713  11.2697  11.2974
    11.3133  11.3480  11.3521  11.4059  11.4733  11.5491  11.6486  11.6992
    11.7356  11.8149  11.8191  11.8870  12.1056  12.1224  12.1571  12.1957
    12.1997  12.2179  12.2308  12.2439  12.2668  12.3033  12.3257  12.3687
    12.3883  12.3977  12.4117  12.5948  12.6036  12.6369  12.7532  12.7981
    12.8223  12.8255  12.9106  13.0035  13.1372  13.1856  13.2064  13.2483
    13.2693  13.2943  13.3077  13.3212  13.3511  13.3903  13.4413  13.4824
    13.4954  13.5184  13.5536  13.5653  13.5803  13.6089  13.6383  13.6840
    13.7098  13.7288  13.7683  13.7978  13.8911  13.9226  14.0530  14.0871
    14.1454  14.1948  14.2340  14.3916  14.4196  14.5231  14.5417  14.6062
    14.6212  14.6519  14.6978  14.8053  15.1080  15.1417  15.2147  15.2858
    15.6984  15.8432  15.8659  15.9825  16.0063  16.0215  16.0738  16.0830
    16.0970  16.1098  16.1397  16.1519  16.1789  16.2333  16.2492  16.2963
    16.3415  16.4142  16.6603  16.8467  16.8963  17.0609  17.1002  17.1617

          k = 0.0000 0.3850 0.3850 ( 48478 PWs)   bands (ev):

   -72.8670 -72.8596 -72.8560 -72.8529 -72.8361 -72.8273 -72.8243 -72.8199
   -72.8115 -72.8113 -72.8109 -72.8109 -72.8109 -72.7869 -72.7868 -72.7868
   -41.6290 -41.5831 -41.5807 -41.5790 -41.5728 -41.5551 -41.5535 -41.5507
   -39.2825 -39.2522 -39.2404 -39.2191 -39.1051 -39.0642 -39.0546 -39.0298
   -38.9932 -38.9867 -38.9809 -38.9755 -38.9747 -38.9716 -38.9641 -38.9618
   -38.8846 -38.8766 -38.8685 -38.8632 -38.8616 -38.8590 -38.8579 -38.8454
   -38.8446 -38.8352 -38.8273 -38.8250 -38.8093 -38.8069 -38.8008 -38.8008
   -38.7920 -38.7914 -38.7881 -38.7770 -38.7735 -38.7712 -38.7631 -38.7604
   -38.7479 -38.7438 -38.7402 -38.7360 -38.7351 -38.7295 -38.7267 -38.7246
   -17.8937 -17.8897 -17.8895 -17.8741 -17.8692 -17.8625 -17.8624 -17.8569
   -17.8481 -17.8277 -17.8276 -17.8213 -17.7736 -17.7665 -17.7651 -17.7476
   -17.7287 -17.7282 -17.7259 -17.7243 -17.7133 -17.7112 -17.7057 -17.7045
     4.7222   5.0106   5.1778   5.8345   7.0008   7.2615   7.6275   9.9538
    10.3275  10.4567  10.7354  10.8533  11.1989  11.2370  11.2558  11.2651
    11.2907  11.3253  11.3362  11.3368  11.4149  11.4814  11.4826  11.6395
    11.7025  11.7236  11.7480  11.8052  12.1409  12.1839  12.2002  12.2253
    12.2456  12.2707  12.2873  12.3221  12.3267  12.3712  12.4034  12.4784
    12.4791  12.5248  12.5480  12.5655  12.5778  12.6312  12.6372  12.7106
    12.7235  12.7634  12.8990  12.9508  13.0145  13.0444  13.1356  13.1565
    13.1918  13.2320  13.3104  13.3239  13.3613  13.3955  13.3957  13.4456
    13.5119  13.5457  13.5934  13.6701  13.7048  13.7263  13.7392  13.7444
    13.7831  13.8283  13.8567  13.8726  13.9232  13.9375  13.9855  14.1246
    14.1360  14.1732  14.2528  14.3543  14.4259  14.4428  14.4955  14.5273
    14.5632  14.6790  14.7052  14.7693  15.4180  15.4530  15.5579  15.6261
    15.7473  15.9243  15.9544  15.9679  15.9846  15.9904  15.9977  16.0193
    16.0233  16.0360  16.0470  16.0679  16.0950  16.1708  16.1863  16.1935
    16.3266  16.4618  16.4770  16.7484  16.9013  16.9897  17.1446  17.2324

          k = 0.1925 0.1925 0.1925 ( 48503 PWs)   bands (ev):

   -72.8712 -72.8584 -72.8501 -72.8501 -72.8378 -72.8305 -72.8305 -72.8147
   -72.8114 -72.8114 -72.8109 -72.8109 -72.8109 -72.7869 -72.7868 -72.7868
   -41.6291 -41.5852 -41.5775 -41.5775 -41.5737 -41.5568 -41.5568 -41.5474
   -39.3206 -39.2292 -39.2031 -39.2031 -39.1191 -39.0881 -39.0881 -39.0146
   -39.0031 -39.0031 -38.9658 -38.9633 -38.9633 -38.9600 -38.9573 -38.9573
   -38.8841 -38.8841 -38.8702 -38.8621 -38.8621 -38.8558 -38.8544 -38.8544
   -38.8332 -38.8332 -38.8301 -38.8213 -38.8213 -38.8155 -38.8081 -38.8081
   -38.8029 -38.7854 -38.7854 -38.7795 -38.7723 -38.7706 -38.7706 -38.7498
   -38.7498 -38.7410 -38.7394 -38.7328 -38.7328 -38.7256 -38.7256 -38.7232
   -17.8938 -17.8919 -17.8919 -17.8700 -17.8700 -17.8638 -17.8592 -17.8592
   -17.8560 -17.8165 -17.8165 -17.8145 -17.7785 -17.7785 -17.7778 -17.7380
   -17.7322 -17.7322 -17.7226 -17.7226 -17.7198 -17.7052 -17.7032 -17.7032
     4.3761   5.3895   5.3895   5.9345   6.7594   6.7594   7.9344   9.5070
    10.6186  10.8163  10.8163  10.8835  11.0409  11.0409  11.2856  11.3182
    11.3182  11.4320  11.5598  11.5598  11.6086  11.6423  11.6423  11.6738
    11.6738  11.6911  11.7282  11.8859  12.0587  12.0587  12.1819  12.1819
    12.1893  12.2465  12.2465  12.3130  12.3130  12.3587  12.3690  12.4705
    12.4712  12.4712  12.5332  12.5332  12.6507  12.7000  12.7000  12.7176
    12.7176  12.7865  12.9400  12.9400  13.0153  13.0153  13.0419  13.1086
    13.1524  13.1681  13.1681  13.4156  13.4189  13.4189  13.4720  13.4720
    13.5123  13.5123  13.5552  13.5789  13.5996  13.5996  13.7633  13.7633
    13.7976  13.8842  13.9113  13.9113  13.9362  13.9362  13.9406  13.9780
    13.9780  14.0146  14.3098  14.3098  14.3893  14.4105  14.4105  14.5870
    14.6767  14.7222  14.7222  15.1032  15.1032  15.2554  15.3105  15.3105
    15.3721  15.7001  15.7001  15.9788  15.9788  16.0198  16.1268  16.1268
    16.1281  16.1678  16.1678  16.3104  16.3104  16.4059  16.4074  16.4361
    16.4361  16.4732  16.5062  16.5696  16.5696  17.2164  17.2164  17.2572

          k = 0.1925 0.1925 0.3850 ( 48490 PWs)   bands (ev):

   -72.8683 -72.8607 -72.8539 -72.8501 -72.8373 -72.8305 -72.8246 -72.8178
   -72.8114 -72.8114 -72.8109 -72.8109 -72.8109 -72.7870 -72.7868 -72.7868
   -41.6290 -41.5842 -41.5800 -41.5775 -41.5733 -41.5568 -41.5537 -41.5494
   -39.2967 -39.2589 -39.2194 -39.2045 -39.1121 -39.0828 -39.0569 -39.0229
   -38.9944 -38.9937 -38.9771 -38.9750 -38.9701 -38.9659 -38.9606 -38.9599
   -38.8838 -38.8796 -38.8705 -38.8634 -38.8617 -38.8560 -38.8527 -38.8518
   -38.8404 -38.8335 -38.8274 -38.8230 -38.8174 -38.8101 -38.8031 -38.8010
   -38.7997 -38.7871 -38.7868 -38.7815 -38.7796 -38.7669 -38.7616 -38.7540
   -38.7527 -38.7414 -38.7398 -38.7342 -38.7333 -38.7278 -38.7266 -38.7242
   -17.8935 -17.8908 -17.8899 -17.8710 -17.8700 -17.8630 -17.8604 -17.8597
   -17.8520 -17.8280 -17.8203 -17.8189 -17.7749 -17.7739 -17.7663 -17.7418
   -17.7321 -17.7295 -17.7249 -17.7202 -17.7187 -17.7079 -17.7063 -17.7033
     4.5856   5.0115   5.3959   5.9055   6.7581   7.1547   7.7949   9.7803
    10.2265  10.7209  10.9846  10.9972  11.1497  11.1701  11.2339  11.2677
    11.2743  11.2989  11.3666  11.3724  11.4100  11.4713  11.6038  11.6394
    11.6843  11.7026  11.7098  11.8025  12.1415  12.1505  12.2187  12.2329
    12.2362  12.2632  12.2729  12.3053  12.3132  12.3235  12.3602  12.3946
    12.4330  12.4640  12.5003  12.6079  12.6521  12.6820  12.6836  12.7252
    12.7636  12.8531  12.9397  12.9458  12.9946  13.0618  13.1395  13.1656
    13.2141  13.2300  13.2652  13.2983  13.3126  13.3284  13.3801  13.4270
    13.4861  13.4931  13.5974  13.6382  13.6469  13.6770  13.7449  13.7571
    13.8129  13.8186  13.8557  13.8627  13.8966  13.9301  13.9819  14.0472
    14.0924  14.1136  14.2423  14.3479  14.4739  14.4989  14.6161  14.6608
    14.7074  14.7138  14.7617  15.0421  15.2459  15.3124  15.3348  15.3674
    15.6916  15.7919  15.8841  15.8844  15.9581  15.9806  16.0013  16.0158
    16.0388  16.0939  16.1196  16.1768  16.2058  16.2146  16.2493  16.3240
    16.3513  16.4031  16.6603  16.7023  16.7164  17.0015  17.0636  17.0674

          k = 0.1925 0.3850 0.3850 ( 48499 PWs)   bands (ev):

   -72.8668 -72.8593 -72.8560 -72.8539 -72.8359 -72.8264 -72.8243 -72.8205
   -72.8115 -72.8114 -72.8109 -72.8109 -72.8109 -72.7869 -72.7868 -72.7868
   -41.6291 -41.5828 -41.5807 -41.5796 -41.5726 -41.5546 -41.5535 -41.5511
   -39.2795 -39.2533 -39.2417 -39.2277 -39.0985 -39.0561 -39.0489 -39.0267
   -38.9924 -38.9883 -38.9824 -38.9781 -38.9767 -38.9734 -38.9675 -38.9658
   -38.8813 -38.8762 -38.8675 -38.8604 -38.8594 -38.8567 -38.8564 -38.8460
   -38.8423 -38.8349 -38.8283 -38.8273 -38.8161 -38.8117 -38.8059 -38.8030
   -38.7975 -38.7944 -38.7861 -38.7847 -38.7759 -38.7680 -38.7589 -38.7575
   -38.7511 -38.7390 -38.7386 -38.7334 -38.7318 -38.7267 -38.7259 -38.7241
   -17.8919 -17.8889 -17.8889 -17.8722 -17.8693 -17.8611 -17.8609 -17.8570
   -17.8509 -17.8318 -17.8318 -17.8279 -17.7676 -17.7630 -17.7620 -17.7445
   -17.7295 -17.7290 -17.7247 -17.7236 -17.7155 -17.7113 -17.7073 -17.7064
     4.7638   5.0155   5.1359   5.8163   7.0736   7.2538   7.5763  10.0335
    10.3923  10.5489  10.7779  10.9251  11.1804  11.2030  11.2160  11.2394
    11.2536  11.2699  11.3138  11.3422  11.3818  11.4284  11.4665  11.5516
    11.5759  11.5883  11.6381  11.7314  12.1708  12.2195  12.2219  12.2561
    12.2737  12.3162  12.3266  12.3704  12.4033  12.4058  12.4255  12.4753
    12.5147  12.5494  12.5693  12.6277  12.6306  12.6442  12.6899  12.7445
    12.7481  12.7728  12.8045  12.8764  12.9169  12.9473  12.9930  13.0688
    13.0879  13.1324  13.2082  13.2293  13.2346  13.2982  13.2988  13.3692
    13.6106  13.6561  13.6649  13.7157  13.7309  13.7368  13.8058  13.8108
    13.8491  13.8637  13.8766  13.9129  13.9334  13.9438  13.9764  14.0182
    14.0858  14.1202  14.1639  14.2139  14.5613  14.5952  14.6407  14.7181
    14.7896  14.9260  14.9471  15.0876  15.5147  15.5332  15.6187  15.6876
    15.7142  15.8391  15.8448  15.8683  15.8702  15.9013  15.9224  15.9431
    15.9532  16.0744  16.0808  16.1127  16.1634  16.1649  16.2127  16.2188
    16.3082  16.4240  16.4288  16.6374  16.7478  16.8030  16.8791  16.9403

          k = 0.3850 0.3850 0.3850 ( 48449 PWs)   bands (ev):

   -72.8663 -72.8582 -72.8560 -72.8560 -72.8357 -72.8243 -72.8243 -72.8220
   -72.8115 -72.8115 -72.8109 -72.8109 -72.8109 -72.7869 -72.7868 -72.7868
   -41.6291 -41.5821 -41.5808 -41.5808 -41.5724 -41.5534 -41.5534 -41.5520
   -39.2724 -39.2540 -39.2437 -39.2437 -39.0887 -39.0380 -39.0380 -39.0242
   -38.9899 -38.9899 -38.9863 -38.9820 -38.9820 -38.9757 -38.9741 -38.9741
   -38.8754 -38.8754 -38.8655 -38.8597 -38.8597 -38.8567 -38.8449 -38.8449
   -38.8336 -38.8324 -38.8311 -38.8311 -38.8214 -38.8214 -38.8101 -38.8101
   -38.8037 -38.8019 -38.7968 -38.7968 -38.7675 -38.7675 -38.7545 -38.7537
   -38.7537 -38.7348 -38.7322 -38.7294 -38.7294 -38.7243 -38.7243 -38.7230
   -17.8886 -17.8876 -17.8876 -17.8695 -17.8695 -17.8579 -17.8579 -17.8567
   -17.8534 -17.8393 -17.8393 -17.8391 -17.7581 -17.7574 -17.7574 -17.7414
   -17.7297 -17.7297 -17.7216 -17.7216 -17.7208 -17.7120 -17.7106 -17.7106
     4.8735   5.0236   5.0236   5.7923   7.2415   7.2415   7.4407  10.2250
    10.5390  10.7964  10.7964  10.9484  11.1158  11.1408  11.1408  11.1773
    11.1880  11.1880  11.2981  11.3063  11.3063  11.4087  11.4087  11.4414
    11.4459  11.4459  11.4510  11.5789  12.2472  12.2472  12.2992  12.2992
    12.3081  12.3724  12.3724  12.3760  12.4448  12.5145  12.5145  12.5928
    12.5928  12.6148  12.6148  12.6352  12.6745  12.7087  12.7087  12.7170
    12.7466  12.7466  12.7821  12.8338  12.8338  12.8417  12.8417  12.8822
    12.9679  12.9679  13.0966  13.1040  13.1295  13.1295  13.1850  13.1850
    13.7124  13.7124  13.7706  13.7716  13.7716  13.7799  13.8347  13.8347
    13.8903  13.8903  13.8939  13.9199  13.9835  13.9969  13.9969  14.0311
    14.0311  14.0538  14.0684  14.0684  14.9148  14.9212  14.9212  15.0456
    15.1492  15.1606  15.1606  15.3636  15.6693  15.6750  15.6750  15.7147
    15.7147  15.7516  15.7516  15.8285  15.8514  15.8514  15.8594  15.9076
    15.9076  16.0783  16.0783  16.0838  16.1114  16.1114  16.1594  16.1594
    16.2232  16.3152  16.3730  16.3730  16.5824  16.5824  16.5838  16.6295

 ------ SPIN DOWN ----------


          k = 0.0000 0.0000 0.0000 ( 48489 PWs)   bands (ev):

   -70.8097 -70.7791 -70.7552 -70.7552 -70.7552 -70.7537 -70.7537 -70.7231
   -70.7231 -70.7231 -70.7224 -70.7224 -70.7224 -70.7220 -70.7220 -70.7220
   -42.3610 -42.3425 -42.3425 -42.3418 -42.3327 -42.3327 -42.3327 -42.3135
   -37.4366 -37.2866 -37.2073 -37.2073 -37.2048 -37.2048 -37.2048 -37.0362
   -37.0362 -37.0362 -36.9916 -36.9916 -36.9916 -36.9812 -36.9812 -36.9812
   -36.8373 -36.8373 -36.7964 -36.7964 -36.7876 -36.7846 -36.7846 -36.7846
   -36.7676 -36.7676 -36.7676 -36.7532 -36.7532 -36.7532 -36.7379 -36.7379
   -36.7239 -36.7239 -36.7239 -36.7202 -36.7175 -36.7175 -36.7175 -36.6740
   -36.6740 -36.6740 -36.6709 -36.6709 -36.6709 -36.6512 -36.6512 -36.6512
   -18.6463 -18.6463 -18.6463 -18.6438 -18.6438 -18.6438 -18.6193 -18.6193
   -18.6193 -18.5666 -18.5666 -18.5666 -18.5598 -18.5598 -18.5523 -18.5008
   -18.5008 -18.5008 -18.4792 -18.4792 -18.4792 -18.4758 -18.4758 -18.4758
     4.4531   6.3509   6.3509   6.4056   6.4056   6.4056   8.2932   9.4604
    11.1671  11.4486  11.4486  11.4618  11.4618  11.4618  11.9080  11.9080
    11.9080  12.2052  12.4586  12.4586  12.4586  12.4790  12.4790  12.8612
    12.9138  12.9138  12.9138  12.9534  12.9534  12.9534  13.0220  13.0220
    13.0220  13.1073  13.1073  13.1073  13.2190  13.2190  13.2190  13.3973
    13.3973  13.6521  13.6747  13.6747  13.6747  13.6965  13.6965  13.8242
    13.8242  13.8575  13.8575  13.8575  13.8890  13.8890  13.8890  13.9079
    13.9681  13.9681  13.9681  13.9969  13.9969  14.2870  14.2870  14.2870
    14.4419  14.4419  14.4419  14.5936  14.5936  14.5936  15.1283  15.1283
    15.1283  15.4493  15.4493  15.4493  15.4814  15.4814  15.4814  15.6335
    15.6335  15.6840  15.7199  15.7199  15.7308  15.7308  15.7308  15.8135
    15.8406  15.8406  15.8406  15.8851  15.8851  16.0609  16.0609  16.0609
    16.4360  16.4360  16.4360  16.5003  16.5003  16.5003  16.5383  16.5383
    16.5383  16.9473  16.9473  16.9479  16.9744  16.9745  16.9834  17.0346
    17.0777  17.0777  17.0777  17.1078  17.1107  17.1929  17.1930  17.1931

          k = 0.0000 0.0000 0.1925 ( 48469 PWs)   bands (ev):

   -70.8092 -70.7792 -70.7626 -70.7553 -70.7553 -70.7537 -70.7453 -70.7240
   -70.7231 -70.7231 -70.7230 -70.7224 -70.7224 -70.7219 -70.7219 -70.7219
   -42.3599 -42.3462 -42.3425 -42.3420 -42.3327 -42.3327 -42.3288 -42.3147
   -37.4263 -37.3026 -37.2484 -37.2069 -37.2044 -37.2044 -37.1508 -37.0424
   -37.0325 -37.0325 -36.9953 -36.9953 -36.9927 -36.9836 -36.9836 -36.9818
   -36.8372 -36.8363 -36.7977 -36.7944 -36.7934 -36.7868 -36.7868 -36.7779
   -36.7670 -36.7644 -36.7644 -36.7586 -36.7503 -36.7503 -36.7435 -36.7309
   -36.7276 -36.7251 -36.7251 -36.7210 -36.7143 -36.7143 -36.7022 -36.6780
   -36.6763 -36.6763 -36.6730 -36.6703 -36.6703 -36.6547 -36.6535 -36.6535
   -18.6464 -18.6464 -18.6464 -18.6441 -18.6421 -18.6421 -18.6216 -18.6216
   -18.6165 -18.5801 -18.5664 -18.5664 -18.5595 -18.5548 -18.5432 -18.5040
   -18.4984 -18.4984 -18.4803 -18.4803 -18.4792 -18.4765 -18.4765 -18.4757
     4.5423   5.8013   6.3546   6.4093   6.4093   6.9337   8.2782   9.5346
    10.7710  11.2488  11.4601  11.4718  11.4718  11.7327  11.9558  11.9558
    12.0209  12.1435  12.3267  12.3465  12.3465  12.3625  12.6543  12.6543
    12.7429  12.8635  12.9025  12.9149  12.9158  12.9158  12.9449  13.0583
    13.0583  13.1749  13.1969  13.1969  13.2637  13.4099  13.4099  13.4132
    13.4320  13.6079  13.6397  13.6397  13.6556  13.6991  13.7683  13.7683
    13.7912  13.8030  13.8664  13.8937  13.9349  13.9403  13.9403  13.9428
    13.9860  14.0196  14.0196  14.0358  14.0523  14.1346  14.2427  14.2427
    14.4669  14.5425  14.5425  14.6232  14.7199  14.7199  15.1375  15.1375
    15.1400  15.2578  15.2871  15.2871  15.3274  15.4852  15.5587  15.5587
    15.6080  15.6925  15.7172  15.7994  15.8360  15.8360  15.8445  15.8742
    15.9569  15.9639  15.9639  15.9809  16.0510  16.0510  16.0647  16.1301
    16.4065  16.4065  16.4185  16.4185  16.4596  16.4770  16.4770  16.4990
    16.5734  16.7680  16.8179  16.8700  16.8768  16.8768  16.8830  16.9363
    16.9787  16.9797  17.0327  17.0557  17.0675  17.1400  17.2323  17.3573

          k = 0.0000 0.0000 0.3850 ( 48538 PWs)   bands (ev):

   -70.8084 -70.7792 -70.7674 -70.7553 -70.7553 -70.7537 -70.7368 -70.7283
   -70.7231 -70.7231 -70.7230 -70.7224 -70.7224 -70.7219 -70.7219 -70.7219
   -42.3568 -42.3520 -42.3425 -42.3420 -42.3327 -42.3327 -42.3229 -42.3179
   -37.3980 -37.3467 -37.2593 -37.2064 -37.2038 -37.2038 -37.1048 -37.0601
   -37.0230 -37.0230 -37.0055 -37.0055 -36.9946 -36.9868 -36.9868 -36.9828
   -36.8372 -36.8347 -36.8003 -36.7967 -36.7892 -36.7892 -36.7886 -36.7743
   -36.7719 -36.7606 -36.7606 -36.7604 -36.7453 -36.7443 -36.7443 -36.7383
   -36.7280 -36.7280 -36.7167 -36.7159 -36.7074 -36.7074 -36.6873 -36.6848
   -36.6828 -36.6828 -36.6764 -36.6664 -36.6664 -36.6643 -36.6591 -36.6591
   -18.6468 -18.6468 -18.6467 -18.6446 -18.6378 -18.6378 -18.6269 -18.6269
   -18.6084 -18.5954 -18.5660 -18.5660 -18.5591 -18.5540 -18.5276 -18.5130
   -18.4925 -18.4925 -18.4847 -18.4847 -18.4793 -18.4771 -18.4771 -18.4757
     4.7840   5.3013   6.3604   6.4153   6.4153   7.3283   8.2283   9.7724
    10.2121  11.2578  11.4822  11.4905  11.4905  11.5413  12.0770  12.0909
    12.0909  12.1432  12.2074  12.2074  12.2084  12.3494  12.3494  12.5135
    12.7557  12.8212  12.8445  12.8504  12.8504  12.8639  13.1575  13.1575
    13.1715  13.2822  13.2825  13.2825  13.3192  13.3600  13.3600  13.4283
    13.5236  13.5746  13.5788  13.5788  13.6208  13.6748  13.6915  13.7558
    13.8913  13.8913  13.9055  13.9276  13.9675  13.9725  14.0059  14.0059
    14.0074  14.0653  14.1119  14.1119  14.1621  14.2626  14.2626  14.2915
    14.3993  14.5219  14.5219  14.5514  14.9262  14.9262  15.0847  15.0847
    15.1094  15.1590  15.1590  15.1829  15.1868  15.2996  15.5980  15.6482
    15.7340  15.8004  15.8004  15.8471  16.0091  16.0091  16.0276  16.0308
    16.0308  16.0410  16.0866  16.1411  16.1411  16.1767  16.2329  16.2514
    16.2514  16.2952  16.2952  16.3151  16.3751  16.3751  16.3758  16.4020
    16.5531  16.6259  16.6716  16.6979  16.6979  16.7633  16.9128  16.9583
    16.9907  16.9909  16.9973  17.0256  17.0257  17.0398  17.1254  17.1610

          k = 0.0000 0.1925 0.1925 ( 48486 PWs)   bands (ev):

   -70.8088 -70.7789 -70.7648 -70.7604 -70.7545 -70.7474 -70.7441 -70.7255
   -70.7231 -70.7231 -70.7230 -70.7225 -70.7224 -70.7219 -70.7219 -70.7219
   -42.3589 -42.3462 -42.3456 -42.3428 -42.3322 -42.3292 -42.3290 -42.3157
   -37.4167 -37.3083 -37.2698 -37.2392 -37.1959 -37.1604 -37.1443 -37.0454
   -37.0321 -37.0291 -36.9985 -36.9967 -36.9959 -36.9872 -36.9844 -36.9837
   -36.8367 -36.8356 -36.7961 -36.7961 -36.7938 -36.7867 -36.7820 -36.7812
   -36.7760 -36.7629 -36.7619 -36.7542 -36.7489 -36.7489 -36.7380 -36.7335
   -36.7329 -36.7254 -36.7248 -36.7216 -36.7105 -36.7052 -36.6983 -36.6873
   -36.6766 -36.6747 -36.6716 -36.6716 -36.6695 -36.6604 -36.6559 -36.6529
   -18.6480 -18.6459 -18.6455 -18.6424 -18.6413 -18.6409 -18.6240 -18.6210
   -18.6166 -18.5808 -18.5800 -18.5722 -18.5512 -18.5439 -18.5413 -18.5043
   -18.4988 -18.4960 -18.4817 -18.4808 -18.4798 -18.4782 -18.4772 -18.4754
     4.6278   5.7360   5.9427   6.3749   6.7761   7.0802   8.2401   9.6099
    10.7449  10.8918  11.3148  11.4203  11.6866  11.8925  11.9793  11.9902
    12.0541  12.1069  12.2034  12.2503  12.3732  12.3827  12.4240  12.5937
    12.6359  12.6556  12.8199  12.8765  12.9926  13.0143  13.0870  13.1349
    13.1362  13.2266  13.2330  13.3023  13.3716  13.4052  13.4398  13.4458
    13.4541  13.5696  13.5910  13.5955  13.7074  13.7743  13.7845  13.7983
    13.8321  13.8338  13.8363  13.8637  13.8789  13.8933  13.9370  13.9676
    13.9920  14.0166  14.0240  14.0619  14.0642  14.0680  14.1473  14.2380
    14.5884  14.6259  14.6967  14.7525  14.7561  14.7950  15.1324  15.1618
    15.1632  15.1715  15.2132  15.2498  15.3318  15.4074  15.4188  15.6350
    15.6875  15.6922  15.7301  15.7331  15.7852  15.8919  15.9093  15.9936
    16.0095  16.0268  16.0371  16.0538  16.0817  16.1198  16.1369  16.1966
    16.3073  16.3247  16.3995  16.4139  16.4207  16.4430  16.4433  16.4963
    16.5577  16.7237  16.7308  16.7630  16.8203  16.8831  16.9034  16.9196
    16.9302  16.9685  16.9701  17.0185  17.0413  17.0536  17.1022  17.1999

          k = 0.0000 0.1925 0.3850 ( 48550 PWs)   bands (ev):

   -70.8082 -70.7782 -70.7689 -70.7620 -70.7534 -70.7468 -70.7373 -70.7296
   -70.7231 -70.7231 -70.7230 -70.7225 -70.7224 -70.7219 -70.7219 -70.7219
   -42.3560 -42.3514 -42.3451 -42.3439 -42.3311 -42.3299 -42.3235 -42.3188
   -37.3908 -37.3415 -37.2819 -37.2523 -37.1850 -37.1555 -37.1050 -37.0619
   -37.0239 -37.0207 -37.0075 -37.0054 -36.9987 -36.9915 -36.9876 -36.9847
   -36.8364 -36.8339 -36.7980 -36.7958 -36.7901 -36.7882 -36.7851 -36.7779
   -36.7731 -36.7703 -36.7640 -36.7537 -36.7494 -36.7426 -36.7361 -36.7336
   -36.7265 -36.7251 -36.7233 -36.7168 -36.7066 -36.7037 -36.6971 -36.6859
   -36.6830 -36.6757 -36.6721 -36.6695 -36.6690 -36.6642 -36.6616 -36.6571
   -18.6486 -18.6466 -18.6445 -18.6409 -18.6383 -18.6366 -18.6286 -18.6257
   -18.6093 -18.5962 -18.5807 -18.5778 -18.5452 -18.5413 -18.5265 -18.5122
   -18.4939 -18.4905 -18.4858 -18.4835 -18.4820 -18.4799 -18.4770 -18.4754
     4.8597   5.3359   5.9069   6.3200   6.8837   7.4133   8.1378   9.8444
    10.2714  10.9461  11.1646  11.3441  11.7533  11.8715  11.9890  12.0660
    12.1026  12.1426  12.1508  12.2210  12.2651  12.2819  12.3469  12.4217
    12.5294  12.5570  12.6274  12.8756  13.1252  13.1453  13.1878  13.2486
    13.2679  13.2989  13.3180  13.3456  13.3765  13.3802  13.4588  13.4607
    13.5074  13.5246  13.5344  13.6032  13.6637  13.7045  13.7433  13.7763
    13.8268  13.8376  13.8545  13.8772  13.8935  13.9368  13.9962  14.0182
    14.0222  14.0363  14.0680  14.0785  14.1067  14.1322  14.1722  14.2303
    14.6601  14.6990  14.7402  14.7704  14.9541  14.9784  15.0717  15.0870
    15.1219  15.1653  15.1845  15.1992  15.2720  15.2829  15.5545  15.6116
    15.6351  15.7010  15.8240  15.8998  15.9209  15.9708  16.0143  16.0323
    16.0641  16.0824  16.1016  16.1551  16.1600  16.2024  16.2273  16.2520
    16.2683  16.2710  16.2935  16.3091  16.3305  16.3802  16.4376  16.4547
    16.4800  16.6013  16.6636  16.6820  16.7224  16.7810  16.8132  16.8510
    16.8853  16.9125  16.9217  16.9405  16.9804  17.0201  17.0735  17.1861

          k = 0.0000 0.3850 0.3850 ( 48478 PWs)   bands (ev):

   -70.8078 -70.7755 -70.7711 -70.7679 -70.7507 -70.7406 -70.7377 -70.7330
   -70.7231 -70.7230 -70.7230 -70.7226 -70.7224 -70.7219 -70.7219 -70.7219
   -42.3535 -42.3499 -42.3493 -42.3468 -42.3281 -42.3254 -42.3252 -42.3213
   -37.3728 -37.3310 -37.3111 -37.2890 -37.1627 -37.1162 -37.1027 -37.0741
   -37.0215 -37.0150 -37.0130 -37.0077 -37.0046 -36.9975 -36.9901 -36.9889
   -36.8356 -36.8321 -36.7941 -36.7913 -36.7883 -36.7868 -36.7854 -36.7810
   -36.7796 -36.7717 -36.7704 -36.7605 -36.7422 -36.7389 -36.7335 -36.7304
   -36.7241 -36.7215 -36.7213 -36.7191 -36.7106 -36.7013 -36.6925 -36.6904
   -36.6836 -36.6814 -36.6773 -36.6682 -36.6649 -36.6635 -36.6619 -36.6576
   -18.6486 -18.6444 -18.6421 -18.6413 -18.6377 -18.6339 -18.6291 -18.6254
   -18.6073 -18.5971 -18.5954 -18.5902 -18.5326 -18.5263 -18.5255 -18.5146
   -18.4947 -18.4881 -18.4865 -18.4850 -18.4844 -18.4813 -18.4788 -18.4768
     5.0691   5.3631   5.5330   6.1719   7.3064   7.5534   7.9007  10.0555
    10.3961  10.5429  10.7922  11.3546  11.9459  11.9936  12.0428  12.0994
    12.1003  12.1129  12.1193  12.1591  12.1598  12.2094  12.2542  12.3401
    12.3970  12.4037  12.4391  12.8986  13.2313  13.3183  13.3290  13.3532
    13.3662  13.4086  13.4092  13.4428  13.4644  13.4848  13.5083  13.5176
    13.5398  13.5409  13.5553  13.5819  13.6257  13.6555  13.6994  13.7232
    13.7349  13.7402  13.7546  13.8083  13.8181  13.8262  13.8682  13.9079
    14.0338  14.0589  14.0823  14.1544  14.1666  14.1713  14.2386  14.2417
    14.9281  14.9326  14.9566  14.9909  14.9926  15.0250  15.0535  15.1010
    15.1093  15.2122  15.2248  15.2712  15.3198  15.3999  15.4127  15.4722
    15.5587  15.5930  15.7064  15.8611  15.8893  15.9656  15.9914  16.0693
    16.1173  16.1452  16.1469  16.1603  16.1650  16.1910  16.2171  16.2213
    16.2453  16.2917  16.3308  16.3341  16.3581  16.3829  16.3878  16.4139
    16.4501  16.4786  16.6021  16.6354  16.7023  16.7247  16.7403  16.8165
    16.8703  16.8926  16.9105  16.9237  16.9326  16.9453  17.0472  17.1126

          k = 0.1925 0.1925 0.1925 ( 48503 PWs)   bands (ev):

   -70.8085 -70.7785 -70.7648 -70.7648 -70.7528 -70.7441 -70.7441 -70.7268
   -70.7231 -70.7231 -70.7230 -70.7225 -70.7225 -70.7219 -70.7219 -70.7219
   -42.3580 -42.3462 -42.3462 -42.3453 -42.3292 -42.3290 -42.3290 -42.3167
   -37.4080 -37.3132 -37.2705 -37.2705 -37.1787 -37.1418 -37.1418 -37.0478
   -37.0291 -37.0291 -37.0005 -36.9990 -36.9990 -36.9877 -36.9869 -36.9869
   -36.8355 -36.8355 -36.7958 -36.7935 -36.7935 -36.7861 -36.7861 -36.7821
   -36.7691 -36.7691 -36.7645 -36.7509 -36.7487 -36.7487 -36.7353 -36.7353
   -36.7310 -36.7261 -36.7246 -36.7246 -36.7024 -36.7024 -36.6951 -36.6889
   -36.6825 -36.6825 -36.6683 -36.6683 -36.6670 -36.6620 -36.6620 -36.6512
   -18.6467 -18.6467 -18.6453 -18.6406 -18.6406 -18.6396 -18.6228 -18.6228
   -18.6178 -18.5836 -18.5836 -18.5818 -18.5411 -18.5411 -18.5377 -18.5037
   -18.4969 -18.4969 -18.4825 -18.4825 -18.4797 -18.4791 -18.4770 -18.4770
     4.7087   5.7431   5.7431   6.2746   7.0763   7.0763   8.1890   9.6855
    10.7221  10.9272  10.9272  11.4835  11.8825  11.8825  11.9407  11.9604
    11.9604  12.1715  12.1715  12.1779  12.3614  12.3754  12.3754  12.5063
    12.5063  12.5239  12.7094  12.8640  13.1266  13.1407  13.1407  13.1675
    13.1675  13.3260  13.3260  13.3654  13.4024  13.4311  13.4311  13.4690
    13.4690  13.6121  13.6327  13.6327  13.6917  13.7553  13.7553  13.8040
    13.8040  13.8040  13.8222  13.8222  13.8838  13.8935  13.9373  13.9373
    13.9619  13.9619  13.9622  14.0384  14.0384  14.1196  14.2071  14.2071
    14.7508  14.7575  14.7575  14.8421  14.8476  14.8476  15.1551  15.1551
    15.1839  15.2349  15.2349  15.2455  15.3191  15.3259  15.3259  15.6519
    15.6519  15.7192  15.7192  15.7532  15.8305  15.8305  15.8573  16.0388
    16.0687  16.0938  16.0938  16.1159  16.1159  16.1801  16.2210  16.2210
    16.2924  16.3040  16.3040  16.3577  16.3577  16.3989  16.3989  16.4118
    16.6840  16.6840  16.7230  16.7268  16.7668  16.7842  16.7842  16.8770
    16.8770  16.9930  16.9978  17.0122  17.0124  17.0540  17.0573  17.1064

          k = 0.1925 0.1925 0.3850 ( 48490 PWs)   bands (ev):

   -70.8080 -70.7773 -70.7697 -70.7648 -70.7522 -70.7441 -70.7377 -70.7306
   -70.7231 -70.7230 -70.7230 -70.7225 -70.7225 -70.7219 -70.7219 -70.7219
   -42.3552 -42.3509 -42.3462 -42.3456 -42.3291 -42.3290 -42.3240 -42.3196
   -37.3848 -37.3380 -37.2928 -37.2717 -37.1720 -37.1378 -37.1034 -37.0629
   -37.0222 -37.0215 -37.0080 -37.0076 -37.0018 -36.9932 -36.9906 -36.9875
   -36.8352 -36.8334 -36.7959 -36.7934 -36.7917 -36.7858 -36.7841 -36.7810
   -36.7721 -36.7715 -36.7629 -36.7580 -36.7508 -36.7453 -36.7358 -36.7302
   -36.7267 -36.7252 -36.7214 -36.7205 -36.7037 -36.7034 -36.6957 -36.6880
   -36.6846 -36.6785 -36.6741 -36.6702 -36.6655 -36.6645 -36.6604 -36.6539
   -18.6478 -18.6455 -18.6440 -18.6386 -18.6373 -18.6364 -18.6276 -18.6266
   -18.6113 -18.5983 -18.5875 -18.5859 -18.5370 -18.5346 -18.5243 -18.5105
   -18.4924 -18.4922 -18.4856 -18.4850 -18.4827 -18.4816 -18.4776 -18.4770
     4.9280   5.3607   5.7547   6.2485   7.0698   7.4488   8.0543   9.9121
    10.3338  10.8824  10.9986  11.3600  11.7314  11.8022  11.9831  12.0678
    12.0896  12.1509  12.1687  12.2045  12.2545  12.2634  12.2956  12.3681
    12.4243  12.4353  12.5151  12.8603  13.2473  13.2487  13.2676  13.3104
    13.3205  13.3510  13.3707  13.3982  13.3994  13.4397  13.4847  13.4926
    13.5425  13.5564  13.5764  13.6312  13.6396  13.7087  13.7217  13.7542
    13.7744  13.8223  13.8265  13.8348  13.8621  13.8799  13.9274  13.9569
    13.9802  14.0050  14.0334  14.0578  14.0907  14.1579  14.1809  14.2250
    14.8126  14.8523  14.8667  14.9309  14.9985  15.0421  15.1069  15.1469
    15.1575  15.1741  15.2016  15.2938  15.3093  15.3354  15.4889  15.5854
    15.6474  15.6998  15.7257  15.8231  15.8540  15.8981  15.9449  15.9797
    16.0834  16.1084  16.1599  16.1632  16.1835  16.2283  16.2326  16.2396
    16.2568  16.2716  16.2929  16.3022  16.3758  16.3788  16.4110  16.4194
    16.4994  16.5111  16.5558  16.6107  16.6750  16.6980  16.7330  16.7993
    16.8143  16.8661  16.9713  16.9808  17.0205  17.0804  17.0835  17.1205

          k = 0.1925 0.3850 0.3850 ( 48499 PWs)   bands (ev):

   -70.8078 -70.7750 -70.7711 -70.7689 -70.7505 -70.7398 -70.7377 -70.7336
   -70.7231 -70.7230 -70.7230 -70.7226 -70.7225 -70.7219 -70.7219 -70.7219
   -42.3531 -42.3500 -42.3494 -42.3476 -42.3272 -42.3254 -42.3252 -42.3218
   -37.3707 -37.3307 -37.3122 -37.2977 -37.1570 -37.1079 -37.0978 -37.0725
   -37.0206 -37.0166 -37.0133 -37.0097 -37.0075 -36.9983 -36.9935 -36.9927
   -36.8340 -36.8318 -36.7928 -36.7895 -36.7886 -36.7870 -36.7845 -36.7804
   -36.7764 -36.7706 -36.7688 -36.7603 -36.7471 -36.7447 -36.7379 -36.7340
   -36.7275 -36.7238 -36.7223 -36.7214 -36.7023 -36.6981 -36.6924 -36.6888
   -36.6866 -36.6824 -36.6810 -36.6746 -36.6600 -36.6588 -36.6581 -36.6537
   -18.6467 -18.6426 -18.6417 -18.6385 -18.6359 -18.6335 -18.6285 -18.6258
   -18.6112 -18.6016 -18.6002 -18.5966 -18.5262 -18.5218 -18.5212 -18.5111
   -18.4942 -18.4885 -18.4880 -18.4858 -18.4850 -18.4828 -18.4807 -18.4790
     5.1145   5.3722   5.4954   6.1581   7.3630   7.5344   7.8403  10.0918
    10.4501  10.6229  10.8152  11.3555  11.7376  11.8781  11.9412  12.0133
    12.0628  12.1332  12.1480  12.1699  12.1842  12.1998  12.2239  12.2830
    12.3343  12.3355  12.3717  12.8482  13.3290  13.3846  13.3987  13.4070
    13.4202  13.4334  13.4678  13.4760  13.4986  13.5066  13.5417  13.5490
    13.5597  13.5616  13.5949  13.5980  13.6487  13.6642  13.6957  13.6967
    13.7110  13.7351  13.7657  13.7688  13.7919  13.8111  13.8564  13.8959
    13.9985  14.0221  14.0369  14.0809  14.1290  14.1716  14.2134  14.2247
    15.0060  15.0362  15.0669  15.0919  15.0933  15.1352  15.1449  15.1896
    15.2390  15.2713  15.3506  15.3517  15.4013  15.4491  15.4614  15.5305
    15.5385  15.5923  15.6889  15.7349  15.7876  15.8258  15.9437  15.9759
    16.0018  16.0134  16.0916  16.1034  16.1514  16.1988  16.2053  16.2116
    16.2394  16.2710  16.2973  16.3121  16.3300  16.3308  16.3643  16.3809
    16.4607  16.4660  16.5206  16.5690  16.6596  16.7715  16.7778  16.8090
    16.8230  16.9049  16.9058  16.9546  16.9966  17.0809  17.0912  17.1823

          k = 0.3850 0.3850 0.3850 ( 48449 PWs)   bands (ev):

   -70.8077 -70.7735 -70.7711 -70.7711 -70.7502 -70.7377 -70.7377 -70.7352
   -70.7230 -70.7230 -70.7230 -70.7226 -70.7226 -70.7219 -70.7219 -70.7219
   -42.3517 -42.3500 -42.3500 -42.3489 -42.3255 -42.3251 -42.3251 -42.3232
   -37.3670 -37.3272 -37.3140 -37.3140 -37.1491 -37.0892 -37.0892 -37.0738
   -37.0184 -37.0184 -37.0142 -37.0136 -37.0136 -36.9996 -36.9994 -36.9994
   -36.8314 -36.8314 -36.7909 -36.7909 -36.7898 -36.7840 -36.7792 -36.7792
   -36.7740 -36.7653 -36.7628 -36.7628 -36.7505 -36.7505 -36.7440 -36.7440
   -36.7372 -36.7269 -36.7245 -36.7245 -36.6930 -36.6930 -36.6929 -36.6889
   -36.6889 -36.6835 -36.6813 -36.6813 -36.6541 -36.6537 -36.6537 -36.6512
   -18.6426 -18.6426 -18.6350 -18.6339 -18.6339 -18.6325 -18.6263 -18.6263
   -18.6175 -18.6092 -18.6086 -18.6086 -18.5141 -18.5139 -18.5139 -18.5065
   -18.4931 -18.4931 -18.4876 -18.4876 -18.4865 -18.4846 -18.4846 -18.4846
     5.2324   5.3872   5.3872   6.1403   7.5039   7.5039   7.6932  10.1454
    10.5985  10.7899  10.7899  11.3367  11.6102  11.6102  11.7549  12.0487
    12.0571  12.0571  12.1185  12.1185  12.1423  12.1423  12.1475  12.2424
    12.2757  12.2757  12.2972  12.7770  13.4570  13.4570  13.4656  13.4981
    13.4981  13.5134  13.5171  13.5171  13.5632  13.5632  13.5636  13.5825
    13.5902  13.5902  13.6201  13.6291  13.6291  13.6635  13.6690  13.6690
    13.7205  13.7237  13.7237  13.7620  13.7620  13.8057  13.8223  13.8223
    13.9796  14.0218  14.0218  14.0723  14.0723  14.1828  14.1828  14.1873
    15.1803  15.2340  15.2340  15.2685  15.2685  15.2998  15.2998  15.3642
    15.3684  15.3684  15.4693  15.4907  15.5660  15.5660  15.5751  15.6164
    15.6164  15.6432  15.6566  15.6566  15.7387  15.7387  15.7765  15.7805
    15.7805  15.8429  15.8896  15.8896  16.0061  16.1269  16.1269  16.1368
    16.1827  16.1827  16.2239  16.2283  16.2349  16.2349  16.2925  16.2925
    16.4820  16.5005  16.5005  16.7359  16.7917  16.7917  16.8371  16.8371
    16.8393  16.8486  16.8817  16.8817  16.9564  17.0055  17.0055  17.0495

     the Fermi energy is    15.2226 ev

!    total energy              =   -6230.61224602 Ry
     estimated scf accuracy    <          9.5E-12 Ry
     smearing contrib. (-TS)   =       0.00057400 Ry
     internal energy E=F+TS    =   -6230.61282002 Ry

     The total energy is F=E-TS. E is the sum of the following terms:
     one-electron contribution =   -2588.69379901 Ry
     hartree contribution      =    1473.70511365 Ry
     xc contribution           =    -706.41651807 Ry
     ewald contribution        =   -3190.73284166 Ry
     one-center paw contrib.   =   -1218.47477494 Ry

     total magnetization       =    19.48 Bohr mag/cell
     absolute magnetization    =    38.45 Bohr mag/cell

     convergence has been achieved in  21 iterations

     negative rho (up, down):  7.299E-03 1.123E-03

     Forces acting on atoms (cartesian axes, Ry/au):

     atom    1 type  1   force =    -0.00060555   -0.00060555    0.00117396
     atom    2 type  1   force =    -0.00075908   -0.00075908   -0.00075908
     atom    3 type  1   force =     0.00060555    0.00117396    0.00060555
     atom    4 type  1   force =    -0.00117396    0.00060555   -0.00060555
     atom    5 type  1   force =    -0.00060555    0.00117396   -0.00060555
     atom    6 type  1   force =     0.00117396   -0.00060555   -0.00060555
     atom    7 type  1   force =     0.00060555   -0.00117396   -0.00060555
     atom    8 type  1   force =     0.00075908   -0.00075908    0.00075908
     atom    9 type  1   force =    -0.00075908    0.00075908    0.00075908
     atom   10 type  1   force =     0.00117396    0.00060555    0.00060555
     atom   11 type  1   force =    -0.00117396   -0.00060555    0.00060555
     atom   12 type  1   force =     0.00060555    0.00060555    0.00117396
     atom   13 type  1   force =     0.00075908    0.00075908   -0.00075908
     atom   14 type  1   force =     0.00060555   -0.00060555   -0.00117396
     atom   15 type  1   force =    -0.00060555   -0.00117396    0.00060555
     atom   16 type  1   force =    -0.00060555    0.00060555   -0.00117396
     atom   17 type  2   force =     0.00000000    0.00000000    0.00000000
     atom   18 type  2   force =    -0.00023318   -0.00023318    0.00023318
     atom   19 type  2   force =     0.00000000    0.00000000    0.00000000
     atom   20 type  2   force =    -0.00023318    0.00023318   -0.00023318
     atom   21 type  2   force =     0.00000000    0.00000000    0.00000000
     atom   22 type  2   force =     0.00023318    0.00023318    0.00023318
     atom   23 type  2   force =     0.00023318   -0.00023318   -0.00023318
     atom   24 type  2   force =     0.00000000    0.00000000    0.00000000
     atom   25 type  3   force =    -0.00035975   -0.00035975    0.00035975
     atom   26 type  3   force =     0.00000000    0.00000000    0.00000000
     atom   27 type  3   force =    -0.00035975    0.00035975   -0.00035975
     atom   28 type  3   force =     0.00000000    0.00000000    0.00000000
     atom   29 type  3   force =     0.00035975    0.00035975    0.00035975
     atom   30 type  3   force =     0.00035975   -0.00035975   -0.00035975
     atom   31 type  3   force =     0.00000000    0.00000000    0.00000000

     Total force =     0.005870     Total SCF correction =     0.000070


     Computing stress (Cartesian axis) and pressure


     negative rho (up, down):  7.299E-03 1.123E-03
          total   stress  (Ry/bohr**3)                   (kbar)     P=        2.67
   0.00001817   0.00000000   0.00000000            2.67        0.00        0.00
   0.00000000   0.00001817   0.00000000            0.00        2.67        0.00
   0.00000000   0.00000000   0.00001817            0.00        0.00        2.67

     Energy error            =      1.8E-04 Ry
     Gradient error          =      1.2E-03 Ry/Bohr
     Cell gradient error     =      2.7E+00 kbar

     number of scf cycles    =  10
     number of bfgs steps    =   9

     enthalpy           old  =   -6230.6120699607 Ry
     enthalpy           new  =   -6230.6122460239 Ry

     CASE: enthalpy          _new < enthalpy          _old

     new trust radius        =       0.0138443260 bohr
     new conv_thr            =       0.0000000001 Ry

     new unit-cell volume =   2332.76286 a.u.^3 (   345.67979 Ang^3 )
     density =      6.16558 g/cm^3

CELL_PARAMETERS (alat= 12.76591255)
   1.038895023   0.000000000   0.000000000
   0.000000000   1.038895023   0.000000000
   0.000000000   0.000000000   1.038895023

ATOMIC_POSITIONS (crystal)
Fe               0.1253622773        0.1253622773        0.6276382705
Fe               0.6158648521        0.6158648521        0.6158648521
Fe               0.8746377227        0.6276382705        0.8746377227
Fe               0.3723617295        0.8746377227        0.1253622773
Fe               0.1253622773        0.6276382705        0.1253622773
Fe               0.6276382705        0.1253622773        0.1253622773
Fe               0.8746377227        0.3723617295        0.1253622773
Fe               0.3841351479        0.6158648521        0.3841351479
Fe               0.6158648521        0.3841351479        0.3841351479
Fe               0.6276382705        0.8746377227        0.8746377227
Fe               0.3723617295        0.1253622773        0.8746377227
Fe               0.8746377227        0.8746377227        0.6276382705
Fe               0.3841351479        0.3841351479        0.6158648521
Fe               0.8746377227        0.1253622773        0.3723617295
Fe               0.1253622773        0.3723617295        0.8746377227
Fe               0.1253622773        0.8746377227        0.3723617295
Ti               0.0000000000        0.0000000000        0.0000000000
Ti               0.7487351883        0.7487351883        0.2512648117
Ti               0.5000000000        0.0000000000        0.5000000000
Ti               0.7487351883        0.2512648117        0.7487351883
Ti               0.0000000000        0.5000000000        0.5000000000
Ti               0.2512648117        0.2512648117        0.2512648117
Ti               0.2512648117        0.7487351883        0.7487351883
Ti               0.5000000000        0.5000000000        0.0000000000
H                0.2584981468        0.2584981468        0.7415018532
H                0.0000000000        0.5000000000        0.0000000000
H                0.2584981468        0.7415018532        0.2584981468
H                0.5000000000        0.0000000000        0.0000000000
H                0.7415018532        0.7415018532        0.7415018532
H                0.7415018532        0.2584981468        0.2584981468
H                0.0000000000        0.0000000000        0.5000000000



     Writing config-only to output data dir ./TiFe2_cub_8b_8H.save/ :
     XML data file     NEW-OLD atomic charge density approx. for the potential
     New effective cutoffs (rho, wfc): 1608.38  114.87

     negative rho (up, down):  7.313E-03 1.117E-03
     Generating pointlists ...

     total cpu time spent up to now is    82990.2 secs

     per-process dynamical memory:   530.5 Mb

     Self-consistent Calculation

     iteration #  1     ecut=   124.00 Ry     beta= 0.20
     CG style diagonalization
     c_bands:  1 eigenvalues not converged
     c_bands:  1 eigenvalues not converged
     c_bands:  1 eigenvalues not converged
     c_bands:  1 eigenvalues not converged
     ethr =  1.00E-06,  avg # of iterations =  6.9

     negative rho (up, down):  7.314E-03 1.118E-03

     total cpu time spent up to now is    83822.8 secs

     total energy              =   -6230.61159137 Ry
     estimated scf accuracy    <       0.00097940 Ry

     total magnetization       =    19.46 Bohr mag/cell
     absolute magnetization    =    38.44 Bohr mag/cell

     iteration #  2     ecut=   124.00 Ry     beta= 0.20
     CG style diagonalization
     ethr =  2.73E-07,  avg # of iterations =  4.4

     negative rho (up, down):  7.314E-03 1.118E-03

     total cpu time spent up to now is    84248.7 secs

     total energy              =   -6230.61236615 Ry
     estimated scf accuracy    <       0.00086087 Ry

     total magnetization       =    19.45 Bohr mag/cell
     absolute magnetization    =    38.44 Bohr mag/cell

     iteration #  3     ecut=   124.00 Ry     beta= 0.20
     CG style diagonalization
     ethr =  2.40E-07,  avg # of iterations =  3.0

     negative rho (up, down):  7.314E-03 1.118E-03

     total cpu time spent up to now is    84517.1 secs

     total energy              =   -6230.61230003 Ry
     estimated scf accuracy    <       0.00054466 Ry

     total magnetization       =    19.45 Bohr mag/cell
     absolute magnetization    =    38.43 Bohr mag/cell

     iteration #  4     ecut=   124.00 Ry     beta= 0.20
     CG style diagonalization
     ethr =  1.52E-07,  avg # of iterations =  3.0

     negative rho (up, down):  7.314E-03 1.117E-03

     total cpu time spent up to now is    84782.7 secs

     total energy              =   -6230.61231772 Ry
     estimated scf accuracy    <       0.00010683 Ry

     total magnetization       =    19.45 Bohr mag/cell
     absolute magnetization    =    38.43 Bohr mag/cell

     iteration #  5     ecut=   124.00 Ry     beta= 0.20
     CG style diagonalization
     ethr =  2.98E-08,  avg # of iterations =  4.1

     negative rho (up, down):  7.314E-03 1.117E-03

     total cpu time spent up to now is    85179.2 secs

     total energy              =   -6230.61234807 Ry
     estimated scf accuracy    <       0.00010048 Ry

     total magnetization       =    19.44 Bohr mag/cell
     absolute magnetization    =    38.43 Bohr mag/cell

     iteration #  6     ecut=   124.00 Ry     beta= 0.20
     CG style diagonalization
     ethr =  2.80E-08,  avg # of iterations =  3.3

     negative rho (up, down):  7.313E-03 1.117E-03

     total cpu time spent up to now is    85477.5 secs

     total energy              =   -6230.61237154 Ry
     estimated scf accuracy    <       0.00001568 Ry

     total magnetization       =    19.44 Bohr mag/cell
     absolute magnetization    =    38.43 Bohr mag/cell

     iteration #  7     ecut=   124.00 Ry     beta= 0.20
     CG style diagonalization
     ethr =  4.37E-09,  avg # of iterations =  4.9

     negative rho (up, down):  7.313E-03 1.117E-03

     total cpu time spent up to now is    85970.2 secs

     total energy              =   -6230.61238642 Ry
     estimated scf accuracy    <       0.00002494 Ry

     total magnetization       =    19.44 Bohr mag/cell
     absolute magnetization    =    38.43 Bohr mag/cell

     iteration #  8     ecut=   124.00 Ry     beta= 0.20
     CG style diagonalization
     ethr =  4.37E-09,  avg # of iterations =  3.3

     negative rho (up, down):  7.313E-03 1.117E-03

     total cpu time spent up to now is    86269.6 secs

     total energy              =   -6230.61238997 Ry
     estimated scf accuracy    <       0.00002098 Ry

     total magnetization       =    19.44 Bohr mag/cell
     absolute magnetization    =    38.43 Bohr mag/cell

     iteration #  9     ecut=   124.00 Ry     beta= 0.20
     CG style diagonalization
     ethr =  4.37E-09,  avg # of iterations =  3.0

     negative rho (up, down):  7.313E-03 1.117E-03

     total cpu time spent up to now is    86537.1 secs

     total energy              =   -6230.61239176 Ry
     estimated scf accuracy    <       0.00002209 Ry

     total magnetization       =    19.44 Bohr mag/cell
     absolute magnetization    =    38.42 Bohr mag/cell

     iteration # 10     ecut=   124.00 Ry     beta= 0.20
     CG style diagonalization
     ethr =  4.37E-09,  avg # of iterations =  3.0

     negative rho (up, down):  7.312E-03 1.117E-03

     total cpu time spent up to now is    86800.0 secs

     total energy              =   -6230.61239014 Ry
     estimated scf accuracy    <       0.00002594 Ry

     total magnetization       =    19.44 Bohr mag/cell
     absolute magnetization    =    38.42 Bohr mag/cell

     iteration # 11     ecut=   124.00 Ry     beta= 0.20
     CG style diagonalization
     ethr =  4.37E-09,  avg # of iterations =  3.0

     negative rho (up, down):  7.312E-03 1.117E-03

     total cpu time spent up to now is    87064.8 secs

     total energy              =   -6230.61239171 Ry
     estimated scf accuracy    <       0.00000429 Ry

     total magnetization       =    19.44 Bohr mag/cell
     absolute magnetization    =    38.42 Bohr mag/cell

     iteration # 12     ecut=   124.00 Ry     beta= 0.20
     CG style diagonalization
     ethr =  1.19E-09,  avg # of iterations =  3.2

     negative rho (up, down):  7.312E-03 1.117E-03

     total cpu time spent up to now is    87356.6 secs

     total energy              =   -6230.61239243 Ry
     estimated scf accuracy    <       0.00000100 Ry

     total magnetization       =    19.44 Bohr mag/cell
     absolute magnetization    =    38.42 Bohr mag/cell

     iteration # 13     ecut=   124.00 Ry     beta= 0.20
     CG style diagonalization
     ethr =  2.78E-10,  avg # of iterations =  4.4

     negative rho (up, down):  7.312E-03 1.117E-03

     total cpu time spent up to now is    87791.9 secs

     total energy              =   -6230.61239323 Ry
     estimated scf accuracy    <       0.00000109 Ry

     total magnetization       =    19.44 Bohr mag/cell
     absolute magnetization    =    38.42 Bohr mag/cell

     iteration # 14     ecut=   124.00 Ry     beta= 0.20
     CG style diagonalization
     ethr =  2.78E-10,  avg # of iterations =  3.2

     negative rho (up, down):  7.312E-03 1.117E-03

     total cpu time spent up to now is    88080.7 secs

     total energy              =   -6230.61239329 Ry
     estimated scf accuracy    <       0.00000175 Ry

     total magnetization       =    19.44 Bohr mag/cell
     absolute magnetization    =    38.42 Bohr mag/cell

     iteration # 15     ecut=   124.00 Ry     beta= 0.20
     CG style diagonalization
     ethr =  2.78E-10,  avg # of iterations =  3.0

     negative rho (up, down):  7.313E-03 1.117E-03

     total cpu time spent up to now is    88349.1 secs

     total energy              =   -6230.61239317 Ry
     estimated scf accuracy    <       0.00000098 Ry

     total magnetization       =    19.44 Bohr mag/cell
     absolute magnetization    =    38.42 Bohr mag/cell

     iteration # 16     ecut=   124.00 Ry     beta= 0.20
     CG style diagonalization
     ethr =  2.74E-10,  avg # of iterations =  3.3

     negative rho (up, down):  7.313E-03 1.117E-03

     total cpu time spent up to now is    88649.6 secs

     total energy              =   -6230.61239335 Ry
     estimated scf accuracy    <       0.00000027 Ry

     total magnetization       =    19.44 Bohr mag/cell
     absolute magnetization    =    38.42 Bohr mag/cell

     iteration # 17     ecut=   124.00 Ry     beta= 0.20
     CG style diagonalization
     ethr =  7.41E-11,  avg # of iterations =  3.4

     negative rho (up, down):  7.313E-03 1.117E-03

     total cpu time spent up to now is    88961.8 secs

     total energy              =   -6230.61239343 Ry
     estimated scf accuracy    <       0.00000004 Ry

     total magnetization       =    19.44 Bohr mag/cell
     absolute magnetization    =    38.42 Bohr mag/cell

     iteration # 18     ecut=   124.00 Ry     beta= 0.20
     CG style diagonalization
     ethr =  1.19E-11,  avg # of iterations =  5.4

     negative rho (up, down):  7.313E-03 1.117E-03

     total cpu time spent up to now is    89512.4 secs

     total energy              =   -6230.61239350 Ry
     estimated scf accuracy    <       0.00000002 Ry

     total magnetization       =    19.44 Bohr mag/cell
     absolute magnetization    =    38.42 Bohr mag/cell

     iteration # 19     ecut=   124.00 Ry     beta= 0.20
     CG style diagonalization
     ethr =  6.84E-12,  avg # of iterations =  3.7

     negative rho (up, down):  7.313E-03 1.117E-03

     total cpu time spent up to now is    89854.5 secs

     total energy              =   -6230.61239352 Ry
     estimated scf accuracy    <       0.00000002 Ry

     total magnetization       =    19.44 Bohr mag/cell
     absolute magnetization    =    38.42 Bohr mag/cell

     iteration # 20     ecut=   124.00 Ry     beta= 0.20
     CG style diagonalization
     ethr =  4.77E-12,  avg # of iterations =  3.2

     negative rho (up, down):  7.312E-03 1.117E-03

     total cpu time spent up to now is    90139.4 secs

     total energy              =   -6230.61239353 Ry
     estimated scf accuracy    <       0.00000001 Ry

     total magnetization       =    19.44 Bohr mag/cell
     absolute magnetization    =    38.42 Bohr mag/cell

     iteration # 21     ecut=   124.00 Ry     beta= 0.20
     CG style diagonalization
     ethr =  3.04E-12,  avg # of iterations =  3.3

     negative rho (up, down):  7.312E-03 1.117E-03

     total cpu time spent up to now is    90432.9 secs

     total energy              =   -6230.61239353 Ry
     estimated scf accuracy    <          5.4E-09 Ry

     total magnetization       =    19.44 Bohr mag/cell
     absolute magnetization    =    38.42 Bohr mag/cell

     iteration # 22     ecut=   124.00 Ry     beta= 0.20
     CG style diagonalization
     ethr =  1.52E-12,  avg # of iterations =  3.9

     negative rho (up, down):  7.312E-03 1.117E-03

     total cpu time spent up to now is    90801.0 secs

     total energy              =   -6230.61239354 Ry
     estimated scf accuracy    <          1.5E-09 Ry

     total magnetization       =    19.44 Bohr mag/cell
     absolute magnetization    =    38.42 Bohr mag/cell

     iteration # 23     ecut=   124.00 Ry     beta= 0.20
     CG style diagonalization
     ethr =  4.08E-13,  avg # of iterations =  4.9

     negative rho (up, down):  7.312E-03 1.117E-03

     total cpu time spent up to now is    91287.0 secs

     total energy              =   -6230.61239354 Ry
     estimated scf accuracy    <          7.6E-10 Ry

     total magnetization       =    19.44 Bohr mag/cell
     absolute magnetization    =    38.42 Bohr mag/cell

     iteration # 24     ecut=   124.00 Ry     beta= 0.20
     CG style diagonalization
     ethr =  2.12E-13,  avg # of iterations =  4.0

     negative rho (up, down):  7.312E-03 1.117E-03

     total cpu time spent up to now is    91662.2 secs

     total energy              =   -6230.61239354 Ry
     estimated scf accuracy    <          4.9E-10 Ry

     total magnetization       =    19.44 Bohr mag/cell
     absolute magnetization    =    38.42 Bohr mag/cell

     iteration # 25     ecut=   124.00 Ry     beta= 0.20
     CG style diagonalization
     ethr =  1.36E-13,  avg # of iterations =  3.9

     negative rho (up, down):  7.312E-03 1.117E-03

     total cpu time spent up to now is    92026.7 secs

     total energy              =   -6230.61239354 Ry
     estimated scf accuracy    <          1.8E-10 Ry

     total magnetization       =    19.44 Bohr mag/cell
     absolute magnetization    =    38.41 Bohr mag/cell

     iteration # 26     ecut=   124.00 Ry     beta= 0.20
     CG style diagonalization
     ethr =  1.00E-13,  avg # of iterations =  3.5

     negative rho (up, down):  7.312E-03 1.117E-03

     Magnetic moment per site  (integrated on atomic sphere of radius R)
     atom   1 (R=0.089)  charge= 11.1818  magn=  1.3824
     atom   2 (R=0.089)  charge= 11.1731  magn=  1.3558
     atom   3 (R=0.089)  charge= 11.1818  magn=  1.3824
     atom   4 (R=0.089)  charge= 11.1818  magn=  1.3824
     atom   5 (R=0.089)  charge= 11.1818  magn=  1.3824
     atom   6 (R=0.089)  charge= 11.1818  magn=  1.3824
     atom   7 (R=0.089)  charge= 11.1818  magn=  1.3824
     atom   8 (R=0.089)  charge= 11.1731  magn=  1.3558
     atom   9 (R=0.089)  charge= 11.1731  magn=  1.3558
     atom  10 (R=0.089)  charge= 11.1818  magn=  1.3824
     atom  11 (R=0.089)  charge= 11.1818  magn=  1.3824
     atom  12 (R=0.089)  charge= 11.1818  magn=  1.3824
     atom  13 (R=0.089)  charge= 11.1731  magn=  1.3558
     atom  14 (R=0.089)  charge= 11.1818  magn=  1.3824
     atom  15 (R=0.089)  charge= 11.1818  magn=  1.3824
     atom  16 (R=0.089)  charge= 11.1818  magn=  1.3824
     atom  17 (R=0.171)  charge= 10.2036  magn= -0.7553
     atom  18 (R=0.171)  charge= 10.2018  magn= -0.8132
     atom  19 (R=0.171)  charge= 10.1967  magn= -0.8429
     atom  20 (R=0.171)  charge= 10.2018  magn= -0.8132
     atom  21 (R=0.171)  charge= 10.1967  magn= -0.8429
     atom  22 (R=0.171)  charge= 10.2018  magn= -0.8132
     atom  23 (R=0.171)  charge= 10.2018  magn= -0.8132
     atom  24 (R=0.171)  charge= 10.1967  magn= -0.8429
     atom  25 (R=0.089)  charge=  0.9833  magn= -0.0055
     atom  26 (R=0.089)  charge=  0.9932  magn= -0.0054
     atom  27 (R=0.089)  charge=  0.9833  magn= -0.0055
     atom  28 (R=0.089)  charge=  0.9932  magn= -0.0054
     atom  29 (R=0.089)  charge=  0.9833  magn= -0.0055
     atom  30 (R=0.089)  charge=  0.9833  magn= -0.0055
     atom  31 (R=0.089)  charge=  0.9932  magn= -0.0054

     total cpu time spent up to now is    92354.9 secs

     End of self-consistent calculation

 ------ SPIN UP ------------


          k = 0.0000 0.0000 0.0000 ( 48489 PWs)   bands (ev):

   -72.8680 -72.8431 -72.8360 -72.8360 -72.8360 -72.8359 -72.8359 -72.8070
   -72.8070 -72.8070 -72.8060 -72.8060 -72.8060 -72.7711 -72.7711 -72.7711
   -41.6225 -41.5806 -41.5689 -41.5689 -41.5689 -41.5539 -41.5539 -41.5390
   -39.3408 -39.1896 -39.1405 -39.1405 -39.1399 -39.1399 -39.1399 -39.0042
   -39.0042 -39.0042 -38.9445 -38.9445 -38.9445 -38.9381 -38.9381 -38.9381
   -38.8768 -38.8768 -38.8641 -38.8567 -38.8567 -38.8486 -38.8486 -38.8486
   -38.8260 -38.8260 -38.8260 -38.8215 -38.8215 -38.8215 -38.8158 -38.8158
   -38.7900 -38.7900 -38.7900 -38.7890 -38.7647 -38.7647 -38.7647 -38.7368
   -38.7368 -38.7368 -38.7135 -38.7135 -38.7135 -38.7108 -38.7108 -38.7108
   -17.8878 -17.8878 -17.8878 -17.8625 -17.8625 -17.8625 -17.8525 -17.8525
   -17.8525 -17.7931 -17.7931 -17.7921 -17.7921 -17.7921 -17.7864 -17.7286
   -17.7286 -17.7286 -17.7161 -17.7161 -17.7161 -17.6955 -17.6955 -17.6955
     4.1383   6.0131   6.0131   6.0748   6.0748   6.0748   8.0420   9.2364
    10.9086  10.9086  10.9086  11.0211  11.1641  11.1641  11.1716  11.1716
    11.1716  11.7655  11.7721  11.7721  11.7721  11.8879  11.9062  11.9062
    11.9062  11.9081  11.9081  11.9081  11.9407  11.9407  11.9648  11.9648
    11.9648  12.1741  12.1741  12.3713  12.3713  12.3713  12.4818  12.4818
    12.4818  12.5017  12.5017  12.5017  12.5061  12.5438  12.5438  12.9369
    12.9369  13.0078  13.0078  13.0078  13.0172  13.0172  13.0172  13.0599
    13.1061  13.1061  13.1061  13.1454  13.1454  13.1454  13.2570  13.2570
    13.2570  13.6895  13.6895  13.6895  13.7705  13.7705  13.7705  13.7860
    13.7860  13.7860  13.8964  13.8964  13.9305  13.9305  13.9611  13.9611
    13.9611  14.0165  14.0165  14.0165  14.0208  14.5497  14.5497  14.7614
    14.7614  14.7614  14.9616  15.0497  15.0497  15.0497  15.1357  15.1357
    15.3832  15.3832  15.3832  16.2057  16.2057  16.2057  16.2202  16.2202
    16.2202  16.2608  16.2608  16.2608  16.5805  16.5805  16.5805  16.6339
    16.6339  16.6339  16.7386  16.7386  16.7929  16.8337  16.8337  16.8337

          k = 0.0000 0.0000 0.1925 ( 48469 PWs)   bands (ev):

   -72.8665 -72.8470 -72.8411 -72.8360 -72.8360 -72.8359 -72.8271 -72.8082
   -72.8070 -72.8070 -72.8060 -72.8060 -72.8060 -72.7712 -72.7711 -72.7711
   -41.6225 -41.5802 -41.5705 -41.5689 -41.5689 -41.5539 -41.5518 -41.5399
   -39.3310 -39.2106 -39.1725 -39.1400 -39.1393 -39.1393 -39.0922 -39.0077
   -38.9998 -38.9998 -38.9509 -38.9509 -38.9470 -38.9421 -38.9421 -38.9394
   -38.8768 -38.8745 -38.8665 -38.8599 -38.8558 -38.8510 -38.8510 -38.8446
   -38.8279 -38.8274 -38.8214 -38.8214 -38.8177 -38.8154 -38.8154 -38.8055
   -38.7904 -38.7875 -38.7875 -38.7765 -38.7682 -38.7658 -38.7658 -38.7402
   -38.7384 -38.7384 -38.7171 -38.7156 -38.7156 -38.7126 -38.7114 -38.7114
   -17.8881 -17.8871 -17.8871 -17.8628 -17.8628 -17.8628 -17.8534 -17.8534
   -17.8503 -17.8071 -17.7928 -17.7920 -17.7920 -17.7882 -17.7759 -17.7306
   -17.7276 -17.7276 -17.7165 -17.7154 -17.7154 -17.6967 -17.6967 -17.6954
     4.2238   5.4619   6.0155   6.0773   6.0773   6.6158   8.0250   9.3280
    10.6356  10.8355  10.9600  10.9600  11.1509  11.2060  11.2060  11.2075
    11.3209  11.6292  11.6292  11.6409  11.7414  11.7414  11.7459  11.7615
    11.7784  11.9237  11.9975  12.0007  12.0007  12.0284  12.0284  12.0545
    12.1302  12.1820  12.2141  12.2522  12.3096  12.3096  12.3372  12.4385
    12.4385  12.4707  12.5168  12.5534  12.5660  12.5660  12.7633  12.8436
    12.8870  12.8870  12.8971  12.9697  12.9697  12.9852  13.0124  13.1468
    13.1468  13.1548  13.2447  13.2818  13.3108  13.3108  13.3665  13.3917
    13.3917  13.6613  13.6655  13.6655  13.7046  13.7281  13.7281  13.7451
    13.7940  13.8395  13.8580  13.8580  13.8912  13.9028  13.9028  13.9291
    14.0059  14.0986  14.0986  14.1069  14.1376  14.5601  14.6758  14.6758
    14.6891  14.7229  14.8365  14.9934  14.9934  14.9938  15.0882  15.2300
    15.4625  15.5316  15.5316  16.1541  16.1541  16.1855  16.1993  16.1993
    16.2024  16.2324  16.2324  16.3143  16.3651  16.4253  16.4414  16.4414
    16.5074  16.5463  16.5463  16.8877  16.9368  16.9369  16.9417  17.4628

          k = 0.0000 0.0000 0.3850 ( 48538 PWs)   bands (ev):

   -72.8621 -72.8551 -72.8415 -72.8360 -72.8360 -72.8359 -72.8194 -72.8116
   -72.8070 -72.8070 -72.8060 -72.8060 -72.8060 -72.7713 -72.7711 -72.7711
   -41.6225 -41.5795 -41.5729 -41.5689 -41.5689 -41.5539 -41.5479 -41.5422
   -39.3026 -39.2596 -39.1760 -39.1391 -39.1385 -39.1385 -39.0565 -39.0175
   -38.9881 -38.9881 -38.9667 -38.9667 -38.9509 -38.9469 -38.9469 -38.9415
   -38.8767 -38.8700 -38.8697 -38.8624 -38.8532 -38.8532 -38.8522 -38.8432
   -38.8422 -38.8184 -38.8177 -38.8177 -38.8170 -38.8029 -38.8029 -38.7986
   -38.7849 -38.7832 -38.7832 -38.7720 -38.7685 -38.7685 -38.7616 -38.7490
   -38.7407 -38.7407 -38.7242 -38.7204 -38.7204 -38.7158 -38.7117 -38.7117
   -17.8884 -17.8858 -17.8858 -17.8633 -17.8633 -17.8633 -17.8551 -17.8551
   -17.8455 -17.8185 -17.7924 -17.7919 -17.7919 -17.7876 -17.7643 -17.7353
   -17.7262 -17.7262 -17.7169 -17.7137 -17.7137 -17.6990 -17.6990 -17.6953
     4.4548   4.9690   6.0194   6.0813   6.0813   7.0269   7.9734   9.6064
    10.0703  10.7330  11.1099  11.1099  11.2368  11.2798  11.2798  11.3078
    11.3176  11.3508  11.3508  11.5028  11.6261  11.6261  11.6521  11.7244
    11.7280  11.8174  12.0179  12.0794  12.0902  12.0902  12.1414  12.1414
    12.1644  12.1700  12.1700  12.1882  12.1983  12.2042  12.3379  12.3488
    12.3488  12.4092  12.4092  12.4433  12.5237  12.5431  12.8402  12.9138
    12.9868  12.9868  13.0090  13.0261  13.1147  13.1147  13.1454  13.2109
    13.2109  13.2618  13.3424  13.4357  13.4575  13.4575  13.4794  13.4971
    13.4971  13.5008  13.5563  13.5563  13.5881  13.6100  13.6100  13.6232
    13.6396  13.6861  13.7034  13.7034  13.8791  13.9104  14.1775  14.1775
    14.2219  14.2861  14.2861  14.3023  14.3580  14.4816  14.4816  14.4949
    14.6601  14.6907  14.8271  14.8540  14.8540  14.9448  15.0374  15.2375
    15.6975  15.8085  15.8085  16.0239  16.0239  16.0386  16.1596  16.1596
    16.1620  16.1677  16.2066  16.2066  16.2504  16.2639  16.2824  16.2824
    16.3822  16.3822  16.5305  16.9350  17.1118  17.1118  17.1313  17.1315

          k = 0.0000 0.1925 0.1925 ( 48486 PWs)   bands (ev):

   -72.8650 -72.8471 -72.8457 -72.8405 -72.8348 -72.8291 -72.8260 -72.8093
   -72.8072 -72.8070 -72.8060 -72.8060 -72.8060 -72.7712 -72.7711 -72.7711
   -41.6225 -41.5799 -41.5716 -41.5698 -41.5685 -41.5527 -41.5511 -41.5408
   -39.3217 -39.2133 -39.1981 -39.1683 -39.1303 -39.0997 -39.0857 -39.0078
   -38.9991 -38.9958 -38.9553 -38.9536 -38.9524 -38.9470 -38.9436 -38.9431
   -38.8755 -38.8731 -38.8673 -38.8587 -38.8580 -38.8526 -38.8480 -38.8469
   -38.8336 -38.8249 -38.8220 -38.8150 -38.8132 -38.8128 -38.8084 -38.8058
   -38.7923 -38.7847 -38.7825 -38.7737 -38.7717 -38.7660 -38.7635 -38.7443
   -38.7402 -38.7378 -38.7213 -38.7169 -38.7156 -38.7136 -38.7127 -38.7113
   -17.8882 -17.8863 -17.8862 -17.8649 -17.8631 -17.8604 -17.8547 -17.8526
   -17.8498 -17.8082 -17.8070 -17.7996 -17.7827 -17.7752 -17.7748 -17.7322
   -17.7269 -17.7264 -17.7173 -17.7157 -17.7139 -17.6982 -17.6972 -17.6959
     4.3057   5.3932   5.6015   6.0419   6.4539   6.7675   7.9851   9.4200
    10.6328  10.7553  10.8534  11.0027  11.0042  11.2070  11.2336  11.3149
    11.3437  11.5235  11.5733  11.6037  11.6290  11.6598  11.6627  11.7208
    11.7853  11.8272  11.9097  11.9609  12.0371  12.0399  12.1225  12.1477
    12.1552  12.1659  12.2104  12.2447  12.3043  12.3635  12.3921  12.4038
    12.4548  12.5125  12.5159  12.5386  12.5786  12.6794  12.7279  12.7915
    12.8209  12.8294  12.8778  12.9103  12.9752  12.9888  13.0928  13.1398
    13.2053  13.2103  13.2917  13.3658  13.3661  13.3826  13.4083  13.4816
    13.4949  13.5684  13.6104  13.6234  13.6385  13.6984  13.7167  13.7198
    13.8041  13.8285  13.8300  13.8697  13.8790  13.9209  13.9386  13.9572
    13.9984  14.0833  14.1948  14.2923  14.3257  14.3518  14.5833  14.6713
    14.7101  14.7170  14.8146  14.8763  15.0149  15.1513  15.1819  15.2691
    15.4419  15.6392  15.6566  16.0472  16.1208  16.1297  16.1435  16.1565
    16.1746  16.1876  16.2120  16.2729  16.3307  16.3931  16.4193  16.4380
    16.4685  16.5405  16.5863  16.6308  16.6768  17.1154  17.1526  17.2825

          k = 0.0000 0.1925 0.3850 ( 48550 PWs)   bands (ev):

   -72.8609 -72.8542 -72.8454 -72.8428 -72.8333 -72.8286 -72.8197 -72.8126
   -72.8072 -72.8070 -72.8060 -72.8060 -72.8060 -72.7713 -72.7711 -72.7711
   -41.6225 -41.5789 -41.5738 -41.5705 -41.5680 -41.5523 -41.5480 -41.5429
   -39.2951 -39.2545 -39.2006 -39.1815 -39.1198 -39.0939 -39.0545 -39.0172
   -38.9890 -38.9855 -38.9688 -38.9665 -38.9575 -38.9520 -38.9485 -38.9456
   -38.8749 -38.8687 -38.8682 -38.8614 -38.8560 -38.8540 -38.8504 -38.8460
   -38.8369 -38.8268 -38.8190 -38.8134 -38.8092 -38.8025 -38.8012 -38.7975
   -38.7885 -38.7847 -38.7820 -38.7762 -38.7689 -38.7666 -38.7576 -38.7506
   -38.7427 -38.7400 -38.7238 -38.7209 -38.7187 -38.7147 -38.7136 -38.7129
   -17.8883 -17.8851 -17.8846 -17.8661 -17.8634 -17.8597 -17.8559 -17.8539
   -17.8453 -17.8199 -17.8086 -17.8049 -17.7772 -17.7735 -17.7627 -17.7367
   -17.7253 -17.7249 -17.7182 -17.7152 -17.7116 -17.7012 -17.6993 -17.6962
     4.5274   4.9991   5.5597   5.9870   6.5649   7.1180   7.8788   9.6967
    10.1506  10.7289  10.9454  11.1322  11.1384  11.1770  11.2775  11.3071
    11.3210  11.3544  11.3570  11.4118  11.4779  11.5556  11.6531  11.7059
    11.7411  11.8207  11.8258  11.8922  12.1110  12.1289  12.1621  12.2036
    12.2073  12.2239  12.2365  12.2494  12.2692  12.3093  12.3330  12.3727
    12.3897  12.4013  12.4178  12.5968  12.6093  12.6439  12.7564  12.8030
    12.8258  12.8299  12.9153  13.0085  13.1396  13.1922  13.2113  13.2527
    13.2739  13.3031  13.3167  13.3281  13.3549  13.3964  13.4484  13.4892
    13.5016  13.5240  13.5623  13.5731  13.5878  13.6170  13.6419  13.6916
    13.7160  13.7389  13.7778  13.8060  13.8965  13.9310  14.0604  14.0915
    14.1495  14.2099  14.2452  14.3997  14.4249  14.5291  14.5457  14.6141
    14.6285  14.6625  14.7091  14.8135  15.1160  15.1491  15.2213  15.2956
    15.7042  15.8497  15.8725  15.9884  16.0108  16.0271  16.0781  16.0886
    16.1051  16.1165  16.1456  16.1597  16.1837  16.2391  16.2561  16.3024
    16.3496  16.4232  16.6674  16.8528  16.9034  17.0682  17.1071  17.1679

          k = 0.0000 0.3850 0.3850 ( 48478 PWs)   bands (ev):

   -72.8573 -72.8518 -72.8517 -72.8479 -72.8306 -72.8228 -72.8195 -72.8155
   -72.8075 -72.8070 -72.8060 -72.8060 -72.8060 -72.7713 -72.7712 -72.7712
   -41.6224 -41.5773 -41.5749 -41.5732 -41.5669 -41.5494 -41.5478 -41.5449
   -39.2733 -39.2425 -39.2365 -39.2142 -39.1011 -39.0593 -39.0482 -39.0239
   -38.9860 -38.9789 -38.9755 -38.9692 -38.9655 -38.9602 -38.9535 -38.9522
   -38.8723 -38.8653 -38.8645 -38.8586 -38.8577 -38.8549 -38.8539 -38.8413
   -38.8385 -38.8304 -38.8201 -38.8190 -38.8045 -38.8011 -38.7954 -38.7939
   -38.7878 -38.7866 -38.7833 -38.7722 -38.7688 -38.7662 -38.7581 -38.7559
   -38.7430 -38.7383 -38.7248 -38.7209 -38.7203 -38.7161 -38.7136 -38.7116
   -17.8875 -17.8835 -17.8833 -17.8686 -17.8636 -17.8571 -17.8569 -17.8514
   -17.8424 -17.8221 -17.8220 -17.8155 -17.7678 -17.7607 -17.7594 -17.7417
   -17.7228 -17.7224 -17.7198 -17.7184 -17.7073 -17.7054 -17.6998 -17.6986
     4.7290   5.0183   5.1850   5.8440   7.0067   7.2686   7.6306   9.9600
    10.3301  10.4639  10.7416  10.8605  11.2039  11.2391  11.2638  11.2750
    11.2964  11.3308  11.3406  11.3447  11.4216  11.4849  11.4900  11.6445
    11.7097  11.7314  11.7537  11.8109  12.1486  12.1895  12.2046  12.2303
    12.2527  12.2743  12.2971  12.3220  12.3356  12.3791  12.4063  12.4793
    12.4833  12.5288  12.5542  12.5717  12.5821  12.6316  12.6417  12.7205
    12.7269  12.7704  12.9043  12.9567  13.0179  13.0491  13.1324  13.1646
    13.2017  13.2390  13.3153  13.3297  13.3708  13.3997  13.4060  13.4535
    13.5141  13.5555  13.6035  13.6739  13.7082  13.7357  13.7489  13.7512
    13.7902  13.8361  13.8616  13.8837  13.9251  13.9449  14.0013  14.1287
    14.1425  14.1775  14.2687  14.3533  14.4326  14.4488  14.5080  14.5369
    14.5764  14.6898  14.7095  14.7775  15.4255  15.4609  15.5648  15.6326
    15.7538  15.9317  15.9603  15.9732  15.9897  15.9950  16.0025  16.0284
    16.0295  16.0412  16.0538  16.0737  16.1005  16.1782  16.1936  16.1997
    16.3354  16.4686  16.4836  16.7548  16.9089  16.9961  17.1520  17.2373

          k = 0.1925 0.1925 0.1925 ( 48503 PWs)   bands (ev):

   -72.8636 -72.8475 -72.8457 -72.8457 -72.8326 -72.8260 -72.8260 -72.8103
   -72.8072 -72.8072 -72.8060 -72.8060 -72.8060 -72.7712 -72.7711 -72.7711
   -41.6225 -41.5794 -41.5717 -41.5717 -41.5678 -41.5511 -41.5511 -41.5415
   -39.3132 -39.2170 -39.1990 -39.1990 -39.1148 -39.0827 -39.0827 -39.0074
   -38.9957 -38.9957 -38.9598 -38.9564 -38.9564 -38.9488 -38.9471 -38.9471
   -38.8729 -38.8729 -38.8672 -38.8565 -38.8565 -38.8527 -38.8499 -38.8499
   -38.8278 -38.8278 -38.8238 -38.8153 -38.8153 -38.8098 -38.8030 -38.8030
   -38.7959 -38.7803 -38.7803 -38.7752 -38.7668 -38.7661 -38.7661 -38.7448
   -38.7448 -38.7355 -38.7241 -38.7185 -38.7185 -38.7123 -38.7123 -38.7108
   -17.8876 -17.8857 -17.8857 -17.8645 -17.8645 -17.8584 -17.8537 -17.8537
   -17.8504 -17.8108 -17.8108 -17.8087 -17.7727 -17.7727 -17.7719 -17.7321
   -17.7265 -17.7265 -17.7166 -17.7166 -17.7138 -17.6994 -17.6974 -17.6974
     4.3829   5.3971   5.3971   5.9433   6.7667   6.7667   7.9344   9.5124
    10.6265  10.8229  10.8229  10.8867  11.0467  11.0467  11.3001  11.3253
    11.3253  11.4351  11.5650  11.5650  11.6136  11.6468  11.6468  11.6808
    11.6808  11.6974  11.7345  11.8929  12.0638  12.0638  12.1895  12.1895
    12.1931  12.2539  12.2539  12.3157  12.3157  12.3610  12.3773  12.4705
    12.4762  12.4762  12.5415  12.5415  12.6450  12.7068  12.7068  12.7226
    12.7226  12.7938  12.9417  12.9417  13.0171  13.0171  13.0556  13.1033
    13.1671  13.1779  13.1779  13.4173  13.4284  13.4284  13.4766  13.4766
    13.5186  13.5186  13.5638  13.5874  13.6077  13.6077  13.7674  13.7674
    13.8135  13.8807  13.9146  13.9146  13.9434  13.9434  13.9483  13.9868
    13.9868  14.0353  14.3162  14.3162  14.4026  14.4195  14.4195  14.5887
    14.6811  14.7337  14.7337  15.1106  15.1106  15.2576  15.3200  15.3200
    15.3793  15.7071  15.7071  15.9848  15.9848  16.0253  16.1308  16.1308
    16.1369  16.1747  16.1747  16.3158  16.3158  16.4137  16.4149  16.4421
    16.4421  16.4788  16.5099  16.5795  16.5795  17.2242  17.2243  17.2613

          k = 0.1925 0.1925 0.3850 ( 48490 PWs)   bands (ev):

   -72.8597 -72.8536 -72.8469 -72.8457 -72.8320 -72.8260 -72.8198 -72.8134
   -72.8073 -72.8072 -72.8060 -72.8060 -72.8060 -72.7713 -72.7712 -72.7711
   -41.6225 -41.5784 -41.5742 -41.5717 -41.5674 -41.5511 -41.5480 -41.5436
   -39.2886 -39.2512 -39.2117 -39.2002 -39.1080 -39.0777 -39.0512 -39.0160
   -38.9871 -38.9866 -38.9704 -38.9681 -38.9621 -38.9548 -38.9515 -38.9493
   -38.8724 -38.8675 -38.8672 -38.8587 -38.8571 -38.8513 -38.8492 -38.8473
   -38.8351 -38.8279 -38.8210 -38.8176 -38.8115 -38.8041 -38.7978 -38.7957
   -38.7933 -38.7825 -38.7817 -38.7773 -38.7744 -38.7625 -38.7565 -38.7493
   -38.7477 -38.7359 -38.7244 -38.7195 -38.7189 -38.7144 -38.7134 -38.7114
   -17.8873 -17.8846 -17.8837 -17.8654 -17.8644 -17.8575 -17.8549 -17.8542
   -17.8463 -17.8224 -17.8147 -17.8131 -17.7691 -17.7680 -17.7605 -17.7359
   -17.7262 -17.7237 -17.7188 -17.7142 -17.7127 -17.7021 -17.7004 -17.6975
     4.5924   5.0193   5.4036   5.9141   6.7655   7.1615   7.7968   9.7860
    10.2309  10.7310  10.9867  11.0044  11.1546  11.1757  11.2411  11.2758
    11.2804  11.3059  11.3700  11.3793  11.4158  11.4778  11.6107  11.6452
    11.6904  11.7087  11.7159  11.8087  12.1475  12.1557  12.2234  12.2377
    12.2458  12.2679  12.2766  12.3118  12.3200  12.3296  12.3670  12.3985
    12.4367  12.4643  12.5063  12.6110  12.6585  12.6839  12.6853  12.7330
    12.7706  12.8522  12.9457  12.9552  13.0012  13.0627  13.1453  13.1745
    13.2239  13.2323  13.2694  13.3026  13.3168  13.3385  13.3878  13.4324
    13.4955  13.5011  13.6050  13.6448  13.6553  13.6831  13.7488  13.7667
    13.8212  13.8214  13.8631  13.8732  13.9040  13.9380  13.9901  14.0482
    14.1023  14.1297  14.2501  14.3563  14.4762  14.5086  14.6236  14.6688
    14.7125  14.7229  14.7737  15.0498  15.2542  15.3150  15.3425  15.3789
    15.6975  15.7984  15.8894  15.8909  15.9631  15.9866  16.0095  16.0192
    16.0445  16.1008  16.1266  16.1844  16.2106  16.2204  16.2560  16.3308
    16.3590  16.4115  16.6678  16.7073  16.7239  17.0101  17.0708  17.0724

          k = 0.1925 0.3850 0.3850 ( 48499 PWs)   bands (ev):

   -72.8566 -72.8518 -72.8517 -72.8490 -72.8305 -72.8218 -72.8195 -72.8159
   -72.8075 -72.8072 -72.8060 -72.8060 -72.8060 -72.7713 -72.7712 -72.7712
   -41.6225 -41.5770 -41.5749 -41.5738 -41.5667 -41.5489 -41.5477 -41.5453
   -39.2699 -39.2439 -39.2378 -39.2230 -39.0949 -39.0509 -39.0427 -39.0207
   -38.9853 -38.9811 -38.9768 -38.9721 -38.9689 -38.9606 -38.9562 -38.9554
   -38.8692 -38.8645 -38.8641 -38.8561 -38.8550 -38.8531 -38.8516 -38.8414
   -38.8365 -38.8303 -38.8219 -38.8215 -38.8108 -38.8057 -38.8001 -38.7967
   -38.7918 -38.7889 -38.7811 -38.7797 -38.7716 -38.7635 -38.7540 -38.7527
   -38.7462 -38.7335 -38.7232 -38.7189 -38.7172 -38.7135 -38.7130 -38.7114
   -17.8857 -17.8827 -17.8826 -17.8667 -17.8637 -17.8556 -17.8554 -17.8515
   -17.8452 -17.8263 -17.8262 -17.8221 -17.7618 -17.7572 -17.7563 -17.7385
   -17.7236 -17.7231 -17.7187 -17.7178 -17.7096 -17.7055 -17.7015 -17.7005
     4.7708   5.0232   5.1434   5.8245   7.0801   7.2609   7.5803  10.0393
    10.3949  10.5560  10.7845  10.9313  11.1851  11.2086  11.2209  11.2460
    11.2595  11.2767  11.3182  11.3476  11.3897  11.4328  11.4741  11.5564
    11.5843  11.5971  11.6445  11.7367  12.1773  12.2257  12.2262  12.2616
    12.2774  12.3262  12.3324  12.3750  12.4098  12.4106  12.4277  12.4819
    12.5167  12.5520  12.5694  12.6289  12.6359  12.6514  12.6966  12.7484
    12.7550  12.7794  12.8103  12.8765  12.9236  12.9523  13.0042  13.0688
    13.0953  13.1417  13.2141  13.2376  13.2423  13.3043  13.3066  13.3750
    13.6168  13.6645  13.6701  13.7226  13.7365  13.7443  13.8122  13.8172
    13.8565  13.8694  13.8905  13.9184  13.9410  13.9458  13.9875  14.0266
    14.0973  14.1283  14.1732  14.2276  14.5583  14.6023  14.6537  14.7278
    14.7981  14.9344  14.9534  15.0954  15.5226  15.5398  15.6257  15.6941
    15.7206  15.8464  15.8524  15.8714  15.8727  15.9084  15.9292  15.9487
    15.9605  16.0807  16.0881  16.1177  16.1707  16.1731  16.2187  16.2250
    16.3165  16.4298  16.4364  16.6437  16.7557  16.8090  16.8878  16.9453

          k = 0.3850 0.3850 0.3850 ( 48449 PWs)   bands (ev):

   -72.8546 -72.8518 -72.8517 -72.8517 -72.8304 -72.8196 -72.8196 -72.8172
   -72.8075 -72.8075 -72.8060 -72.8060 -72.8060 -72.7712 -72.7712 -72.7712
   -41.6225 -41.5763 -41.5750 -41.5750 -41.5665 -41.5477 -41.5477 -41.5462
   -39.2599 -39.2467 -39.2397 -39.2397 -39.0860 -39.0324 -39.0324 -39.0183
   -38.9836 -38.9836 -38.9805 -38.9764 -38.9764 -38.9619 -38.9613 -38.9613
   -38.8634 -38.8634 -38.8629 -38.8550 -38.8550 -38.8527 -38.8398 -38.8398
   -38.8290 -38.8269 -38.8269 -38.8252 -38.8157 -38.8157 -38.8040 -38.8040
   -38.7968 -38.7964 -38.7906 -38.7906 -38.7636 -38.7636 -38.7494 -38.7487
   -38.7487 -38.7294 -38.7175 -38.7151 -38.7151 -38.7116 -38.7116 -38.7106
   -17.8823 -17.8814 -17.8814 -17.8639 -17.8639 -17.8524 -17.8524 -17.8513
   -17.8476 -17.8337 -17.8337 -17.8333 -17.7523 -17.7516 -17.7516 -17.7354
   -17.7236 -17.7236 -17.7157 -17.7157 -17.7150 -17.7062 -17.7048 -17.7048
     4.8809   5.0313   5.0313   5.7989   7.2485   7.2485   7.4463  10.2295
    10.5421  10.8034  10.8034  10.9522  11.1187  11.1489  11.1489  11.1851
    11.1900  11.1900  11.3039  11.3121  11.3121  11.4149  11.4149  11.4490
    11.4549  11.4549  11.4600  11.5832  12.2536  12.2536  12.3042  12.3042
    12.3158  12.3774  12.3774  12.3809  12.4424  12.5202  12.5202  12.5918
    12.5918  12.6199  12.6199  12.6341  12.6708  12.7165  12.7165  12.7278
    12.7527  12.7527  12.7883  12.8416  12.8416  12.8507  12.8507  12.8943
    12.9682  12.9682  13.1029  13.1121  13.1360  13.1360  13.1956  13.1956
    13.7135  13.7135  13.7776  13.7795  13.7795  13.7902  13.8418  13.8418
    13.8969  13.8969  13.9086  13.9291  13.9824  13.9983  13.9983  14.0383
    14.0383  14.0728  14.0868  14.0868  14.9142  14.9336  14.9336  15.0483
    15.1565  15.1682  15.1682  15.3702  15.6747  15.6813  15.6813  15.7218
    15.7218  15.7574  15.7574  15.8364  15.8560  15.8560  15.8646  15.9155
    15.9155  16.0851  16.0851  16.0917  16.1177  16.1177  16.1647  16.1647
    16.2317  16.3224  16.3805  16.3805  16.5873  16.5903  16.5903  16.6344

 ------ SPIN DOWN ----------


          k = 0.0000 0.0000 0.0000 ( 48489 PWs)   bands (ev):

   -70.8059 -70.7750 -70.7508 -70.7508 -70.7508 -70.7487 -70.7487 -70.7193
   -70.7193 -70.7193 -70.7177 -70.7177 -70.7177 -70.7166 -70.7166 -70.7166
   -42.3564 -42.3405 -42.3405 -42.3271 -42.3269 -42.3269 -42.3269 -42.3067
   -37.4325 -37.2844 -37.2016 -37.2016 -37.2011 -37.2011 -37.2011 -37.0317
   -37.0317 -37.0317 -36.9841 -36.9841 -36.9841 -36.9785 -36.9785 -36.9785
   -36.8335 -36.8335 -36.7914 -36.7914 -36.7849 -36.7800 -36.7800 -36.7800
   -36.7639 -36.7639 -36.7639 -36.7488 -36.7488 -36.7488 -36.7340 -36.7340
   -36.7194 -36.7194 -36.7194 -36.7135 -36.7122 -36.7122 -36.7122 -36.6693
   -36.6693 -36.6693 -36.6664 -36.6664 -36.6664 -36.6466 -36.6466 -36.6466
   -18.6406 -18.6406 -18.6406 -18.6405 -18.6405 -18.6405 -18.6113 -18.6113
   -18.6113 -18.5602 -18.5602 -18.5602 -18.5545 -18.5545 -18.5454 -18.4958
   -18.4958 -18.4958 -18.4720 -18.4720 -18.4720 -18.4700 -18.4700 -18.4700
     4.4598   6.3573   6.3573   6.4140   6.4140   6.4140   8.2913   9.4655
    11.1763  11.4560  11.4560  11.4657  11.4657  11.4657  11.9131  11.9131
    11.9131  12.2106  12.4626  12.4626  12.4626  12.4820  12.4820  12.8629
    12.9171  12.9171  12.9171  12.9588  12.9588  12.9588  13.0275  13.0275
    13.0275  13.1080  13.1080  13.1080  13.2248  13.2248  13.2248  13.4022
    13.4022  13.6311  13.6796  13.6796  13.6796  13.7133  13.7133  13.8236
    13.8236  13.8512  13.8512  13.8512  13.8944  13.8944  13.8944  13.9236
    13.9792  13.9792  13.9792  13.9998  13.9998  14.2932  14.2932  14.2932
    14.4366  14.4366  14.4366  14.6068  14.6068  14.6068  15.1336  15.1336
    15.1336  15.4407  15.4407  15.4407  15.4981  15.4981  15.4981  15.6301
    15.6301  15.6844  15.7201  15.7201  15.7349  15.7349  15.7349  15.8407
    15.8514  15.8514  15.8514  15.8922  15.8922  16.0651  16.0651  16.0651
    16.4421  16.4421  16.4421  16.5085  16.5085  16.5085  16.5409  16.5409
    16.5409  16.9529  16.9529  16.9533  16.9824  16.9825  16.9869  17.0328
    17.0853  17.0853  17.0853  17.1146  17.1187  17.1987  17.1990  17.1990

          k = 0.0000 0.0000 0.1925 ( 48469 PWs)   bands (ev):

   -70.8054 -70.7750 -70.7580 -70.7508 -70.7508 -70.7487 -70.7405 -70.7197
   -70.7193 -70.7193 -70.7189 -70.7177 -70.7177 -70.7166 -70.7166 -70.7166
   -42.3554 -42.3429 -42.3405 -42.3295 -42.3269 -42.3269 -42.3220 -42.3078
   -37.4222 -37.2997 -37.2445 -37.2012 -37.2008 -37.2008 -37.1459 -37.0379
   -37.0279 -37.0279 -36.9887 -36.9887 -36.9853 -36.9801 -36.9801 -36.9791
   -36.8334 -36.8325 -36.7929 -36.7899 -36.7894 -36.7825 -36.7825 -36.7740
   -36.7632 -36.7603 -36.7603 -36.7543 -36.7458 -36.7458 -36.7389 -36.7265
   -36.7235 -36.7206 -36.7206 -36.7149 -36.7092 -36.7092 -36.6969 -36.6732
   -36.6715 -36.6715 -36.6686 -36.6658 -36.6658 -36.6502 -36.6490 -36.6490
   -18.6419 -18.6419 -18.6409 -18.6405 -18.6379 -18.6379 -18.6136 -18.6136
   -18.6088 -18.5737 -18.5599 -18.5599 -18.5543 -18.5488 -18.5369 -18.4989
   -18.4933 -18.4933 -18.4736 -18.4736 -18.4720 -18.4702 -18.4702 -18.4701
     4.5491   5.8088   6.3610   6.4177   6.4177   6.9406   8.2771   9.5400
    10.7769  11.2576  11.4678  11.4759  11.4759  11.7352  11.9602  11.9602
    12.0297  12.1467  12.3311  12.3508  12.3508  12.3655  12.6585  12.6585
    12.7457  12.8663  12.9056  12.9197  12.9206  12.9206  12.9489  13.0629
    13.0629  13.1759  13.1995  13.1995  13.2709  13.4146  13.4146  13.4180
    13.4369  13.6075  13.6432  13.6432  13.6496  13.7139  13.7692  13.7692
    13.7940  13.8100  13.8655  13.8967  13.9308  13.9452  13.9452  13.9563
    13.9899  14.0251  14.0251  14.0391  14.0639  14.1394  14.2475  14.2475
    14.4628  14.5435  14.5435  14.6364  14.7283  14.7283  15.1425  15.1425
    15.1442  15.2497  15.2888  15.2888  15.3468  15.4876  15.5664  15.5664
    15.6077  15.6975  15.7216  15.8000  15.8395  15.8395  15.8547  15.8691
    15.9632  15.9742  15.9742  15.9937  16.0554  16.0554  16.0748  16.1365
    16.4120  16.4120  16.4247  16.4247  16.4670  16.4817  16.4817  16.5016
    16.5802  16.7719  16.8234  16.8724  16.8826  16.8826  16.8930  16.9444
    16.9836  16.9843  17.0322  17.0618  17.0780  17.1448  17.2377  17.3620

          k = 0.0000 0.0000 0.3850 ( 48538 PWs)   bands (ev):

   -70.8046 -70.7749 -70.7630 -70.7508 -70.7508 -70.7487 -70.7319 -70.7238
   -70.7193 -70.7193 -70.7192 -70.7177 -70.7177 -70.7166 -70.7166 -70.7166
   -42.3527 -42.3474 -42.3405 -42.3302 -42.3269 -42.3269 -42.3167 -42.3105
   -37.3938 -37.3432 -37.2562 -37.2006 -37.2002 -37.2002 -37.0994 -37.0561
   -37.0182 -37.0182 -37.0001 -37.0001 -36.9871 -36.9822 -36.9822 -36.9802
   -36.8334 -36.8308 -36.7965 -36.7922 -36.7851 -36.7851 -36.7834 -36.7710
   -36.7676 -36.7562 -36.7562 -36.7559 -36.7403 -36.7396 -36.7396 -36.7339
   -36.7235 -36.7235 -36.7118 -36.7108 -36.7024 -36.7024 -36.6825 -36.6796
   -36.6780 -36.6780 -36.6718 -36.6618 -36.6618 -36.6600 -36.6547 -36.6547
   -18.6426 -18.6426 -18.6414 -18.6405 -18.6340 -18.6340 -18.6181 -18.6181
   -18.6014 -18.5887 -18.5595 -18.5595 -18.5539 -18.5478 -18.5215 -18.5079
   -18.4878 -18.4878 -18.4781 -18.4781 -18.4719 -18.4703 -18.4703 -18.4702
     4.7907   5.3089   6.3668   6.4238   6.4238   7.3339   8.2290   9.7785
    10.2170  11.2665  11.4908  11.4949  11.4949  11.5424  12.0819  12.0922
    12.0922  12.1514  12.2107  12.2130  12.2130  12.3553  12.3553  12.5177
    12.7602  12.8242  12.8488  12.8549  12.8549  12.8641  13.1625  13.1625
    13.1755  13.2829  13.2852  13.2852  13.3283  13.3632  13.3632  13.4331
    13.5288  13.5761  13.5821  13.5821  13.6170  13.6783  13.7032  13.7601
    13.8949  13.8949  13.9096  13.9269  13.9707  13.9762  14.0102  14.0102
    14.0186  14.0689  14.1165  14.1165  14.1592  14.2659  14.2659  14.3040
    14.3960  14.5278  14.5278  14.5643  14.9302  14.9302  15.0881  15.0881
    15.0993  15.1641  15.1641  15.1905  15.2039  15.3038  15.6031  15.6517
    15.7376  15.8065  15.8065  15.8509  16.0130  16.0130  16.0310  16.0351
    16.0351  16.0488  16.0831  16.1524  16.1524  16.1892  16.2376  16.2568
    16.2568  16.2986  16.2987  16.3240  16.3812  16.3812  16.3847  16.4030
    16.5578  16.6280  16.6814  16.7044  16.7044  16.7681  16.9191  16.9672
    16.9956  16.9958  16.9990  17.0317  17.0318  17.0484  17.1326  17.1668

          k = 0.0000 0.1925 0.1925 ( 48486 PWs)   bands (ev):

   -70.8050 -70.7747 -70.7602 -70.7558 -70.7501 -70.7427 -70.7393 -70.7209
   -70.7193 -70.7193 -70.7190 -70.7178 -70.7177 -70.7166 -70.7166 -70.7166
   -42.3545 -42.3434 -42.3419 -42.3316 -42.3264 -42.3239 -42.3213 -42.3087
   -37.4126 -37.3054 -37.2655 -37.2350 -37.1925 -37.1560 -37.1389 -37.0408
   -37.0276 -37.0244 -36.9920 -36.9898 -36.9895 -36.9840 -36.9809 -36.9799
   -36.8329 -36.8318 -36.7927 -36.7911 -36.7889 -36.7825 -36.7784 -36.7763
   -36.7725 -36.7588 -36.7569 -36.7499 -36.7450 -36.7444 -36.7334 -36.7288
   -36.7284 -36.7209 -36.7197 -36.7163 -36.7054 -36.7002 -36.6931 -36.6826
   -36.6717 -36.6698 -36.6671 -36.6671 -36.6650 -36.6559 -36.6514 -36.6484
   -18.6438 -18.6412 -18.6402 -18.6389 -18.6369 -18.6366 -18.6157 -18.6130
   -18.6091 -18.5746 -18.5735 -18.5658 -18.5455 -18.5384 -18.5348 -18.4991
   -18.4938 -18.4910 -18.4751 -18.4740 -18.4732 -18.4715 -18.4711 -18.4691
     4.6346   5.7436   5.9501   6.3832   6.7830   7.0873   8.2397   9.6154
    10.7500  10.8985  11.3218  11.4261  11.6905  11.8956  11.9854  11.9939
    12.0573  12.1141  12.2075  12.2549  12.3779  12.3857  12.4286  12.5973
    12.6416  12.6604  12.8233  12.8778  12.9967  13.0181  13.0921  13.1394
    13.1399  13.2289  13.2367  13.3032  13.3777  13.4089  13.4448  13.4524
    13.4587  13.5676  13.5999  13.6001  13.7000  13.7765  13.7924  13.7948
    13.8358  13.8394  13.8397  13.8726  13.8781  13.9037  13.9408  13.9717
    13.9957  14.0222  14.0314  14.0669  14.0692  14.0746  14.1518  14.2426
    14.5879  14.6268  14.6957  14.7643  14.7657  14.8026  15.1364  15.1649
    15.1675  15.1739  15.2098  15.2532  15.3416  15.4202  15.4271  15.6338
    15.6877  15.6971  15.7304  15.7385  15.7964  15.8965  15.9159  15.9968
    16.0181  16.0268  16.0429  16.0621  16.0892  16.1258  16.1462  16.2059
    16.3110  16.3316  16.4037  16.4229  16.4243  16.4471  16.4498  16.5013
    16.5637  16.7282  16.7335  16.7693  16.8267  16.8902  16.9083  16.9250
    16.9365  16.9758  16.9759  17.0228  17.0486  17.0593  17.1072  17.2045

          k = 0.0000 0.1925 0.3850 ( 48550 PWs)   bands (ev):

   -70.8044 -70.7739 -70.7644 -70.7574 -70.7491 -70.7420 -70.7324 -70.7250
   -70.7193 -70.7192 -70.7191 -70.7179 -70.7177 -70.7166 -70.7166 -70.7166
   -42.3520 -42.3471 -42.3423 -42.3330 -42.3253 -42.3236 -42.3173 -42.3113
   -37.3865 -37.3380 -37.2783 -37.2480 -37.1819 -37.1506 -37.0994 -37.0577
   -37.0193 -37.0158 -37.0020 -36.9998 -36.9919 -36.9877 -36.9830 -36.9810
   -36.8326 -36.8301 -36.7945 -36.7910 -36.7859 -36.7840 -36.7806 -36.7743
   -36.7685 -36.7657 -36.7595 -36.7492 -36.7450 -36.7379 -36.7322 -36.7288
   -36.7221 -36.7203 -36.7184 -36.7117 -36.7017 -36.6990 -36.6923 -36.6809
   -36.6782 -36.6707 -36.6673 -36.6649 -36.6645 -36.6600 -36.6573 -36.6526
   -18.6447 -18.6415 -18.6397 -18.6375 -18.6341 -18.6330 -18.6195 -18.6172
   -18.6023 -18.5894 -18.5743 -18.5714 -18.5394 -18.5352 -18.5205 -18.5070
   -18.4892 -18.4859 -18.4796 -18.4775 -18.4743 -18.4732 -18.4706 -18.4689
     4.8665   5.3436   5.9144   6.3282   6.8906   7.4194   8.1393   9.8505
    10.2760  10.9523  11.1687  11.3522  11.7568  11.8757  11.9926  12.0672
    12.1080  12.1480  12.1530  12.2268  12.2683  12.2891  12.3539  12.4268
    12.5339  12.5620  12.6312  12.8751  13.1299  13.1495  13.1925  13.2521
    13.2722  13.3032  13.3197  13.3465  13.3815  13.3868  13.4625  13.4658
    13.5056  13.5294  13.5398  13.6089  13.6660  13.7081  13.7462  13.7781
    13.8341  13.8424  13.8533  13.8819  13.8996  13.9405  13.9990  14.0228
    14.0234  14.0411  14.0720  14.0862  14.1110  14.1375  14.1776  14.2382
    14.6588  14.7008  14.7480  14.7798  14.9583  14.9834  15.0740  15.0893
    15.1202  15.1696  15.1898  15.2049  15.2781  15.2955  15.5597  15.6164
    15.6366  15.7072  15.8278  15.9060  15.9255  15.9747  16.0198  16.0377
    16.0687  16.0884  16.1037  16.1634  16.1718  16.2057  16.2314  16.2566
    16.2731  16.2807  16.3022  16.3137  16.3351  16.3866  16.4434  16.4580
    16.4855  16.6077  16.6662  16.6902  16.7277  16.7855  16.8191  16.8572
    16.8915  16.9211  16.9291  16.9452  16.9870  17.0276  17.0783  17.1920

          k = 0.0000 0.3850 0.3850 ( 48478 PWs)   bands (ev):

   -70.8041 -70.7711 -70.7665 -70.7634 -70.7465 -70.7359 -70.7327 -70.7283
   -70.7193 -70.7191 -70.7190 -70.7182 -70.7177 -70.7166 -70.7166 -70.7166
   -42.3498 -42.3469 -42.3453 -42.3355 -42.3224 -42.3203 -42.3184 -42.3130
   -37.3685 -37.3276 -37.3069 -37.2851 -37.1603 -37.1115 -37.0965 -37.0695
   -37.0173 -37.0095 -37.0072 -37.0012 -36.9997 -36.9941 -36.9858 -36.9845
   -36.8318 -36.8284 -36.7906 -36.7866 -36.7846 -36.7828 -36.7816 -36.7761
   -36.7749 -36.7665 -36.7659 -36.7567 -36.7374 -36.7344 -36.7298 -36.7256
   -36.7202 -36.7162 -36.7161 -36.7141 -36.7058 -36.6966 -36.6877 -36.6855
   -36.6788 -36.6764 -36.6726 -36.6639 -36.6600 -36.6590 -36.6577 -36.6531
   -18.6450 -18.6387 -18.6385 -18.6372 -18.6332 -18.6303 -18.6201 -18.6174
   -18.6004 -18.5903 -18.5885 -18.5837 -18.5266 -18.5201 -18.5200 -18.5092
   -18.4901 -18.4829 -18.4817 -18.4788 -18.4775 -18.4734 -18.4725 -18.4699
     5.0760   5.3709   5.5402   6.1800   7.3121   7.5600   7.9040  10.0620
    10.3985  10.5500  10.7965  11.3616  11.9484  11.9962  12.0441  12.1035
    12.1040  12.1158  12.1246  12.1645  12.1653  12.2151  12.2590  12.3460
    12.4025  12.4098  12.4458  12.8971  13.2384  13.3202  13.3321  13.3564
    13.3687  13.4111  13.4126  13.4478  13.4679  13.4832  13.5102  13.5279
    13.5456  13.5458  13.5554  13.5923  13.6243  13.6597  13.6978  13.7299
    13.7388  13.7420  13.7608  13.8116  13.8253  13.8324  13.8719  13.9142
    14.0340  14.0660  14.0859  14.1561  14.1703  14.1801  14.2454  14.2484
    14.9254  14.9382  14.9609  14.9935  14.9982  15.0234  15.0569  15.1049
    15.1163  15.2191  15.2353  15.2772  15.3212  15.4050  15.4178  15.4831
    15.5641  15.5904  15.7167  15.8574  15.8975  15.9746  15.9987  16.0740
    16.1229  16.1496  16.1505  16.1613  16.1750  16.1988  16.2201  16.2281
    16.2551  16.2981  16.3345  16.3380  16.3679  16.3881  16.3906  16.4227
    16.4544  16.4839  16.6059  16.6381  16.7109  16.7303  16.7457  16.8218
    16.8781  16.8993  16.9158  16.9285  16.9407  16.9522  17.0541  17.1176

          k = 0.1925 0.1925 0.1925 ( 48503 PWs)   bands (ev):

   -70.8048 -70.7742 -70.7602 -70.7602 -70.7485 -70.7393 -70.7393 -70.7222
   -70.7193 -70.7193 -70.7191 -70.7178 -70.7178 -70.7166 -70.7166 -70.7166
   -42.3536 -42.3435 -42.3435 -42.3332 -42.3239 -42.3239 -42.3207 -42.3096
   -37.4038 -37.3102 -37.2662 -37.2662 -37.1763 -37.1365 -37.1365 -37.0431
   -37.0245 -37.0245 -36.9932 -36.9931 -36.9931 -36.9846 -36.9830 -36.9830
   -36.8317 -36.8317 -36.7925 -36.7885 -36.7885 -36.7819 -36.7819 -36.7786
   -36.7649 -36.7649 -36.7592 -36.7465 -36.7448 -36.7448 -36.7306 -36.7306
   -36.7270 -36.7199 -36.7199 -36.7199 -36.6975 -36.6975 -36.6900 -36.6841
   -36.6778 -36.6778 -36.6635 -36.6635 -36.6624 -36.6577 -36.6577 -36.6466
   -18.6428 -18.6428 -18.6393 -18.6365 -18.6361 -18.6361 -18.6146 -18.6146
   -18.6105 -18.5773 -18.5773 -18.5749 -18.5355 -18.5355 -18.5311 -18.4984
   -18.4920 -18.4920 -18.4760 -18.4750 -18.4750 -18.4714 -18.4714 -18.4701
     4.7155   5.7507   5.7507   6.2822   7.0833   7.0833   8.1894   9.6911
    10.7261  10.9339  10.9339  11.4895  11.8875  11.8875  11.9413  11.9642
    11.9642  12.1757  12.1757  12.1875  12.3664  12.3789  12.3789  12.5106
    12.5106  12.5301  12.7130  12.8649  13.1300  13.1456  13.1456  13.1711
    13.1711  13.3275  13.3275  13.3656  13.4096  13.4380  13.4380  13.4738
    13.4738  13.6099  13.6409  13.6409  13.6805  13.7536  13.7536  13.8135
    13.8135  13.8136  13.8235  13.8235  13.8766  13.9061  13.9455  13.9455
    13.9673  13.9685  13.9685  14.0411  14.0411  14.1259  14.2117  14.2117
    14.7528  14.7560  14.7560  14.8551  14.8551  14.8562  15.1595  15.1595
    15.1781  15.2334  15.2334  15.2483  15.3355  15.3389  15.3389  15.6550
    15.6550  15.7158  15.7158  15.7544  15.8391  15.8391  15.8801  16.0438
    16.0696  16.0962  16.0962  16.1198  16.1198  16.1913  16.2310  16.2310
    16.2959  16.3080  16.3080  16.3666  16.3666  16.4028  16.4028  16.4181
    16.6868  16.6868  16.7279  16.7279  16.7748  16.7927  16.7927  16.8840
    16.8841  16.9978  17.0044  17.0176  17.0177  17.0611  17.0637  17.1077

          k = 0.1925 0.1925 0.3850 ( 48490 PWs)   bands (ev):

   -70.8043 -70.7730 -70.7651 -70.7602 -70.7480 -70.7393 -70.7328 -70.7260
   -70.7193 -70.7192 -70.7191 -70.7180 -70.7178 -70.7166 -70.7166 -70.7166
   -42.3513 -42.3469 -42.3435 -42.3342 -42.3238 -42.3225 -42.3177 -42.3119
   -37.3806 -37.3345 -37.2890 -37.2674 -37.1698 -37.1325 -37.0977 -37.0583
   -37.0174 -37.0168 -37.0022 -37.0020 -36.9953 -36.9896 -36.9859 -36.9838
   -36.8315 -36.8297 -36.7925 -36.7884 -36.7875 -36.7820 -36.7791 -36.7774
   -36.7671 -36.7670 -36.7585 -36.7536 -36.7466 -36.7410 -36.7313 -36.7263
   -36.7213 -36.7204 -36.7170 -36.7149 -36.6989 -36.6985 -36.6909 -36.6832
   -36.6798 -36.6737 -36.6693 -36.6653 -36.6610 -36.6604 -36.6560 -36.6493
   -18.6440 -18.6410 -18.6388 -18.6352 -18.6331 -18.6328 -18.6189 -18.6177
   -18.6045 -18.5913 -18.5812 -18.5791 -18.5314 -18.5284 -18.5183 -18.5052
   -18.4878 -18.4876 -18.4795 -18.4789 -18.4757 -18.4740 -18.4717 -18.4699
     4.9349   5.3684   5.7624   6.2559   7.0768   7.4551   8.0565   9.9180
    10.3380  10.8873  11.0054  11.3660  11.7365  11.8040  11.9862  12.0704
    12.0944  12.1531  12.1729  12.2121  12.2580  12.2702  12.3024  12.3739
    12.4292  12.4400  12.5189  12.8595  13.2513  13.2543  13.2710  13.3133
    13.3230  13.3554  13.3742  13.3986  13.4041  13.4472  13.4899  13.4958
    13.5466  13.5536  13.5826  13.6370  13.6427  13.7084  13.7242  13.7582
    13.7791  13.8266  13.8279  13.8423  13.8702  13.8846  13.9265  13.9568
    13.9896  14.0145  14.0384  14.0614  14.0951  14.1631  14.1865  14.2298
    14.8161  14.8561  14.8651  14.9409  15.0030  15.0482  15.1098  15.1455
    15.1635  15.1823  15.1960  15.2998  15.3208  15.3444  15.4945  15.5907
    15.6492  15.7025  15.7314  15.8295  15.8574  15.8994  15.9513  15.9959
    16.0875  16.1134  16.1613  16.1676  16.1928  16.2344  16.2387  16.2450
    16.2602  16.2787  16.2986  16.3070  16.3790  16.3872  16.4158  16.4260
    16.5059  16.5173  16.5568  16.6174  16.6813  16.7040  16.7406  16.8047
    16.8218  16.8737  16.9778  16.9866  17.0258  17.0860  17.0893  17.1259

          k = 0.1925 0.3850 0.3850 ( 48499 PWs)   bands (ev):

   -70.8041 -70.7705 -70.7665 -70.7644 -70.7465 -70.7350 -70.7327 -70.7288
   -70.7193 -70.7191 -70.7190 -70.7182 -70.7179 -70.7166 -70.7166 -70.7166
   -42.3494 -42.3469 -42.3458 -42.3358 -42.3217 -42.3203 -42.3185 -42.3133
   -37.3666 -37.3272 -37.3081 -37.2936 -37.1555 -37.1027 -37.0916 -37.0674
   -37.0165 -37.0115 -37.0074 -37.0031 -37.0024 -36.9947 -36.9893 -36.9885
   -36.8303 -36.8282 -36.7891 -36.7857 -36.7844 -36.7823 -36.7807 -36.7753
   -36.7715 -36.7657 -36.7644 -36.7563 -36.7432 -36.7402 -36.7338 -36.7295
   -36.7235 -36.7181 -36.7169 -36.7162 -36.6976 -36.6935 -36.6876 -36.6841
   -36.6816 -36.6777 -36.6764 -36.6701 -36.6555 -36.6542 -36.6537 -36.6492
   -18.6431 -18.6389 -18.6361 -18.6347 -18.6317 -18.6301 -18.6196 -18.6177
   -18.6046 -18.5944 -18.5931 -18.5897 -18.5204 -18.5156 -18.5156 -18.5057
   -18.4897 -18.4840 -18.4827 -18.4796 -18.4782 -18.4751 -18.4741 -18.4718
     5.1216   5.3800   5.5029   6.1650   7.3693   7.5410   7.8442  10.0970
    10.4530  10.6299  10.8205  11.3618  11.7406  11.8818  11.9425  12.0174
    12.0659  12.1381  12.1519  12.1767  12.1884  12.2047  12.2297  12.2883
    12.3394  12.3413  12.3775  12.8464  13.3340  13.3858  13.4018  13.4101
    13.4237  13.4354  13.4703  13.4806  13.5044  13.5078  13.5476  13.5483
    13.5612  13.5698  13.5987  13.6027  13.6512  13.6652  13.6983  13.6988
    13.7174  13.7386  13.7699  13.7786  13.7961  13.8181  13.8621  13.9012
    13.9999  14.0283  14.0457  14.0849  14.1312  14.1766  14.2190  14.2298
    15.0114  15.0368  15.0717  15.0915  15.0937  15.1362  15.1530  15.2027
    15.2350  15.2761  15.3526  15.3614  15.4057  15.4562  15.4697  15.5328
    15.5460  15.5944  15.6988  15.7412  15.7864  15.8321  15.9494  15.9835
    16.0080  16.0236  16.0971  16.1086  16.1569  16.2041  16.2110  16.2175
    16.2462  16.2721  16.3060  16.3151  16.3347  16.3362  16.3681  16.3899
    16.4678  16.4700  16.5264  16.5764  16.6647  16.7769  16.7814  16.8169
    16.8297  16.9112  16.9121  16.9617  17.0031  17.0848  17.0982  17.1878

          k = 0.3850 0.3850 0.3850 ( 48449 PWs)   bands (ev):

   -70.8040 -70.7690 -70.7665 -70.7665 -70.7465 -70.7327 -70.7327 -70.7303
   -70.7191 -70.7191 -70.7190 -70.7182 -70.7182 -70.7166 -70.7166 -70.7166
   -42.3484 -42.3469 -42.3469 -42.3362 -42.3203 -42.3203 -42.3190 -42.3137
   -37.3631 -37.3233 -37.3098 -37.3098 -37.1489 -37.0830 -37.0830 -37.0678
   -37.0145 -37.0145 -37.0078 -37.0078 -37.0070 -36.9960 -36.9955 -36.9955
   -36.8278 -36.8278 -36.7869 -36.7869 -36.7861 -36.7805 -36.7738 -36.7738
   -36.7682 -36.7613 -36.7586 -36.7586 -36.7468 -36.7468 -36.7400 -36.7400
   -36.7334 -36.7208 -36.7187 -36.7187 -36.6883 -36.6883 -36.6880 -36.6841
   -36.6841 -36.6789 -36.6767 -36.6767 -36.6493 -36.6493 -36.6493 -36.6466
   -18.6389 -18.6389 -18.6305 -18.6305 -18.6293 -18.6290 -18.6184 -18.6184
   -18.6118 -18.6007 -18.6007 -18.6006 -18.5083 -18.5083 -18.5080 -18.5009
   -18.4886 -18.4886 -18.4828 -18.4816 -18.4816 -18.4770 -18.4770 -18.4755
     5.2398   5.3950   5.3950   6.1455   7.5104   7.5104   7.6986  10.1477
    10.6032  10.7966  10.7966  11.3408  11.6147  11.6147  11.7568  12.0547
    12.0605  12.0605  12.1227  12.1227  12.1479  12.1479  12.1544  12.2495
    12.2794  12.2794  12.3016  12.7748  13.4582  13.4582  13.4610  13.5012
    13.5012  13.5147  13.5222  13.5222  13.5662  13.5662  13.5717  13.5829
    13.5948  13.5948  13.6158  13.6302  13.6302  13.6717  13.6761  13.6761
    13.7246  13.7287  13.7287  13.7694  13.7694  13.8199  13.8296  13.8296
    13.9736  14.0330  14.0330  14.0719  14.0719  14.1880  14.1880  14.1928
    15.1846  15.2359  15.2359  15.2707  15.2707  15.2991  15.2991  15.3737
    15.3737  15.3768  15.4804  15.4821  15.5672  15.5672  15.5824  15.6240
    15.6240  15.6474  15.6613  15.6613  15.7461  15.7461  15.7879  15.7879
    15.7948  15.8450  15.8983  15.8983  16.0098  16.1285  16.1285  16.1489
    16.1837  16.1837  16.2265  16.2358  16.2442  16.2442  16.2988  16.2988
    16.4792  16.5108  16.5108  16.7438  16.7968  16.7968  16.8430  16.8441
    16.8441  16.8555  16.8885  16.8885  16.9623  17.0110  17.0110  17.0538

     the Fermi energy is    15.2273 ev

!    total energy              =   -6230.61239355 Ry
     estimated scf accuracy    <          8.3E-11 Ry
     smearing contrib. (-TS)   =       0.00052414 Ry
     internal energy E=F+TS    =   -6230.61291769 Ry

     The total energy is F=E-TS. E is the sum of the following terms:
     one-electron contribution =   -2588.42354764 Ry
     hartree contribution      =    1473.64787702 Ry
     xc contribution           =    -706.42047716 Ry
     ewald contribution        =   -3190.94175050 Ry
     one-center paw contrib.   =   -1218.47501940 Ry

     total magnetization       =    19.44 Bohr mag/cell
     absolute magnetization    =    38.41 Bohr mag/cell

     convergence has been achieved in  26 iterations

     negative rho (up, down):  7.312E-03 1.117E-03

     Forces acting on atoms (cartesian axes, Ry/au):

     atom    1 type  1   force =    -0.00013878   -0.00013878    0.00042866
     atom    2 type  1   force =    -0.00096648   -0.00096648   -0.00096648
     atom    3 type  1   force =     0.00013878    0.00042866    0.00013878
     atom    4 type  1   force =    -0.00042866    0.00013878   -0.00013878
     atom    5 type  1   force =    -0.00013878    0.00042866   -0.00013878
     atom    6 type  1   force =     0.00042866   -0.00013878   -0.00013878
     atom    7 type  1   force =     0.00013878   -0.00042866   -0.00013878
     atom    8 type  1   force =     0.00096648   -0.00096648    0.00096648
     atom    9 type  1   force =    -0.00096648    0.00096648    0.00096648
     atom   10 type  1   force =     0.00042866    0.00013878    0.00013878
     atom   11 type  1   force =    -0.00042866   -0.00013878    0.00013878
     atom   12 type  1   force =     0.00013878    0.00013878    0.00042866
     atom   13 type  1   force =     0.00096648    0.00096648   -0.00096648
     atom   14 type  1   force =     0.00013878   -0.00013878   -0.00042866
     atom   15 type  1   force =    -0.00013878   -0.00042866    0.00013878
     atom   16 type  1   force =    -0.00013878    0.00013878   -0.00042866
     atom   17 type  2   force =     0.00000000    0.00000000    0.00000000
     atom   18 type  2   force =    -0.00010863   -0.00010863    0.00010863
     atom   19 type  2   force =     0.00000000    0.00000000    0.00000000
     atom   20 type  2   force =    -0.00010863    0.00010863   -0.00010863
     atom   21 type  2   force =     0.00000000    0.00000000    0.00000000
     atom   22 type  2   force =     0.00010863    0.00010863    0.00010863
     atom   23 type  2   force =     0.00010863   -0.00010863   -0.00010863
     atom   24 type  2   force =     0.00000000    0.00000000    0.00000000
     atom   25 type  3   force =    -0.00026811   -0.00026811    0.00026811
     atom   26 type  3   force =     0.00000000    0.00000000    0.00000000
     atom   27 type  3   force =    -0.00026811    0.00026811   -0.00026811
     atom   28 type  3   force =     0.00000000    0.00000000    0.00000000
     atom   29 type  3   force =     0.00026811    0.00026811    0.00026811
     atom   30 type  3   force =     0.00026811   -0.00026811   -0.00026811
     atom   31 type  3   force =     0.00000000    0.00000000    0.00000000

     Total force =     0.003858     Total SCF correction =     0.000055


     Computing stress (Cartesian axis) and pressure


     negative rho (up, down):  7.312E-03 1.117E-03
          total   stress  (Ry/bohr**3)                   (kbar)     P=        3.14
   0.00002134   0.00000000   0.00000000            3.14        0.00        0.00
   0.00000000   0.00002134   0.00000000            0.00        3.14        0.00
   0.00000000   0.00000000   0.00002134            0.00        0.00        3.14

     Energy error            =      1.5E-04 Ry
     Gradient error          =      9.7E-04 Ry/Bohr
     Cell gradient error     =      3.1E+00 kbar

     number of scf cycles    =  11
     number of bfgs steps    =  10

     enthalpy           old  =   -6230.6122460239 Ry
     enthalpy           new  =   -6230.6123935468 Ry

     CASE: enthalpy          _new < enthalpy          _old

     new trust radius        =       0.0059900465 bohr
     new conv_thr            =            1.0E-10 Ry

     new unit-cell volume =   2334.73576 a.u.^3 (   345.97214 Ang^3 )
     density =      6.16037 g/cm^3

CELL_PARAMETERS (alat= 12.76591255)
   1.039187816   0.000000000   0.000000000
   0.000000000   1.039187816   0.000000000
   0.000000000   0.000000000   1.039187816

ATOMIC_POSITIONS (crystal)
Fe               0.1251889764        0.1251889764        0.6280176460
Fe               0.6158041772        0.6158041772        0.6158041772
Fe               0.8748110236        0.6280176460        0.8748110236
Fe               0.3719823540        0.8748110236        0.1251889764
Fe               0.1251889764        0.6280176460        0.1251889764
Fe               0.6280176460        0.1251889764        0.1251889764
Fe               0.8748110236        0.3719823540        0.1251889764
Fe               0.3841958228        0.6158041772        0.3841958228
Fe               0.6158041772        0.3841958228        0.3841958228
Fe               0.6280176460        0.8748110236        0.8748110236
Fe               0.3719823540        0.1251889764        0.8748110236
Fe               0.8748110236        0.8748110236        0.6280176460
Fe               0.3841958228        0.3841958228        0.6158041772
Fe               0.8748110236        0.1251889764        0.3719823540
Fe               0.1251889764        0.3719823540        0.8748110236
Fe               0.1251889764        0.8748110236        0.3719823540
Ti               0.0000000000        0.0000000000        0.0000000000
Ti               0.7486504447        0.7486504447        0.2513495553
Ti               0.5000000000        0.0000000000        0.5000000000
Ti               0.7486504447        0.2513495553        0.7486504447
Ti               0.0000000000        0.5000000000        0.5000000000
Ti               0.2513495553        0.2513495553        0.2513495553
Ti               0.2513495553        0.7486504447        0.7486504447
Ti               0.5000000000        0.5000000000        0.0000000000
H                0.2585694203        0.2585694203        0.7414305797
H                0.0000000000        0.5000000000        0.0000000000
H                0.2585694203        0.7414305797        0.2585694203
H                0.5000000000        0.0000000000        0.0000000000
H                0.7414305797        0.7414305797        0.7414305797
H                0.7414305797        0.2585694203        0.2585694203
H                0.0000000000        0.0000000000        0.5000000000



     Writing config-only to output data dir ./TiFe2_cub_8b_8H.save/ :
     XML data file     NEW-OLD atomic charge density approx. for the potential
     New effective cutoffs (rho, wfc): 1607.48  114.81

     negative rho (up, down):  7.320E-03 1.113E-03
     Generating pointlists ...

     total cpu time spent up to now is    92399.5 secs

     per-process dynamical memory:   530.5 Mb

     Self-consistent Calculation

     iteration #  1     ecut=   124.00 Ry     beta= 0.20
     CG style diagonalization
     ethr =  1.00E-06,  avg # of iterations =  4.7

     Threshold (ethr) on eigenvalues was too large:
     Diagonalizing with lowered threshold

     CG style diagonalization
     c_bands:  5 eigenvalues not converged
     c_bands:  4 eigenvalues not converged
     c_bands:  5 eigenvalues not converged
     c_bands:  4 eigenvalues not converged
     c_bands:  5 eigenvalues not converged
     ethr =  5.77E-08,  avg # of iterations =  9.3

     negative rho (up, down):  7.319E-03 1.112E-03

     total cpu time spent up to now is    94031.1 secs

     total energy              =   -6230.61241802 Ry
     estimated scf accuracy    <       0.00039290 Ry

     total magnetization       =    19.44 Bohr mag/cell
     absolute magnetization    =    38.44 Bohr mag/cell

     iteration #  2     ecut=   124.00 Ry     beta= 0.20
     CG style diagonalization
     ethr =  1.09E-07,  avg # of iterations =  3.0

     negative rho (up, down):  7.319E-03 1.111E-03

     total cpu time spent up to now is    94297.1 secs

     total energy              =   -6230.61242728 Ry
     estimated scf accuracy    <       0.00014458 Ry

     total magnetization       =    19.43 Bohr mag/cell
     absolute magnetization    =    38.44 Bohr mag/cell

     iteration #  3     ecut=   124.00 Ry     beta= 0.20
     CG style diagonalization
     ethr =  4.03E-08,  avg # of iterations =  3.0

     negative rho (up, down):  7.320E-03 1.109E-03

     total cpu time spent up to now is    94562.0 secs

     total energy              =   -6230.61241804 Ry
     estimated scf accuracy    <       0.00008167 Ry

     total magnetization       =    19.44 Bohr mag/cell
     absolute magnetization    =    38.44 Bohr mag/cell

     iteration #  4     ecut=   124.00 Ry     beta= 0.20
     CG style diagonalization
     ethr =  2.28E-08,  avg # of iterations =  3.2

     negative rho (up, down):  7.321E-03 1.108E-03

     total cpu time spent up to now is    94845.1 secs

     total energy              =   -6230.61242617 Ry
     estimated scf accuracy    <       0.00001709 Ry

     total magnetization       =    19.44 Bohr mag/cell
     absolute magnetization    =    38.44 Bohr mag/cell

     iteration #  5     ecut=   124.00 Ry     beta= 0.20
     CG style diagonalization
     ethr =  4.76E-09,  avg # of iterations =  4.5

     negative rho (up, down):  7.322E-03 1.108E-03

     total cpu time spent up to now is    95286.7 secs

     total energy              =   -6230.61243846 Ry
     estimated scf accuracy    <       0.00001530 Ry

     total magnetization       =    19.44 Bohr mag/cell
     absolute magnetization    =    38.45 Bohr mag/cell

     iteration #  6     ecut=   124.00 Ry     beta= 0.20
     CG style diagonalization
     ethr =  4.26E-09,  avg # of iterations =  3.9

     negative rho (up, down):  7.322E-03 1.108E-03

     total cpu time spent up to now is    95659.6 secs

     total energy              =   -6230.61244532 Ry
     estimated scf accuracy    <       0.00000130 Ry

     total magnetization       =    19.44 Bohr mag/cell
     absolute magnetization    =    38.45 Bohr mag/cell

     iteration #  7     ecut=   124.00 Ry     beta= 0.20
     CG style diagonalization
     ethr =  3.63E-10,  avg # of iterations =  5.7

     negative rho (up, down):  7.321E-03 1.108E-03

     total cpu time spent up to now is    96248.9 secs

     total energy              =   -6230.61244921 Ry
     estimated scf accuracy    <       0.00000106 Ry

     total magnetization       =    19.44 Bohr mag/cell
     absolute magnetization    =    38.45 Bohr mag/cell

     iteration #  8     ecut=   124.00 Ry     beta= 0.20
     CG style diagonalization
     ethr =  2.95E-10,  avg # of iterations =  3.5

     negative rho (up, down):  7.325E-03 1.107E-03

     total cpu time spent up to now is    96564.5 secs

     total energy              =   -6230.61244963 Ry
     estimated scf accuracy    <       0.00000188 Ry

     total magnetization       =    19.44 Bohr mag/cell
     absolute magnetization    =    38.45 Bohr mag/cell

     iteration #  9     ecut=   124.00 Ry     beta= 0.20
     CG style diagonalization
     ethr =  2.95E-10,  avg # of iterations =  3.6

     negative rho (up, down):  7.326E-03 1.107E-03

     total cpu time spent up to now is    96896.3 secs

     total energy              =   -6230.61245045 Ry
     estimated scf accuracy    <       0.00000045 Ry

     total magnetization       =    19.44 Bohr mag/cell
     absolute magnetization    =    38.46 Bohr mag/cell

     iteration # 10     ecut=   124.00 Ry     beta= 0.20
     CG style diagonalization
     ethr =  1.26E-10,  avg # of iterations =  3.1

     negative rho (up, down):  7.327E-03 1.107E-03

     total cpu time spent up to now is    97175.2 secs

     total energy              =   -6230.61245079 Ry
     estimated scf accuracy    <       0.00000006 Ry

     total magnetization       =    19.44 Bohr mag/cell
     absolute magnetization    =    38.46 Bohr mag/cell

     iteration # 11     ecut=   124.00 Ry     beta= 0.20
     CG style diagonalization
     ethr =  1.60E-11,  avg # of iterations =  4.9

     negative rho (up, down):  7.327E-03 1.106E-03

     total cpu time spent up to now is    97667.9 secs

     total energy              =   -6230.61245099 Ry
     estimated scf accuracy    <       0.00000006 Ry

     total magnetization       =    19.44 Bohr mag/cell
     absolute magnetization    =    38.46 Bohr mag/cell

     iteration # 12     ecut=   124.00 Ry     beta= 0.20
     CG style diagonalization
     ethr =  1.60E-11,  avg # of iterations =  3.5

     negative rho (up, down):  7.327E-03 1.106E-03

     total cpu time spent up to now is    97991.9 secs

     total energy              =   -6230.61245106 Ry
     estimated scf accuracy    <       0.00000006 Ry

     total magnetization       =    19.44 Bohr mag/cell
     absolute magnetization    =    38.46 Bohr mag/cell

     iteration # 13     ecut=   124.00 Ry     beta= 0.20
     CG style diagonalization
     ethr =  1.60E-11,  avg # of iterations =  3.2

     negative rho (up, down):  7.327E-03 1.106E-03

     total cpu time spent up to now is    98285.6 secs

     total energy              =   -6230.61245115 Ry
     estimated scf accuracy    <          6.4E-09 Ry

     total magnetization       =    19.44 Bohr mag/cell
     absolute magnetization    =    38.46 Bohr mag/cell

     iteration # 14     ecut=   124.00 Ry     beta= 0.20
     CG style diagonalization
     ethr =  1.78E-12,  avg # of iterations =  5.0

     negative rho (up, down):  7.328E-03 1.106E-03

     total cpu time spent up to now is    98789.3 secs

     total energy              =   -6230.61245120 Ry
     estimated scf accuracy    <          4.4E-09 Ry

     total magnetization       =    19.44 Bohr mag/cell
     absolute magnetization    =    38.47 Bohr mag/cell

     iteration # 15     ecut=   124.00 Ry     beta= 0.20
     CG style diagonalization
     ethr =  1.23E-12,  avg # of iterations =  3.8

     negative rho (up, down):  7.328E-03 1.106E-03

     total cpu time spent up to now is    99147.7 secs

     total energy              =   -6230.61245123 Ry
     estimated scf accuracy    <          3.8E-09 Ry

     total magnetization       =    19.44 Bohr mag/cell
     absolute magnetization    =    38.47 Bohr mag/cell

     iteration # 16     ecut=   124.00 Ry     beta= 0.20
     CG style diagonalization
     ethr =  1.07E-12,  avg # of iterations =  4.0

     negative rho (up, down):  7.328E-03 1.106E-03

     total cpu time spent up to now is    99531.0 secs

     total energy              =   -6230.61245125 Ry
     estimated scf accuracy    <          7.0E-10 Ry

     total magnetization       =    19.44 Bohr mag/cell
     absolute magnetization    =    38.47 Bohr mag/cell

     iteration # 17     ecut=   124.00 Ry     beta= 0.20
     CG style diagonalization
     ethr =  1.96E-13,  avg # of iterations =  4.7

     negative rho (up, down):  7.328E-03 1.106E-03

     total cpu time spent up to now is    99995.6 secs

     total energy              =   -6230.61245126 Ry
     estimated scf accuracy    <          2.4E-10 Ry

     total magnetization       =    19.44 Bohr mag/cell
     absolute magnetization    =    38.47 Bohr mag/cell

     iteration # 18     ecut=   124.00 Ry     beta= 0.20
     CG style diagonalization
     ethr =  1.00E-13,  avg # of iterations =  3.9

     negative rho (up, down):  7.328E-03 1.106E-03

     total cpu time spent up to now is   100366.8 secs

     total energy              =   -6230.61245127 Ry
     estimated scf accuracy    <          1.2E-10 Ry

     total magnetization       =    19.44 Bohr mag/cell
     absolute magnetization    =    38.47 Bohr mag/cell

     iteration # 19     ecut=   124.00 Ry     beta= 0.20
     CG style diagonalization
     ethr =  1.00E-13,  avg # of iterations =  3.2

     negative rho (up, down):  7.328E-03 1.106E-03

     Magnetic moment per site  (integrated on atomic sphere of radius R)
     atom   1 (R=0.089)  charge= 11.1818  magn=  1.3848
     atom   2 (R=0.089)  charge= 11.1732  magn=  1.3535
     atom   3 (R=0.089)  charge= 11.1818  magn=  1.3848
     atom   4 (R=0.089)  charge= 11.1818  magn=  1.3848
     atom   5 (R=0.089)  charge= 11.1818  magn=  1.3848
     atom   6 (R=0.089)  charge= 11.1818  magn=  1.3848
     atom   7 (R=0.089)  charge= 11.1818  magn=  1.3848
     atom   8 (R=0.089)  charge= 11.1732  magn=  1.3535
     atom   9 (R=0.089)  charge= 11.1732  magn=  1.3535
     atom  10 (R=0.089)  charge= 11.1818  magn=  1.3848
     atom  11 (R=0.089)  charge= 11.1818  magn=  1.3848
     atom  12 (R=0.089)  charge= 11.1818  magn=  1.3848
     atom  13 (R=0.089)  charge= 11.1732  magn=  1.3535
     atom  14 (R=0.089)  charge= 11.1818  magn=  1.3848
     atom  15 (R=0.089)  charge= 11.1818  magn=  1.3848
     atom  16 (R=0.089)  charge= 11.1818  magn=  1.3848
     atom  17 (R=0.171)  charge= 10.2048  magn= -0.7522
     atom  18 (R=0.171)  charge= 10.2010  magn= -0.8153
     atom  19 (R=0.171)  charge= 10.1953  magn= -0.8466
     atom  20 (R=0.171)  charge= 10.2010  magn= -0.8153
     atom  21 (R=0.171)  charge= 10.1953  magn= -0.8466
     atom  22 (R=0.171)  charge= 10.2010  magn= -0.8153
     atom  23 (R=0.171)  charge= 10.2010  magn= -0.8153
     atom  24 (R=0.171)  charge= 10.1953  magn= -0.8466
     atom  25 (R=0.089)  charge=  0.9821  magn= -0.0056
     atom  26 (R=0.089)  charge=  0.9923  magn= -0.0054
     atom  27 (R=0.089)  charge=  0.9821  magn= -0.0056
     atom  28 (R=0.089)  charge=  0.9923  magn= -0.0054
     atom  29 (R=0.089)  charge=  0.9821  magn= -0.0056
     atom  30 (R=0.089)  charge=  0.9821  magn= -0.0056
     atom  31 (R=0.089)  charge=  0.9923  magn= -0.0054

     total cpu time spent up to now is   100650.6 secs

     End of self-consistent calculation

 ------ SPIN UP ------------


          k = 0.0000 0.0000 0.0000 ( 48489 PWs)   bands (ev):

   -72.8842 -72.8552 -72.8531 -72.8531 -72.8531 -72.8529 -72.8529 -72.8242
   -72.8242 -72.8242 -72.8229 -72.8229 -72.8229 -72.7822 -72.7822 -72.7822
   -41.6376 -41.5957 -41.5841 -41.5841 -41.5841 -41.5689 -41.5689 -41.5542
   -39.3553 -39.2016 -39.1564 -39.1564 -39.1564 -39.1562 -39.1562 -39.0195
   -39.0195 -39.0195 -38.9606 -38.9606 -38.9606 -38.9516 -38.9516 -38.9516
   -38.8909 -38.8909 -38.8820 -38.8721 -38.8721 -38.8660 -38.8660 -38.8660
   -38.8414 -38.8414 -38.8414 -38.8384 -38.8384 -38.8384 -38.8327 -38.8327
   -38.8062 -38.8062 -38.8062 -38.8050 -38.7822 -38.7822 -38.7822 -38.7538
   -38.7538 -38.7538 -38.7253 -38.7253 -38.7253 -38.7234 -38.7234 -38.7234
   -17.9026 -17.9026 -17.9026 -17.8773 -17.8773 -17.8773 -17.8674 -17.8674
   -17.8674 -17.8082 -17.8082 -17.8070 -17.8070 -17.8070 -17.8013 -17.7437
   -17.7437 -17.7437 -17.7312 -17.7312 -17.7312 -17.7106 -17.7106 -17.7106
     4.1309   6.0031   6.0031   6.0667   6.0667   6.0667   8.0259   9.2255
    10.8961  10.8961  10.8961  11.0115  11.1525  11.1525  11.1593  11.1593
    11.1593  11.7535  11.7583  11.7583  11.7583  11.8739  11.8932  11.8932
    11.8932  11.8952  11.8952  11.8952  11.9277  11.9277  11.9507  11.9507
    11.9507  12.1610  12.1610  12.3548  12.3548  12.3548  12.4679  12.4679
    12.4679  12.4795  12.4895  12.4895  12.4895  12.5339  12.5339  12.9200
    12.9200  12.9893  12.9893  12.9893  13.0004  13.0004  13.0004  13.0488
    13.0877  13.0877  13.0877  13.1344  13.1344  13.1344  13.2473  13.2473
    13.2473  13.6712  13.6712  13.6712  13.7540  13.7540  13.7540  13.7716
    13.7716  13.7716  13.8750  13.8750  13.9153  13.9153  13.9453  13.9453
    13.9453  14.0046  14.0046  14.0046  14.0126  14.5381  14.5381  14.7474
    14.7474  14.7474  14.9405  15.0354  15.0354  15.0354  15.1230  15.1230
    15.3656  15.3656  15.3656  16.1896  16.1896  16.1896  16.2063  16.2063
    16.2063  16.2456  16.2456  16.2456  16.5615  16.5615  16.5615  16.6140
    16.6140  16.6140  16.7226  16.7226  16.7771  16.8203  16.8203  16.8203

          k = 0.0000 0.0000 0.1925 ( 48469 PWs)   bands (ev):

   -72.8827 -72.8626 -72.8548 -72.8531 -72.8531 -72.8529 -72.8440 -72.8254
   -72.8242 -72.8242 -72.8229 -72.8229 -72.8229 -72.7823 -72.7822 -72.7822
   -41.6376 -41.5953 -41.5857 -41.5841 -41.5841 -41.5689 -41.5668 -41.5550
   -39.3455 -39.2242 -39.1870 -39.1558 -39.1558 -39.1557 -39.1083 -39.0230
   -39.0152 -39.0152 -38.9669 -38.9669 -38.9631 -38.9556 -38.9556 -38.9529
   -38.8909 -38.8883 -38.8841 -38.8761 -38.8715 -38.8683 -38.8683 -38.8611
   -38.8446 -38.8436 -38.8373 -38.8373 -38.8345 -38.8320 -38.8320 -38.8223
   -38.8064 -38.8039 -38.8039 -38.7930 -38.7856 -38.7832 -38.7832 -38.7572
   -38.7554 -38.7554 -38.7287 -38.7274 -38.7274 -38.7250 -38.7238 -38.7238
   -17.9028 -17.9018 -17.9018 -17.8777 -17.8777 -17.8776 -17.8683 -17.8683
   -17.8652 -17.8220 -17.8079 -17.8070 -17.8070 -17.8032 -17.7909 -17.7457
   -17.7428 -17.7428 -17.7316 -17.7305 -17.7305 -17.7118 -17.7118 -17.7105
     4.2164   5.4535   6.0055   6.0693   6.0693   6.6059   8.0093   9.3169
    10.6238  10.8237  10.9475  10.9475  11.1393  11.1936  11.1936  11.1961
    11.3107  11.6158  11.6158  11.6270  11.7285  11.7285  11.7320  11.7485
    11.7655  11.9104  11.9836  11.9873  11.9873  12.0144  12.0144  12.0410
    12.1171  12.1688  12.2012  12.2356  12.2952  12.2952  12.3252  12.4238
    12.4238  12.4499  12.5034  12.5431  12.5518  12.5518  12.7478  12.8283
    12.8703  12.8703  12.8802  12.9543  12.9543  12.9717  12.9939  13.1333
    13.1333  13.1438  13.2301  13.2637  13.2958  13.2958  13.3551  13.3777
    13.3777  13.6418  13.6486  13.6486  13.6892  13.7126  13.7126  13.7316
    13.7791  13.8238  13.8436  13.8436  13.8729  13.8865  13.8865  13.9146
    13.9847  14.0857  14.0857  14.0974  14.1232  14.5472  14.6611  14.6611
    14.6762  14.7093  14.8178  14.9777  14.9784  14.9784  15.0757  15.2160
    15.4455  15.5148  15.5148  16.1390  16.1390  16.1696  16.1844  16.1844
    16.1884  16.2169  16.2169  16.2990  16.3465  16.4080  16.4240  16.4240
    16.4932  16.5286  16.5286  16.8707  16.9215  16.9216  16.9259  17.4462

          k = 0.0000 0.0000 0.3849 ( 48538 PWs)   bands (ev):

   -72.8785 -72.8709 -72.8548 -72.8531 -72.8531 -72.8529 -72.8363 -72.8289
   -72.8242 -72.8242 -72.8229 -72.8229 -72.8229 -72.7824 -72.7822 -72.7822
   -41.6375 -41.5946 -41.5880 -41.5841 -41.5841 -41.5689 -41.5630 -41.5573
   -39.3173 -39.2740 -39.1896 -39.1550 -39.1550 -39.1549 -39.0727 -39.0328
   -39.0038 -39.0038 -38.9820 -38.9820 -38.9668 -38.9608 -38.9608 -38.9551
   -38.8907 -38.8872 -38.8827 -38.8790 -38.8705 -38.8705 -38.8688 -38.8595
   -38.8590 -38.8350 -38.8338 -38.8336 -38.8336 -38.8195 -38.8195 -38.8160
   -38.8011 -38.8002 -38.8002 -38.7893 -38.7857 -38.7857 -38.7785 -38.7660
   -38.7578 -38.7578 -38.7352 -38.7318 -38.7318 -38.7280 -38.7240 -38.7240
   -17.9032 -17.9006 -17.9006 -17.8781 -17.8781 -17.8781 -17.8700 -17.8700
   -17.8604 -17.8335 -17.8075 -17.8068 -17.8068 -17.8026 -17.7794 -17.7503
   -17.7414 -17.7414 -17.7321 -17.7287 -17.7287 -17.7142 -17.7142 -17.7104
     4.4470   4.9613   6.0094   6.0733   6.0733   7.0160   7.9588   9.5951
    10.0581  10.7217  11.0972  11.0972  11.2228  11.2671  11.2671  11.2976
    11.3085  11.3380  11.3380  11.4898  11.6131  11.6131  11.6382  11.7096
    11.7150  11.8043  12.0037  12.0652  12.0767  12.0767  12.1273  12.1273
    12.1485  12.1564  12.1564  12.1772  12.1853  12.1908  12.3244  12.3343
    12.3343  12.3944  12.3944  12.4245  12.5116  12.5296  12.8253  12.8967
    12.9695  12.9695  12.9904  13.0125  13.0990  13.0990  13.1349  13.1987
    13.1987  13.2471  13.3253  13.4200  13.4414  13.4414  13.4612  13.4809
    13.4809  13.4883  13.5423  13.5423  13.5727  13.5937  13.5937  13.6077
    13.6259  13.6733  13.6909  13.6909  13.8614  13.8964  14.1605  14.1605
    14.2006  14.2718  14.2718  14.2896  14.3445  14.4664  14.4664  14.4805
    14.6416  14.6751  14.8112  14.8387  14.8387  14.9331  15.0239  15.2234
    15.6810  15.7923  15.7923  16.0088  16.0088  16.0218  16.1435  16.1435
    16.1462  16.1537  16.1911  16.1911  16.2347  16.2490  16.2661  16.2661
    16.3671  16.3671  16.5143  16.9189  17.0956  17.0956  17.1133  17.1166

          k = 0.0000 0.1925 0.1925 ( 48486 PWs)   bands (ev):

   -72.8813 -72.8627 -72.8615 -72.8563 -72.8511 -72.8459 -72.8430 -72.8265
   -72.8244 -72.8242 -72.8229 -72.8229 -72.8229 -72.7823 -72.7822 -72.7822
   -41.6375 -41.5949 -41.5868 -41.5849 -41.5836 -41.5677 -41.5662 -41.5559
   -39.3363 -39.2261 -39.2143 -39.1840 -39.1465 -39.1160 -39.1016 -39.0232
   -39.0145 -39.0112 -38.9715 -38.9697 -38.9681 -38.9601 -38.9569 -38.9569
   -38.8895 -38.8869 -38.8847 -38.8748 -38.8747 -38.8696 -38.8648 -38.8637
   -38.8498 -38.8417 -38.8383 -38.8311 -38.8297 -38.8294 -38.8251 -38.8226
   -38.8084 -38.8012 -38.7991 -38.7909 -38.7884 -38.7834 -38.7808 -38.7613
   -38.7573 -38.7548 -38.7326 -38.7285 -38.7274 -38.7259 -38.7251 -38.7238
   -17.9029 -17.9011 -17.9009 -17.8798 -17.8780 -17.8752 -17.8696 -17.8675
   -17.8647 -17.8232 -17.8220 -17.8145 -17.7978 -17.7902 -17.7899 -17.7473
   -17.7421 -17.7416 -17.7324 -17.7308 -17.7290 -17.7134 -17.7123 -17.7110
     4.2981   5.3849   5.5929   6.0339   6.4442   6.7577   7.9699   9.4088
    10.6210  10.7434  10.8406  10.9904  10.9916  11.1951  11.2213  11.3056
    11.3315  11.5092  11.5603  11.5904  11.6168  11.6463  11.6499  11.7062
    11.7717  11.8144  11.8965  11.9474  12.0231  12.0262  12.1084  12.1334
    12.1425  12.1530  12.1969  12.2315  12.2894  12.3475  12.3784  12.3872
    12.4386  12.5006  12.5022  12.5247  12.5642  12.6634  12.7151  12.7758
    12.8051  12.8137  12.8632  12.8918  12.9567  12.9757  13.0809  13.1244
    13.1916  13.1969  13.2779  13.3493  13.3525  13.3666  13.3938  13.4667
    13.4789  13.5533  13.5956  13.6086  13.6223  13.6824  13.7020  13.7026
    13.7875  13.8126  13.8153  13.8548  13.8648  13.9059  13.9194  13.9406
    13.9828  14.0728  14.1796  14.2779  14.3100  14.3384  14.5692  14.6561
    14.6971  14.6979  14.8006  14.8623  15.0007  15.1346  15.1682  15.2551
    15.4247  15.6228  15.6404  16.0322  16.1054  16.1145  16.1289  16.1409
    16.1594  16.1711  16.1974  16.2568  16.3145  16.3760  16.4031  16.4200
    16.4520  16.5240  16.5696  16.6165  16.6625  17.0995  17.1365  17.2662

          k = 0.0000 0.1925 0.3849 ( 48550 PWs)   bands (ev):

   -72.8773 -72.8701 -72.8608 -72.8586 -72.8493 -72.8455 -72.8366 -72.8297
   -72.8245 -72.8242 -72.8229 -72.8229 -72.8229 -72.7824 -72.7822 -72.7822
   -41.6375 -41.5940 -41.5889 -41.5856 -41.5832 -41.5673 -41.5630 -41.5580
   -39.3097 -39.2689 -39.2149 -39.1974 -39.1361 -39.1101 -39.0705 -39.0327
   -39.0047 -39.0012 -38.9844 -38.9821 -38.9729 -38.9653 -38.9624 -38.9592
   -38.8886 -38.8857 -38.8815 -38.8781 -38.8730 -38.8711 -38.8669 -38.8630
   -38.8536 -38.8432 -38.8353 -38.8300 -38.8254 -38.8191 -38.8179 -38.8143
   -38.8050 -38.8016 -38.7989 -38.7932 -38.7860 -38.7837 -38.7747 -38.7677
   -38.7598 -38.7569 -38.7349 -38.7322 -38.7303 -38.7268 -38.7259 -38.7253
   -17.9031 -17.8998 -17.8993 -17.8810 -17.8782 -17.8746 -17.8707 -17.8687
   -17.8602 -17.8349 -17.8236 -17.8198 -17.7923 -17.7885 -17.7779 -17.7518
   -17.7405 -17.7402 -17.7333 -17.7303 -17.7267 -17.7163 -17.7144 -17.7113
     4.5196   4.9913   5.5511   5.9789   6.5551   7.1073   7.8648   9.6853
    10.1382  10.7176  10.9322  11.1195  11.1256  11.1643  11.2653  11.2962
    11.3090  11.3421  11.3443  11.3992  11.4646  11.5427  11.6400  11.6922
    11.7278  11.8074  11.8125  11.8787  12.0971  12.1152  12.1479  12.1906
    12.1940  12.2099  12.2231  12.2354  12.2541  12.2954  12.3197  12.3580
    12.3739  12.3866  12.4041  12.5809  12.5950  12.6305  12.7407  12.7879
    12.8100  12.8153  12.9001  12.9938  13.1232  13.1776  13.1957  13.2372
    13.2580  13.2891  13.3030  13.3135  13.3390  13.3816  13.4339  13.4741
    13.4866  13.5086  13.5475  13.5584  13.5729  13.6022  13.6252  13.6767
    13.7007  13.7247  13.7640  13.7913  13.8798  13.9158  14.0442  14.0746
    14.1321  14.1976  14.2314  14.3839  14.4086  14.5120  14.5283  14.5989
    14.6128  14.6485  14.6954  14.7985  15.1003  15.1348  15.2065  15.2812
    15.6878  15.8338  15.8567  15.9730  15.9949  16.0119  16.0621  16.0736
    16.0911  16.1013  16.1302  16.1450  16.1674  16.2224  16.2398  16.2863
    16.3347  16.4091  16.6508  16.8369  16.8877  17.0518  17.0905  17.1516

          k = 0.0000 0.3849 0.3849 ( 48478 PWs)   bands (ev):

   -72.8739 -72.8687 -72.8670 -72.8629 -72.8464 -72.8399 -72.8365 -72.8325
   -72.8248 -72.8242 -72.8229 -72.8229 -72.8229 -72.7824 -72.7823 -72.7823
   -41.6375 -41.5924 -41.5900 -41.5883 -41.5821 -41.5644 -41.5628 -41.5600
   -39.2878 -39.2556 -39.2527 -39.2297 -39.1177 -39.0756 -39.0639 -39.0399
   -39.0018 -38.9945 -38.9918 -38.9852 -38.9810 -38.9723 -38.9667 -38.9657
   -38.8853 -38.8825 -38.8784 -38.8752 -38.8741 -38.8719 -38.8711 -38.8585
   -38.8548 -38.8472 -38.8360 -38.8354 -38.8214 -38.8176 -38.8121 -38.8101
   -38.8051 -38.8036 -38.8003 -38.7892 -38.7859 -38.7833 -38.7752 -38.7731
   -38.7601 -38.7552 -38.7358 -38.7322 -38.7317 -38.7282 -38.7258 -38.7240
   -17.9022 -17.8982 -17.8980 -17.8834 -17.8785 -17.8719 -17.8717 -17.8662
   -17.8573 -17.8370 -17.8369 -17.8303 -17.7830 -17.7758 -17.7745 -17.7567
   -17.7380 -17.7375 -17.7348 -17.7335 -17.7224 -17.7205 -17.7150 -17.7137
     4.7211   5.0104   5.1767   5.8360   6.9958   7.2580   7.6178   9.9484
    10.3164  10.4526  10.7287  10.8482  11.1909  11.2250  11.2519  11.2639
    11.2837  11.3178  11.3276  11.3333  11.4090  11.4707  11.4784  11.6314
    11.6972  11.7194  11.7405  11.7963  12.1353  12.1757  12.1898  12.2160
    12.2394  12.2592  12.2851  12.3055  12.3231  12.3659  12.3912  12.4626
    12.4690  12.5138  12.5402  12.5577  12.5676  12.6150  12.6270  12.7085
    12.7113  12.7568  12.8893  12.9423  13.0022  13.0340  13.1136  13.1511
    13.1889  13.2248  13.2997  13.3149  13.3567  13.3833  13.3927  13.4392
    13.4970  13.5416  13.5897  13.6570  13.6909  13.7209  13.7351  13.7357
    13.7748  13.8212  13.8450  13.8698  13.9072  13.9292  13.9898  14.1103
    14.1276  14.1601  14.2569  14.3338  14.4169  14.4320  14.4949  14.5217
    14.5635  14.6749  14.6923  14.7624  15.4100  15.4457  15.5498  15.6174
    15.7372  15.9170  15.9445  15.9566  15.9742  15.9794  15.9872  16.0129
    16.0164  16.0255  16.0391  16.0581  16.0849  16.1632  16.1777  16.1841
    16.3215  16.4532  16.4681  16.7389  16.8918  16.9805  17.1350  17.2204

          k = 0.1925 0.1925 0.1925 ( 48503 PWs)   bands (ev):

   -72.8800 -72.8627 -72.8627 -72.8608 -72.8484 -72.8430 -72.8430 -72.8274
   -72.8244 -72.8244 -72.8229 -72.8229 -72.8229 -72.7823 -72.7822 -72.7822
   -41.6375 -41.5945 -41.5868 -41.5868 -41.5830 -41.5661 -41.5661 -41.5566
   -39.3278 -39.2295 -39.2151 -39.2151 -39.1312 -39.0987 -39.0987 -39.0229
   -39.0112 -39.0112 -38.9759 -38.9724 -38.9724 -38.9619 -38.9605 -38.9605
   -38.8866 -38.8866 -38.8846 -38.8729 -38.8729 -38.8703 -38.8664 -38.8664
   -38.8444 -38.8444 -38.8401 -38.8316 -38.8316 -38.8265 -38.8199 -38.8199
   -38.8119 -38.7971 -38.7971 -38.7925 -38.7835 -38.7833 -38.7833 -38.7619
   -38.7619 -38.7525 -38.7351 -38.7302 -38.7302 -38.7245 -38.7245 -38.7234
   -17.9023 -17.9004 -17.9004 -17.8793 -17.8793 -17.8732 -17.8685 -17.8685
   -17.8652 -17.8258 -17.8258 -17.8235 -17.7878 -17.7878 -17.7869 -17.7473
   -17.7417 -17.7417 -17.7316 -17.7316 -17.7289 -17.7145 -17.7125 -17.7125
     4.3753   5.3889   5.3889   5.9350   6.7569   6.7569   7.9197   9.5011
    10.6146  10.8110  10.8110  10.8727  11.0343  11.0343  11.2907  11.3132
    11.3132  11.4209  11.5521  11.5521  11.5999  11.6335  11.6335  11.6683
    11.6683  11.6826  11.7221  11.8796  12.0499  12.0499  12.1765  12.1765
    12.1785  12.2406  12.2406  12.3005  12.3005  12.3447  12.3647  12.4537
    12.4617  12.4617  12.5289  12.5289  12.6257  12.6923  12.6923  12.7085
    12.7085  12.7804  12.9252  12.9252  13.0006  13.0006  13.0446  13.0835
    13.1568  13.1649  13.1649  13.3998  13.4138  13.4138  13.4608  13.4608
    13.5036  13.5036  13.5491  13.5734  13.5932  13.5932  13.7507  13.7507
    13.8016  13.8602  13.8968  13.8968  13.9278  13.9278  13.9327  13.9721
    13.9721  14.0253  14.3009  14.3009  14.3889  14.4045  14.4045  14.5706
    14.6648  14.7198  14.7198  15.0969  15.0969  15.2403  15.3062  15.3062
    15.3615  15.6912  15.6912  15.9697  15.9697  16.0103  16.1144  16.1144
    16.1225  16.1596  16.1596  16.2989  16.2989  16.3979  16.4001  16.4260
    16.4260  16.4627  16.4920  16.5650  16.5650  17.2079  17.2080  17.2434

          k = 0.1925 0.1925 0.3849 ( 48490 PWs)   bands (ev):

   -72.8762 -72.8695 -72.8627 -72.8612 -72.8479 -72.8430 -72.8368 -72.8305
   -72.8245 -72.8244 -72.8229 -72.8229 -72.8229 -72.7824 -72.7823 -72.7822
   -41.6375 -41.5935 -41.5893 -41.5868 -41.5826 -41.5661 -41.5630 -41.5587
   -39.3031 -39.2656 -39.2258 -39.2163 -39.1245 -39.0938 -39.0672 -39.0317
   -39.0028 -39.0025 -38.9863 -38.9839 -38.9774 -38.9677 -38.9652 -38.9626
   -38.8862 -38.8844 -38.8806 -38.8756 -38.8739 -38.8679 -38.8663 -38.8642
   -38.8517 -38.8445 -38.8372 -38.8343 -38.8279 -38.8205 -38.8146 -38.8125
   -38.8095 -38.7996 -38.7986 -38.7945 -38.7912 -38.7797 -38.7736 -38.7665
   -38.7648 -38.7529 -38.7354 -38.7309 -38.7304 -38.7266 -38.7257 -38.7239
   -17.9021 -17.8993 -17.8984 -17.8802 -17.8792 -17.8723 -17.8698 -17.8691
   -17.8612 -17.8373 -17.8297 -17.8280 -17.7843 -17.7831 -17.7756 -17.7510
   -17.7414 -17.7389 -17.7339 -17.7293 -17.7278 -17.7172 -17.7156 -17.7126
     4.5846   5.0115   5.3953   5.9057   6.7555   7.1508   7.7832   9.7744
    10.2183  10.7195  10.9724  10.9927  11.1418  11.1631  11.2286  11.2642
    11.2680  11.2939  11.3563  11.3671  11.4031  11.4649  11.5988  11.6317
    11.6770  11.6956  11.7032  11.7949  12.1337  12.1415  12.2087  12.2231
    12.2334  12.2539  12.2619  12.2981  12.3068  12.3157  12.3537  12.3838
    12.4219  12.4477  12.4923  12.5955  12.6446  12.6670  12.6700  12.7196
    12.7569  12.8347  12.9314  12.9422  12.9873  13.0453  13.1306  13.1610
    13.2109  13.2156  13.2536  13.2868  13.3014  13.3257  13.3735  13.4168
    13.4815  13.4867  13.5900  13.6293  13.6404  13.6672  13.7322  13.7521
    13.8037  13.8067  13.8479  13.8594  13.8882  13.9225  13.9748  14.0294
    14.0876  14.1181  14.2345  14.3414  14.4575  14.4935  14.6078  14.6537
    14.6959  14.7071  14.7598  15.0340  15.2405  15.2977  15.3281  15.3652
    15.6813  15.7831  15.8740  15.8755  15.9478  15.9719  15.9953  16.0031
    16.0291  16.0860  16.1115  16.1689  16.1936  16.2049  16.2398  16.3148
    16.3437  16.3971  16.6515  16.6913  16.7090  16.9935  17.0546  17.0552

          k = 0.1925 0.3849 0.3849 ( 48499 PWs)   bands (ev):

   -72.8732 -72.8687 -72.8673 -72.8638 -72.8463 -72.8388 -72.8365 -72.8329
   -72.8248 -72.8244 -72.8229 -72.8229 -72.8229 -72.7824 -72.7823 -72.7823
   -41.6375 -41.5921 -41.5900 -41.5889 -41.5819 -41.5639 -41.5628 -41.5604
   -39.2842 -39.2570 -39.2539 -39.2386 -39.1118 -39.0671 -39.0585 -39.0367
   -39.0013 -38.9969 -38.9931 -38.9881 -38.9846 -38.9728 -38.9691 -38.9685
   -38.8824 -38.8818 -38.8776 -38.8728 -38.8718 -38.8704 -38.8683 -38.8584
   -38.8530 -38.8471 -38.8386 -38.8375 -38.8275 -38.8221 -38.8164 -38.8132
   -38.8083 -38.8056 -38.7980 -38.7966 -38.7888 -38.7808 -38.7712 -38.7699
   -38.7634 -38.7505 -38.7342 -38.7304 -38.7287 -38.7258 -38.7253 -38.7238
   -17.9005 -17.8975 -17.8974 -17.8815 -17.8786 -17.8704 -17.8702 -17.8664
   -17.8600 -17.8412 -17.8411 -17.8369 -17.7770 -17.7724 -17.7715 -17.7536
   -17.7388 -17.7382 -17.7338 -17.7329 -17.7247 -17.7206 -17.7166 -17.7156
     4.7629   5.0154   5.1354   5.8160   7.0694   7.2502   7.5679  10.0273
    10.3811  10.5445  10.7717  10.9186  11.1719  11.1960  11.2079  11.2338
    11.2470  11.2645  11.3048  11.3350  11.3776  11.4194  11.4626  11.5434
    11.5726  11.5856  11.6312  11.7220  12.1636  12.2114  12.2119  12.2476
    12.2622  12.3139  12.3183  12.3606  12.3961  12.3962  12.4124  12.4683
    12.5012  12.5361  12.5526  12.6122  12.6218  12.6378  12.6829  12.7330
    12.7415  12.7656  12.7958  12.8594  12.9096  12.9376  12.9923  13.0514
    13.0815  13.1288  13.1994  13.2240  13.2282  13.2894  13.2927  13.3598
    13.6009  13.6494  13.6537  13.7070  13.7202  13.7286  13.7962  13.8013
    13.8414  13.8533  13.8777  13.9017  13.9254  13.9280  13.9731  14.0111
    14.0834  14.1132  14.1582  14.2152  14.5371  14.5861  14.6401  14.7134
    14.7825  14.9183  14.9368  15.0795  15.5077  15.5244  15.6109  15.6791
    15.7044  15.8319  15.8381  15.8556  15.8565  15.8942  15.9150  15.9340
    15.9465  16.0646  16.0727  16.1010  16.1550  16.1580  16.2028  16.2092
    16.3021  16.4140  16.4214  16.6280  16.7395  16.7925  16.8717  16.9275

          k = 0.3849 0.3849 0.3849 ( 48449 PWs)   bands (ev):

   -72.8713 -72.8687 -72.8687 -72.8649 -72.8462 -72.8365 -72.8365 -72.8342
   -72.8248 -72.8248 -72.8229 -72.8229 -72.8229 -72.7823 -72.7823 -72.7823
   -41.6375 -41.5914 -41.5901 -41.5901 -41.5817 -41.5627 -41.5627 -41.5613
   -39.2738 -39.2599 -39.2558 -39.2558 -39.1032 -39.0485 -39.0485 -39.0343
   -38.9998 -38.9998 -38.9967 -38.9928 -38.9928 -38.9739 -38.9734 -38.9734
   -38.8806 -38.8766 -38.8766 -38.8716 -38.8716 -38.8699 -38.8566 -38.8566
   -38.8459 -38.8439 -38.8439 -38.8412 -38.8321 -38.8321 -38.8202 -38.8202
   -38.8129 -38.8128 -38.8069 -38.8069 -38.7812 -38.7812 -38.7665 -38.7659
   -38.7659 -38.7464 -38.7290 -38.7268 -38.7268 -38.7241 -38.7241 -38.7232
   -17.8971 -17.8962 -17.8962 -17.8788 -17.8788 -17.8672 -17.8672 -17.8661
   -17.8624 -17.8486 -17.8486 -17.8482 -17.7675 -17.7669 -17.7669 -17.7504
   -17.7387 -17.7387 -17.7308 -17.7308 -17.7301 -17.7213 -17.7199 -17.7199
     4.8731   5.0236   5.0236   5.7896   7.2378   7.2378   7.4348  10.2162
    10.5283  10.7917  10.7917  10.9380  11.1048  11.1374  11.1374  11.1736
    11.1760  11.1760  11.2909  11.2993  11.2993  11.4025  11.4025  11.4375
    11.4439  11.4439  11.4484  11.5671  12.2398  12.2398  12.2898  12.2898
    12.3024  12.3630  12.3630  12.3667  12.4244  12.5062  12.5062  12.5741
    12.5741  12.6055  12.6055  12.6163  12.6526  12.7028  12.7028  12.7163
    12.7389  12.7389  12.7742  12.8287  12.8287  12.8379  12.8379  12.8832
    12.9510  12.9510  13.0853  13.1022  13.1215  13.1215  13.1833  13.1833
    13.6946  13.6946  13.7619  13.7640  13.7640  13.7754  13.8258  13.8258
    13.8814  13.8814  13.8954  13.9149  13.9624  13.9794  13.9794  14.0227
    14.0227  14.0621  14.0761  14.0761  14.8933  14.9194  14.9194  15.0310
    15.1393  15.1517  15.1517  15.3521  15.6598  15.6670  15.6670  15.7075
    15.7075  15.7430  15.7430  15.8230  15.8405  15.8405  15.8496  15.9020
    15.9020  16.0690  16.0690  16.0771  16.1017  16.1017  16.1482  16.1482
    16.2166  16.3062  16.3648  16.3648  16.5703  16.5753  16.5753  16.6179

 ------ SPIN DOWN ----------


          k = 0.0000 0.0000 0.0000 ( 48489 PWs)   bands (ev):

   -70.8202 -70.7887 -70.7645 -70.7645 -70.7645 -70.7620 -70.7620 -70.7337
   -70.7337 -70.7337 -70.7312 -70.7312 -70.7312 -70.7299 -70.7299 -70.7299
   -42.3743 -42.3592 -42.3592 -42.3441 -42.3441 -42.3441 -42.3411 -42.3227
   -37.4452 -37.2992 -37.2144 -37.2144 -37.2144 -37.2137 -37.2137 -37.0451
   -37.0451 -37.0451 -36.9963 -36.9963 -36.9963 -36.9933 -36.9933 -36.9933
   -36.8479 -36.8479 -36.8047 -36.8047 -36.7992 -36.7936 -36.7936 -36.7936
   -36.7779 -36.7779 -36.7779 -36.7626 -36.7626 -36.7626 -36.7480 -36.7480
   -36.7333 -36.7333 -36.7333 -36.7262 -36.7256 -36.7256 -36.7256 -36.6831
   -36.6831 -36.6831 -36.6805 -36.6805 -36.6805 -36.6606 -36.6606 -36.6606
   -18.6585 -18.6585 -18.6585 -18.6575 -18.6575 -18.6575 -18.6274 -18.6274
   -18.6274 -18.5767 -18.5767 -18.5767 -18.5719 -18.5719 -18.5621 -18.5133
   -18.5133 -18.5133 -18.4902 -18.4902 -18.4902 -18.4857 -18.4857 -18.4857
     4.4524   6.3477   6.3477   6.4055   6.4055   6.4055   8.2753   9.4548
    11.1643  11.4441  11.4441  11.4522  11.4522  11.4522  11.9018  11.9018
    11.9018  12.1974  12.4501  12.4501  12.4501  12.4692  12.4692  12.8454
    12.9018  12.9018  12.9018  12.9451  12.9451  12.9451  13.0153  13.0153
    13.0153  13.0936  13.0936  13.0936  13.2137  13.2137  13.2137  13.3902
    13.3902  13.6077  13.6670  13.6670  13.6670  13.7055  13.7055  13.8081
    13.8081  13.8326  13.8326  13.8326  13.8814  13.8814  13.8814  13.9154
    13.9686  13.9686  13.9686  13.9847  13.9847  14.2783  14.2783  14.2783
    14.4187  14.4187  14.4187  14.5977  14.5977  14.5977  15.1195  15.1195
    15.1195  15.4204  15.4204  15.4204  15.4892  15.4892  15.4892  15.6101
    15.6101  15.6666  15.7039  15.7039  15.7193  15.7193  15.7193  15.8355
    15.8398  15.8398  15.8398  15.8783  15.8783  16.0503  16.0503  16.0503
    16.4265  16.4265  16.4265  16.4935  16.4935  16.4935  16.5241  16.5241
    16.5241  16.9364  16.9364  16.9367  16.9664  16.9665  16.9696  17.0115
    17.0681  17.0681  17.0681  17.0971  17.1022  17.1806  17.1809  17.1810

          k = 0.0000 0.0000 0.1925 ( 48469 PWs)   bands (ev):

   -70.8198 -70.7886 -70.7715 -70.7645 -70.7645 -70.7620 -70.7540 -70.7339
   -70.7337 -70.7337 -70.7326 -70.7312 -70.7312 -70.7299 -70.7299 -70.7299
   -42.3733 -42.3613 -42.3592 -42.3450 -42.3441 -42.3441 -42.3381 -42.3236
   -37.4350 -37.3139 -37.2577 -37.2140 -37.2140 -37.2133 -37.1587 -37.0513
   -37.0413 -37.0413 -37.0015 -37.0015 -36.9975 -36.9942 -36.9942 -36.9939
   -36.8478 -36.8469 -36.8065 -36.8038 -36.8027 -36.7962 -36.7962 -36.7878
   -36.7772 -36.7742 -36.7742 -36.7681 -36.7595 -36.7595 -36.7525 -36.7403
   -36.7375 -36.7345 -36.7345 -36.7279 -36.7227 -36.7227 -36.7104 -36.6871
   -36.6854 -36.6854 -36.6826 -36.6798 -36.6798 -36.6642 -36.6630 -36.6630
   -18.6595 -18.6595 -18.6588 -18.6574 -18.6553 -18.6553 -18.6296 -18.6296
   -18.6251 -18.5903 -18.5765 -18.5765 -18.5716 -18.5658 -18.5539 -18.5164
   -18.5110 -18.5110 -18.4915 -18.4915 -18.4901 -18.4861 -18.4861 -18.4858
     4.5416   5.8005   6.3513   6.4093   6.4093   6.9305   8.2615   9.5293
    10.7645  11.2459  11.4560  11.4623  11.4623  11.7215  11.9486  11.9486
    12.0192  12.1329  12.3188  12.3383  12.3383  12.3526  12.6452  12.6452
    12.7320  12.8506  12.8902  12.9065  12.9073  12.9073  12.9363  13.0504
    13.0504  13.1617  13.1859  13.1859  13.2601  13.4016  13.4016  13.4060
    13.4248  13.5905  13.6297  13.6297  13.6339  13.7053  13.7541  13.7541
    13.7804  13.7980  13.8494  13.8824  13.9134  13.9318  13.9318  13.9466
    13.9754  14.0121  14.0121  14.0241  14.0537  14.1242  14.2323  14.2323
    14.4452  14.5282  14.5282  14.6271  14.7166  14.7166  15.1282  15.1282
    15.1295  15.2296  15.2731  15.2731  15.3392  15.4709  15.5537  15.5537
    15.5898  15.6826  15.7065  15.7827  15.8235  15.8235  15.8417  15.8493
    15.9489  15.9620  15.9620  15.9828  16.0407  16.0407  16.0623  16.1226
    16.3961  16.3961  16.4093  16.4093  16.4517  16.4657  16.4657  16.4847
    16.5648  16.7548  16.8056  16.8544  16.8659  16.8659  16.8780  16.9293
    16.9671  16.9672  17.0120  17.0444  17.0444  17.0625  17.1329  17.2224

          k = 0.0000 0.0000 0.3849 ( 48538 PWs)   bands (ev):

   -70.8191 -70.7884 -70.7765 -70.7645 -70.7645 -70.7620 -70.7454 -70.7376
   -70.7337 -70.7337 -70.7334 -70.7313 -70.7313 -70.7299 -70.7299 -70.7299
   -42.3708 -42.3655 -42.3592 -42.3454 -42.3441 -42.3441 -42.3339 -42.3258
   -37.4068 -37.3564 -37.2701 -37.2135 -37.2135 -37.2128 -37.1121 -37.0696
   -37.0316 -37.0316 -37.0134 -37.0134 -36.9993 -36.9959 -36.9959 -36.9950
   -36.8478 -36.8453 -36.8104 -36.8057 -36.7989 -36.7989 -36.7967 -36.7852
   -36.7813 -36.7700 -36.7700 -36.7696 -36.7537 -36.7533 -36.7533 -36.7477
   -36.7374 -36.7374 -36.7259 -36.7240 -36.7160 -36.7160 -36.6963 -36.6931
   -36.6918 -36.6918 -36.6858 -36.6757 -36.6757 -36.6740 -36.6687 -36.6687
   -18.6602 -18.6602 -18.6592 -18.6573 -18.6517 -18.6517 -18.6338 -18.6338
   -18.6182 -18.6047 -18.5760 -18.5760 -18.5712 -18.5647 -18.5386 -18.5253
   -18.5056 -18.5056 -18.4956 -18.4956 -18.4901 -18.4864 -18.4864 -18.4859
     4.7830   5.3011   6.3572   6.4154   6.4154   7.3226   8.2145   9.7676
    10.2050  11.2549  11.4789  11.4811  11.4811  11.5273  12.0698  12.0787
    12.0787  12.1411  12.1977  12.2012  12.2012  12.3435  12.3435  12.5046
    12.7475  12.8102  12.8360  12.8422  12.8422  12.8469  13.1499  13.1499
    13.1620  13.2687  13.2718  13.2718  13.3180  13.3500  13.3500  13.4209
    13.5166  13.5610  13.5686  13.5686  13.6010  13.6651  13.6941  13.7455
    13.8801  13.8801  13.8953  13.9103  13.9562  13.9618  13.9964  13.9964
    14.0079  14.0543  14.1018  14.1018  14.1422  14.2517  14.2517  14.2941
    14.3785  14.5149  14.5149  14.5545  14.9155  14.9155  15.0732  15.0732
    15.0788  15.1506  15.1506  15.1749  15.1974  15.2882  15.5879  15.6363
    15.7220  15.7925  15.7925  15.8355  15.9969  15.9969  16.0148  16.0201
    16.0201  16.0343  16.0640  16.1404  16.1404  16.1775  16.2228  16.2412
    16.2412  16.2824  16.2824  16.3108  16.3656  16.3656  16.3701  16.3853
    16.5414  16.6102  16.6672  16.6889  16.6889  16.7521  16.9018  16.9514
    16.9787  16.9788  16.9799  17.0145  17.0146  17.0320  17.1161  17.1489

          k = 0.0000 0.1925 0.1925 ( 48486 PWs)   bands (ev):

   -70.8195 -70.7883 -70.7736 -70.7693 -70.7638 -70.7562 -70.7527 -70.7348
   -70.7337 -70.7336 -70.7331 -70.7314 -70.7313 -70.7299 -70.7299 -70.7299
   -42.3724 -42.3619 -42.3604 -42.3473 -42.3436 -42.3413 -42.3373 -42.3245
   -37.4254 -37.3196 -37.2781 -37.2478 -37.2059 -37.1690 -37.1515 -37.0542
   -37.0410 -37.0378 -37.0048 -37.0030 -37.0017 -36.9984 -36.9950 -36.9939
   -36.8473 -36.8463 -36.8067 -36.8045 -36.8022 -36.7962 -36.7924 -36.7899
   -36.7866 -36.7727 -36.7704 -36.7638 -36.7590 -36.7581 -36.7471 -36.7425
   -36.7423 -36.7348 -36.7334 -36.7296 -36.7189 -36.7139 -36.7066 -36.6965
   -36.6855 -36.6837 -36.6811 -36.6811 -36.6790 -36.6700 -36.6655 -36.6624
   -18.6614 -18.6588 -18.6572 -18.6566 -18.6544 -18.6539 -18.6316 -18.6291
   -18.6254 -18.5912 -18.5900 -18.5824 -18.5625 -18.5556 -18.5516 -18.5166
   -18.5115 -18.5087 -18.4931 -18.4920 -18.4910 -18.4871 -18.4870 -18.4851
     4.6270   5.7354   5.9416   6.3747   6.7732   7.0772   8.2246   9.6046
    10.7369  10.8866  11.3092  11.4131  11.6773  11.8830  11.9731  11.9818
    12.0433  12.1031  12.1952  12.2429  12.3655  12.3724  12.4162  12.5839
    12.6292  12.6469  12.8102  12.8610  12.9835  13.0050  13.0796  13.1264
    13.1269  13.2152  13.2238  13.2883  13.3657  13.3954  13.4327  13.4406
    13.4465  13.5513  13.5873  13.5891  13.6818  13.7612  13.7781  13.7803
    13.8205  13.8268  13.8274  13.8611  13.8626  13.8931  13.9262  13.9581
    13.9816  14.0087  14.0189  14.0522  14.0548  14.0626  14.1367  14.2275
    14.5718  14.6111  14.6791  14.7523  14.7560  14.7904  15.1215  15.1493
    15.1529  15.1583  15.1920  15.2379  15.3296  15.4096  15.4150  15.6152
    15.6712  15.6819  15.7132  15.7237  15.7839  15.8806  15.9018  15.9807
    16.0051  16.0093  16.0287  16.0490  16.0760  16.1115  16.1333  16.1930
    16.2944  16.3164  16.3871  16.4079  16.4086  16.4307  16.4348  16.4856
    16.5480  16.7112  16.7159  16.7534  16.8094  16.8736  16.8908  16.9086
    16.9199  16.9595  16.9604  17.0054  17.0325  17.0423  17.0897  17.1865

          k = 0.0000 0.1925 0.3849 ( 48550 PWs)   bands (ev):

   -70.8189 -70.7874 -70.7779 -70.7709 -70.7627 -70.7555 -70.7459 -70.7387
   -70.7337 -70.7335 -70.7334 -70.7315 -70.7313 -70.7299 -70.7299 -70.7299
   -42.3701 -42.3652 -42.3608 -42.3485 -42.3426 -42.3407 -42.3345 -42.3263
   -37.3997 -37.3512 -37.2916 -37.2608 -37.1956 -37.1635 -37.1121 -37.0711
   -37.0327 -37.0291 -37.0152 -37.0130 -37.0045 -37.0019 -36.9966 -36.9951
   -36.8470 -36.8446 -36.8085 -36.8044 -36.7996 -36.7978 -36.7941 -36.7884
   -36.7821 -36.7794 -36.7732 -36.7628 -36.7588 -36.7516 -36.7463 -36.7424
   -36.7360 -36.7341 -36.7320 -36.7251 -36.7153 -36.7127 -36.7060 -36.6946
   -36.6921 -36.6844 -36.6811 -36.6789 -36.6785 -36.6741 -36.6713 -36.6667
   -18.6624 -18.6590 -18.6568 -18.6553 -18.6518 -18.6507 -18.6351 -18.6331
   -18.6192 -18.6054 -18.5909 -18.5879 -18.5565 -18.5522 -18.5376 -18.5244
   -18.5069 -18.5037 -18.4972 -18.4953 -18.4919 -18.4887 -18.4870 -18.4851
     4.8587   5.3358   5.9059   6.3197   6.8807   7.4083   8.1253   9.8394
    10.2637  10.9396  11.1546  11.3402  11.7433  11.8621  11.9802  12.0536
    12.0963  12.1362  12.1397  12.2149  12.2553  12.2779  12.3421  12.4147
    12.5214  12.5494  12.6186  12.8574  13.1169  13.1365  13.1796  13.2386
    13.2593  13.2905  13.3056  13.3321  13.3690  13.3753  13.4492  13.4537
    13.4897  13.5169  13.5276  13.5966  13.6519  13.6940  13.7314  13.7636
    13.8221  13.8288  13.8372  13.8683  13.8869  13.9262  13.9845  14.0071
    14.0092  14.0274  14.0578  14.0737  14.0969  14.1241  14.1637  14.2259
    14.6420  14.6855  14.7356  14.7679  14.9436  14.9692  15.0581  15.0740
    15.1032  15.1550  15.1763  15.1910  15.2640  15.2850  15.5449  15.6014
    15.6201  15.6931  15.8121  15.8911  15.9098  15.9589  16.0046  16.0232
    16.0535  16.0736  16.0868  16.1497  16.1597  16.1893  16.2157  16.2412
    16.2574  16.2671  16.2884  16.2980  16.3198  16.3723  16.4279  16.4415
    16.4695  16.5919  16.6487  16.6752  16.7114  16.7682  16.8023  16.8412
    16.8752  16.9054  16.9131  16.9283  16.9703  17.0111  17.0612  17.1740

          k = 0.0000 0.3849 0.3849 ( 48478 PWs)   bands (ev):

   -70.8186 -70.7846 -70.7800 -70.7769 -70.7602 -70.7495 -70.7462 -70.7419
   -70.7337 -70.7334 -70.7333 -70.7319 -70.7313 -70.7299 -70.7299 -70.7299
   -42.3680 -42.3652 -42.3637 -42.3508 -42.3399 -42.3379 -42.3358 -42.3274
   -37.3821 -37.3407 -37.3195 -37.2979 -37.1745 -37.1246 -37.1089 -37.0826
   -37.0310 -37.0227 -37.0200 -37.0138 -37.0130 -37.0085 -36.9995 -36.9982
   -36.8463 -36.8430 -36.8046 -36.8001 -36.7985 -36.7966 -36.7955 -36.7895
   -36.7884 -36.7799 -36.7796 -36.7706 -36.7510 -36.7482 -36.7440 -36.7393
   -36.7343 -36.7298 -36.7294 -36.7277 -36.7196 -36.7104 -36.7014 -36.6992
   -36.6926 -36.6900 -36.6864 -36.6779 -36.6738 -36.6729 -36.6719 -36.6671
   -18.6627 -18.6562 -18.6559 -18.6549 -18.6505 -18.6481 -18.6360 -18.6335
   -18.6171 -18.6063 -18.6047 -18.6001 -18.5437 -18.5373 -18.5371 -18.5266
   -18.5079 -18.5008 -18.4996 -18.4963 -18.4947 -18.4893 -18.4887 -18.4859
     5.0682   5.3631   5.5320   6.1713   7.3011   7.5491   7.8912  10.0505
    10.3847  10.5385  10.7830  11.3490  11.9347  11.9832  12.0303  12.0907
    12.0916  12.1025  12.1124  12.1518  12.1538  12.2031  12.2467  12.3342
    12.3905  12.3980  12.4351  12.8791  13.2262  13.3063  13.3188  13.3432
    13.3552  13.3971  13.3991  13.4351  13.4547  13.4678  13.4959  13.5175
    13.5331  13.5336  13.5403  13.5822  13.6088  13.6463  13.6811  13.7176
    13.7250  13.7282  13.7485  13.7979  13.8121  13.8202  13.8588  13.9012
    14.0180  14.0530  14.0710  14.1405  14.1557  14.1674  14.2324  14.2351
    14.9078  14.9236  14.9462  14.9782  14.9841  15.0062  15.0422  15.0863
    15.1068  15.2054  15.2235  15.2632  15.3054  15.3907  15.4040  15.4716
    15.5492  15.5718  15.7039  15.8379  15.8829  15.9609  15.9838  16.0592
    16.1074  16.1338  16.1348  16.1441  16.1619  16.1848  16.2034  16.2142
    16.2426  16.2834  16.3184  16.3223  16.3548  16.3727  16.3743  16.4088
    16.4377  16.4682  16.5888  16.6207  16.6961  16.7143  16.7286  16.8061
    16.8629  16.8829  16.8988  16.9109  16.9256  16.9362  17.0369  17.0996

          k = 0.1925 0.1925 0.1925 ( 48503 PWs)   bands (ev):

   -70.8192 -70.7878 -70.7736 -70.7736 -70.7622 -70.7528 -70.7528 -70.7360
   -70.7336 -70.7336 -70.7332 -70.7314 -70.7314 -70.7299 -70.7299 -70.7299
   -42.3716 -42.3619 -42.3619 -42.3487 -42.3413 -42.3413 -42.3368 -42.3252
   -37.4168 -37.3243 -37.2789 -37.2789 -37.1903 -37.1492 -37.1492 -37.0564
   -37.0379 -37.0379 -37.0063 -37.0063 -37.0054 -36.9992 -36.9968 -36.9968
   -36.8461 -36.8461 -36.8066 -36.8019 -36.8019 -36.7956 -36.7956 -36.7926
   -36.7787 -36.7787 -36.7726 -36.7602 -36.7588 -36.7588 -36.7443 -36.7443
   -36.7411 -36.7336 -36.7336 -36.7330 -36.7112 -36.7112 -36.7036 -36.6979
   -36.6917 -36.6917 -36.6774 -36.6774 -36.6764 -36.6718 -36.6718 -36.6606
   -18.6604 -18.6604 -18.6562 -18.6543 -18.6535 -18.6535 -18.6306 -18.6306
   -18.6268 -18.5939 -18.5939 -18.5912 -18.5527 -18.5527 -18.5478 -18.5158
   -18.5097 -18.5097 -18.4941 -18.4926 -18.4926 -18.4875 -18.4875 -18.4859
     4.7080   5.7425   5.7425   6.2733   7.0732   7.0732   8.1747   9.6801
    10.7123  10.9219  10.9219  11.4766  11.8746  11.8746  11.9264  11.9520
    11.9520  12.1635  12.1635  12.1773  12.3542  12.3663  12.3663  12.4973
    12.4973  12.5182  12.7003  12.8478  13.1165  13.1328  13.1328  13.1583
    13.1583  13.3130  13.3130  13.3501  13.3984  13.4261  13.4261  13.4617
    13.4617  13.5933  13.6295  13.6295  13.6610  13.7374  13.7374  13.8008
    13.8008  13.8029  13.8109  13.8109  13.8576  13.8963  13.9327  13.9327
    13.9530  13.9558  13.9558  14.0265  14.0265  14.1132  14.1969  14.1969
    14.7371  14.7390  14.7390  14.8427  14.8427  14.8466  15.1448  15.1448
    15.1586  15.2158  15.2158  15.2329  15.3266  15.3285  15.3285  15.6388
    15.6388  15.6975  15.6975  15.7372  15.8256  15.8256  15.8735  16.0294
    16.0522  16.0798  16.0798  16.1045  16.1045  16.1790  16.2181  16.2181
    16.2788  16.2915  16.2915  16.3525  16.3525  16.3868  16.3868  16.4032
    16.6692  16.6692  16.7090  16.7115  16.7597  16.7775  16.7775  16.8685
    16.8685  16.9813  16.9871  16.9998  17.0000  17.0448  17.0472  17.0882

          k = 0.1925 0.1925 0.3849 ( 48490 PWs)   bands (ev):

   -70.8188 -70.7865 -70.7786 -70.7736 -70.7617 -70.7528 -70.7462 -70.7396
   -70.7336 -70.7335 -70.7333 -70.7316 -70.7314 -70.7299 -70.7299 -70.7299
   -42.3694 -42.3651 -42.3619 -42.3497 -42.3413 -42.3396 -42.3349 -42.3267
   -37.3938 -37.3477 -37.3021 -37.2800 -37.1840 -37.1452 -37.1103 -37.0716
   -37.0308 -37.0302 -37.0154 -37.0151 -37.0080 -37.0039 -36.9994 -36.9979
   -36.8459 -36.8442 -36.8066 -36.8018 -36.8012 -36.7960 -36.7925 -36.7914
   -36.7807 -36.7805 -36.7722 -36.7674 -36.7604 -36.7548 -36.7452 -36.7404
   -36.7347 -36.7342 -36.7308 -36.7282 -36.7125 -36.7122 -36.7047 -36.6970
   -36.6936 -36.6875 -36.6831 -36.6791 -36.6750 -36.6747 -36.6700 -36.6633
   -18.6617 -18.6586 -18.6559 -18.6530 -18.6507 -18.6506 -18.6347 -18.6335
   -18.6213 -18.6072 -18.5978 -18.5955 -18.5486 -18.5454 -18.5354 -18.5226
   -18.5057 -18.5054 -18.4973 -18.4966 -18.4931 -18.4896 -18.4881 -18.4859
     4.9271   5.3606   5.7542   6.2469   7.0667   7.4441   8.0430   9.9065
    10.3254  10.8738  10.9929  11.3531  11.7239  11.7900  11.9735  12.0575
    12.0821  12.1397  12.1603  12.2008  12.2454  12.2586  12.2908  12.3624
    12.4171  12.4274  12.5064  12.8419  13.2379  13.2417  13.2578  13.2998
    13.3093  13.3426  13.3608  13.3839  13.3916  13.4360  13.4777  13.4821
    13.5337  13.5374  13.5704  13.6243  13.6290  13.6924  13.7097  13.7448
    13.7656  13.8118  13.8147  13.8303  13.8590  13.8707  13.9104  13.9409
    13.9778  14.0033  14.0243  14.0476  14.0810  14.1490  14.1733  14.2155
    14.8009  14.8418  14.8481  14.9288  14.9884  15.0345  15.0941  15.1285
    15.1493  15.1697  15.1771  15.2855  15.3100  15.3315  15.4798  15.5759
    15.6325  15.6868  15.7166  15.8142  15.8413  15.8829  15.9372  15.9863
    16.0722  16.0981  16.1440  16.1519  16.1790  16.2188  16.2240  16.2301
    16.2439  16.2640  16.2836  16.2919  16.3626  16.3734  16.4004  16.4117
    16.4902  16.5015  16.5388  16.6018  16.6649  16.6882  16.7255  16.7878
    16.8062  16.8585  16.9611  16.9703  17.0090  17.0695  17.0715  17.1082

          k = 0.1925 0.3849 0.3849 ( 48499 PWs)   bands (ev):

   -70.8186 -70.7840 -70.7800 -70.7778 -70.7602 -70.7485 -70.7462 -70.7424
   -70.7336 -70.7334 -70.7333 -70.7319 -70.7315 -70.7299 -70.7299 -70.7299
   -42.3677 -42.3652 -42.3641 -42.3510 -42.3392 -42.3379 -42.3359 -42.3275
   -37.3804 -37.3402 -37.3206 -37.3062 -37.1702 -37.1155 -37.1041 -37.0804
   -37.0302 -37.0247 -37.0202 -37.0157 -37.0155 -37.0091 -37.0032 -37.0023
   -36.8448 -36.8428 -36.8031 -36.7997 -36.7982 -36.7957 -36.7947 -36.7886
   -36.7849 -36.7791 -36.7781 -36.7702 -36.7572 -36.7540 -36.7477 -36.7434
   -36.7376 -36.7314 -36.7302 -36.7296 -36.7113 -36.7072 -36.7013 -36.6979
   -36.6953 -36.6916 -36.6903 -36.6840 -36.6695 -36.6681 -36.6679 -36.6632
   -18.6608 -18.6566 -18.6534 -18.6524 -18.6491 -18.6479 -18.6356 -18.6340
   -18.6215 -18.6101 -18.6090 -18.6058 -18.5376 -18.5330 -18.5326 -18.5231
   -18.5075 -18.5019 -18.5007 -18.4973 -18.4958 -18.4907 -18.4901 -18.4877
     5.1138   5.3723   5.4950   6.1558   7.3584   7.5301   7.8317  10.0844
    10.4393  10.6182  10.8074  11.3490  11.7274  11.8688  11.9283  12.0052
    12.0530  12.1263  12.1392  12.1653  12.1761  12.1925  12.2180  12.2765
    12.3274  12.3297  12.3665  12.8284  13.3209  13.3715  13.3883  13.3964
    13.4105  13.4215  13.4566  13.4676  13.4922  13.4931  13.5327  13.5353
    13.5475  13.5589  13.5837  13.5913  13.6369  13.6505  13.6842  13.6849
    13.7056  13.7247  13.7567  13.7677  13.7822  13.8061  13.8491  13.8887
    13.9844  14.0153  14.0331  14.0708  14.1160  14.1627  14.2056  14.2158
    14.9967  15.0202  15.0570  15.0741  15.0779  15.1200  15.1401  15.1921
    15.2159  15.2614  15.3358  15.3493  15.3905  15.4427  15.4565  15.5161
    15.5324  15.5782  15.6859  15.7258  15.7685  15.8173  15.9343  15.9697
    15.9930  16.0113  16.0819  16.0933  16.1421  16.1890  16.1961  16.2028
    16.2319  16.2552  16.2926  16.2984  16.3186  16.3216  16.3519  16.3763
    16.4526  16.4539  16.5101  16.5612  16.6485  16.7605  16.7639  16.8011
    16.8140  16.8954  16.8966  16.9463  16.9870  17.0668  17.0817  17.1698

          k = 0.3849 0.3849 0.3849 ( 48449 PWs)   bands (ev):

   -70.8185 -70.7824 -70.7800 -70.7800 -70.7604 -70.7462 -70.7462 -70.7438
   -70.7334 -70.7334 -70.7333 -70.7319 -70.7319 -70.7299 -70.7299 -70.7299
   -42.3667 -42.3653 -42.3653 -42.3514 -42.3379 -42.3379 -42.3366 -42.3277
   -37.3772 -37.3359 -37.3224 -37.3224 -37.1642 -37.0955 -37.0955 -37.0803
   -37.0283 -37.0283 -37.0204 -37.0204 -37.0192 -37.0104 -37.0096 -37.0096
   -36.8424 -36.8424 -36.8007 -36.8007 -36.8000 -36.7945 -36.7870 -36.7870
   -36.7813 -36.7751 -36.7725 -36.7725 -36.7609 -36.7609 -36.7539 -36.7539
   -36.7474 -36.7338 -36.7319 -36.7319 -36.7022 -36.7022 -36.7018 -36.6979
   -36.6979 -36.6928 -36.6907 -36.6907 -36.6633 -36.6633 -36.6632 -36.6606
   -18.6566 -18.6566 -18.6484 -18.6484 -18.6472 -18.6461 -18.6350 -18.6350
   -18.6291 -18.6161 -18.6161 -18.6157 -18.5257 -18.5257 -18.5251 -18.5183
   -18.5064 -18.5064 -18.5009 -18.4996 -18.4996 -18.4924 -18.4924 -18.4911
     5.2321   5.3873   5.3873   6.1358   7.4994   7.4994   7.6868  10.1329
    10.5903  10.7843  10.7843  11.3274  11.6024  11.6024  11.7430  12.0427
    12.0477  12.0477  12.1105  12.1105  12.1362  12.1362  12.1433  12.2385
    12.2672  12.2672  12.2897  12.7565  13.4435  13.4435  13.4440  13.4870
    13.4870  13.5000  13.5095  13.5095  13.5528  13.5528  13.5606  13.5675
    13.5820  13.5820  13.5998  13.6159  13.6159  13.6607  13.6641  13.6641
    13.7111  13.7161  13.7161  13.7576  13.7576  13.8114  13.8182  13.8182
    13.9548  14.0216  14.0216  14.0557  14.0557  14.1743  14.1743  14.1797
    15.1691  15.2199  15.2199  15.2542  15.2542  15.2816  15.2816  15.3590
    15.3590  15.3658  15.4580  15.4707  15.5496  15.5496  15.5675  15.6099
    15.6099  15.6312  15.6459  15.6459  15.7323  15.7323  15.7739  15.7739
    15.7861  15.8285  15.8849  15.8849  15.9949  16.1121  16.1121  16.1374
    16.1669  16.1669  16.2083  16.2239  16.2312  16.2312  16.2846  16.2846
    16.4590  16.4964  16.4964  16.7279  16.7799  16.7799  16.8255  16.8284
    16.8284  16.8400  16.8727  16.8727  16.9464  16.9952  16.9952  17.0375

     the Fermi energy is    15.2125 ev

!    total energy              =   -6230.61245128 Ry
     estimated scf accuracy    <          5.9E-11 Ry
     smearing contrib. (-TS)   =       0.00049399 Ry
     internal energy E=F+TS    =   -6230.61294527 Ry

     The total energy is F=E-TS. E is the sum of the following terms:
     one-electron contribution =   -2590.08723568 Ry
     hartree contribution      =    1474.28222542 Ry
     xc contribution           =    -706.40924749 Ry
     ewald contribution        =   -3189.92406528 Ry
     one-center paw contrib.   =   -1218.47462225 Ry

     total magnetization       =    19.44 Bohr mag/cell
     absolute magnetization    =    38.47 Bohr mag/cell

     convergence has been achieved in  19 iterations

     negative rho (up, down):  7.328E-03 1.106E-03

     Forces acting on atoms (cartesian axes, Ry/au):

     atom    1 type  1   force =     0.00004268    0.00004268    0.00005391
     atom    2 type  1   force =    -0.00061445   -0.00061445   -0.00061445
     atom    3 type  1   force =    -0.00004268    0.00005391   -0.00004268
     atom    4 type  1   force =    -0.00005391   -0.00004268    0.00004268
     atom    5 type  1   force =     0.00004268    0.00005391    0.00004268
     atom    6 type  1   force =     0.00005391    0.00004268    0.00004268
     atom    7 type  1   force =    -0.00004268   -0.00005391    0.00004268
     atom    8 type  1   force =     0.00061445   -0.00061445    0.00061445
     atom    9 type  1   force =    -0.00061445    0.00061445    0.00061445
     atom   10 type  1   force =     0.00005391   -0.00004268   -0.00004268
     atom   11 type  1   force =    -0.00005391    0.00004268   -0.00004268
     atom   12 type  1   force =    -0.00004268   -0.00004268    0.00005391
     atom   13 type  1   force =     0.00061445    0.00061445   -0.00061445
     atom   14 type  1   force =    -0.00004268    0.00004268   -0.00005391
     atom   15 type  1   force =     0.00004268   -0.00005391   -0.00004268
     atom   16 type  1   force =     0.00004268   -0.00004268   -0.00005391
     atom   17 type  2   force =     0.00000000    0.00000000    0.00000000
     atom   18 type  2   force =    -0.00004645   -0.00004645    0.00004645
     atom   19 type  2   force =     0.00000000    0.00000000    0.00000000
     atom   20 type  2   force =    -0.00004645    0.00004645   -0.00004645
     atom   21 type  2   force =     0.00000000    0.00000000    0.00000000
     atom   22 type  2   force =     0.00004645    0.00004645    0.00004645
     atom   23 type  2   force =     0.00004645   -0.00004645   -0.00004645
     atom   24 type  2   force =     0.00000000    0.00000000    0.00000000
     atom   25 type  3   force =    -0.00013668   -0.00013668    0.00013668
     atom   26 type  3   force =     0.00000000    0.00000000    0.00000000
     atom   27 type  3   force =    -0.00013668    0.00013668   -0.00013668
     atom   28 type  3   force =     0.00000000    0.00000000    0.00000000
     atom   29 type  3   force =     0.00013668    0.00013668    0.00013668
     atom   30 type  3   force =     0.00013668   -0.00013668   -0.00013668
     atom   31 type  3   force =     0.00000000    0.00000000    0.00000000

     Total force =     0.002204     Total SCF correction =     0.000068


     Computing stress (Cartesian axis) and pressure


     negative rho (up, down):  7.328E-03 1.106E-03
          total   stress  (Ry/bohr**3)                   (kbar)     P=        1.97
   0.00001341   0.00000000   0.00000000            1.97        0.00        0.00
   0.00000000   0.00001341   0.00000000            0.00        1.97        0.00
   0.00000000   0.00000000   0.00001341            0.00        0.00        1.97

     Energy error            =      5.8E-05 Ry
     Gradient error          =      6.1E-04 Ry/Bohr
     Cell gradient error     =      2.0E+00 kbar

     number of scf cycles    =  12
     number of bfgs steps    =  11

     enthalpy           old  =   -6230.6123935468 Ry
     enthalpy           new  =   -6230.6124512847 Ry

     CASE: enthalpy          _new < enthalpy          _old

     new trust radius        =       0.0037875349 bohr
     new conv_thr            =            1.0E-10 Ry

     new unit-cell volume =   2337.48199 a.u.^3 (   346.37909 Ang^3 )
     density =      6.15313 g/cm^3

CELL_PARAMETERS (alat= 12.76591255)
   1.039595105   0.000000000   0.000000000
   0.000000000   1.039595105   0.000000000
   0.000000000   0.000000000   1.039595105

ATOMIC_POSITIONS (crystal)
Fe               0.1251553657        0.1251553657        0.6281105546
Fe               0.6157415429        0.6157415429        0.6157415429
Fe               0.8748446343        0.6281105546        0.8748446343
Fe               0.3718894454        0.8748446343        0.1251553657
Fe               0.1251553657        0.6281105546        0.1251553657
Fe               0.6281105546        0.1251553657        0.1251553657
Fe               0.8748446343        0.3718894454        0.1251553657
Fe               0.3842584571        0.6157415429        0.3842584571
Fe               0.6157415429        0.3842584571        0.3842584571
Fe               0.6281105546        0.8748446343        0.8748446343
Fe               0.3718894454        0.1251553657        0.8748446343
Fe               0.8748446343        0.8748446343        0.6281105546
Fe               0.3842584571        0.3842584571        0.6157415429
Fe               0.8748446343        0.1251553657        0.3718894454
Fe               0.1251553657        0.3718894454        0.8748446343
Fe               0.1251553657        0.8748446343        0.3718894454
Ti               0.0000000000        0.0000000000        0.0000000000
Ti               0.7486245349        0.7486245349        0.2513754651
Ti               0.5000000000        0.0000000000        0.5000000000
Ti               0.7486245349        0.2513754651        0.7486245349
Ti               0.0000000000        0.5000000000        0.5000000000
Ti               0.2513754651        0.2513754651        0.2513754651
Ti               0.2513754651        0.7486245349        0.7486245349
Ti               0.5000000000        0.5000000000        0.0000000000
H                0.2585991099        0.2585991099        0.7414008901
H                0.0000000000        0.5000000000        0.0000000000
H                0.2585991099        0.7414008901        0.2585991099
H                0.5000000000        0.0000000000        0.0000000000
H                0.7414008901        0.7414008901        0.7414008901
H                0.7414008901        0.2585991099        0.2585991099
H                0.0000000000        0.0000000000        0.5000000000



     Writing config-only to output data dir ./TiFe2_cub_8b_8H.save/ :
     XML data file     NEW-OLD atomic charge density approx. for the potential
     New effective cutoffs (rho, wfc): 1606.22  114.72

     negative rho (up, down):  7.335E-03 1.104E-03
     Generating pointlists ...

     total cpu time spent up to now is   100694.9 secs

     per-process dynamical memory:   530.5 Mb

     Self-consistent Calculation

     iteration #  1     ecut=   124.00 Ry     beta= 0.20
     CG style diagonalization
     ethr =  1.00E-06,  avg # of iterations =  3.1

     Threshold (ethr) on eigenvalues was too large:
     Diagonalizing with lowered threshold

     CG style diagonalization
     c_bands:  5 eigenvalues not converged
     c_bands:  5 eigenvalues not converged
     c_bands:  4 eigenvalues not converged
     c_bands:  5 eigenvalues not converged
     ethr =  8.90E-09,  avg # of iterations = 11.8

     negative rho (up, down):  7.334E-03 1.102E-03

     total cpu time spent up to now is   102424.7 secs

     total energy              =   -6230.61243807 Ry
     estimated scf accuracy    <       0.00007701 Ry

     total magnetization       =    19.45 Bohr mag/cell
     absolute magnetization    =    38.51 Bohr mag/cell

     iteration #  2     ecut=   124.00 Ry     beta= 0.20
     CG style diagonalization
     ethr =  2.15E-08,  avg # of iterations =  3.0

     negative rho (up, down):  7.334E-03 1.101E-03

     total cpu time spent up to now is   102687.9 secs

     total energy              =   -6230.61245195 Ry
     estimated scf accuracy    <       0.00001518 Ry

     total magnetization       =    19.45 Bohr mag/cell
     absolute magnetization    =    38.50 Bohr mag/cell

     iteration #  3     ecut=   124.00 Ry     beta= 0.20
     CG style diagonalization
     ethr =  4.23E-09,  avg # of iterations =  3.2

     negative rho (up, down):  7.335E-03 1.099E-03

     total cpu time spent up to now is   102973.6 secs

     total energy              =   -6230.61245883 Ry
     estimated scf accuracy    <       0.00001039 Ry

     total magnetization       =    19.45 Bohr mag/cell
     absolute magnetization    =    38.51 Bohr mag/cell

     iteration #  4     ecut=   124.00 Ry     beta= 0.20
     CG style diagonalization
     ethr =  2.89E-09,  avg # of iterations =  3.6

     negative rho (up, down):  7.337E-03 1.098E-03

     total cpu time spent up to now is   103302.3 secs

     total energy              =   -6230.61246541 Ry
     estimated scf accuracy    <       0.00000211 Ry

     total magnetization       =    19.45 Bohr mag/cell
     absolute magnetization    =    38.52 Bohr mag/cell

     iteration #  5     ecut=   124.00 Ry     beta= 0.20
     CG style diagonalization
     ethr =  5.88E-10,  avg # of iterations =  4.7

     negative rho (up, down):  7.339E-03 1.098E-03

     total cpu time spent up to now is   103766.3 secs

     total energy              =   -6230.61246961 Ry
     estimated scf accuracy    <       0.00000122 Ry

     total magnetization       =    19.45 Bohr mag/cell
     absolute magnetization    =    38.52 Bohr mag/cell

     iteration #  6     ecut=   124.00 Ry     beta= 0.20
     CG style diagonalization
     ethr =  3.39E-10,  avg # of iterations =  3.6

     negative rho (up, down):  7.339E-03 1.097E-03

     total cpu time spent up to now is   104104.4 secs

     total energy              =   -6230.61247184 Ry
     estimated scf accuracy    <       0.00000047 Ry

     total magnetization       =    19.45 Bohr mag/cell
     absolute magnetization    =    38.53 Bohr mag/cell

     iteration #  7     ecut=   124.00 Ry     beta= 0.20
     CG style diagonalization
     ethr =  1.31E-10,  avg # of iterations =  3.8

     negative rho (up, down):  7.342E-03 1.097E-03

     total cpu time spent up to now is   104462.0 secs

     total energy              =   -6230.61247323 Ry
     estimated scf accuracy    <       0.00000069 Ry

     total magnetization       =    19.45 Bohr mag/cell
     absolute magnetization    =    38.53 Bohr mag/cell

     iteration #  8     ecut=   124.00 Ry     beta= 0.20
     CG style diagonalization
     ethr =  1.31E-10,  avg # of iterations =  3.4

     negative rho (up, down):  7.344E-03 1.097E-03

     total cpu time spent up to now is   104768.6 secs

     total energy              =   -6230.61247415 Ry
     estimated scf accuracy    <       0.00000013 Ry

     total magnetization       =    19.45 Bohr mag/cell
     absolute magnetization    =    38.54 Bohr mag/cell

     iteration #  9     ecut=   124.00 Ry     beta= 0.20
     CG style diagonalization
     ethr =  3.51E-11,  avg # of iterations =  3.9

     negative rho (up, down):  7.346E-03 1.095E-03

     total cpu time spent up to now is   105144.3 secs

     total energy              =   -6230.61247470 Ry
     estimated scf accuracy    <       0.00000007 Ry

     total magnetization       =    19.45 Bohr mag/cell
     absolute magnetization    =    38.54 Bohr mag/cell

     iteration # 10     ecut=   124.00 Ry     beta= 0.20
     CG style diagonalization
     ethr =  1.99E-11,  avg # of iterations =  4.3

     negative rho (up, down):  7.346E-03 1.095E-03

     total cpu time spent up to now is   105564.8 secs

     total energy              =   -6230.61247511 Ry
     estimated scf accuracy    <       0.00000012 Ry

     total magnetization       =    19.45 Bohr mag/cell
     absolute magnetization    =    38.55 Bohr mag/cell

     iteration # 11     ecut=   124.00 Ry     beta= 0.20
     CG style diagonalization
     ethr =  1.99E-11,  avg # of iterations =  3.1

     negative rho (up, down):  7.346E-03 1.095E-03

     total cpu time spent up to now is   105842.2 secs

     total energy              =   -6230.61247533 Ry
     estimated scf accuracy    <          7.1E-09 Ry

     total magnetization       =    19.45 Bohr mag/cell
     absolute magnetization    =    38.55 Bohr mag/cell

     iteration # 12     ecut=   124.00 Ry     beta= 0.20
     CG style diagonalization
     ethr =  1.97E-12,  avg # of iterations =  5.3

     negative rho (up, down):  7.346E-03 1.095E-03

     total cpu time spent up to now is   106380.7 secs

     total energy              =   -6230.61247546 Ry
     estimated scf accuracy    <          2.8E-09 Ry

     total magnetization       =    19.45 Bohr mag/cell
     absolute magnetization    =    38.55 Bohr mag/cell

     iteration # 13     ecut=   124.00 Ry     beta= 0.20
     CG style diagonalization
     ethr =  7.83E-13,  avg # of iterations =  4.1

     negative rho (up, down):  7.347E-03 1.095E-03

     total cpu time spent up to now is   106777.9 secs

     total energy              =   -6230.61247555 Ry
     estimated scf accuracy    <          2.6E-09 Ry

     total magnetization       =    19.45 Bohr mag/cell
     absolute magnetization    =    38.55 Bohr mag/cell

     iteration # 14     ecut=   124.00 Ry     beta= 0.20
     CG style diagonalization
     ethr =  7.11E-13,  avg # of iterations =  3.6

     negative rho (up, down):  7.347E-03 1.095E-03

     total cpu time spent up to now is   107113.5 secs

     total energy              =   -6230.61247560 Ry
     estimated scf accuracy    <          4.5E-10 Ry

     total magnetization       =    19.45 Bohr mag/cell
     absolute magnetization    =    38.55 Bohr mag/cell

     iteration # 15     ecut=   124.00 Ry     beta= 0.20
     CG style diagonalization
     ethr =  1.27E-13,  avg # of iterations =  4.9

     negative rho (up, down):  7.347E-03 1.095E-03

     total cpu time spent up to now is   107595.7 secs

     total energy              =   -6230.61247563 Ry
     estimated scf accuracy    <          1.5E-10 Ry

     total magnetization       =    19.45 Bohr mag/cell
     absolute magnetization    =    38.55 Bohr mag/cell

     iteration # 16     ecut=   124.00 Ry     beta= 0.20
     CG style diagonalization
     ethr =  1.00E-13,  avg # of iterations =  3.8

     negative rho (up, down):  7.347E-03 1.095E-03

     Magnetic moment per site  (integrated on atomic sphere of radius R)
     atom   1 (R=0.089)  charge= 11.1817  magn=  1.3876
     atom   2 (R=0.089)  charge= 11.1732  magn=  1.3543
     atom   3 (R=0.089)  charge= 11.1817  magn=  1.3876
     atom   4 (R=0.089)  charge= 11.1817  magn=  1.3876
     atom   5 (R=0.089)  charge= 11.1817  magn=  1.3876
     atom   6 (R=0.089)  charge= 11.1817  magn=  1.3876
     atom   7 (R=0.089)  charge= 11.1817  magn=  1.3876
     atom   8 (R=0.089)  charge= 11.1732  magn=  1.3543
     atom   9 (R=0.089)  charge= 11.1732  magn=  1.3543
     atom  10 (R=0.089)  charge= 11.1817  magn=  1.3876
     atom  11 (R=0.089)  charge= 11.1817  magn=  1.3876
     atom  12 (R=0.089)  charge= 11.1817  magn=  1.3876
     atom  13 (R=0.089)  charge= 11.1732  magn=  1.3543
     atom  14 (R=0.089)  charge= 11.1817  magn=  1.3876
     atom  15 (R=0.089)  charge= 11.1817  magn=  1.3876
     atom  16 (R=0.089)  charge= 11.1817  magn=  1.3876
     atom  17 (R=0.171)  charge= 10.2041  magn= -0.7535
     atom  18 (R=0.171)  charge= 10.1999  magn= -0.8178
     atom  19 (R=0.171)  charge= 10.1940  magn= -0.8497
     atom  20 (R=0.171)  charge= 10.1999  magn= -0.8178
     atom  21 (R=0.171)  charge= 10.1940  magn= -0.8497
     atom  22 (R=0.171)  charge= 10.1999  magn= -0.8178
     atom  23 (R=0.171)  charge= 10.1999  magn= -0.8178
     atom  24 (R=0.171)  charge= 10.1940  magn= -0.8497
     atom  25 (R=0.089)  charge=  0.9810  magn= -0.0057
     atom  26 (R=0.089)  charge=  0.9912  magn= -0.0055
     atom  27 (R=0.089)  charge=  0.9810  magn= -0.0057
     atom  28 (R=0.089)  charge=  0.9912  magn= -0.0055
     atom  29 (R=0.089)  charge=  0.9810  magn= -0.0057
     atom  30 (R=0.089)  charge=  0.9810  magn= -0.0057
     atom  31 (R=0.089)  charge=  0.9912  magn= -0.0055

     total cpu time spent up to now is   107953.6 secs

     End of self-consistent calculation

 ------ SPIN UP ------------


          k = 0.0000 0.0000 0.0000 ( 48489 PWs)   bands (ev):

   -72.9067 -72.8761 -72.8760 -72.8760 -72.8760 -72.8757 -72.8757 -72.8473
   -72.8473 -72.8473 -72.8459 -72.8459 -72.8459 -72.8028 -72.8028 -72.8028
   -41.6590 -41.6167 -41.6053 -41.6053 -41.6053 -41.5898 -41.5898 -41.5752
   -39.3761 -39.2225 -39.1783 -39.1783 -39.1783 -39.1780 -39.1780 -39.0415
   -39.0415 -39.0415 -38.9833 -38.9833 -38.9833 -38.9730 -38.9730 -38.9730
   -38.9126 -38.9126 -38.9049 -38.8943 -38.8943 -38.8889 -38.8889 -38.8889
   -38.8637 -38.8637 -38.8637 -38.8613 -38.8613 -38.8613 -38.8554 -38.8554
   -38.8289 -38.8289 -38.8289 -38.8278 -38.8054 -38.8054 -38.8054 -38.7770
   -38.7770 -38.7770 -38.7462 -38.7462 -38.7462 -38.7445 -38.7445 -38.7445
   -17.9234 -17.9234 -17.9234 -17.8979 -17.8979 -17.8979 -17.8881 -17.8881
   -17.8881 -17.8292 -17.8292 -17.8279 -17.8279 -17.8279 -17.8223 -17.7648
   -17.7648 -17.7648 -17.7524 -17.7524 -17.7524 -17.7317 -17.7317 -17.7317
     4.1187   5.9881   5.9881   6.0526   6.0526   6.0526   8.0072   9.2096
    10.8786  10.8786  10.8786  10.9939  11.1350  11.1350  11.1413  11.1413
    11.1413  11.7310  11.7388  11.7388  11.7388  11.8551  11.8748  11.8748
    11.8748  11.8769  11.8769  11.8769  11.9095  11.9095  11.9314  11.9314
    11.9314  12.1417  12.1417  12.3339  12.3339  12.3339  12.4480  12.4480
    12.4480  12.4562  12.4707  12.4707  12.4707  12.5151  12.5151  12.8989
    12.8989  12.9675  12.9675  12.9675  12.9793  12.9793  12.9793  13.0292
    13.0657  13.0657  13.0657  13.1146  13.1146  13.1146  13.2281  13.2281
    13.2281  13.6478  13.6478  13.6478  13.7316  13.7316  13.7316  13.7493
    13.7493  13.7493  13.8508  13.8508  13.8930  13.8930  13.9226  13.9226
    13.9226  13.9830  13.9830  13.9830  13.9915  14.5204  14.5204  14.7279
    14.7279  14.7279  14.9171  15.0142  15.0142  15.0142  15.1023  15.1023
    15.3406  15.3406  15.3406  16.1684  16.1684  16.1684  16.1853  16.1853
    16.1853  16.2241  16.2241  16.2241  16.5353  16.5353  16.5353  16.5885
    16.5885  16.5885  16.7005  16.7005  16.7552  16.7985  16.7985  16.7985

          k = 0.0000 0.0000 0.1924 ( 48469 PWs)   bands (ev):

   -72.9052 -72.8851 -72.8761 -72.8760 -72.8760 -72.8757 -72.8668 -72.8485
   -72.8473 -72.8473 -72.8459 -72.8459 -72.8459 -72.8029 -72.8028 -72.8028
   -41.6589 -41.6163 -41.6068 -41.6053 -41.6053 -41.5898 -41.5877 -41.5761
   -39.3664 -39.2453 -39.2084 -39.1778 -39.1778 -39.1775 -39.1303 -39.0450
   -39.0372 -39.0372 -38.9894 -38.9894 -38.9856 -38.9770 -38.9770 -38.9743
   -38.9126 -38.9099 -38.9068 -38.8986 -38.8938 -38.8912 -38.8912 -38.8836
   -38.8674 -38.8661 -38.8598 -38.8598 -38.8573 -38.8547 -38.8547 -38.8451
   -38.8292 -38.8267 -38.8267 -38.8159 -38.8087 -38.8064 -38.8064 -38.7803
   -38.7786 -38.7786 -38.7495 -38.7482 -38.7482 -38.7461 -38.7449 -38.7449
   -17.9236 -17.9226 -17.9226 -17.8982 -17.8982 -17.8982 -17.8890 -17.8890
   -17.8859 -17.8429 -17.8289 -17.8278 -17.8278 -17.8241 -17.8119 -17.7668
   -17.7639 -17.7639 -17.7528 -17.7516 -17.7516 -17.7329 -17.7329 -17.7316
     4.2040   5.4397   5.9906   6.0551   6.0551   6.5905   7.9908   9.3009
    10.6062  10.8060  10.9299  10.9299  11.1215  11.1755  11.1755  11.1787
    11.2928  11.5969  11.5969  11.6077  11.7102  11.7102  11.7113  11.7293
    11.7475  11.8913  11.9642  11.9682  11.9682  11.9953  11.9953  12.0221
    12.0981  12.1495  12.1819  12.2151  12.2756  12.2756  12.3063  12.4036
    12.4036  12.4282  12.4839  12.5246  12.5318  12.5318  12.7273  12.8077
    12.8495  12.8495  12.8591  12.9337  12.9337  12.9515  12.9721  13.1128
    13.1128  13.1237  13.2097  13.2417  13.2747  13.2747  13.3349  13.3565
    13.3565  13.6185  13.6257  13.6257  13.6675  13.6906  13.6906  13.7098
    13.7572  13.8019  13.8216  13.8216  13.8496  13.8638  13.8638  13.8925
    13.9606  14.0638  14.0638  14.0760  14.1010  14.5276  14.6401  14.6401
    14.6571  14.6897  14.7951  14.9558  14.9564  14.9564  15.0545  15.1950
    15.4216  15.4910  15.4910  16.1180  16.1180  16.1484  16.1633  16.1633
    16.1675  16.1953  16.1953  16.2772  16.3231  16.3840  16.3997  16.3997
    16.4711  16.5039  16.5039  16.8478  16.8990  16.8991  16.9033  17.4228

          k = 0.0000 0.0000 0.3848 ( 48538 PWs)   bands (ev):

   -72.9012 -72.8933 -72.8761 -72.8760 -72.8760 -72.8757 -72.8592 -72.8519
   -72.8473 -72.8473 -72.8459 -72.8459 -72.8459 -72.8030 -72.8028 -72.8028
   -41.6589 -41.6156 -41.6091 -41.6053 -41.6053 -41.5898 -41.5839 -41.5783
   -39.3382 -39.2950 -39.2109 -39.1770 -39.1770 -39.1766 -39.0949 -39.0548
   -39.0260 -39.0260 -39.0042 -39.0042 -38.9893 -38.9823 -38.9823 -38.9765
   -38.9123 -38.9098 -38.9039 -38.9017 -38.8934 -38.8934 -38.8915 -38.8818
   -38.8817 -38.8578 -38.8566 -38.8562 -38.8562 -38.8424 -38.8424 -38.8391
   -38.8238 -38.8232 -38.8232 -38.8124 -38.8088 -38.8088 -38.8016 -38.7891
   -38.7810 -38.7810 -38.7557 -38.7525 -38.7525 -38.7489 -38.7451 -38.7451
   -17.9239 -17.9214 -17.9214 -17.8988 -17.8988 -17.8987 -17.8906 -17.8906
   -17.8812 -17.8542 -17.8285 -17.8277 -17.8277 -17.8236 -17.8005 -17.7713
   -17.7626 -17.7626 -17.7533 -17.7498 -17.7498 -17.7353 -17.7353 -17.7316
     4.4344   4.9481   5.9945   6.0592   6.0592   6.9998   7.9408   9.5788
    10.0411  10.7034  11.0794  11.0794  11.2043  11.2488  11.2488  11.2805
    11.2910  11.3198  11.3198  11.4714  11.5947  11.5947  11.6200  11.6881
    11.6967  11.7855  11.9836  12.0461  12.0577  12.0577  12.1077  12.1077
    12.1287  12.1372  12.1372  12.1585  12.1660  12.1714  12.3048  12.3144
    12.3144  12.3744  12.3744  12.4035  12.4927  12.5101  12.8049  12.8751
    12.9480  12.9480  12.9686  12.9920  13.0780  13.0780  13.1150  13.1787
    13.1787  13.2263  13.3036  13.3991  13.4195  13.4195  13.4390  13.4588
    13.4588  13.4670  13.5212  13.5212  13.5513  13.5713  13.5713  13.5862
    13.6048  13.6531  13.6702  13.6702  13.8383  13.8744  14.1373  14.1373
    14.1762  14.2494  14.2494  14.2671  14.3228  14.4441  14.4441  14.4587
    14.6191  14.6537  14.7888  14.8157  14.8157  14.9112  15.0041  15.2029
    15.6585  15.7696  15.7696  15.9874  15.9874  15.9995  16.1220  16.1220
    16.1250  16.1327  16.1690  16.1690  16.2125  16.2272  16.2433  16.2433
    16.3447  16.3447  16.4916  16.8952  17.0729  17.0729  17.0901  17.0941

          k = 0.0000 0.1924 0.1924 ( 48486 PWs)   bands (ev):

   -72.9038 -72.8856 -72.8837 -72.8785 -72.8735 -72.8686 -72.8659 -72.8495
   -72.8474 -72.8473 -72.8459 -72.8459 -72.8459 -72.8029 -72.8028 -72.8028
   -41.6589 -41.6160 -41.6079 -41.6061 -41.6048 -41.5886 -41.5871 -41.5769
   -39.3572 -39.2470 -39.2360 -39.2057 -39.1686 -39.1380 -39.1236 -39.0452
   -39.0366 -39.0333 -38.9941 -38.9923 -38.9905 -38.9814 -38.9783 -38.9783
   -38.9111 -38.9085 -38.9075 -38.8974 -38.8973 -38.8923 -38.8874 -38.8862
   -38.8723 -38.8645 -38.8610 -38.8537 -38.8525 -38.8522 -38.8480 -38.8454
   -38.8312 -38.8240 -38.8220 -38.8140 -38.8114 -38.8065 -38.8040 -38.7845
   -38.7805 -38.7780 -38.7533 -38.7493 -38.7482 -38.7468 -38.7462 -38.7449
   -17.9237 -17.9219 -17.9217 -17.9003 -17.8985 -17.8958 -17.8902 -17.8882
   -17.8855 -17.8441 -17.8428 -17.8354 -17.8187 -17.8112 -17.8109 -17.7684
   -17.7632 -17.7628 -17.7536 -17.7520 -17.7502 -17.7345 -17.7334 -17.7321
     4.2857   5.3712   5.5789   6.0197   6.4291   6.7421   7.9516   9.3927
    10.6031  10.7261  10.8224  10.9729  10.9740  11.1773  11.2033  11.2879
    11.3133  11.4904  11.5415  11.5721  11.5991  11.6278  11.6316  11.6849
    11.7528  11.7959  11.8772  11.9283  12.0039  12.0069  12.0892  12.1141
    12.1235  12.1339  12.1775  12.2121  12.2693  12.3273  12.3587  12.3666
    12.4179  12.4816  12.4825  12.5051  12.5444  12.6429  12.6955  12.7550
    12.7843  12.7931  12.8430  12.8703  12.9351  12.9557  13.0612  13.1034
    13.1710  13.1767  13.2569  13.3274  13.3316  13.3449  13.3726  13.4451
    13.4569  13.5318  13.5740  13.5868  13.6003  13.6605  13.6803  13.6804
    13.7651  13.7902  13.7933  13.8326  13.8427  13.8836  13.8959  13.9177
    13.9602  14.0514  14.1569  14.2551  14.2877  14.3173  14.5489  14.6345
    14.6743  14.6771  14.7787  14.8410  14.9804  15.1124  15.1468  15.2338
    15.4005  15.5995  15.6175  16.0110  16.0843  16.0935  16.1079  16.1198
    16.1380  16.1492  16.1760  16.2340  16.2917  16.3519  16.3806  16.3960
    16.4284  16.5015  16.5470  16.5947  16.6403  17.0771  17.1142  17.2435

          k = 0.0000 0.1924 0.3848 ( 48550 PWs)   bands (ev):

   -72.9000 -72.8926 -72.8834 -72.8807 -72.8716 -72.8684 -72.8595 -72.8527
   -72.8475 -72.8473 -72.8459 -72.8459 -72.8459 -72.8030 -72.8028 -72.8028
   -41.6589 -41.6150 -41.6100 -41.6067 -41.6044 -41.5882 -41.5840 -41.5791
   -39.3307 -39.2900 -39.2361 -39.2191 -39.1582 -39.1322 -39.0927 -39.0547
   -39.0269 -39.0235 -39.0067 -39.0044 -38.9952 -38.9866 -38.9839 -38.9805
   -38.9102 -38.9083 -38.9029 -38.9007 -38.8957 -38.8938 -38.8894 -38.8856
   -38.8764 -38.8659 -38.8581 -38.8529 -38.8482 -38.8420 -38.8408 -38.8373
   -38.8279 -38.8245 -38.8219 -38.8162 -38.8091 -38.8068 -38.7978 -38.7909
   -38.7830 -38.7801 -38.7554 -38.7528 -38.7510 -38.7477 -38.7469 -38.7463
   -17.9238 -17.9206 -17.9202 -17.9016 -17.8988 -17.8952 -17.8913 -17.8893
   -17.8810 -17.8556 -17.8444 -17.8407 -17.8133 -17.8095 -17.7990 -17.7728
   -17.7616 -17.7613 -17.7545 -17.7514 -17.7478 -17.7374 -17.7355 -17.7324
     4.5069   4.9781   5.5372   5.9648   6.5398   7.0911   7.8470   9.6688
    10.1210  10.6992  10.9141  11.1016  11.1078  11.1462  11.2473  11.2784
    11.2909  11.3239  11.3265  11.3811  11.4463  11.5240  11.6218  11.6724
    11.7090  11.7886  11.7932  11.8598  12.0777  12.0958  12.1284  12.1714
    12.1747  12.1902  12.2038  12.2159  12.2344  12.2757  12.3001  12.3382
    12.3537  12.3667  12.3846  12.5604  12.5750  12.6110  12.7199  12.7673
    12.7894  12.7951  12.8795  12.9735  13.1020  13.1567  13.1744  13.2162
    13.2367  13.2680  13.2822  13.2926  13.3177  13.3608  13.4129  13.4528
    13.4652  13.4869  13.5258  13.5368  13.5511  13.5806  13.6029  13.6550
    13.6791  13.7029  13.7427  13.7696  13.8570  13.8934  14.0212  14.0516
    14.1088  14.1759  14.2094  14.3609  14.3861  14.4887  14.5048  14.5768
    14.5905  14.6264  14.6736  14.7765  15.0774  15.1140  15.1852  15.2591
    15.6653  15.8113  15.8344  15.9514  15.9736  15.9907  16.0408  16.0523
    16.0703  16.0798  16.1086  16.1235  16.1453  16.1995  16.2168  16.2640
    16.3128  16.3879  16.6273  16.8149  16.8654  17.0284  17.0672  17.1289

          k = 0.0000 0.3848 0.3848 ( 48478 PWs)   bands (ev):

   -72.8966 -72.8915 -72.8895 -72.8846 -72.8686 -72.8628 -72.8594 -72.8555
   -72.8479 -72.8473 -72.8459 -72.8459 -72.8459 -72.8029 -72.8029 -72.8029
   -41.6589 -41.6134 -41.6111 -41.6094 -41.6033 -41.5854 -41.5838 -41.5810
   -39.3089 -39.2764 -39.2742 -39.2512 -39.1400 -39.0978 -39.0860 -39.0621
   -39.0241 -39.0168 -39.0143 -39.0076 -39.0033 -38.9932 -38.9879 -38.9871
   -38.9067 -38.9052 -38.9003 -38.8978 -38.8962 -38.8946 -38.8940 -38.8814
   -38.8775 -38.8701 -38.8587 -38.8582 -38.8444 -38.8403 -38.8349 -38.8329
   -38.8282 -38.8265 -38.8233 -38.8122 -38.8089 -38.8064 -38.7983 -38.7963
   -38.7834 -38.7784 -38.7562 -38.7528 -38.7524 -38.7491 -38.7468 -38.7450
   -17.9230 -17.9191 -17.9189 -17.9040 -17.8991 -17.8925 -17.8923 -17.8869
   -17.8781 -17.8578 -17.8577 -17.8510 -17.8041 -17.7969 -17.7957 -17.7777
   -17.7591 -17.7587 -17.7559 -17.7547 -17.7435 -17.7415 -17.7361 -17.7349
     4.7082   4.9972   5.1632   5.8219   6.9798   7.2417   7.6006   9.9315
    10.2984  10.4356  10.7101  10.8298  11.1729  11.2068  11.2338  11.2459
    11.2656  11.2994  11.3098  11.3158  11.3907  11.4517  11.4610  11.6131
    11.6786  11.7012  11.7219  11.7760  12.1159  12.1561  12.1699  12.1963
    12.2201  12.2395  12.2659  12.2853  12.3037  12.3463  12.3713  12.4418
    12.4495  12.4936  12.5204  12.5378  12.5477  12.5944  12.6070  12.6895
    12.6906  12.7369  12.8687  12.9219  12.9816  13.0132  13.0920  13.1309
    13.1689  13.2041  13.2786  13.2941  13.3354  13.3614  13.3718  13.4178
    13.4750  13.5202  13.5683  13.6345  13.6684  13.6989  13.7136  13.7139
    13.7528  13.7994  13.8223  13.8480  13.8843  13.9065  13.9686  14.0868
    14.1053  14.1368  14.2354  14.3102  14.3946  14.4091  14.4728  14.4987
    14.5417  14.6519  14.6692  14.7400  15.3876  15.4236  15.5284  15.5959
    15.7140  15.8957  15.9225  15.9342  15.9530  15.9585  15.9662  15.9918
    15.9957  16.0038  16.0179  16.0364  16.0632  16.1416  16.1555  16.1618
    16.3005  16.4312  16.4461  16.7166  16.8674  16.9586  17.1109  17.1973

          k = 0.1924 0.1924 0.1924 ( 48503 PWs)   bands (ev):

   -72.9025 -72.8856 -72.8856 -72.8825 -72.8706 -72.8659 -72.8659 -72.8504
   -72.8474 -72.8474 -72.8459 -72.8459 -72.8459 -72.8029 -72.8028 -72.8028
   -41.6589 -41.6155 -41.6079 -41.6079 -41.6042 -41.5871 -41.5871 -41.5777
   -39.3487 -39.2502 -39.2368 -39.2368 -39.1533 -39.1207 -39.1207 -39.0449
   -39.0333 -39.0333 -38.9985 -38.9948 -38.9948 -38.9831 -38.9818 -38.9818
   -38.9082 -38.9082 -38.9073 -38.8955 -38.8955 -38.8932 -38.8889 -38.8889
   -38.8670 -38.8670 -38.8628 -38.8542 -38.8542 -38.8493 -38.8428 -38.8428
   -38.8345 -38.8201 -38.8201 -38.8155 -38.8065 -38.8064 -38.8064 -38.7851
   -38.7851 -38.7757 -38.7556 -38.7509 -38.7509 -38.7455 -38.7455 -38.7445
   -17.9231 -17.9212 -17.9212 -17.8999 -17.8999 -17.8938 -17.8892 -17.8892
   -17.8860 -17.8467 -17.8467 -17.8443 -17.8088 -17.8088 -17.8080 -17.7683
   -17.7628 -17.7628 -17.7528 -17.7528 -17.7501 -17.7356 -17.7336 -17.7336
     4.3628   5.3752   5.3752   5.9208   6.7413   6.7413   7.9016   9.4848
    10.5965  10.7936  10.7936  10.8541  11.0167  11.0167  11.2730  11.2951
    11.2951  11.4021  11.5341  11.5341  11.5808  11.6152  11.6152  11.6498
    11.6498  11.6616  11.7041  11.8603  12.0307  12.0307  12.1573  12.1573
    12.1591  12.2211  12.2211  12.2805  12.2805  12.3238  12.3457  12.4330
    12.4418  12.4418  12.5098  12.5098  12.6044  12.6719  12.6719  12.6886
    12.6886  12.7609  12.9041  12.9041  12.9794  12.9794  13.0252  13.0615
    13.1378  13.1446  13.1446  13.3775  13.3920  13.3920  13.4392  13.4392
    13.4822  13.4822  13.5273  13.5525  13.5719  13.5719  13.7283  13.7283
    13.7803  13.8367  13.8737  13.8737  13.9054  13.9054  13.9100  13.9501
    13.9501  14.0041  14.2794  14.2794  14.3662  14.3820  14.3820  14.5477
    14.6428  14.6976  14.6976  15.0768  15.0768  15.2181  15.2850  15.2850
    15.3365  15.6685  15.6685  15.9485  15.9485  15.9895  16.0926  16.0926
    16.1009  16.1382  16.1382  16.2757  16.2757  16.3759  16.3781  16.4038
    16.4038  16.4403  16.4684  16.5429  16.5429  17.1844  17.1845  17.2197

          k = 0.1924 0.1924 0.3848 ( 48490 PWs)   bands (ev):

   -72.8989 -72.8921 -72.8856 -72.8830 -72.8701 -72.8659 -72.8597 -72.8535
   -72.8476 -72.8474 -72.8459 -72.8459 -72.8459 -72.8030 -72.8029 -72.8028
   -41.6589 -41.6145 -41.6103 -41.6079 -41.6038 -41.5870 -41.5840 -41.5797
   -39.3242 -39.2867 -39.2470 -39.2380 -39.1467 -39.1159 -39.0893 -39.0538
   -39.0250 -39.0247 -39.0086 -39.0063 -38.9996 -38.9888 -38.9866 -38.9839
   -38.9077 -38.9071 -38.9020 -38.8983 -38.8965 -38.8906 -38.8889 -38.8869
   -38.8745 -38.8672 -38.8598 -38.8571 -38.8507 -38.8433 -38.8374 -38.8354
   -38.8322 -38.8226 -38.8215 -38.8176 -38.8141 -38.8029 -38.7967 -38.7897
   -38.7880 -38.7761 -38.7559 -38.7516 -38.7512 -38.7475 -38.7467 -38.7449
   -17.9228 -17.9201 -17.9193 -17.9009 -17.8999 -17.8929 -17.8904 -17.8897
   -17.8820 -17.8580 -17.8505 -17.8487 -17.8053 -17.8042 -17.7968 -17.7720
   -17.7626 -17.7600 -17.7551 -17.7504 -17.7489 -17.7383 -17.7367 -17.7337
     4.5718   4.9982   5.3816   5.8915   6.7400   7.1346   7.7657   9.7577
    10.2009  10.7010  10.9539  10.9752  11.1239  11.1452  11.2104  11.2465
    11.2500  11.2758  11.3379  11.3490  11.3851  11.4463  11.5811  11.6125
    11.6579  11.6767  11.6850  11.7753  12.1143  12.1220  12.1888  12.2032
    12.2141  12.2343  12.2421  12.2785  12.2877  12.2959  12.3344  12.3641
    12.4020  12.4272  12.4726  12.5753  12.6248  12.6461  12.6497  12.6997
    12.7370  12.8137  12.9112  12.9223  12.9672  13.0237  13.1099  13.1406
    13.1907  13.1943  13.2324  13.2655  13.2804  13.3054  13.3525  13.3953
    13.4602  13.4654  13.5680  13.6074  13.6185  13.6450  13.7100  13.7302
    13.7811  13.7848  13.8258  13.8378  13.8656  13.9000  13.9524  14.0058
    14.0653  14.0965  14.2119  14.3195  14.4336  14.4706  14.5851  14.6314
    14.6731  14.6838  14.7372  15.0111  15.2200  15.2751  15.3070  15.3433
    15.6589  15.7614  15.8529  15.8536  15.9268  15.9511  15.9743  15.9819
    16.0077  16.0648  16.0899  16.1466  16.1707  16.1832  16.2169  16.2922
    16.3216  16.3757  16.6283  16.6693  16.6875  16.9695  17.0315  17.0318

          k = 0.1924 0.3848 0.3848 ( 48499 PWs)   bands (ev):

   -72.8959 -72.8915 -72.8899 -72.8854 -72.8685 -72.8618 -72.8594 -72.8559
   -72.8479 -72.8475 -72.8459 -72.8459 -72.8459 -72.8029 -72.8029 -72.8029
   -41.6589 -41.6132 -41.6111 -41.6099 -41.6031 -41.5849 -41.5837 -41.5814
   -39.3053 -39.2778 -39.2754 -39.2600 -39.1341 -39.0893 -39.0806 -39.0589
   -39.0236 -39.0192 -39.0156 -39.0105 -39.0069 -38.9936 -38.9902 -38.9897
   -38.9046 -38.9038 -38.8992 -38.8951 -38.8944 -38.8933 -38.8910 -38.8812
   -38.8756 -38.8699 -38.8614 -38.8602 -38.8504 -38.8448 -38.8391 -38.8360
   -38.8311 -38.8284 -38.8210 -38.8195 -38.8120 -38.8040 -38.7944 -38.7930
   -38.7866 -38.7738 -38.7548 -38.7511 -38.7495 -38.7468 -38.7464 -38.7449
   -17.9213 -17.9183 -17.9183 -17.9021 -17.8992 -17.8910 -17.8908 -17.8870
   -17.8808 -17.8619 -17.8618 -17.8576 -17.7981 -17.7936 -17.7927 -17.7746
   -17.7600 -17.7593 -17.7548 -17.7540 -17.7458 -17.7417 -17.7377 -17.7367
     4.7500   5.0022   5.1220   5.8018   7.0533   7.2340   7.5509  10.0101
    10.3630  10.5274  10.7531  10.9003  11.1538  11.1781  11.1900  11.2158
    11.2288  11.2465  11.2864  11.3171  11.3593  11.4008  11.4451  11.5253
    11.5547  11.5676  11.6120  11.7016  12.1441  12.1916  12.1924  12.2279
    12.2421  12.2945  12.2986  12.3409  12.3763  12.3766  12.3924  12.4487
    12.4813  12.5156  12.5319  12.5915  12.6018  12.6181  12.6632  12.7124
    12.7217  12.7457  12.7756  12.8383  12.8894  12.9172  12.9728  13.0301
    13.0611  13.1088  13.1788  13.2037  13.2074  13.2686  13.2719  13.3386
    13.5786  13.6273  13.6312  13.6847  13.6978  13.7062  13.7738  13.7791
    13.8194  13.8308  13.8559  13.8790  13.9029  13.9050  13.9507  13.9886
    14.0611  14.0907  14.1357  14.1938  14.5127  14.5630  14.6177  14.6913
    14.7594  14.8948  14.9136  15.0564  15.4859  15.5026  15.5897  15.6578
    15.6818  15.8110  15.8174  15.8347  15.8354  15.8736  15.8945  15.9134
    15.9261  16.0421  16.0506  16.0784  16.1326  16.1358  16.1806  16.1869
    16.2807  16.3920  16.3997  16.6060  16.7161  16.7695  16.8481  16.9036

          k = 0.3848 0.3848 0.3848 ( 48449 PWs)   bands (ev):

   -72.8940 -72.8915 -72.8915 -72.8864 -72.8684 -72.8594 -72.8594 -72.8572
   -72.8479 -72.8479 -72.8459 -72.8459 -72.8459 -72.8029 -72.8029 -72.8029
   -41.6589 -41.6124 -41.6112 -41.6112 -41.6029 -41.5837 -41.5837 -41.5823
   -39.2948 -39.2805 -39.2773 -39.2773 -39.1257 -39.0708 -39.0708 -39.0566
   -39.0222 -39.0222 -39.0191 -39.0152 -39.0152 -38.9947 -38.9942 -38.9942
   -38.9034 -38.8981 -38.8981 -38.8942 -38.8942 -38.8927 -38.8794 -38.8794
   -38.8687 -38.8668 -38.8668 -38.8639 -38.8548 -38.8548 -38.8428 -38.8428
   -38.8356 -38.8354 -38.8296 -38.8296 -38.8045 -38.8045 -38.7897 -38.7890
   -38.7890 -38.7696 -38.7497 -38.7476 -38.7476 -38.7451 -38.7451 -38.7444
   -17.9180 -17.9170 -17.9170 -17.8994 -17.8994 -17.8878 -17.8878 -17.8867
   -17.8831 -17.8693 -17.8693 -17.8688 -17.7888 -17.7881 -17.7881 -17.7715
   -17.7598 -17.7598 -17.7519 -17.7519 -17.7512 -17.7423 -17.7410 -17.7410
     4.8601   5.0104   5.0104   5.7753   7.2215   7.2215   7.4181  10.1980
    10.5101  10.7743  10.7743  10.9191  11.0865  11.1197  11.1197  11.1559
    11.1578  11.1578  11.2724  11.2810  11.2810  11.3847  11.3847  11.4200
    11.4265  11.4265  11.4301  11.5455  12.2202  12.2202  12.2700  12.2700
    12.2825  12.3433  12.3433  12.3472  12.4033  12.4865  12.4865  12.5530
    12.5530  12.5856  12.5856  12.5950  12.6316  12.6829  12.6829  12.6974
    12.7191  12.7191  12.7542  12.8091  12.8091  12.8182  12.8182  12.8641
    12.9296  12.9296  13.0641  13.0831  13.1010  13.1010  13.1634  13.1634
    13.6710  13.6710  13.7396  13.7415  13.7415  13.7529  13.8033  13.8033
    13.8593  13.8593  13.8735  13.8926  13.9384  13.9555  13.9555  14.0002
    14.0002  14.0405  14.0546  14.0546  14.8687  14.8965  14.8965  15.0079
    15.1150  15.1280  15.1280  15.3271  15.6390  15.6467  15.6467  15.6870
    15.6870  15.7226  15.7226  15.8029  15.8195  15.8195  15.8288  15.8819
    15.8819  16.0463  16.0463  16.0557  16.0793  16.0793  16.1255  16.1255
    16.1943  16.2832  16.3424  16.3424  16.5480  16.5534  16.5534  16.5953

 ------ SPIN DOWN ----------


          k = 0.0000 0.0000 0.0000 ( 48489 PWs)   bands (ev):

   -70.8395 -70.8074 -70.7832 -70.7832 -70.7832 -70.7806 -70.7806 -70.7530
   -70.7530 -70.7530 -70.7500 -70.7500 -70.7500 -70.7486 -70.7486 -70.7486
   -42.3980 -42.3831 -42.3831 -42.3678 -42.3678 -42.3678 -42.3643 -42.3462
   -37.4626 -37.3184 -37.2322 -37.2322 -37.2322 -37.2312 -37.2312 -37.0635
   -37.0635 -37.0635 -37.0146 -37.0146 -37.0146 -37.0126 -37.0126 -37.0126
   -36.8672 -36.8672 -36.8233 -36.8233 -36.8180 -36.8123 -36.8123 -36.8123
   -36.7968 -36.7968 -36.7968 -36.7813 -36.7813 -36.7813 -36.7669 -36.7669
   -36.7524 -36.7524 -36.7524 -36.7449 -36.7444 -36.7444 -36.7444 -36.7023
   -36.7023 -36.7023 -36.6997 -36.6997 -36.6997 -36.6799 -36.6799 -36.6799
   -18.6818 -18.6818 -18.6818 -18.6808 -18.6808 -18.6808 -18.6505 -18.6505
   -18.6505 -18.6001 -18.6001 -18.6001 -18.5954 -18.5954 -18.5855 -18.5371
   -18.5371 -18.5371 -18.5141 -18.5141 -18.5141 -18.5092 -18.5092 -18.5092
     4.4401   6.3329   6.3329   6.3913   6.3913   6.3913   8.2564   9.4393
    11.1454  11.4263  11.4263  11.4339  11.4339  11.4339  11.8857  11.8857
    11.8857  12.1788  12.4331  12.4331  12.4331  12.4522  12.4522  12.8234
    12.8816  12.8816  12.8816  12.9260  12.9260  12.9260  12.9980  12.9980
    12.9980  13.0755  13.0755  13.0755  13.1974  13.1974  13.1974  13.3733
    13.3733  13.5875  13.6493  13.6493  13.6493  13.6888  13.6888  13.7891
    13.7891  13.8125  13.8125  13.8125  13.8632  13.8632  13.8632  13.8985
    13.9507  13.9507  13.9507  13.9647  13.9647  14.2573  14.2573  14.2573
    14.3988  14.3988  14.3988  14.5807  14.5807  14.5807  15.0998  15.0998
    15.0998  15.3993  15.3993  15.3993  15.4711  15.4711  15.4711  15.5877
    15.5877  15.6446  15.6832  15.6832  15.6983  15.6983  15.6983  15.8172
    15.8205  15.8205  15.8205  15.8581  15.8581  16.0304  16.0304  16.0304
    16.4048  16.4048  16.4048  16.4717  16.4717  16.4717  16.5022  16.5022
    16.5022  16.9136  16.9136  16.9139  16.9437  16.9438  16.9466  16.9861
    17.0437  17.0437  17.0437  17.0719  17.0779  17.1556  17.1561  17.1562

          k = 0.0000 0.0000 0.1924 ( 48469 PWs)   bands (ev):

   -70.8391 -70.8073 -70.7901 -70.7832 -70.7832 -70.7806 -70.7726 -70.7532
   -70.7530 -70.7530 -70.7514 -70.7500 -70.7500 -70.7486 -70.7486 -70.7486
   -42.3970 -42.3852 -42.3831 -42.3684 -42.3678 -42.3678 -42.3616 -42.3471
   -37.4525 -37.3326 -37.2755 -37.2319 -37.2319 -37.2308 -37.1766 -37.0698
   -37.0598 -37.0598 -37.0202 -37.0202 -37.0158 -37.0133 -37.0132 -37.0132
   -36.8672 -36.8663 -36.8251 -36.8225 -36.8213 -36.8149 -36.8149 -36.8066
   -36.7961 -36.7931 -36.7931 -36.7869 -36.7783 -36.7783 -36.7712 -36.7592
   -36.7566 -36.7536 -36.7536 -36.7466 -36.7415 -36.7415 -36.7293 -36.7062
   -36.7045 -36.7045 -36.7018 -36.6990 -36.6990 -36.6834 -36.6822 -36.6822
   -18.6828 -18.6828 -18.6821 -18.6806 -18.6786 -18.6786 -18.6526 -18.6526
   -18.6482 -18.6136 -18.5998 -18.5998 -18.5952 -18.5893 -18.5774 -18.5402
   -18.5348 -18.5348 -18.5155 -18.5155 -18.5141 -18.5096 -18.5096 -18.5093
     4.5293   5.7867   6.3366   6.3950   6.3950   6.9151   8.2428   9.5137
    10.7466  11.2277  11.4380  11.4438  11.4438  11.7036  11.9322  11.9322
    12.0025  12.1145  12.3018  12.3211  12.3211  12.3354  12.6270  12.6270
    12.7138  12.8301  12.8699  12.8881  12.8888  12.8888  12.9192  13.0330
    13.0330  13.1437  13.1682  13.1682  13.2436  13.3834  13.3834  13.3890
    13.4078  13.5716  13.6116  13.6116  13.6157  13.6885  13.7352  13.7352
    13.7625  13.7799  13.8298  13.8635  13.8937  13.9133  13.9133  13.9287
    13.9559  13.9937  13.9937  14.0041  14.0361  14.1035  14.2115  14.2115
    14.4252  14.5089  14.5089  14.6099  14.6985  14.6985  15.1084  15.1084
    15.1095  15.2084  15.2532  15.2532  15.3216  15.4493  15.5346  15.5346
    15.5683  15.6622  15.6859  15.7613  15.8023  15.8023  15.8215  15.8272
    15.9286  15.9423  15.9423  15.9631  16.0208  16.0208  16.0425  16.1027
    16.3742  16.3742  16.3877  16.3877  16.4297  16.4438  16.4438  16.4627
    16.5429  16.7322  16.7812  16.8313  16.8429  16.8429  16.8551  16.9074
    16.9446  16.9447  16.9873  17.0203  17.0204  17.0388  17.1093  17.1980

          k = 0.0000 0.0000 0.3848 ( 48538 PWs)   bands (ev):

   -70.8384 -70.8070 -70.7951 -70.7832 -70.7832 -70.7806 -70.7641 -70.7565
   -70.7530 -70.7530 -70.7525 -70.7500 -70.7500 -70.7486 -70.7486 -70.7486
   -42.3946 -42.3892 -42.3831 -42.3688 -42.3678 -42.3678 -42.3577 -42.3491
   -37.4247 -37.3741 -37.2885 -37.2314 -37.2314 -37.2303 -37.1302 -37.0880
   -37.0501 -37.0501 -37.0320 -37.0320 -37.0176 -37.0148 -37.0148 -37.0143
   -36.8671 -36.8647 -36.8291 -36.8243 -36.8176 -36.8176 -36.8153 -36.8040
   -36.8000 -36.7889 -36.7889 -36.7884 -36.7724 -36.7722 -36.7722 -36.7667
   -36.7565 -36.7565 -36.7449 -36.7428 -36.7350 -36.7350 -36.7153 -36.7121
   -36.7109 -36.7109 -36.7049 -36.6949 -36.6949 -36.6933 -36.6879 -36.6879
   -18.6835 -18.6835 -18.6826 -18.6805 -18.6751 -18.6751 -18.6568 -18.6568
   -18.6416 -18.6278 -18.5994 -18.5994 -18.5948 -18.5881 -18.5622 -18.5490
   -18.5295 -18.5295 -18.5194 -18.5194 -18.5140 -18.5100 -18.5100 -18.5095
     4.7704   5.2879   6.3424   6.4011   6.4011   7.3062   8.1964   9.7515
    10.1881  11.2368  11.4606  11.4621  11.4621  11.5082  12.0529  12.0617
    12.0617  12.1247  12.1806  12.1842  12.1842  12.3264  12.3264  12.4868
    12.7299  12.7918  12.8184  12.8247  12.8247  12.8256  13.1322  13.1322
    13.1437  13.2510  13.2541  13.2541  13.3014  13.3323  13.3323  13.4038
    13.4993  13.5424  13.5505  13.5505  13.5824  13.6476  13.6776  13.7256
    13.8606  13.8606  13.8758  13.8902  13.9369  13.9425  13.9774  13.9774
    13.9896  14.0347  14.0817  14.0817  14.1225  14.2329  14.2329  14.2766
    14.3584  14.4964  14.4964  14.5369  14.8958  14.8958  15.0532  15.0532
    15.0580  15.1318  15.1318  15.1542  15.1803  15.2672  15.5672  15.6158
    15.7011  15.7727  15.7727  15.8150  15.9755  15.9755  15.9934  15.9998
    15.9998  16.0134  16.0420  16.1205  16.1205  16.1575  16.2023  16.2196
    16.2196  16.2608  16.2608  16.2908  16.3436  16.3436  16.3483  16.3630
    16.5191  16.5873  16.6456  16.6669  16.6669  16.7301  16.8779  16.9283
    16.9554  16.9557  16.9558  16.9906  16.9907  17.0083  17.0925  17.1243

          k = 0.0000 0.1924 0.1924 ( 48486 PWs)   bands (ev):

   -70.8388 -70.8069 -70.7922 -70.7879 -70.7825 -70.7749 -70.7714 -70.7540
   -70.7530 -70.7529 -70.7520 -70.7502 -70.7500 -70.7486 -70.7486 -70.7486
   -42.3962 -42.3858 -42.3843 -42.3707 -42.3673 -42.3651 -42.3608 -42.3479
   -37.4431 -37.3383 -37.2956 -37.2655 -37.2240 -37.1869 -37.1694 -37.0726
   -37.0594 -37.0563 -37.0234 -37.0217 -37.0200 -37.0177 -37.0141 -37.0129
   -36.8667 -36.8656 -36.8255 -36.8231 -36.8208 -36.8150 -36.8111 -36.8086
   -36.8054 -36.7916 -36.7892 -36.7827 -36.7779 -36.7769 -36.7659 -36.7614
   -36.7612 -36.7539 -36.7525 -36.7484 -36.7378 -36.7328 -36.7256 -36.7156
   -36.7046 -36.7028 -36.7003 -36.7003 -36.6981 -36.6892 -36.6847 -36.6816
   -18.6847 -18.6821 -18.6804 -18.6800 -18.6777 -18.6772 -18.6547 -18.6522
   -18.6485 -18.6145 -18.6133 -18.6058 -18.5861 -18.5792 -18.5751 -18.5403
   -18.5353 -18.5325 -18.5170 -18.5160 -18.5149 -18.5106 -18.5105 -18.5087
     4.6146   5.7218   5.9276   6.3605   6.7580   7.0616   8.2062   9.5889
    10.7185  10.8691  11.2907  11.3946  11.6594  11.8663  11.9555  11.9653
    12.0247  12.0864  12.1782  12.2260  12.3481  12.3547  12.3989  12.5659
    12.6116  12.6282  12.7925  12.8399  12.9655  12.9874  13.0621  13.1081
    13.1096  13.1973  13.2062  13.2695  13.3483  13.3772  13.4157  13.4231
    13.4294  13.5326  13.5695  13.5720  13.6623  13.7421  13.7590  13.7622
    13.8017  13.8086  13.8094  13.8433  13.8439  13.8754  13.9065  13.9394
    13.9627  13.9896  14.0001  14.0320  14.0352  14.0445  14.1162  14.2069
    14.5523  14.5914  14.6593  14.7339  14.7382  14.7720  15.1015  15.1291
    15.1329  15.1382  15.1714  15.2178  15.3104  15.3910  15.3962  15.5933
    15.6505  15.6613  15.6919  15.7031  15.7641  15.8592  15.8815  15.9595
    15.9853  15.9877  16.0087  16.0290  16.0562  16.0913  16.1132  16.1730
    16.2723  16.2948  16.3651  16.3861  16.3871  16.4088  16.4133  16.4640
    16.5261  16.6884  16.6931  16.7311  16.7852  16.8500  16.8670  16.8859
    16.8967  16.9368  16.9383  16.9821  17.0095  17.0190  17.0661  17.1623

          k = 0.0000 0.1924 0.3848 ( 48550 PWs)   bands (ev):

   -70.8383 -70.8059 -70.7965 -70.7895 -70.7814 -70.7741 -70.7646 -70.7576
   -70.7530 -70.7528 -70.7525 -70.7503 -70.7500 -70.7486 -70.7486 -70.7486
   -42.3938 -42.3890 -42.3847 -42.3719 -42.3664 -42.3643 -42.3582 -42.3496
   -37.4177 -37.3689 -37.3095 -37.2783 -37.2138 -37.1813 -37.1301 -37.0894
   -37.0512 -37.0476 -37.0338 -37.0316 -37.0229 -37.0210 -37.0155 -37.0141
   -36.8664 -36.8640 -36.8272 -36.8230 -36.8183 -36.8165 -36.8128 -36.8071
   -36.8009 -36.7981 -36.7921 -36.7816 -36.7776 -36.7704 -36.7654 -36.7613
   -36.7550 -36.7531 -36.7508 -36.7440 -36.7343 -36.7317 -36.7249 -36.7136
   -36.7112 -36.7035 -36.7002 -36.6981 -36.6977 -36.6933 -36.6906 -36.6859
   -18.6857 -18.6823 -18.6800 -18.6787 -18.6751 -18.6740 -18.6581 -18.6561
   -18.6425 -18.6285 -18.6142 -18.6113 -18.5801 -18.5758 -18.5612 -18.5481
   -18.5308 -18.5276 -18.5211 -18.5191 -18.5157 -18.5122 -18.5106 -18.5086
     4.8461   5.3226   5.8920   6.3054   6.8654   7.3920   8.1074   9.8231
    10.2465  10.9213  11.1356  11.3220  11.7251  11.8435  11.9635  12.0365
    12.0794  12.1194  12.1222  12.1978  12.2380  12.2609  12.3246  12.3977
    12.5041  12.5318  12.6014  12.8361  13.0990  13.1187  13.1619  13.2206
    13.2416  13.2731  13.2877  13.3141  13.3516  13.3582  13.4314  13.4365
    13.4712  13.4993  13.5102  13.5789  13.6338  13.6754  13.7118  13.7448
    13.8040  13.8100  13.8178  13.8496  13.8686  13.9071  13.9652  13.9875
    13.9896  14.0083  14.0385  14.0549  14.0775  14.1051  14.1441  14.2074
    14.6220  14.6660  14.7169  14.7492  14.9239  14.9495  15.0380  15.0540
    15.0832  15.1350  15.1573  15.1710  15.2439  15.2665  15.5244  15.5809
    15.5993  15.6731  15.7913  15.8705  15.8885  15.9377  15.9835  16.0030
    16.0328  16.0526  16.0653  16.1292  16.1396  16.1677  16.1943  16.2204
    16.2359  16.2463  16.2676  16.2767  16.2987  16.3517  16.4065  16.4196
    16.4472  16.5697  16.6261  16.6533  16.6890  16.7451  16.7790  16.8188
    16.8525  16.8822  16.8901  16.9054  16.9470  16.9874  17.0380  17.1492

          k = 0.0000 0.3848 0.3848 ( 48478 PWs)   bands (ev):

   -70.8380 -70.8031 -70.7985 -70.7955 -70.7789 -70.7682 -70.7649 -70.7607
   -70.7530 -70.7526 -70.7525 -70.7507 -70.7501 -70.7486 -70.7486 -70.7486
   -42.3918 -42.3890 -42.3875 -42.3742 -42.3636 -42.3617 -42.3595 -42.3506
   -37.4007 -37.3584 -37.3368 -37.3154 -37.1930 -37.1427 -37.1268 -37.1009
   -37.0495 -37.0412 -37.0384 -37.0322 -37.0316 -37.0278 -37.0184 -37.0171
   -36.8656 -36.8624 -36.8233 -36.8187 -36.8172 -36.8153 -36.8142 -36.8081
   -36.8071 -36.7986 -36.7984 -36.7894 -36.7699 -36.7671 -36.7632 -36.7583
   -36.7534 -36.7487 -36.7483 -36.7466 -36.7385 -36.7294 -36.7204 -36.7182
   -36.7116 -36.7090 -36.7055 -36.6971 -36.6930 -36.6921 -36.6912 -36.6864
   -18.6860 -18.6796 -18.6792 -18.6782 -18.6737 -18.6715 -18.6590 -18.6566
   -18.6404 -18.6294 -18.6278 -18.6233 -18.5673 -18.5610 -18.5607 -18.5503
   -18.5317 -18.5247 -18.5235 -18.5201 -18.5186 -18.5128 -18.5123 -18.5095
     5.0553   5.3500   5.5187   6.1570   7.2850   7.5327   7.8739  10.0334
    10.3666  10.5213  10.7646  11.3303  11.9168  11.9662  12.0128  12.0735
    12.0743  12.0850  12.0950  12.1341  12.1370  12.1860  12.2295  12.3173
    12.3733  12.3809  12.4188  12.8578  13.2081  13.2884  13.3011  13.3257
    13.3375  13.3790  13.3810  13.4173  13.4370  13.4495  13.4777  13.5003
    13.5153  13.5162  13.5217  13.5652  13.5902  13.6277  13.6615  13.6999
    13.7063  13.7103  13.7306  13.7795  13.7933  13.8020  13.8408  13.8825
    13.9982  14.0339  14.0513  14.1205  14.1360  14.1481  14.2134  14.2159
    14.8874  14.9033  14.9264  14.9584  14.9644  14.9858  15.0225  15.0655
    15.0885  15.1855  15.2044  15.2438  15.2850  15.3708  15.3845  15.4526
    15.5285  15.5500  15.6839  15.8155  15.8613  15.9401  15.9623  16.0389
    16.0861  16.1127  16.1138  16.1225  16.1415  16.1644  16.1822  16.1938
    16.2225  16.2622  16.2971  16.3011  16.3344  16.3515  16.3529  16.3879
    16.4153  16.4465  16.5661  16.5980  16.6742  16.6920  16.7051  16.7843
    16.8407  16.8597  16.8755  16.8872  16.9035  16.9133  17.0129  17.0751

          k = 0.1924 0.1924 0.1924 ( 48503 PWs)   bands (ev):

   -70.8386 -70.8064 -70.7922 -70.7922 -70.7810 -70.7714 -70.7714 -70.7550
   -70.7529 -70.7529 -70.7522 -70.7502 -70.7502 -70.7486 -70.7486 -70.7486
   -42.3954 -42.3858 -42.3858 -42.3721 -42.3650 -42.3650 -42.3603 -42.3485
   -37.4345 -37.3429 -37.2963 -37.2963 -37.2087 -37.1671 -37.1671 -37.0747
   -37.0564 -37.0564 -37.0249 -37.0249 -37.0236 -37.0185 -37.0158 -37.0158
   -36.8655 -36.8655 -36.8253 -36.8204 -36.8204 -36.8144 -36.8144 -36.8114
   -36.7976 -36.7976 -36.7913 -36.7791 -36.7777 -36.7777 -36.7632 -36.7632
   -36.7602 -36.7526 -36.7526 -36.7516 -36.7302 -36.7302 -36.7225 -36.7169
   -36.7108 -36.7108 -36.6965 -36.6965 -36.6955 -36.6910 -36.6910 -36.6799
   -18.6838 -18.6838 -18.6794 -18.6777 -18.6768 -18.6768 -18.6537 -18.6537
   -18.6499 -18.6172 -18.6172 -18.6145 -18.5763 -18.5763 -18.5713 -18.5396
   -18.5335 -18.5335 -18.5180 -18.5165 -18.5165 -18.5110 -18.5110 -18.5094
     4.6955   5.7289   5.7289   6.2590   7.0576   7.0576   8.1565   9.6641
    10.6936  10.9041  10.9041  11.4582  11.8565  11.8565  11.9078  11.9352
    11.9352  12.1467  12.1467  12.1607  12.3370  12.3492  12.3492  12.4791
    12.4791  12.5007  12.6831  12.8265  13.0985  13.1151  13.1151  13.1409
    13.1409  13.2945  13.2945  13.3308  13.3816  13.4085  13.4085  13.4446
    13.4446  13.5744  13.6119  13.6119  13.6413  13.7183  13.7183  13.7823
    13.7823  13.7856  13.7934  13.7934  13.8374  13.8788  13.9136  13.9136
    13.9332  13.9370  13.9370  14.0074  14.0074  14.0949  14.1765  14.1765
    14.7170  14.7189  14.7189  14.8242  14.8242  14.8287  15.1247  15.1247
    15.1376  15.1949  15.1949  15.2125  15.3084  15.3100  15.3100  15.6178
    15.6178  15.6762  15.6762  15.7155  15.8053  15.8053  15.8554  16.0096
    16.0306  16.0588  16.0588  16.0840  16.0840  16.1588  16.1978  16.1978
    16.2563  16.2696  16.2696  16.3313  16.3313  16.3653  16.3653  16.3820
    16.6465  16.6465  16.6855  16.6890  16.7373  16.7551  16.7551  16.8463
    16.8463  16.9588  16.9629  16.9757  16.9758  17.0216  17.0239  17.0635

          k = 0.1924 0.1924 0.3848 ( 48490 PWs)   bands (ev):

   -70.8381 -70.8050 -70.7972 -70.7922 -70.7804 -70.7714 -70.7650 -70.7585
   -70.7529 -70.7528 -70.7525 -70.7504 -70.7502 -70.7486 -70.7486 -70.7486
   -42.3932 -42.3889 -42.3858 -42.3731 -42.3650 -42.3633 -42.3587 -42.3500
   -37.4120 -37.3654 -37.3198 -37.2975 -37.2024 -37.1631 -37.1283 -37.0899
   -37.0493 -37.0487 -37.0340 -37.0337 -37.0264 -37.0232 -37.0182 -37.0169
   -36.8653 -36.8636 -36.8253 -36.8204 -36.8199 -36.8148 -36.8112 -36.8102
   -36.7995 -36.7992 -36.7911 -36.7862 -36.7793 -36.7737 -36.7641 -36.7595
   -36.7535 -36.7532 -36.7498 -36.7470 -36.7315 -36.7312 -36.7237 -36.7160
   -36.7127 -36.7065 -36.7022 -36.6982 -36.6942 -36.6939 -36.6892 -36.6826
   -18.6850 -18.6819 -18.6791 -18.6764 -18.6740 -18.6740 -18.6577 -18.6565
   -18.6446 -18.6303 -18.6211 -18.6187 -18.5722 -18.5689 -18.5590 -18.5463
   -18.5295 -18.5292 -18.5212 -18.5205 -18.5169 -18.5130 -18.5117 -18.5095
     4.9144   5.3474   5.7406   6.2326   7.0511   7.4278   8.0253   9.8899
    10.3079  10.8551  10.9746  11.3346  11.7062  11.7720  11.9566  12.0406
    12.0647  12.1224  12.1430  12.1837  12.2283  12.2414  12.2737  12.3457
    12.4001  12.4098  12.4894  12.8206  13.2198  13.2240  13.2402  13.2820
    13.2914  13.3248  13.3429  13.3656  13.3742  13.4190  13.4604  13.4639
    13.5162  13.5188  13.5527  13.6062  13.6108  13.6732  13.6905  13.7265
    13.7470  13.7932  13.7960  13.8123  13.8415  13.8515  13.8909  13.9212
    13.9592  13.9851  14.0050  14.0287  14.0619  14.1293  14.1545  14.1957
    14.7809  14.8227  14.8278  14.9097  14.9686  15.0150  15.0739  15.1081
    15.1294  15.1505  15.1562  15.2651  15.2914  15.3116  15.4593  15.5554
    15.6113  15.6664  15.6960  15.7927  15.8200  15.8619  15.9173  15.9672
    16.0516  16.0771  16.1222  16.1308  16.1581  16.1972  16.2032  16.2091
    16.2223  16.2431  16.2625  16.2708  16.3411  16.3528  16.3791  16.3910
    16.4680  16.4793  16.5162  16.5795  16.6420  16.6661  16.7035  16.7647
    16.7835  16.8365  16.9377  16.9477  16.9859  17.0464  17.0472  17.0839

          k = 0.1924 0.3848 0.3848 ( 48499 PWs)   bands (ev):

   -70.8380 -70.8026 -70.7985 -70.7964 -70.7790 -70.7672 -70.7649 -70.7612
   -70.7529 -70.7526 -70.7525 -70.7507 -70.7503 -70.7486 -70.7486 -70.7486
   -42.3915 -42.3891 -42.3880 -42.3744 -42.3630 -42.3617 -42.3597 -42.3507
   -37.3990 -37.3577 -37.3379 -37.3236 -37.1889 -37.1335 -37.1221 -37.0986
   -37.0487 -37.0432 -37.0386 -37.0343 -37.0339 -37.0284 -37.0221 -37.0213
   -36.8642 -36.8622 -36.8219 -36.8184 -36.8170 -36.8144 -36.8134 -36.8073
   -36.8036 -36.7978 -36.7969 -36.7890 -36.7761 -36.7729 -36.7667 -36.7624
   -36.7567 -36.7502 -36.7491 -36.7485 -36.7304 -36.7263 -36.7204 -36.7169
   -36.7143 -36.7107 -36.7094 -36.7032 -36.6887 -36.6872 -36.6871 -36.6824
   -18.6841 -18.6800 -18.6767 -18.6757 -18.6724 -18.6713 -18.6587 -18.6571
   -18.6448 -18.6332 -18.6321 -18.6289 -18.5612 -18.5567 -18.5562 -18.5468
   -18.5314 -18.5258 -18.5246 -18.5212 -18.5197 -18.5141 -18.5136 -18.5112
     5.1009   5.3592   5.4817   6.1415   7.3421   7.5136   7.8145  10.0667
    10.4213  10.6008  10.7891  11.3306  11.7098  11.8510  11.9103  11.9884
    12.0357  12.1096  12.1218  12.1483  12.1590  12.1752  12.2010  12.2597
    12.3103  12.3128  12.3502  12.8070  13.3029  13.3534  13.3704  13.3783
    13.3928  13.4037  13.4387  13.4497  13.4746  13.4748  13.5142  13.5176
    13.5295  13.5419  13.5650  13.5738  13.6185  13.6318  13.6655  13.6668
    13.6883  13.7059  13.7385  13.7499  13.7633  13.7885  13.8306  13.8709
    13.9651  13.9963  14.0140  14.0515  14.0963  14.1432  14.1867  14.1964
    14.9764  14.9998  15.0370  15.0535  15.0579  15.0995  15.1206  15.1733
    15.1945  15.2413  15.3150  15.3298  15.3699  15.4227  15.4366  15.4947
    15.5123  15.5573  15.6656  15.7043  15.7468  15.7964  15.9132  15.9495
    15.9718  15.9914  16.0610  16.0724  16.1215  16.1683  16.1754  16.1823
    16.2113  16.2339  16.2721  16.2767  16.2971  16.3009  16.3302  16.3555
    16.4307  16.4323  16.4875  16.5392  16.6263  16.7380  16.7408  16.7781
    16.7917  16.8732  16.8746  16.9242  16.9645  17.0428  17.0583  17.1452

          k = 0.3848 0.3848 0.3848 ( 48449 PWs)   bands (ev):

   -70.8379 -70.8010 -70.7985 -70.7985 -70.7792 -70.7649 -70.7649 -70.7626
   -70.7526 -70.7526 -70.7525 -70.7507 -70.7507 -70.7486 -70.7486 -70.7486
   -42.3905 -42.3891 -42.3891 -42.3748 -42.3617 -42.3617 -42.3604 -42.3509
   -37.3961 -37.3533 -37.3396 -37.3396 -37.1830 -37.1135 -37.1135 -37.0985
   -37.0469 -37.0469 -37.0388 -37.0388 -37.0374 -37.0297 -37.0287 -37.0287
   -36.8618 -36.8618 -36.8194 -36.8194 -36.8188 -36.8133 -36.8057 -36.8057
   -36.7999 -36.7939 -36.7913 -36.7913 -36.7798 -36.7798 -36.7728 -36.7728
   -36.7665 -36.7525 -36.7506 -36.7506 -36.7213 -36.7213 -36.7209 -36.7170
   -36.7170 -36.7120 -36.7098 -36.7098 -36.6826 -36.6826 -36.6823 -36.6798
   -18.6800 -18.6800 -18.6717 -18.6717 -18.6706 -18.6693 -18.6583 -18.6583
   -18.6524 -18.6391 -18.6391 -18.6386 -18.5495 -18.5495 -18.5488 -18.5420
   -18.5303 -18.5303 -18.5249 -18.5235 -18.5235 -18.5159 -18.5159 -18.5145
     5.2192   5.3742   5.3742   6.1213   7.4829   7.4829   7.6699  10.1137
    10.5724  10.7663  10.7663  11.3091  11.5853  11.5853  11.7251  12.0253
    12.0305  12.0305  12.0936  12.0936  12.1193  12.1193  12.1267  12.2218
    12.2504  12.2504  12.2733  12.7352  13.4250  13.4251  13.4251  13.4685
    13.4685  13.4815  13.4916  13.4916  13.5350  13.5350  13.5436  13.5487
    13.5644  13.5644  13.5815  13.5977  13.5977  13.6435  13.6463  13.6463
    13.6924  13.6981  13.6981  13.7399  13.7399  13.7947  13.8009  13.8009
    13.9343  14.0028  14.0028  14.0360  14.0360  14.1552  14.1552  14.1610
    15.1483  15.1997  15.1997  15.2332  15.2332  15.2605  15.2605  15.3383
    15.3383  15.3467  15.4349  15.4512  15.5279  15.5279  15.5460  15.5890
    15.5890  15.6095  15.6248  15.6248  15.7119  15.7119  15.7534  15.7534
    15.7674  15.8071  15.8645  15.8645  15.9750  16.0913  16.0913  16.1178
    16.1459  16.1459  16.1868  16.2041  16.2111  16.2111  16.2641  16.2641
    16.4354  16.4742  16.4742  16.7049  16.7569  16.7569  16.8024  16.8059
    16.8059  16.8178  16.8503  16.8503  16.9241  16.9733  16.9733  17.0156

     the Fermi energy is    15.1923 ev

!    total energy              =   -6230.61247569 Ry
     estimated scf accuracy    <          3.0E-11 Ry
     smearing contrib. (-TS)   =       0.00047402 Ry
     internal energy E=F+TS    =   -6230.61294971 Ry

     The total energy is F=E-TS. E is the sum of the following terms:
     one-electron contribution =   -2592.21872037 Ry
     hartree contribution      =    1475.07093853 Ry
     xc contribution           =    -706.39359233 Ry
     ewald contribution        =   -3188.59755550 Ry
     one-center paw contrib.   =   -1218.47402004 Ry

     total magnetization       =    19.45 Bohr mag/cell
     absolute magnetization    =    38.55 Bohr mag/cell

     convergence has been achieved in  16 iterations

     negative rho (up, down):  7.347E-03 1.095E-03

     Forces acting on atoms (cartesian axes, Ry/au):

     atom    1 type  1   force =     0.00005177    0.00005177   -0.00004022
     atom    2 type  1   force =    -0.00012395   -0.00012395   -0.00012395
     atom    3 type  1   force =    -0.00005177   -0.00004022   -0.00005177
     atom    4 type  1   force =     0.00004022   -0.00005177    0.00005177
     atom    5 type  1   force =     0.00005177   -0.00004022    0.00005177
     atom    6 type  1   force =    -0.00004022    0.00005177    0.00005177
     atom    7 type  1   force =    -0.00005177    0.00004022    0.00005177
     atom    8 type  1   force =     0.00012395   -0.00012395    0.00012395
     atom    9 type  1   force =    -0.00012395    0.00012395    0.00012395
     atom   10 type  1   force =    -0.00004022   -0.00005177   -0.00005177
     atom   11 type  1   force =     0.00004022    0.00005177   -0.00005177
     atom   12 type  1   force =    -0.00005177   -0.00005177   -0.00004022
     atom   13 type  1   force =     0.00012395    0.00012395   -0.00012395
     atom   14 type  1   force =    -0.00005177    0.00005177    0.00004022
     atom   15 type  1   force =     0.00005177    0.00004022   -0.00005177
     atom   16 type  1   force =     0.00005177   -0.00005177    0.00004022
     atom   17 type  2   force =     0.00000000    0.00000000    0.00000000
     atom   18 type  2   force =    -0.00004423   -0.00004423    0.00004423
     atom   19 type  2   force =     0.00000000    0.00000000    0.00000000
     atom   20 type  2   force =    -0.00004423    0.00004423   -0.00004423
     atom   21 type  2   force =     0.00000000    0.00000000    0.00000000
     atom   22 type  2   force =     0.00004423    0.00004423    0.00004423
     atom   23 type  2   force =     0.00004423   -0.00004423   -0.00004423
     atom   24 type  2   force =     0.00000000    0.00000000    0.00000000
     atom   25 type  3   force =    -0.00000632   -0.00000632    0.00000632
     atom   26 type  3   force =     0.00000000    0.00000000    0.00000000
     atom   27 type  3   force =    -0.00000632    0.00000632   -0.00000632
     atom   28 type  3   force =     0.00000000    0.00000000    0.00000000
     atom   29 type  3   force =     0.00000632    0.00000632    0.00000632
     atom   30 type  3   force =     0.00000632   -0.00000632   -0.00000632
     atom   31 type  3   force =     0.00000000    0.00000000    0.00000000

     Total force =     0.000540     Total SCF correction =     0.000044


     Computing stress (Cartesian axis) and pressure


     negative rho (up, down):  7.347E-03 1.095E-03
          total   stress  (Ry/bohr**3)                   (kbar)     P=        0.31
   0.00000209   0.00000000   0.00000000            0.31        0.00        0.00
   0.00000000   0.00000209   0.00000000            0.00        0.31        0.00
   0.00000000   0.00000000   0.00000209            0.00        0.00        0.31

     Energy error            =      2.4E-05 Ry
     Gradient error          =      1.2E-04 Ry/Bohr
     Cell gradient error     =      3.1E-01 kbar

     number of scf cycles    =  13
     number of bfgs steps    =  12

     enthalpy           old  =   -6230.6124512847 Ry
     enthalpy           new  =   -6230.6124756942 Ry

     CASE: enthalpy          _new < enthalpy          _old

     new trust radius        =       0.0006785585 bohr
     new conv_thr            =            1.0E-10 Ry

     new unit-cell volume =   2337.97412 a.u.^3 (   346.45202 Ang^3 )
     density =      6.15184 g/cm^3

CELL_PARAMETERS (alat= 12.76591255)
   1.039668058   0.000000000   0.000000000
   0.000000000   1.039668058   0.000000000
   0.000000000   0.000000000   1.039668058

ATOMIC_POSITIONS (crystal)
Fe               0.1251765463        0.1251765463        0.6280772591
Fe               0.6157268576        0.6157268576        0.6157268576
Fe               0.8748234537        0.6280772591        0.8748234537
Fe               0.3719227409        0.8748234537        0.1251765463
Fe               0.1251765463        0.6280772591        0.1251765463
Fe               0.6280772591        0.1251765463        0.1251765463
Fe               0.8748234537        0.3719227409        0.1251765463
Fe               0.3842731424        0.6157268576        0.3842731424
Fe               0.6157268576        0.3842731424        0.3842731424
Fe               0.6280772591        0.8748234537        0.8748234537
Fe               0.3719227409        0.1251765463        0.8748234537
Fe               0.8748234537        0.8748234537        0.6280772591
Fe               0.3842731424        0.3842731424        0.6157268576
Fe               0.8748234537        0.1251765463        0.3719227409
Fe               0.1251765463        0.3719227409        0.8748234537
Fe               0.1251765463        0.8748234537        0.3719227409
Ti               0.0000000000        0.0000000000        0.0000000000
Ti               0.7486258906        0.7486258906        0.2513741094
Ti               0.5000000000        0.0000000000        0.5000000000
Ti               0.7486258906        0.2513741094        0.7486258906
Ti               0.0000000000        0.5000000000        0.5000000000
Ti               0.2513741094        0.2513741094        0.2513741094
Ti               0.2513741094        0.7486258906        0.7486258906
Ti               0.5000000000        0.5000000000        0.0000000000
H                0.2586067683        0.2586067683        0.7413932317
H                0.0000000000        0.5000000000        0.0000000000
H                0.2586067683        0.7413932317        0.2586067683
H                0.5000000000        0.0000000000        0.0000000000
H                0.7413932317        0.7413932317        0.7413932317
H                0.7413932317        0.2586067683        0.2586067683
H                0.0000000000        0.0000000000        0.5000000000



     Writing config-only to output data dir ./TiFe2_cub_8b_8H.save/ :
     XML data file     NEW-OLD atomic charge density approx. for the potential
     New effective cutoffs (rho, wfc): 1605.99  114.70

     negative rho (up, down):  7.347E-03 1.095E-03
     Generating pointlists ...

     total cpu time spent up to now is   107997.8 secs

     per-process dynamical memory:   530.5 Mb

     Self-consistent Calculation

     iteration #  1     ecut=   124.00 Ry     beta= 0.20
     CG style diagonalization
     ethr =  1.00E-06,  avg # of iterations =  2.4

     Threshold (ethr) on eigenvalues was too large:
     Diagonalizing with lowered threshold

     CG style diagonalization
     c_bands:  2 eigenvalues not converged
     c_bands:  5 eigenvalues not converged
     c_bands:  5 eigenvalues not converged
     c_bands:  4 eigenvalues not converged
     c_bands:  5 eigenvalues not converged
     c_bands:  5 eigenvalues not converged
     c_bands:  2 eigenvalues not converged
     c_bands:  3 eigenvalues not converged
     c_bands:  4 eigenvalues not converged
     c_bands:  5 eigenvalues not converged
     c_bands:  4 eigenvalues not converged
     c_bands:  4 eigenvalues not converged
     c_bands:  3 eigenvalues not converged
     c_bands:  3 eigenvalues not converged
     c_bands:  4 eigenvalues not converged
     c_bands:  3 eigenvalues not converged
     ethr =  1.23E-09,  avg # of iterations =  7.4

     negative rho (up, down):  7.347E-03 1.095E-03

     total cpu time spent up to now is   109193.3 secs

     total energy              =   -6230.61247486 Ry
     estimated scf accuracy    <       0.00000604 Ry

     total magnetization       =    19.46 Bohr mag/cell
     absolute magnetization    =    38.56 Bohr mag/cell

     iteration #  2     ecut=   124.00 Ry     beta= 0.20
     CG style diagonalization
     ethr =  1.68E-09,  avg # of iterations =  3.1

     negative rho (up, down):  7.347E-03 1.094E-03

     total cpu time spent up to now is   109468.8 secs

     total energy              =   -6230.61247536 Ry
     estimated scf accuracy    <       0.00000256 Ry

     total magnetization       =    19.46 Bohr mag/cell
     absolute magnetization    =    38.56 Bohr mag/cell

     iteration #  3     ecut=   124.00 Ry     beta= 0.20
     CG style diagonalization
     ethr =  7.14E-10,  avg # of iterations =  3.1

     negative rho (up, down):  7.347E-03 1.094E-03

     total cpu time spent up to now is   109744.6 secs

     total energy              =   -6230.61247565 Ry
     estimated scf accuracy    <       0.00000069 Ry

     total magnetization       =    19.46 Bohr mag/cell
     absolute magnetization    =    38.56 Bohr mag/cell

     iteration #  4     ecut=   124.00 Ry     beta= 0.20
     CG style diagonalization
     ethr =  1.92E-10,  avg # of iterations =  4.7

     negative rho (up, down):  7.347E-03 1.094E-03

     total cpu time spent up to now is   110208.3 secs

     total energy              =   -6230.61247623 Ry
     estimated scf accuracy    <       0.00000028 Ry

     total magnetization       =    19.46 Bohr mag/cell
     absolute magnetization    =    38.56 Bohr mag/cell

     iteration #  5     ecut=   124.00 Ry     beta= 0.20
     CG style diagonalization
     ethr =  7.67E-11,  avg # of iterations =  4.3

     negative rho (up, down):  7.348E-03 1.094E-03

     total cpu time spent up to now is   110634.6 secs

     total energy              =   -6230.61247647 Ry
     estimated scf accuracy    <       0.00000014 Ry

     total magnetization       =    19.46 Bohr mag/cell
     absolute magnetization    =    38.56 Bohr mag/cell

     iteration #  6     ecut=   124.00 Ry     beta= 0.20
     CG style diagonalization
     ethr =  3.87E-11,  avg # of iterations =  3.5

     negative rho (up, down):  7.348E-03 1.094E-03

     total cpu time spent up to now is   110951.7 secs

     total energy              =   -6230.61247655 Ry
     estimated scf accuracy    <       0.00000004 Ry

     total magnetization       =    19.46 Bohr mag/cell
     absolute magnetization    =    38.56 Bohr mag/cell

     iteration #  7     ecut=   124.00 Ry     beta= 0.20
     CG style diagonalization
     ethr =  1.02E-11,  avg # of iterations =  4.6

     negative rho (up, down):  7.348E-03 1.094E-03

     total cpu time spent up to now is   111409.2 secs

     total energy              =   -6230.61247662 Ry
     estimated scf accuracy    <       0.00000001 Ry

     total magnetization       =    19.46 Bohr mag/cell
     absolute magnetization    =    38.56 Bohr mag/cell

     iteration #  8     ecut=   124.00 Ry     beta= 0.20
     CG style diagonalization
     ethr =  3.96E-12,  avg # of iterations =  4.0

     negative rho (up, down):  7.349E-03 1.094E-03

     total cpu time spent up to now is   111790.9 secs

     total energy              =   -6230.61247667 Ry
     estimated scf accuracy    <       0.00000001 Ry

     total magnetization       =    19.46 Bohr mag/cell
     absolute magnetization    =    38.56 Bohr mag/cell

     iteration #  9     ecut=   124.00 Ry     beta= 0.20
     CG style diagonalization
     ethr =  3.67E-12,  avg # of iterations =  3.6

     negative rho (up, down):  7.349E-03 1.094E-03

     total cpu time spent up to now is   112122.0 secs

     total energy              =   -6230.61247669 Ry
     estimated scf accuracy    <          5.5E-09 Ry

     total magnetization       =    19.46 Bohr mag/cell
     absolute magnetization    =    38.56 Bohr mag/cell

     iteration # 10     ecut=   124.00 Ry     beta= 0.20
     CG style diagonalization
     ethr =  1.53E-12,  avg # of iterations =  3.4

     negative rho (up, down):  7.349E-03 1.094E-03

     total cpu time spent up to now is   112431.8 secs

     total energy              =   -6230.61247670 Ry
     estimated scf accuracy    <          2.0E-09 Ry

     total magnetization       =    19.46 Bohr mag/cell
     absolute magnetization    =    38.56 Bohr mag/cell

     iteration # 11     ecut=   124.00 Ry     beta= 0.20
     CG style diagonalization
     ethr =  5.63E-13,  avg # of iterations =  3.9

     negative rho (up, down):  7.349E-03 1.093E-03

     total cpu time spent up to now is   112802.9 secs

     total energy              =   -6230.61247670 Ry
     estimated scf accuracy    <          9.8E-10 Ry

     total magnetization       =    19.46 Bohr mag/cell
     absolute magnetization    =    38.56 Bohr mag/cell

     iteration # 12     ecut=   124.00 Ry     beta= 0.20
     CG style diagonalization
     ethr =  2.73E-13,  avg # of iterations =  4.2

     negative rho (up, down):  7.349E-03 1.093E-03

     total cpu time spent up to now is   113206.3 secs

     total energy              =   -6230.61247671 Ry
     estimated scf accuracy    <          5.0E-10 Ry

     total magnetization       =    19.46 Bohr mag/cell
     absolute magnetization    =    38.56 Bohr mag/cell

     iteration # 13     ecut=   124.00 Ry     beta= 0.20
     CG style diagonalization
     ethr =  1.41E-13,  avg # of iterations =  4.4

     negative rho (up, down):  7.349E-03 1.093E-03

     total cpu time spent up to now is   113640.8 secs

     total energy              =   -6230.61247671 Ry
     estimated scf accuracy    <          1.9E-10 Ry

     total magnetization       =    19.46 Bohr mag/cell
     absolute magnetization    =    38.56 Bohr mag/cell

     iteration # 14     ecut=   124.00 Ry     beta= 0.20
     CG style diagonalization
     c_bands:  1 eigenvalues not converged
     ethr =  1.00E-13,  avg # of iterations =  3.3

     negative rho (up, down):  7.349E-03 1.093E-03

     Magnetic moment per site  (integrated on atomic sphere of radius R)
     atom   1 (R=0.089)  charge= 11.1817  magn=  1.3881
     atom   2 (R=0.089)  charge= 11.1732  magn=  1.3547
     atom   3 (R=0.089)  charge= 11.1817  magn=  1.3881
     atom   4 (R=0.089)  charge= 11.1817  magn=  1.3881
     atom   5 (R=0.089)  charge= 11.1817  magn=  1.3881
     atom   6 (R=0.089)  charge= 11.1817  magn=  1.3881
     atom   7 (R=0.089)  charge= 11.1817  magn=  1.3881
     atom   8 (R=0.089)  charge= 11.1732  magn=  1.3547
     atom   9 (R=0.089)  charge= 11.1732  magn=  1.3547
     atom  10 (R=0.089)  charge= 11.1817  magn=  1.3881
     atom  11 (R=0.089)  charge= 11.1817  magn=  1.3881
     atom  12 (R=0.089)  charge= 11.1817  magn=  1.3881
     atom  13 (R=0.089)  charge= 11.1732  magn=  1.3547
     atom  14 (R=0.089)  charge= 11.1817  magn=  1.3881
     atom  15 (R=0.089)  charge= 11.1817  magn=  1.3881
     atom  16 (R=0.089)  charge= 11.1817  magn=  1.3881
     atom  17 (R=0.171)  charge= 10.2036  magn= -0.7544
     atom  18 (R=0.171)  charge= 10.1996  magn= -0.8182
     atom  19 (R=0.171)  charge= 10.1938  magn= -0.8500
     atom  20 (R=0.171)  charge= 10.1996  magn= -0.8182
     atom  21 (R=0.171)  charge= 10.1938  magn= -0.8500
     atom  22 (R=0.171)  charge= 10.1996  magn= -0.8182
     atom  23 (R=0.171)  charge= 10.1996  magn= -0.8182
     atom  24 (R=0.171)  charge= 10.1938  magn= -0.8500
     atom  25 (R=0.089)  charge=  0.9808  magn= -0.0057
     atom  26 (R=0.089)  charge=  0.9910  magn= -0.0055
     atom  27 (R=0.089)  charge=  0.9808  magn= -0.0057
     atom  28 (R=0.089)  charge=  0.9910  magn= -0.0055
     atom  29 (R=0.089)  charge=  0.9808  magn= -0.0057
     atom  30 (R=0.089)  charge=  0.9808  magn= -0.0057
     atom  31 (R=0.089)  charge=  0.9910  magn= -0.0055

     total cpu time spent up to now is   113935.1 secs

     End of self-consistent calculation

 ------ SPIN UP ------------


          k = 0.0000 0.0000 0.0000 ( 48489 PWs)   bands (ev):

   -72.9107 -72.8803 -72.8800 -72.8800 -72.8800 -72.8798 -72.8798 -72.8513
   -72.8513 -72.8513 -72.8500 -72.8500 -72.8500 -72.8069 -72.8069 -72.8069
   -41.6629 -41.6204 -41.6091 -41.6091 -41.6091 -41.5935 -41.5935 -41.5790
   -39.3799 -39.2267 -39.1822 -39.1822 -39.1822 -39.1819 -39.1819 -39.0455
   -39.0455 -39.0455 -38.9874 -38.9874 -38.9874 -38.9771 -38.9771 -38.9771
   -38.9167 -38.9167 -38.9088 -38.8984 -38.8984 -38.8929 -38.8929 -38.8929
   -38.8678 -38.8678 -38.8678 -38.8654 -38.8654 -38.8654 -38.8594 -38.8594
   -38.8330 -38.8330 -38.8330 -38.8320 -38.8094 -38.8094 -38.8094 -38.7812
   -38.7812 -38.7812 -38.7503 -38.7503 -38.7503 -38.7485 -38.7485 -38.7485
   -17.9271 -17.9271 -17.9271 -17.9015 -17.9015 -17.9015 -17.8918 -17.8918
   -17.8918 -17.8330 -17.8330 -17.8316 -17.8316 -17.8316 -17.8260 -17.7686
   -17.7686 -17.7686 -17.7562 -17.7562 -17.7562 -17.7355 -17.7355 -17.7355
     4.1164   5.9856   5.9856   6.0497   6.0497   6.0497   8.0041   9.2067
    10.8755  10.8755  10.8755  10.9903  11.1317  11.1317  11.1379  11.1379
    11.1379  11.7263  11.7351  11.7351  11.7351  11.8517  11.8715  11.8715
    11.8715  11.8736  11.8736  11.8736  11.9062  11.9062  11.9280  11.9280
    11.9280  12.1381  12.1381  12.3303  12.3303  12.3303  12.4444  12.4444
    12.4444  12.4536  12.4672  12.4672  12.4672  12.5112  12.5112  12.8954
    12.8954  12.9640  12.9640  12.9640  12.9758  12.9758  12.9758  13.0253
    13.0621  13.0621  13.0621  13.1105  13.1105  13.1105  13.2240  13.2240
    13.2240  13.6438  13.6438  13.6438  13.7278  13.7278  13.7278  13.7451
    13.7451  13.7451  13.8472  13.8472  13.8889  13.8889  13.9185  13.9185
    13.9185  13.9786  13.9786  13.9786  13.9866  14.5171  14.5171  14.7244
    14.7244  14.7244  14.9135  15.0102  15.0102  15.0102  15.0983  15.0983
    15.3362  15.3362  15.3362  16.1647  16.1647  16.1647  16.1814  16.1814
    16.1814  16.2203  16.2203  16.2203  16.5306  16.5306  16.5306  16.5842
    16.5842  16.5842  16.6965  16.6965  16.7513  16.7944  16.7944  16.7944

          k = 0.0000 0.0000 0.1924 ( 48469 PWs)   bands (ev):

   -72.9093 -72.8892 -72.8802 -72.8800 -72.8800 -72.8798 -72.8709 -72.8526
   -72.8513 -72.8513 -72.8500 -72.8500 -72.8500 -72.8070 -72.8069 -72.8069
   -41.6628 -41.6201 -41.6106 -41.6091 -41.6091 -41.5935 -41.5914 -41.5798
   -39.3702 -39.2493 -39.2124 -39.1817 -39.1817 -39.1814 -39.1342 -39.0490
   -39.0412 -39.0412 -38.9935 -38.9935 -38.9898 -38.9811 -38.9811 -38.9784
   -38.9166 -38.9140 -38.9107 -38.9027 -38.8979 -38.8951 -38.8951 -38.8876
   -38.8714 -38.8702 -38.8639 -38.8639 -38.8614 -38.8588 -38.8588 -38.8491
   -38.8333 -38.8308 -38.8308 -38.8201 -38.8128 -38.8104 -38.8104 -38.7845
   -38.7828 -38.7828 -38.7535 -38.7523 -38.7523 -38.7501 -38.7489 -38.7489
   -17.9273 -17.9264 -17.9264 -17.9019 -17.9019 -17.9018 -17.8927 -17.8927
   -17.8896 -17.8466 -17.8327 -17.8315 -17.8315 -17.8279 -17.8157 -17.7705
   -17.7677 -17.7677 -17.7566 -17.7554 -17.7554 -17.7367 -17.7367 -17.7354
     4.2017   5.4371   5.9880   6.0522   6.0522   6.5876   7.9878   9.2980
    10.6030  10.8026  10.9268  10.9268  11.1182  11.1722  11.1722  11.1754
    11.2892  11.5934  11.5934  11.6042  11.7069  11.7069  11.7073  11.7257
    11.7444  11.8878  11.9607  11.9647  11.9647  11.9919  11.9919  12.0188
    12.0946  12.1459  12.1783  12.2117  12.2721  12.2721  12.3027  12.4000
    12.4000  12.4251  12.4803  12.5208  12.5283  12.5283  12.7238  12.8040
    12.8460  12.8460  12.8555  12.9301  12.9301  12.9477  12.9686  13.1089
    13.1089  13.1196  13.2060  13.2381  13.2709  13.2709  13.3308  13.3524
    13.3524  13.6148  13.6217  13.6217  13.6635  13.6866  13.6866  13.7056
    13.7532  13.7980  13.8175  13.8175  13.8457  13.8598  13.8598  13.8883
    13.9569  14.0594  14.0594  14.0712  14.0968  14.5239  14.6363  14.6363
    14.6536  14.6861  14.7914  14.9520  14.9523  14.9523  15.0504  15.1911
    15.4173  15.4867  15.4867  16.1142  16.1142  16.1447  16.1595  16.1595
    16.1636  16.1915  16.1915  16.2732  16.3192  16.3797  16.3953  16.3953
    16.4669  16.4995  16.4995  16.8437  16.8949  16.8950  16.8992  17.0543

          k = 0.0000 0.0000 0.3847 ( 48538 PWs)   bands (ev):

   -72.9052 -72.8973 -72.8802 -72.8800 -72.8800 -72.8798 -72.8633 -72.8559
   -72.8513 -72.8513 -72.8500 -72.8500 -72.8500 -72.8071 -72.8069 -72.8069
   -41.6628 -41.6194 -41.6129 -41.6091 -41.6091 -41.5935 -41.5877 -41.5821
   -39.3421 -39.2989 -39.2150 -39.1809 -39.1809 -39.1805 -39.0988 -39.0588
   -39.0300 -39.0300 -39.0082 -39.0082 -38.9935 -38.9864 -38.9864 -38.9806
   -38.9163 -38.9137 -38.9080 -38.9057 -38.8974 -38.8974 -38.8955 -38.8858
   -38.8858 -38.8619 -38.8607 -38.8603 -38.8603 -38.8465 -38.8465 -38.8431
   -38.8280 -38.8272 -38.8272 -38.8165 -38.8129 -38.8129 -38.8057 -38.7933
   -38.7852 -38.7852 -38.7598 -38.7565 -38.7565 -38.7529 -38.7491 -38.7491
   -17.9277 -17.9251 -17.9251 -17.9024 -17.9024 -17.9023 -17.8942 -17.8942
   -17.8849 -17.8579 -17.8323 -17.8314 -17.8314 -17.8273 -17.8043 -17.7750
   -17.7664 -17.7664 -17.7571 -17.7536 -17.7536 -17.7390 -17.7390 -17.7353
     4.4321   4.9455   5.9919   6.0563   6.0563   6.9968   7.9378   9.5758
    10.0381  10.6998  11.0762  11.0762  11.2011  11.2454  11.2454  11.2771
    11.2873  11.3166  11.3166  11.4681  11.5914  11.5914  11.6170  11.6839
    11.6935  11.7820  11.9799  12.0428  12.0543  12.0543  12.1043  12.1043
    12.1255  12.1337  12.1337  12.1548  12.1625  12.1678  12.3012  12.3108
    12.3108  12.3709  12.3709  12.4003  12.4891  12.5065  12.8013  12.8715
    12.9445  12.9445  12.9652  12.9882  13.0744  13.0744  13.1109  13.1749
    13.1749  13.2225  13.3000  13.3954  13.4156  13.4156  13.4353  13.4549
    13.4549  13.4628  13.5173  13.5173  13.5476  13.5673  13.5673  13.5824
    13.6008  13.6493  13.6661  13.6661  13.8343  13.8702  14.1332  14.1332
    14.1724  14.2451  14.2451  14.2626  14.3187  14.4400  14.4400  14.4546
    14.6155  14.6500  14.7847  14.8114  14.8114  14.9067  15.0005  15.1992
    15.6545  15.7655  15.7655  15.9835  15.9835  15.9957  16.1183  16.1183
    16.1213  16.1288  16.1649  16.1649  16.2085  16.2232  16.2391  16.2391
    16.3407  16.3407  16.4875  16.8908  17.0688  17.0688  17.0861  17.0899

          k = 0.0000 0.1924 0.1924 ( 48486 PWs)   bands (ev):

   -72.9079 -72.8896 -72.8878 -72.8826 -72.8776 -72.8727 -72.8700 -72.8536
   -72.8515 -72.8513 -72.8500 -72.8500 -72.8500 -72.8070 -72.8069 -72.8069
   -41.6628 -41.6197 -41.6117 -41.6098 -41.6086 -41.5923 -41.5908 -41.5807
   -39.3610 -39.2511 -39.2398 -39.2096 -39.1725 -39.1420 -39.1276 -39.0492
   -39.0406 -39.0373 -38.9982 -38.9964 -38.9946 -38.9855 -38.9824 -38.9824
   -38.9151 -38.9125 -38.9114 -38.9014 -38.9014 -38.8963 -38.8915 -38.8902
   -38.8763 -38.8685 -38.8651 -38.8578 -38.8566 -38.8563 -38.8520 -38.8494
   -38.8353 -38.8281 -38.8261 -38.8180 -38.8156 -38.8106 -38.8080 -38.7887
   -38.7846 -38.7821 -38.7573 -38.7534 -38.7523 -38.7509 -38.7502 -38.7489
   -17.9275 -17.9256 -17.9255 -17.9040 -17.9022 -17.8994 -17.8939 -17.8919
   -17.8892 -17.8478 -17.8465 -17.8391 -17.8225 -17.8150 -17.8147 -17.7721
   -17.7670 -17.7665 -17.7574 -17.7558 -17.7540 -17.7382 -17.7372 -17.7359
     4.2834   5.3686   5.5763   6.0168   6.4262   6.7392   7.9486   9.3898
    10.5999  10.7229  10.8190  10.9697  10.9708  11.1740  11.1999  11.2841
    11.3099  11.4871  11.5380  11.5688  11.5958  11.6246  11.6282  11.6808
    11.7494  11.7926  11.8737  11.9248  12.0005  12.0034  12.0858  12.1107
    12.1199  12.1303  12.1739  12.2084  12.2658  12.3240  12.3551  12.3631
    12.4144  12.4780  12.4790  12.5016  12.5408  12.6394  12.6918  12.7514
    12.7807  12.7896  12.8394  12.8669  12.9317  12.9519  13.0573  13.0997
    13.1671  13.1730  13.2529  13.3236  13.3275  13.3411  13.3687  13.4411
    13.4529  13.5279  13.5700  13.5828  13.5964  13.6566  13.6763  13.6767
    13.7612  13.7862  13.7892  13.8285  13.8385  13.8794  13.8921  13.9136
    13.9561  14.0468  14.1527  14.2506  14.2838  14.3133  14.5451  14.6307
    14.6704  14.6732  14.7745  14.8371  14.9768  15.1085  15.1427  15.2298
    15.3962  15.5953  15.6134  16.0072  16.0806  16.0897  16.1040  16.1161
    16.1341  16.1454  16.1721  16.2298  16.2876  16.3475  16.3766  16.3917
    16.4242  16.4975  16.5430  16.5907  16.6362  17.0731  17.1102  17.2394

          k = 0.0000 0.1924 0.3847 ( 48550 PWs)   bands (ev):

   -72.9040 -72.8966 -72.8875 -72.8848 -72.8757 -72.8725 -72.8636 -72.8568
   -72.8516 -72.8513 -72.8500 -72.8500 -72.8500 -72.8071 -72.8069 -72.8069
   -41.6628 -41.6188 -41.6137 -41.6105 -41.6082 -41.5919 -41.5877 -41.5828
   -39.3345 -39.2939 -39.2401 -39.2229 -39.1621 -39.1361 -39.0967 -39.0587
   -39.0310 -39.0275 -39.0108 -39.0084 -38.9993 -38.9907 -38.9880 -38.9846
   -38.9142 -38.9123 -38.9070 -38.9047 -38.8998 -38.8978 -38.8934 -38.8896
   -38.8805 -38.8700 -38.8622 -38.8570 -38.8523 -38.8461 -38.8449 -38.8413
   -38.8320 -38.8285 -38.8260 -38.8203 -38.8131 -38.8108 -38.8019 -38.7951
   -38.7872 -38.7843 -38.7595 -38.7569 -38.7550 -38.7518 -38.7509 -38.7503
   -17.9276 -17.9244 -17.9239 -17.9052 -17.9025 -17.8988 -17.8950 -17.8930
   -17.8847 -17.8593 -17.8482 -17.8444 -17.8171 -17.8133 -17.8028 -17.7765
   -17.7654 -17.7651 -17.7583 -17.7552 -17.7515 -17.7412 -17.7392 -17.7362
     4.5046   4.9756   5.5346   5.9619   6.5370   7.0881   7.8441   9.6658
    10.1180  10.6956  10.9109  11.0984  11.1046  11.1429  11.2438  11.2750
    11.2874  11.3205  11.3233  11.3779  11.4430  11.5205  11.6186  11.6687
    11.7056  11.7852  11.7896  11.8564  12.0742  12.0923  12.1249  12.1678
    12.1711  12.1866  12.2003  12.2123  12.2310  12.2721  12.2965  12.3348
    12.3504  12.3633  12.3810  12.5569  12.5714  12.6074  12.7163  12.7637
    12.7859  12.7914  12.8759  12.9699  13.0984  13.1530  13.1706  13.2125
    13.2330  13.2641  13.2782  13.2888  13.3140  13.3571  13.4091  13.4489
    13.4613  13.4830  13.5219  13.5328  13.5471  13.5767  13.5991  13.6510
    13.6753  13.6988  13.7387  13.7657  13.8530  13.8892  14.0171  14.0475
    14.1048  14.1715  14.2051  14.3567  14.3821  14.4846  14.5006  14.5728
    14.5865  14.6222  14.6694  14.7725  15.0732  15.1101  15.1814  15.2549
    15.6613  15.8073  15.8304  15.9476  15.9698  15.9870  16.0371  16.0484
    16.0664  16.0759  16.1048  16.1196  16.1414  16.1954  16.2126  16.2600
    16.3089  16.3840  16.6231  16.8109  16.8613  17.0241  17.0630  17.1248

          k = 0.0000 0.3847 0.3847 ( 48478 PWs)   bands (ev):

   -72.9006 -72.8956 -72.8935 -72.8887 -72.8727 -72.8669 -72.8635 -72.8596
   -72.8519 -72.8513 -72.8500 -72.8500 -72.8500 -72.8070 -72.8070 -72.8069
   -41.6628 -41.6172 -41.6148 -41.6132 -41.6071 -41.5891 -41.5875 -41.5848
   -39.3127 -39.2804 -39.2780 -39.2551 -39.1439 -39.1018 -39.0900 -39.0661
   -39.0281 -39.0208 -39.0183 -39.0117 -39.0073 -38.9973 -38.9920 -38.9912
   -38.9107 -38.9091 -38.9043 -38.9018 -38.9002 -38.8986 -38.8980 -38.8854
   -38.8815 -38.8741 -38.8629 -38.8623 -38.8485 -38.8444 -38.8390 -38.8371
   -38.8322 -38.8306 -38.8274 -38.8163 -38.8129 -38.8105 -38.8025 -38.8004
   -38.7875 -38.7826 -38.7603 -38.7568 -38.7564 -38.7531 -38.7508 -38.7490
   -17.9268 -17.9228 -17.9226 -17.9076 -17.9028 -17.8961 -17.8960 -17.8905
   -17.8818 -17.8615 -17.8614 -17.8547 -17.8079 -17.8007 -17.7995 -17.7815
   -17.7629 -17.7625 -17.7597 -17.7585 -17.7473 -17.7453 -17.7398 -17.7386
     4.7058   4.9948   5.1607   5.8190   6.9769   7.2387   7.5977   9.9284
    10.2954  10.4324  10.7067  10.8263  11.1696  11.2037  11.2304  11.2423
    11.2623  11.2961  11.3066  11.3125  11.3873  11.4483  11.4578  11.6098
    11.6751  11.6978  11.7185  11.7722  12.1124  12.1526  12.1663  12.1927
    12.2166  12.2362  12.2621  12.2820  12.3000  12.3426  12.3679  12.4384
    12.4460  12.4901  12.5168  12.5342  12.5441  12.5909  12.6035  12.6859
    12.6870  12.7333  12.8650  12.9182  12.9780  13.0095  13.0886  13.1272
    13.1650  13.2003  13.2748  13.2903  13.3313  13.3576  13.3677  13.4138
    13.4713  13.5161  13.5643  13.6306  13.6645  13.6948  13.7095  13.7100
    13.7489  13.7954  13.8182  13.8438  13.8803  13.9024  13.9642  14.0829
    14.1011  14.1327  14.2310  14.3064  14.3906  14.4051  14.4684  14.4944
    14.5375  14.6475  14.6653  14.7358  15.3835  15.4196  15.5245  15.5921
    15.7099  15.8918  15.9186  15.9302  15.9492  15.9548  15.9625  15.9881
    15.9917  15.9999  16.0140  16.0325  16.0593  16.1377  16.1515  16.1578
    16.2967  16.4272  16.4422  16.7126  16.8630  16.9546  17.1064  17.1924

          k = 0.1924 0.1924 0.1924 ( 48503 PWs)   bands (ev):

   -72.9065 -72.8896 -72.8896 -72.8865 -72.8747 -72.8700 -72.8700 -72.8545
   -72.8515 -72.8515 -72.8500 -72.8500 -72.8500 -72.8070 -72.8069 -72.8069
   -41.6628 -41.6193 -41.6117 -41.6117 -41.6079 -41.5908 -41.5908 -41.5814
   -39.3525 -39.2543 -39.2406 -39.2406 -39.1573 -39.1247 -39.1247 -39.0490
   -39.0373 -39.0373 -39.0026 -38.9989 -38.9989 -38.9872 -38.9859 -38.9859
   -38.9123 -38.9123 -38.9112 -38.8995 -38.8995 -38.8971 -38.8929 -38.8929
   -38.8711 -38.8711 -38.8670 -38.8583 -38.8583 -38.8535 -38.8469 -38.8469
   -38.8386 -38.8242 -38.8242 -38.8196 -38.8107 -38.8105 -38.8105 -38.7893
   -38.7893 -38.7798 -38.7597 -38.7549 -38.7549 -38.7495 -38.7495 -38.7485
   -17.9268 -17.9250 -17.9250 -17.9036 -17.9036 -17.8975 -17.8929 -17.8929
   -17.8897 -17.8504 -17.8504 -17.8480 -17.8126 -17.8126 -17.8117 -17.7721
   -17.7666 -17.7666 -17.7566 -17.7566 -17.7539 -17.7393 -17.7374 -17.7374
     4.3605   5.3726   5.3726   5.9179   6.7384   6.7384   7.8986   9.4819
    10.5932  10.7904  10.7904  10.8508  11.0135  11.0135  11.2693  11.2917
    11.2917  11.3989  11.5309  11.5309  11.5774  11.6119  11.6119  11.6463
    11.6463  11.6576  11.7008  11.8567  12.0272  12.0272  12.1537  12.1537
    12.1557  12.2174  12.2174  12.2771  12.2771  12.3202  12.3422  12.4295
    12.4383  12.4383  12.5063  12.5063  12.6011  12.6683  12.6683  12.6850
    12.6850  12.7573  12.9006  12.9006  12.9758  12.9758  13.0212  13.0582
    13.1339  13.1408  13.1408  13.3737  13.3879  13.3879  13.4354  13.4354
    13.4783  13.4783  13.5232  13.5486  13.5680  13.5680  13.7244  13.7244
    13.7759  13.8330  13.8698  13.8698  13.9013  13.9013  13.9059  13.9460
    13.9460  13.9994  14.2755  14.2755  14.3617  14.3778  14.3778  14.5438
    14.6390  14.6933  14.6933  15.0731  15.0731  15.2143  15.2811  15.2811
    15.3321  15.6644  15.6644  15.9447  15.9447  15.9858  16.0888  16.0888
    16.0969  16.1343  16.1343  16.2716  16.2716  16.3719  16.3740  16.3998
    16.3998  16.4364  16.4643  16.5388  16.5388  17.1802  17.1802  17.2154

          k = 0.1924 0.1924 0.3847 ( 48490 PWs)   bands (ev):

   -72.9029 -72.8961 -72.8896 -72.8871 -72.8742 -72.8700 -72.8638 -72.8576
   -72.8517 -72.8515 -72.8500 -72.8500 -72.8500 -72.8070 -72.8069 -72.8069
   -41.6628 -41.6183 -41.6141 -41.6117 -41.6076 -41.5907 -41.5877 -41.5834
   -39.3280 -39.2906 -39.2510 -39.2418 -39.1506 -39.1199 -39.0933 -39.0578
   -39.0290 -39.0287 -39.0127 -39.0103 -39.0037 -38.9929 -38.9907 -38.9880
   -38.9118 -38.9110 -38.9061 -38.9023 -38.9006 -38.8946 -38.8929 -38.8909
   -38.8786 -38.8713 -38.8639 -38.8612 -38.8548 -38.8474 -38.8415 -38.8395
   -38.8363 -38.8267 -38.8256 -38.8217 -38.8182 -38.8069 -38.8008 -38.7938
   -38.7921 -38.7803 -38.7600 -38.7556 -38.7552 -38.7515 -38.7507 -38.7490
   -17.9266 -17.9239 -17.9230 -17.9045 -17.9035 -17.8966 -17.8940 -17.8933
   -17.8857 -17.8617 -17.8542 -17.8525 -17.8091 -17.8080 -17.8006 -17.7758
   -17.7664 -17.7638 -17.7589 -17.7542 -17.7527 -17.7420 -17.7404 -17.7375
     4.5694   4.9957   5.3791   5.8886   6.7371   7.1316   7.7627   9.7547
    10.1978  10.6974  10.9508  10.9719  11.1207  11.1419  11.2070  11.2431
    11.2467  11.2723  11.3346  11.3457  11.3818  11.4429  11.5779  11.6090
    11.6544  11.6732  11.6816  11.7717  12.1108  12.1185  12.1853  12.1997
    12.2105  12.2307  12.2387  12.2750  12.2842  12.2923  12.3309  12.3606
    12.3985  12.4238  12.4690  12.5718  12.6212  12.6426  12.6462  12.6959
    12.7334  12.8102  12.9075  12.9185  12.9635  13.0201  13.1061  13.1368
    13.1868  13.1907  13.2287  13.2619  13.2766  13.3016  13.3486  13.3914
    13.4561  13.4615  13.5640  13.6034  13.6144  13.6410  13.7062  13.7261
    13.7773  13.7808  13.8218  13.8337  13.8616  13.8959  13.9482  14.0019
    14.0611  14.0920  14.2077  14.3155  14.4295  14.4664  14.5810  14.6273
    14.6691  14.6795  14.7329  15.0070  15.2161  15.2713  15.3031  15.3391
    15.6550  15.7575  15.8492  15.8496  15.9231  15.9474  15.9704  15.9782
    16.0039  16.0610  16.0860  16.1425  16.1667  16.1793  16.2128  16.2881
    16.3176  16.3718  16.6241  16.6654  16.6835  16.9651  17.0274  17.0276

          k = 0.1924 0.3847 0.3847 ( 48499 PWs)   bands (ev):

   -72.8999 -72.8956 -72.8940 -72.8895 -72.8726 -72.8658 -72.8635 -72.8600
   -72.8519 -72.8516 -72.8500 -72.8500 -72.8500 -72.8070 -72.8070 -72.8069
   -41.6628 -41.6169 -41.6149 -41.6137 -41.6069 -41.5886 -41.5875 -41.5851
   -39.3092 -39.2818 -39.2792 -39.2639 -39.1381 -39.0933 -39.0847 -39.0629
   -39.0276 -39.0233 -39.0196 -39.0146 -39.0109 -38.9977 -38.9943 -38.9938
   -38.9085 -38.9078 -38.9032 -38.8991 -38.8984 -38.8973 -38.8950 -38.8853
   -38.8797 -38.8739 -38.8655 -38.8643 -38.8545 -38.8489 -38.8432 -38.8401
   -38.8352 -38.8325 -38.8250 -38.8236 -38.8161 -38.8081 -38.7985 -38.7972
   -38.7907 -38.7779 -38.7588 -38.7552 -38.7535 -38.7508 -38.7504 -38.7489
   -17.9250 -17.9221 -17.9220 -17.9058 -17.9029 -17.8947 -17.8945 -17.8907
   -17.8845 -17.8656 -17.8655 -17.8613 -17.8019 -17.7974 -17.7964 -17.7784
   -17.7638 -17.7631 -17.7586 -17.7578 -17.7495 -17.7454 -17.7415 -17.7405
     4.7476   4.9997   5.1195   5.7990   7.0503   7.2309   7.5478  10.0070
    10.3599  10.5242  10.7497  10.8970  11.1506  11.1748  11.1868  11.2124
    11.2254  11.2432  11.2831  11.3138  11.3559  11.3975  11.4419  11.5221
    11.5513  11.5642  11.6085  11.6978  12.1406  12.1881  12.1888  12.2244
    12.2386  12.2907  12.2950  12.3375  12.3728  12.3730  12.3890  12.4451
    12.4780  12.5122  12.5284  12.5881  12.5982  12.6145  12.6596  12.7089
    12.7181  12.7421  12.7720  12.8347  12.8857  12.9136  12.9690  13.0267
    13.0573  13.1050  13.1751  13.1999  13.2035  13.2648  13.2680  13.3348
    13.5746  13.6231  13.6272  13.6806  13.6938  13.7021  13.7699  13.7751
    13.8154  13.8269  13.8515  13.8751  13.8988  13.9011  13.9464  13.9845
    14.0568  14.0864  14.1315  14.1895  14.5088  14.5588  14.6133  14.6871
    14.7552  14.8905  14.9095  15.0522  15.4819  15.4986  15.5858  15.6540
    15.6778  15.8072  15.8136  15.8311  15.8318  15.8698  15.8908  15.9097
    15.9224  16.0380  16.0466  16.0744  16.1286  16.1318  16.1767  16.1830
    16.2769  16.3881  16.3957  16.6021  16.7118  16.7654  16.8438  16.8993

          k = 0.3847 0.3847 0.3847 ( 48449 PWs)   bands (ev):

   -72.8981 -72.8956 -72.8956 -72.8905 -72.8725 -72.8635 -72.8635 -72.8612
   -72.8519 -72.8519 -72.8500 -72.8500 -72.8500 -72.8070 -72.8070 -72.8070
   -41.6628 -41.6162 -41.6149 -41.6149 -41.6067 -41.5874 -41.5874 -41.5860
   -39.2987 -39.2846 -39.2811 -39.2811 -39.1296 -39.0748 -39.0748 -39.0606
   -39.0262 -39.0262 -39.0232 -39.0192 -39.0192 -38.9988 -38.9983 -38.9983
   -38.9073 -38.9021 -38.9021 -38.8982 -38.8982 -38.8966 -38.8834 -38.8834
   -38.8727 -38.8708 -38.8708 -38.8681 -38.8589 -38.8589 -38.8469 -38.8469
   -38.8397 -38.8395 -38.8337 -38.8337 -38.8085 -38.8085 -38.7938 -38.7931
   -38.7931 -38.7738 -38.7538 -38.7517 -38.7517 -38.7492 -38.7492 -38.7484
   -17.9217 -17.9208 -17.9208 -17.9031 -17.9031 -17.8915 -17.8915 -17.8904
   -17.8868 -17.8730 -17.8730 -17.8725 -17.7926 -17.7919 -17.7919 -17.7753
   -17.7636 -17.7636 -17.7556 -17.7556 -17.7550 -17.7461 -17.7447 -17.7447
     4.8576   5.0079   5.0079   5.7725   7.2184   7.2184   7.4151  10.1949
    10.5069  10.7711  10.7711  10.9158  11.0834  11.1163  11.1163  11.1525
    11.1547  11.1547  11.2689  11.2776  11.2776  11.3814  11.3814  11.4167
    11.4232  11.4232  11.4266  11.5415  12.2166  12.2166  12.2664  12.2664
    12.2788  12.3397  12.3397  12.3437  12.3999  12.4830  12.4830  12.5496
    12.5496  12.5821  12.5821  12.5916  12.6283  12.6793  12.6793  12.6938
    12.7154  12.7154  12.7506  12.8055  12.8055  12.8145  12.8145  12.8603
    12.9261  12.9261  13.0606  13.0791  13.0972  13.0972  13.1596  13.1596
    13.6671  13.6671  13.7356  13.7374  13.7374  13.7487  13.7992  13.7992
    13.8554  13.8554  13.8691  13.8883  13.9346  13.9516  13.9516  13.9961
    13.9961  14.0358  14.0500  14.0500  14.8648  14.8922  14.8922  15.0038
    15.1106  15.1237  15.1237  15.3226  15.6353  15.6430  15.6430  15.6832
    15.6832  15.7189  15.7189  15.7992  15.8158  15.8158  15.8251  15.8782
    15.8782  16.0422  16.0422  16.0517  16.0753  16.0753  16.1215  16.1215
    16.1903  16.2790  16.3383  16.3383  16.5442  16.5494  16.5494  16.5913

 ------ SPIN DOWN ----------


          k = 0.0000 0.0000 0.0000 ( 48489 PWs)   bands (ev):

   -70.8431 -70.8107 -70.7865 -70.7865 -70.7865 -70.7839 -70.7839 -70.7565
   -70.7565 -70.7565 -70.7533 -70.7533 -70.7533 -70.7520 -70.7520 -70.7520
   -42.4021 -42.3871 -42.3871 -42.3720 -42.3720 -42.3720 -42.3688 -42.3507
   -37.4658 -37.3219 -37.2354 -37.2354 -37.2354 -37.2343 -37.2343 -37.0668
   -37.0668 -37.0668 -37.0180 -37.0180 -37.0180 -37.0161 -37.0161 -37.0161
   -36.8708 -36.8708 -36.8266 -36.8266 -36.8212 -36.8156 -36.8156 -36.8156
   -36.8001 -36.8001 -36.8001 -36.7847 -36.7847 -36.7847 -36.7702 -36.7702
   -36.7558 -36.7558 -36.7558 -36.7483 -36.7478 -36.7478 -36.7478 -36.7057
   -36.7057 -36.7057 -36.7031 -36.7031 -36.7031 -36.6833 -36.6833 -36.6833
   -18.6858 -18.6858 -18.6858 -18.6849 -18.6849 -18.6849 -18.6547 -18.6547
   -18.6547 -18.6043 -18.6043 -18.6043 -18.5996 -18.5996 -18.5897 -18.5413
   -18.5413 -18.5413 -18.5183 -18.5183 -18.5183 -18.5136 -18.5136 -18.5136
     4.4379   6.3303   6.3303   6.3885   6.3885   6.3885   8.2533   9.4365
    11.1420  11.4230  11.4230  11.4307  11.4307  11.4307  11.8828  11.8828
    11.8828  12.1754  12.4300  12.4300  12.4300  12.4493  12.4493  12.8192
    12.8781  12.8781  12.8781  12.9226  12.9226  12.9226  12.9947  12.9947
    12.9947  13.0724  13.0724  13.0724  13.1945  13.1945  13.1945  13.3701
    13.3701  13.5854  13.6461  13.6461  13.6461  13.6850  13.6850  13.7860
    13.7860  13.8096  13.8096  13.8096  13.8599  13.8599  13.8599  13.8949
    13.9472  13.9472  13.9472  13.9613  13.9613  14.2535  14.2535  14.2535
    14.3957  14.3957  14.3957  14.5772  14.5772  14.5772  15.0962  15.0962
    15.0962  15.3962  15.3962  15.3962  15.4672  15.4672  15.4672  15.5843
    15.5843  15.6409  15.6797  15.6797  15.6946  15.6946  15.6946  15.8127
    15.8167  15.8167  15.8167  15.8544  15.8544  16.0269  16.0269  16.0269
    16.4009  16.4009  16.4009  16.4676  16.4676  16.4676  16.4984  16.4984
    16.4984  16.9095  16.9095  16.9098  16.9396  16.9397  16.9427  16.9820
    17.0392  17.0393  17.0393  17.0661  17.0729  17.1509  17.1515  17.1517

          k = 0.0000 0.0000 0.1924 ( 48469 PWs)   bands (ev):

   -70.8427 -70.8106 -70.7934 -70.7865 -70.7865 -70.7839 -70.7759 -70.7567
   -70.7565 -70.7565 -70.7547 -70.7533 -70.7533 -70.7520 -70.7520 -70.7520
   -42.4011 -42.3892 -42.3871 -42.3728 -42.3720 -42.3720 -42.3660 -42.3516
   -37.4557 -37.3360 -37.2787 -37.2350 -37.2350 -37.2340 -37.1798 -37.0731
   -37.0631 -37.0631 -37.0235 -37.0235 -37.0192 -37.0167 -37.0167 -37.0167
   -36.8707 -36.8698 -36.8284 -36.8258 -36.8246 -36.8182 -36.8182 -36.8099
   -36.7994 -36.7964 -36.7964 -36.7902 -36.7816 -36.7816 -36.7746 -36.7625
   -36.7600 -36.7570 -36.7570 -36.7500 -36.7449 -36.7449 -36.7327 -36.7096
   -36.7079 -36.7079 -36.7052 -36.7024 -36.7024 -36.6868 -36.6857 -36.6857
   -18.6868 -18.6868 -18.6861 -18.6847 -18.6826 -18.6826 -18.6569 -18.6569
   -18.6524 -18.6179 -18.6041 -18.6041 -18.5993 -18.5934 -18.5816 -18.5444
   -18.5389 -18.5389 -18.5196 -18.5196 -18.5182 -18.5140 -18.5140 -18.5138
     4.5270   5.7841   6.3340   6.3922   6.3922   6.9122   8.2397   9.5108
    10.7434  11.2243  11.4347  11.4405  11.4405  11.7005  11.9293  11.9293
    11.9993  12.1113  12.2987  12.3180  12.3180  12.3325  12.6237  12.6237
    12.7106  12.8263  12.8663  12.8849  12.8855  12.8855  12.9161  13.0298
    13.0298  13.1406  13.1650  13.1650  13.2406  13.3801  13.3801  13.3859
    13.4047  13.5690  13.6085  13.6085  13.6127  13.6849  13.7321  13.7321
    13.7594  13.7764  13.8266  13.8602  13.8907  13.9099  13.9099  13.9251
    13.9525  13.9903  13.9903  14.0007  14.0325  14.0998  14.2078  14.2078
    14.4221  14.5057  14.5057  14.6064  14.6950  14.6950  15.1048  15.1048
    15.1060  15.2053  15.2498  15.2498  15.3177  15.4456  15.5310  15.5310
    15.5648  15.6586  15.6822  15.7578  15.7987  15.7987  15.8177  15.8238
    15.9250  15.9385  15.9385  15.9591  16.0173  16.0173  16.0387  16.0991
    16.3703  16.3703  16.3838  16.3838  16.4257  16.4399  16.4399  16.4590
    16.5389  16.7283  16.7769  16.8274  16.8388  16.8388  16.8508  16.9033
    16.9406  16.9407  16.9833  17.0160  17.0161  17.0344  17.1050  17.1935

          k = 0.0000 0.0000 0.3847 ( 48538 PWs)   bands (ev):

   -70.8420 -70.8103 -70.7984 -70.7865 -70.7865 -70.7839 -70.7674 -70.7599
   -70.7565 -70.7565 -70.7560 -70.7533 -70.7533 -70.7520 -70.7520 -70.7520
   -42.3987 -42.3933 -42.3871 -42.3732 -42.3720 -42.3720 -42.3619 -42.3536
   -37.4280 -37.3772 -37.2918 -37.2345 -37.2345 -37.2334 -37.1335 -37.0912
   -37.0534 -37.0534 -37.0354 -37.0354 -37.0210 -37.0182 -37.0182 -37.0178
   -36.8707 -36.8682 -36.8324 -36.8276 -36.8209 -36.8209 -36.8186 -36.8073
   -36.8033 -36.7923 -36.7923 -36.7918 -36.7757 -36.7755 -36.7755 -36.7701
   -36.7599 -36.7599 -36.7483 -36.7462 -36.7384 -36.7384 -36.7187 -36.7155
   -36.7143 -36.7143 -36.7084 -36.6983 -36.6983 -36.6967 -36.6914 -36.6914
   -18.6875 -18.6875 -18.6866 -18.6846 -18.6791 -18.6791 -18.6610 -18.6610
   -18.6457 -18.6321 -18.6036 -18.6036 -18.5989 -18.5923 -18.5664 -18.5532
   -18.5336 -18.5336 -18.5236 -18.5236 -18.5182 -18.5144 -18.5144 -18.5139
     4.7681   5.2854   6.3399   6.3983   6.3983   7.3032   8.1934   9.7485
    10.1851  11.2334  11.4571  11.4587  11.4587  11.5050  12.0499  12.0588
    12.0588  12.1216  12.1778  12.1811  12.1811  12.3232  12.3232  12.4836
    12.7267  12.7886  12.8153  12.8215  12.8215  12.8217  13.1289  13.1289
    13.1404  13.2481  13.2510  13.2510  13.2982  13.3292  13.3292  13.4006
    13.4962  13.5394  13.5473  13.5473  13.5794  13.6446  13.6742  13.7221
    13.8572  13.8572  13.8724  13.8869  13.9335  13.9392  13.9740  13.9740
    13.9859  14.0313  14.0781  14.0781  14.1193  14.2296  14.2296  14.2730
    14.3552  14.4930  14.4930  14.5334  14.8923  14.8923  15.0497  15.0497
    15.0551  15.1285  15.1285  15.1506  15.1763  15.2634  15.5635  15.6122
    15.6975  15.7691  15.7691  15.8114  15.9718  15.9718  15.9897  15.9962
    15.9962  16.0096  16.0385  16.1165  16.1165  16.1535  16.1986  16.2158
    16.2158  16.2571  16.2571  16.2870  16.3397  16.3397  16.3442  16.3593
    16.5151  16.5834  16.6415  16.6629  16.6629  16.7262  16.8735  16.9241
    16.9512  16.9516  16.9517  16.9863  16.9864  17.0038  17.0881  17.1198

          k = 0.0000 0.1924 0.1924 ( 48486 PWs)   bands (ev):

   -70.8424 -70.8102 -70.7955 -70.7912 -70.7858 -70.7782 -70.7748 -70.7574
   -70.7565 -70.7564 -70.7554 -70.7535 -70.7533 -70.7520 -70.7520 -70.7520
   -42.4002 -42.3898 -42.3883 -42.3751 -42.3715 -42.3692 -42.3652 -42.3524
   -37.4463 -37.3417 -37.2986 -37.2686 -37.2271 -37.1901 -37.1726 -37.0759
   -37.0627 -37.0596 -37.0267 -37.0251 -37.0234 -37.0212 -37.0175 -37.0163
   -36.8702 -36.8692 -36.8287 -36.8264 -36.8241 -36.8183 -36.8144 -36.8119
   -36.8087 -36.7949 -36.7925 -36.7860 -36.7813 -36.7802 -36.7693 -36.7647
   -36.7646 -36.7573 -36.7559 -36.7518 -36.7412 -36.7362 -36.7290 -36.7190
   -36.7080 -36.7062 -36.7037 -36.7037 -36.7016 -36.6926 -36.6881 -36.6851
   -18.6888 -18.6862 -18.6845 -18.6840 -18.6817 -18.6813 -18.6589 -18.6564
   -18.6527 -18.6187 -18.6175 -18.6100 -18.5903 -18.5834 -18.5793 -18.5445
   -18.5395 -18.5367 -18.5211 -18.5201 -18.5191 -18.5150 -18.5150 -18.5131
     4.6123   5.7192   5.9250   6.3576   6.7551   7.0587   8.2031   9.5860
    10.7153  10.8658  11.2873  11.3912  11.6562  11.8633  11.9522  11.9623
    12.0214  12.0832  12.1751  12.2230  12.3449  12.3516  12.3959  12.5627
    12.6084  12.6248  12.7894  12.8360  12.9623  12.9843  13.0589  13.1049
    13.1065  13.1942  13.2031  13.2663  13.3451  13.3739  13.4126  13.4199
    13.4263  13.5298  13.5663  13.5687  13.6594  13.7389  13.7561  13.7588
    13.7985  13.8051  13.8061  13.8399  13.8409  13.8719  13.9031  13.9361
    13.9594  13.9861  13.9965  14.0284  14.0318  14.0411  14.1125  14.2033
    14.5491  14.5880  14.6560  14.7304  14.7346  14.7686  15.0980  15.1257
    15.1294  15.1347  15.1681  15.2143  15.3067  15.3872  15.3926  15.5898
    15.6470  15.6577  15.6884  15.6994  15.7603  15.8554  15.8777  15.9559
    15.9815  15.9842  16.0052  16.0253  16.0524  16.0876  16.1093  16.1692
    16.2686  16.2908  16.3612  16.3823  16.3830  16.4050  16.4094  16.4602
    16.5221  16.6844  16.6892  16.7271  16.7809  16.8457  16.8628  16.8819
    16.8925  16.9327  16.9342  16.9780  17.0053  17.0147  17.0618  17.1579

          k = 0.0000 0.1924 0.3847 ( 48550 PWs)   bands (ev):

   -70.8418 -70.8092 -70.7998 -70.7928 -70.7847 -70.7774 -70.7680 -70.7609
   -70.7565 -70.7563 -70.7560 -70.7536 -70.7534 -70.7520 -70.7520 -70.7520
   -42.3979 -42.3931 -42.3887 -42.3763 -42.3706 -42.3686 -42.3624 -42.3542
   -37.4210 -37.3720 -37.3127 -37.2814 -37.2170 -37.1845 -37.1334 -37.0927
   -37.0544 -37.0509 -37.0372 -37.0350 -37.0263 -37.0245 -37.0189 -37.0176
   -36.8699 -36.8676 -36.8305 -36.8263 -36.8216 -36.8198 -36.8161 -36.8104
   -36.8042 -36.8014 -36.7954 -36.7850 -36.7810 -36.7738 -36.7688 -36.7647
   -36.7584 -36.7565 -36.7542 -36.7474 -36.7377 -36.7351 -36.7283 -36.7170
   -36.7146 -36.7069 -36.7036 -36.7015 -36.7011 -36.6968 -36.6940 -36.6893
   -18.6897 -18.6863 -18.6841 -18.6827 -18.6791 -18.6781 -18.6623 -18.6603
   -18.6466 -18.6328 -18.6184 -18.6155 -18.5843 -18.5800 -18.5654 -18.5523
   -18.5350 -18.5318 -18.5252 -18.5233 -18.5199 -18.5167 -18.5150 -18.5130
     4.8438   5.3201   5.8895   6.3026   6.8625   7.3890   8.1044   9.8201
    10.2435  10.9180  11.1322  11.3185  11.7219  11.8402  11.9606  12.0337
    12.0764  12.1163  12.1192  12.1946  12.2350  12.2576  12.3213  12.3946
    12.5010  12.5286  12.5984  12.8323  13.0957  13.1155  13.1586  13.2175
    13.2384  13.2699  13.2846  13.3110  13.3485  13.3550  13.4282  13.4333
    13.4683  13.4961  13.5070  13.5756  13.6307  13.6721  13.7085  13.7415
    13.8007  13.8066  13.8146  13.8462  13.8653  13.9038  13.9619  13.9842
    13.9861  14.0048  14.0351  14.0514  14.0740  14.1016  14.1406  14.2039
    14.6188  14.6627  14.7134  14.7456  14.9204  14.9460  15.0346  15.0505
    15.0800  15.1315  15.1539  15.1674  15.2402  15.2628  15.5207  15.5773
    15.5958  15.6695  15.7877  15.8668  15.8848  15.9340  15.9797  15.9994
    16.0292  16.0489  16.0617  16.1253  16.1356  16.1640  16.1906  16.2167
    16.2322  16.2423  16.2636  16.2729  16.2949  16.3480  16.4026  16.4159
    16.4432  16.5656  16.6222  16.6493  16.6850  16.7410  16.7749  16.8147
    16.8484  16.8779  16.8859  16.9013  16.9428  16.9830  17.0340  17.1445

          k = 0.0000 0.3847 0.3847 ( 48478 PWs)   bands (ev):

   -70.8416 -70.8064 -70.8018 -70.7988 -70.7822 -70.7715 -70.7683 -70.7641
   -70.7565 -70.7561 -70.7560 -70.7540 -70.7534 -70.7520 -70.7520 -70.7520
   -42.3959 -42.3931 -42.3916 -42.3785 -42.3678 -42.3659 -42.3637 -42.3552
   -37.4042 -37.3614 -37.3398 -37.3184 -37.1962 -37.1458 -37.1301 -37.1041
   -37.0528 -37.0445 -37.0418 -37.0356 -37.0350 -37.0314 -37.0219 -37.0206
   -36.8692 -36.8660 -36.8266 -36.8220 -36.8205 -36.8186 -36.8175 -36.8115
   -36.8104 -36.8019 -36.8017 -36.7927 -36.7732 -36.7704 -36.7666 -36.7616
   -36.7568 -36.7521 -36.7516 -36.7500 -36.7419 -36.7328 -36.7238 -36.7216
   -36.7150 -36.7124 -36.7089 -36.7006 -36.6964 -36.6955 -36.6947 -36.6898
   -18.6901 -18.6836 -18.6832 -18.6822 -18.6778 -18.6755 -18.6633 -18.6608
   -18.6446 -18.6337 -18.6321 -18.6275 -18.5715 -18.5652 -18.5649 -18.5545
   -18.5359 -18.5288 -18.5277 -18.5243 -18.5228 -18.5173 -18.5167 -18.5139
     5.0530   5.3476   5.5162   6.1542   7.2821   7.5297   7.8708  10.0303
    10.3635  10.5181  10.7614  11.3268  11.9137  11.9633  12.0099  12.0705
    12.0711  12.0819  12.0919  12.1309  12.1339  12.1828  12.2264  12.3142
    12.3701  12.3777  12.4158  12.8541  13.2046  13.2853  13.2980  13.3226
    13.3345  13.3759  13.3778  13.4140  13.4339  13.4466  13.4746  13.4969
    13.5121  13.5129  13.5186  13.5619  13.5872  13.6244  13.6584  13.6967
    13.7030  13.7071  13.7273  13.7763  13.7900  13.7985  13.8376  13.8790
    13.9949  14.0303  14.0479  14.1170  14.1325  14.1444  14.2100  14.2124
    14.8842  14.8997  14.9229  14.9550  14.9609  14.9825  15.0191  15.0623
    15.0847  15.1818  15.2007  15.2404  15.2815  15.3673  15.3810  15.4489
    15.5247  15.5465  15.6801  15.8120  15.8573  15.9363  15.9584  16.0353
    16.0824  16.1090  16.1102  16.1189  16.1376  16.1607  16.1786  16.1900
    16.2186  16.2583  16.2935  16.2973  16.3304  16.3477  16.3492  16.3840
    16.4113  16.4426  16.5621  16.5941  16.6701  16.6880  16.7009  16.7805
    16.8367  16.8555  16.8713  16.8830  16.8994  16.9091  17.0086  17.0704

          k = 0.1924 0.1924 0.1924 ( 48503 PWs)   bands (ev):

   -70.8421 -70.8096 -70.7955 -70.7955 -70.7843 -70.7748 -70.7748 -70.7584
   -70.7564 -70.7564 -70.7556 -70.7535 -70.7535 -70.7520 -70.7520 -70.7520
   -42.3994 -42.3898 -42.3898 -42.3765 -42.3692 -42.3692 -42.3647 -42.3531
   -37.4377 -37.3463 -37.2994 -37.2994 -37.2119 -37.1703 -37.1703 -37.0780
   -37.0597 -37.0597 -37.0283 -37.0283 -37.0270 -37.0220 -37.0192 -37.0192
   -36.8691 -36.8691 -36.8286 -36.8238 -36.8238 -36.8177 -36.8177 -36.8146
   -36.8009 -36.8009 -36.7946 -36.7825 -36.7810 -36.7810 -36.7665 -36.7665
   -36.7636 -36.7560 -36.7560 -36.7550 -36.7336 -36.7336 -36.7259 -36.7203
   -36.7142 -36.7142 -36.6999 -36.6999 -36.6990 -36.6944 -36.6944 -36.6833
   -18.6878 -18.6878 -18.6835 -18.6817 -18.6808 -18.6808 -18.6579 -18.6579
   -18.6541 -18.6215 -18.6215 -18.6187 -18.5805 -18.5805 -18.5755 -18.5438
   -18.5377 -18.5377 -18.5222 -18.5206 -18.5206 -18.5154 -18.5154 -18.5138
     4.6932   5.7264   5.7264   6.2562   7.0547   7.0547   8.1534   9.6612
    10.6903  10.9008  10.9008  11.4548  11.8533  11.8533  11.9048  11.9323
    11.9323  12.1437  12.1437  12.1574  12.3339  12.3462  12.3462  12.4758
    12.4758  12.4975  12.6800  12.8226  13.0953  13.1119  13.1119  13.1378
    13.1378  13.2914  13.2914  13.3276  13.3784  13.4053  13.4053  13.4415
    13.4415  13.5716  13.6086  13.6086  13.6385  13.7152  13.7152  13.7791
    13.7791  13.7822  13.7900  13.7900  13.8345  13.8753  13.9100  13.9100
    13.9296  13.9334  13.9334  14.0042  14.0042  14.0915  14.1729  14.1729
    14.7135  14.7156  14.7156  14.8207  14.8207  14.8250  15.1212  15.1212
    15.1344  15.1915  15.1915  15.2089  15.3046  15.3062  15.3062  15.6142
    15.6142  15.6728  15.6728  15.7119  15.8015  15.8015  15.8512  16.0061
    16.0269  16.0552  16.0552  16.0805  16.0805  16.1549  16.1939  16.1939
    16.2524  16.2658  16.2658  16.3273  16.3273  16.3615  16.3615  16.3782
    16.6426  16.6426  16.6816  16.6851  16.7331  16.7509  16.7509  16.8423
    16.8423  16.9547  16.9585  16.9714  16.9715  17.0172  17.0195  17.0592

          k = 0.1924 0.1924 0.3847 ( 48490 PWs)   bands (ev):

   -70.8417 -70.8083 -70.8004 -70.7955 -70.7837 -70.7748 -70.7683 -70.7619
   -70.7564 -70.7563 -70.7560 -70.7537 -70.7535 -70.7520 -70.7520 -70.7520
   -42.3973 -42.3930 -42.3898 -42.3774 -42.3692 -42.3675 -42.3629 -42.3546
   -37.4154 -37.3685 -37.3229 -37.3005 -37.2056 -37.1663 -37.1316 -37.0932
   -37.0526 -37.0519 -37.0374 -37.0371 -37.0298 -37.0267 -37.0216 -37.0204
   -36.8689 -36.8672 -36.8286 -36.8237 -36.8232 -36.8181 -36.8145 -36.8135
   -36.8028 -36.8025 -36.7944 -36.7895 -36.7826 -36.7770 -36.7675 -36.7629
   -36.7568 -36.7566 -36.7532 -36.7504 -36.7349 -36.7346 -36.7271 -36.7195
   -36.7161 -36.7099 -36.7056 -36.7016 -36.6976 -36.6974 -36.6927 -36.6860
   -18.6890 -18.6859 -18.6832 -18.6804 -18.6780 -18.6780 -18.6619 -18.6607
   -18.6488 -18.6346 -18.6253 -18.6230 -18.5764 -18.5731 -18.5632 -18.5505
   -18.5337 -18.5334 -18.5254 -18.5246 -18.5211 -18.5175 -18.5161 -18.5139
     4.9121   5.3449   5.7381   6.2298   7.0481   7.4248   8.0222   9.8869
    10.3048  10.8518  10.9712  11.3313  11.7030  11.7689  11.9537  12.0377
    12.0616  12.1194  12.1400  12.1805  12.2254  12.2381  12.2705  12.3426
    12.3971  12.4066  12.4863  12.8168  13.2165  13.2207  13.2370  13.2789
    13.2883  13.3216  13.3398  13.3626  13.3711  13.4158  13.4573  13.4607
    13.5131  13.5159  13.5495  13.6029  13.6077  13.6701  13.6872  13.7233
    13.7437  13.7900  13.7927  13.8089  13.8382  13.8480  13.8877  13.9180
    13.9556  13.9816  14.0016  14.0253  14.0585  14.1258  14.1511  14.1922
    14.7774  14.8194  14.8245  14.9061  14.9651  15.0115  15.0704  15.1049
    15.1259  15.1469  15.1530  15.2614  15.2877  15.3078  15.4556  15.5518
    15.6077  15.6629  15.6924  15.7889  15.8164  15.8583  15.9136  15.9631
    16.0480  16.0734  16.1186  16.1271  16.1542  16.1934  16.1995  16.2054
    16.2185  16.2393  16.2587  16.2670  16.3374  16.3489  16.3753  16.3872
    16.4639  16.4753  16.5124  16.5754  16.6379  16.6621  16.6994  16.7606
    16.7794  16.8325  16.9334  16.9436  16.9818  17.0422  17.0430  17.0796

          k = 0.1924 0.3847 0.3847 ( 48499 PWs)   bands (ev):

   -70.8415 -70.8058 -70.8018 -70.7997 -70.7823 -70.7705 -70.7683 -70.7645
   -70.7563 -70.7561 -70.7560 -70.7540 -70.7536 -70.7520 -70.7520 -70.7520
   -42.3955 -42.3931 -42.3920 -42.3788 -42.3672 -42.3659 -42.3639 -42.3553
   -37.4025 -37.3608 -37.3409 -37.3267 -37.1921 -37.1367 -37.1253 -37.1018
   -37.0520 -37.0465 -37.0420 -37.0377 -37.0373 -37.0319 -37.0256 -37.0247
   -36.8678 -36.8658 -36.8251 -36.8217 -36.8203 -36.8177 -36.8167 -36.8106
   -36.8069 -36.8012 -36.8003 -36.7923 -36.7795 -36.7762 -36.7700 -36.7658
   -36.7601 -36.7536 -36.7525 -36.7519 -36.7337 -36.7297 -36.7238 -36.7203
   -36.7178 -36.7141 -36.7128 -36.7066 -36.6922 -36.6906 -36.6906 -36.6858
   -18.6881 -18.6840 -18.6807 -18.6798 -18.6764 -18.6753 -18.6629 -18.6613
   -18.6490 -18.6375 -18.6364 -18.6332 -18.5654 -18.5608 -18.5604 -18.5510
   -18.5355 -18.5300 -18.5287 -18.5253 -18.5238 -18.5186 -18.5181 -18.5156
     5.0985   5.3567   5.4792   6.1387   7.3392   7.5106   7.8115  10.0635
    10.4182  10.5976  10.7858  11.3272  11.7068  11.8479  11.9072  11.9854
    12.0326  12.1067  12.1187  12.1452  12.1560  12.1721  12.1979  12.2566
    12.3072  12.3096  12.3472  12.8032  13.2995  13.3503  13.3672  13.3751
    13.3897  13.4007  13.4356  13.4465  13.4715  13.4716  13.5113  13.5143
    13.5263  13.5387  13.5620  13.5705  13.6153  13.6286  13.6622  13.6637
    13.6851  13.7026  13.7353  13.7465  13.7599  13.7852  13.8272  13.8676
    13.9619  13.9928  14.0104  14.0481  14.0929  14.1397  14.1833  14.1929
    14.9727  14.9965  15.0335  15.0502  15.0546  15.0961  15.1169  15.1695
    15.1912  15.2377  15.3115  15.3260  15.3663  15.4190  15.4329  15.4911
    15.5085  15.5537  15.6618  15.7004  15.7433  15.7927  15.9095  15.9458
    15.9680  15.9876  16.0572  16.0687  16.1179  16.1646  16.1717  16.1786
    16.2075  16.2304  16.2683  16.2730  16.2933  16.2971  16.3263  16.3516
    16.4267  16.4285  16.4834  16.5351  16.6223  16.7340  16.7367  16.7738
    16.7877  16.8692  16.8707  16.9202  16.9604  17.0387  17.0540  17.1407

          k = 0.3847 0.3847 0.3847 ( 48449 PWs)   bands (ev):

   -70.8415 -70.8042 -70.8018 -70.8018 -70.7824 -70.7683 -70.7683 -70.7660
   -70.7561 -70.7561 -70.7560 -70.7540 -70.7540 -70.7520 -70.7520 -70.7520
   -42.3945 -42.3931 -42.3931 -42.3791 -42.3659 -42.3659 -42.3645 -42.3555
   -37.3997 -37.3563 -37.3427 -37.3427 -37.1862 -37.1168 -37.1168 -37.1018
   -37.0500 -37.0500 -37.0422 -37.0422 -37.0408 -37.0332 -37.0322 -37.0322
   -36.8654 -36.8654 -36.8227 -36.8227 -36.8221 -36.8165 -36.8090 -36.8090
   -36.8033 -36.7972 -36.7947 -36.7947 -36.7831 -36.7831 -36.7761 -36.7761
   -36.7698 -36.7559 -36.7540 -36.7540 -36.7246 -36.7246 -36.7243 -36.7204
   -36.7204 -36.7154 -36.7132 -36.7132 -36.6860 -36.6860 -36.6858 -36.6833
   -18.6840 -18.6840 -18.6758 -18.6758 -18.6746 -18.6734 -18.6624 -18.6624
   -18.6565 -18.6434 -18.6434 -18.6430 -18.5537 -18.5537 -18.5530 -18.5462
   -18.5345 -18.5345 -18.5290 -18.5276 -18.5276 -18.5203 -18.5203 -18.5190
     5.2168   5.3718   5.3718   6.1186   7.4798   7.4798   7.6668  10.1105
    10.5693  10.7630  10.7630  11.3059  11.5823  11.5823  11.7221  12.0220
    12.0275  12.0275  12.0907  12.0907  12.1161  12.1161  12.1236  12.2187
    12.2474  12.2474  12.2702  12.7313  13.4220  13.4220  13.4222  13.4652
    13.4652  13.4784  13.4884  13.4884  13.5319  13.5319  13.5404  13.5457
    13.5613  13.5613  13.5787  13.5947  13.5947  13.6402  13.6430  13.6430
    13.6889  13.6948  13.6948  13.7365  13.7365  13.7911  13.7976  13.7976
    13.9313  13.9991  13.9991  14.0327  14.0327  14.1518  14.1518  14.1577
    15.1445  15.1963  15.1963  15.2297  15.2297  15.2571  15.2571  15.3345
    15.3345  15.3430  15.4317  15.4473  15.5243  15.5243  15.5420  15.5852
    15.5852  15.6057  15.6211  15.6211  15.7082  15.7082  15.7497  15.7497
    15.7633  15.8035  15.8607  15.8607  15.9715  16.0878  16.0878  16.1138
    16.1425  16.1425  16.1834  16.2001  16.2073  16.2073  16.2604  16.2604
    16.4317  16.4700  16.4700  16.7006  16.7528  16.7528  16.7983  16.8018
    16.8018  16.8138  16.8463  16.8463  16.9201  16.9694  16.9694  17.0118

     the Fermi energy is    15.1887 ev

!    total energy              =   -6230.61247672 Ry
     estimated scf accuracy    <          9.9E-11 Ry
     smearing contrib. (-TS)   =       0.00047226 Ry
     internal energy E=F+TS    =   -6230.61294898 Ry

     The total energy is F=E-TS. E is the sum of the following terms:
     one-electron contribution =   -2592.58875035 Ry
     hartree contribution      =    1475.20591892 Ry
     xc contribution           =    -706.39075874 Ry
     ewald contribution        =   -3188.36545151 Ry
     one-center paw contrib.   =   -1218.47390730 Ry

     total magnetization       =    19.46 Bohr mag/cell
     absolute magnetization    =    38.56 Bohr mag/cell

     convergence has been achieved in  14 iterations

     negative rho (up, down):  7.349E-03 1.093E-03

     Forces acting on atoms (cartesian axes, Ry/au):

     atom    1 type  1   force =     0.00001388    0.00001388   -0.00001506
     atom    2 type  1   force =    -0.00000507   -0.00000507   -0.00000507
     atom    3 type  1   force =    -0.00001388   -0.00001506   -0.00001388
     atom    4 type  1   force =     0.00001506   -0.00001388    0.00001388
     atom    5 type  1   force =     0.00001388   -0.00001506    0.00001388
     atom    6 type  1   force =    -0.00001506    0.00001388    0.00001388
     atom    7 type  1   force =    -0.00001388    0.00001506    0.00001388
     atom    8 type  1   force =     0.00000507   -0.00000507    0.00000507
     atom    9 type  1   force =    -0.00000507    0.00000507    0.00000507
     atom   10 type  1   force =    -0.00001506   -0.00001388   -0.00001388
     atom   11 type  1   force =     0.00001506    0.00001388   -0.00001388
     atom   12 type  1   force =    -0.00001388   -0.00001388   -0.00001506
     atom   13 type  1   force =     0.00000507    0.00000507   -0.00000507
     atom   14 type  1   force =    -0.00001388    0.00001388    0.00001506
     atom   15 type  1   force =     0.00001388    0.00001506   -0.00001388
     atom   16 type  1   force =     0.00001388   -0.00001388    0.00001506
     atom   17 type  2   force =     0.00000000    0.00000000    0.00000000
     atom   18 type  2   force =    -0.00005719   -0.00005719    0.00005719
     atom   19 type  2   force =     0.00000000    0.00000000    0.00000000
     atom   20 type  2   force =    -0.00005719    0.00005719   -0.00005719
     atom   21 type  2   force =     0.00000000    0.00000000    0.00000000
     atom   22 type  2   force =     0.00005719    0.00005719    0.00005719
     atom   23 type  2   force =     0.00005719   -0.00005719   -0.00005719
     atom   24 type  2   force =     0.00000000    0.00000000    0.00000000
     atom   25 type  3   force =    -0.00000163   -0.00000163    0.00000163
     atom   26 type  3   force =     0.00000000    0.00000000    0.00000000
     atom   27 type  3   force =    -0.00000163    0.00000163   -0.00000163
     atom   28 type  3   force =     0.00000000    0.00000000    0.00000000
     atom   29 type  3   force =     0.00000163    0.00000163    0.00000163
     atom   30 type  3   force =     0.00000163   -0.00000163   -0.00000163
     atom   31 type  3   force =     0.00000000    0.00000000    0.00000000

     Total force =     0.000217     Total SCF correction =     0.000027
     SCF correction compared to forces is large: reduce conv_thr to get better values


     Computing stress (Cartesian axis) and pressure


     negative rho (up, down):  7.349E-03 1.093E-03
          total   stress  (Ry/bohr**3)                   (kbar)     P=        0.01
   0.00000008   0.00000000   0.00000000            0.01        0.00        0.00
   0.00000000   0.00000008   0.00000000            0.00        0.01        0.00
   0.00000000   0.00000000   0.00000008            0.00        0.00        0.01

     Energy error            =      1.0E-06 Ry
     Gradient error          =      5.7E-05 Ry/Bohr
     Cell gradient error     =      1.1E-02 kbar

     bfgs converged in  14 scf cycles and  13 bfgs steps
     (criteria: energy <  1.0E-04 Ry, force <  1.0E-03 Ry/Bohr, cell <  1.0E-01 kbar)

     End of BFGS Geometry Optimization

     Final enthalpy           =   -6230.6124767173 Ry

     File ./TiFe2_cub_8b_8H.bfgs deleted, as requested
Begin final coordinates
     new unit-cell volume =   2337.97412 a.u.^3 (   346.45202 Ang^3 )
     density =      6.15184 g/cm^3

CELL_PARAMETERS (alat= 12.76591255)
   1.039668058   0.000000000   0.000000000
   0.000000000   1.039668058   0.000000000
   0.000000000   0.000000000   1.039668058

ATOMIC_POSITIONS (crystal)
Fe               0.1251765463        0.1251765463        0.6280772591
Fe               0.6157268576        0.6157268576        0.6157268576
Fe               0.8748234537        0.6280772591        0.8748234537
Fe               0.3719227409        0.8748234537        0.1251765463
Fe               0.1251765463        0.6280772591        0.1251765463
Fe               0.6280772591        0.1251765463        0.1251765463
Fe               0.8748234537        0.3719227409        0.1251765463
Fe               0.3842731424        0.6157268576        0.3842731424
Fe               0.6157268576        0.3842731424        0.3842731424
Fe               0.6280772591        0.8748234537        0.8748234537
Fe               0.3719227409        0.1251765463        0.8748234537
Fe               0.8748234537        0.8748234537        0.6280772591
Fe               0.3842731424        0.3842731424        0.6157268576
Fe               0.8748234537        0.1251765463        0.3719227409
Fe               0.1251765463        0.3719227409        0.8748234537
Fe               0.1251765463        0.8748234537        0.3719227409
Ti               0.0000000000        0.0000000000        0.0000000000
Ti               0.7486258906        0.7486258906        0.2513741094
Ti               0.5000000000        0.0000000000        0.5000000000
Ti               0.7486258906        0.2513741094        0.7486258906
Ti               0.0000000000        0.5000000000        0.5000000000
Ti               0.2513741094        0.2513741094        0.2513741094
Ti               0.2513741094        0.7486258906        0.7486258906
Ti               0.5000000000        0.5000000000        0.0000000000
H                0.2586067683        0.2586067683        0.7413932317
H                0.0000000000        0.5000000000        0.0000000000
H                0.2586067683        0.7413932317        0.2586067683
H                0.5000000000        0.0000000000        0.0000000000
H                0.7413932317        0.7413932317        0.7413932317
H                0.7413932317        0.2586067683        0.2586067683
H                0.0000000000        0.0000000000        0.5000000000
End final coordinates



     Writing config-only to output data dir ./TiFe2_cub_8b_8H.save/ :
     XML data file
     Final scf calculation at the relaxed structure.
     The G-vectors are recalculated for the final unit cell
     Results may differ from those at the preceding step.

     Parallelization info
     --------------------
     sticks:   dense  smooth     PW     G-vecs:    dense   smooth      PW
     Min        1520     435    116               178496    27262    3724
     Max        1521     436    117               178497    27263    3725
     Sum       24329    6961   1861              2855945   436207   59589

     Using Slab Decomposition



     bravais-lattice index     =            0
     lattice parameter (alat)  =      12.7659  a.u.
     unit-cell volume          =    2337.9741 (a.u.)^3
     number of atoms/cell      =           31
     number of atomic types    =            3
     number of electrons       =       359.00
     number of Kohn-Sham states=          216
     kinetic-energy cutoff     =     124.0000  Ry
     charge density cutoff     =    1736.0000  Ry
     scf convergence threshold =      1.0E-10
     mixing beta               =       0.2000
     number of iterations used =            8  local-TF  mixing
     press convergence thresh. =      1.0E-01
     Exchange-correlation= PBE
                           (   1   4   3   4   0   0   0)

     celldm(1)=  12.765913  celldm(2)=   0.000000  celldm(3)=   0.000000
     celldm(4)=   0.000000  celldm(5)=   0.000000  celldm(6)=   0.000000

     crystal axes: (cart. coord. in units of alat)
               a(1) = (   1.039668   0.000000   0.000000 )  
               a(2) = (   0.000000   1.039668   0.000000 )  
               a(3) = (   0.000000   0.000000   1.039668 )  

     reciprocal axes: (cart. coord. in units 2 pi/alat)
               b(1) = (  0.961845  0.000000  0.000000 )  
               b(2) = (  0.000000  0.961845  0.000000 )  
               b(3) = (  0.000000  0.000000  0.961845 )  


     PseudoPot. # 1 for Fe read from file:
     ../../pseudos/Fe.pbe-spn-kjpaw_psl.0.2.1.UPF
     MD5 check sum: e86618425769142926afa95317d90200
     Pseudo is Projector augmented-wave + core cor, Zval = 16.0
     Generated using "atomic" code by A. Dal Corso  v.5.0.99 svn rev. 10869
     Shape of augmentation charge: PSQ
     Using radial grid of 1191 points,  6 beta functions with: 
                l(1) =   0
                l(2) =   0
                l(3) =   1
                l(4) =   1
                l(5) =   2
                l(6) =   2
     Q(r) pseudized with 0 coefficients 


     PseudoPot. # 2 for Ti read from file:
     ../../pseudos/ti_pbe_v1.4.uspp.F.UPF
     MD5 check sum: 88a00a6731bd790ddea75d31a80cb452
     Pseudo is Ultrasoft + core correction, Zval = 12.0
     Generated by new atomic code, or converted to UPF format
     Using radial grid of  851 points,  6 beta functions with: 
                l(1) =   0
                l(2) =   0
                l(3) =   1
                l(4) =   1
                l(5) =   2
                l(6) =   2
     Q(r) pseudized with  6 coefficients,  rinner =    1.000   1.000   1.000
                                                       1.000   1.000

     PseudoPot. # 3 for H  read from file:
     ../../pseudos/H.pbe-rrkjus_psl.1.0.0.UPF
     MD5 check sum: f52b6d4d1c606e5624b1dc7b2218f220
     Pseudo is Ultrasoft, Zval =  1.0
     Generated using "atomic" code by A. Dal Corso  v.5.1
     Using radial grid of  929 points,  2 beta functions with: 
                l(1) =   0
                l(2) =   0
     Q(r) pseudized with 0 coefficients 


     atomic species   valence    mass     pseudopotential
     Fe               16.00    55.84500     Fe( 1.00)
     Ti               12.00    47.86700     Ti( 1.00)
     H                 1.00     1.00750     H ( 1.00)

     Starting magnetic structure 
     atomic species   magnetization
     Fe              0.123
     Ti             -0.081
     H              -0.006

     24 Sym. Ops. (no inversion) found



   Cartesian axes

     site n.     atom                  positions (alat units)
         1        Fe     tau(   1) = (   0.1301421   0.1301421   0.6529919  )
         2        Fe     tau(   2) = (   0.6401515   0.6401515   0.6401515  )
         3        Fe     tau(   3) = (   0.9095260   0.6529919   0.9095260  )
         4        Fe     tau(   4) = (   0.3866762   0.9095260   0.1301421  )
         5        Fe     tau(   5) = (   0.1301421   0.6529919   0.1301421  )
         6        Fe     tau(   6) = (   0.6529919   0.1301421   0.1301421  )
         7        Fe     tau(   7) = (   0.9095260   0.3866762   0.1301421  )
         8        Fe     tau(   8) = (   0.3995165   0.6401515   0.3995165  )
         9        Fe     tau(   9) = (   0.6401515   0.3995165   0.3995165  )
        10        Fe     tau(  10) = (   0.6529919   0.9095260   0.9095260  )
        11        Fe     tau(  11) = (   0.3866762   0.1301421   0.9095260  )
        12        Fe     tau(  12) = (   0.9095260   0.9095260   0.6529919  )
        13        Fe     tau(  13) = (   0.3995165   0.3995165   0.6401515  )
        14        Fe     tau(  14) = (   0.9095260   0.1301421   0.3866762  )
        15        Fe     tau(  15) = (   0.1301421   0.3866762   0.9095260  )
        16        Fe     tau(  16) = (   0.1301421   0.9095260   0.3866762  )
        17        Ti     tau(  17) = (   0.0000000   0.0000000   0.0000000  )
        18        Ti     tau(  18) = (   0.7783224   0.7783224   0.2613456  )
        19        Ti     tau(  19) = (   0.5198340   0.0000000   0.5198340  )
        20        Ti     tau(  20) = (   0.7783224   0.2613456   0.7783224  )
        21        Ti     tau(  21) = (   0.0000000   0.5198340   0.5198340  )
        22        Ti     tau(  22) = (   0.2613456   0.2613456   0.2613456  )
        23        Ti     tau(  23) = (   0.2613456   0.7783224   0.7783224  )
        24        Ti     tau(  24) = (   0.5198340   0.5198340   0.0000000  )
        25        H      tau(  25) = (   0.2688652   0.2688652   0.7708029  )
        26        H      tau(  26) = (   0.0000000   0.5198340   0.0000000  )
        27        H      tau(  27) = (   0.2688652   0.7708029   0.2688652  )
        28        H      tau(  28) = (   0.5198340   0.0000000   0.0000000  )
        29        H      tau(  29) = (   0.7708029   0.7708029   0.7708029  )
        30        H      tau(  30) = (   0.7708029   0.2688652   0.2688652  )
        31        H      tau(  31) = (   0.0000000   0.0000000   0.5198340  )

     number of k points=    10  Marzari-Vanderbilt smearing, width (Ry)=  0.0050
                       cart. coord. in units 2pi/alat
        k(    1) = (   0.0000000   0.0000000   0.0000000), wk =   0.0080000
        k(    2) = (   0.0000000   0.0000000   0.1923691), wk =   0.0480000
        k(    3) = (   0.0000000   0.0000000   0.3847382), wk =   0.0480000
        k(    4) = (   0.0000000   0.1923691   0.1923691), wk =   0.0960000
        k(    5) = (   0.0000000   0.1923691   0.3847382), wk =   0.1920000
        k(    6) = (   0.0000000   0.3847382   0.3847382), wk =   0.0960000
        k(    7) = (   0.1923691   0.1923691   0.1923691), wk =   0.0640000
        k(    8) = (   0.1923691   0.1923691   0.3847382), wk =   0.1920000
        k(    9) = (   0.1923691   0.3847382   0.3847382), wk =   0.1920000
        k(   10) = (   0.3847382   0.3847382   0.3847382), wk =   0.0640000

     Dense  grid:  2855945 G-vectors     FFT dimensions: ( 180, 180, 180)

     Smooth grid:   436207 G-vectors     FFT dimensions: (  96,  96,  96)

     Estimated max dynamical RAM per process >       1.07 GB

     Estimated total dynamical RAM >      17.15 GB

     Check: negative core charge=   -0.000002
     Generating pointlists ...

     Initial potential from superposition of free atoms

     starting charge     350.9926, renormalised to     359.0000

     negative rho (up, down):  5.022E-03 5.975E-03
     Starting wfcs are  295 randomized atomic wfcs
     Checking if some PAW data can be deallocated... 

     total cpu time spent up to now is   113998.6 secs

     per-process dynamical memory:   531.9 Mb

     Self-consistent Calculation

     iteration #  1     ecut=   124.00 Ry     beta= 0.20
     CG style diagonalization
     c_bands:  1 eigenvalues not converged
     c_bands:  4 eigenvalues not converged
     c_bands:  4 eigenvalues not converged
     c_bands:  1 eigenvalues not converged
     c_bands:  1 eigenvalues not converged
     c_bands:  3 eigenvalues not converged
     c_bands:  2 eigenvalues not converged
     c_bands:  1 eigenvalues not converged
     c_bands:  1 eigenvalues not converged
     c_bands:  1 eigenvalues not converged
     ethr =  1.00E-06,  avg # of iterations = 24.1

     negative rho (up, down):  1.694E-03 1.698E-03

     total cpu time spent up to now is   117141.2 secs

     total energy              =   -6219.09098759 Ry
     estimated scf accuracy    <     248.12088015 Ry

     total magnetization       =    10.69 Bohr mag/cell
     absolute magnetization    =    17.25 Bohr mag/cell

     iteration #  2     ecut=   124.00 Ry     beta= 0.20
     CG style diagonalization
     ethr =  1.00E-02,  avg # of iterations =  3.2

     negative rho (up, down):  2.462E-03 2.015E-03

     total cpu time spent up to now is   117465.6 secs

     total energy              =   -6229.87572771 Ry
     estimated scf accuracy    <       4.73521324 Ry

     total magnetization       =    13.57 Bohr mag/cell
     absolute magnetization    =    23.02 Bohr mag/cell

     iteration #  3     ecut=   124.00 Ry     beta= 0.20
     CG style diagonalization
     ethr =  1.32E-03,  avg # of iterations =  3.5

     negative rho (up, down):  3.778E-03 2.465E-03

     total cpu time spent up to now is   117827.1 secs

     total energy              =   -6230.17672854 Ry
     estimated scf accuracy    <       2.00752842 Ry

     total magnetization       =    13.24 Bohr mag/cell
     absolute magnetization    =    23.49 Bohr mag/cell

     iteration #  4     ecut=   124.00 Ry     beta= 0.20
     CG style diagonalization
     ethr =  5.59E-04,  avg # of iterations =  3.8

     negative rho (up, down):  5.129E-03 2.785E-03

     total cpu time spent up to now is   118235.6 secs

     total energy              =   -6230.31047062 Ry
     estimated scf accuracy    <       0.68102280 Ry

     total magnetization       =    17.52 Bohr mag/cell
     absolute magnetization    =    27.91 Bohr mag/cell

     iteration #  5     ecut=   124.00 Ry     beta= 0.20
     CG style diagonalization
     c_bands:  1 eigenvalues not converged
     c_bands:  1 eigenvalues not converged
     ethr =  1.90E-04,  avg # of iterations =  3.6

     negative rho (up, down):  5.684E-03 2.466E-03

     total cpu time spent up to now is   118611.7 secs

     total energy              =   -6230.44274354 Ry
     estimated scf accuracy    <       0.10297769 Ry

     total magnetization       =    17.30 Bohr mag/cell
     absolute magnetization    =    30.35 Bohr mag/cell

     iteration #  6     ecut=   124.00 Ry     beta= 0.20
     CG style diagonalization
     c_bands:  2 eigenvalues not converged
     c_bands:  2 eigenvalues not converged
     c_bands:  2 eigenvalues not converged
     c_bands:  4 eigenvalues not converged
     c_bands:  3 eigenvalues not converged
     c_bands:  1 eigenvalues not converged
     c_bands:  1 eigenvalues not converged
     c_bands:  4 eigenvalues not converged
     c_bands:  4 eigenvalues not converged
     c_bands:  1 eigenvalues not converged
     c_bands:  3 eigenvalues not converged
     c_bands:  2 eigenvalues not converged
     c_bands:  1 eigenvalues not converged
     c_bands:  2 eigenvalues not converged
     c_bands:  1 eigenvalues not converged
     c_bands:  3 eigenvalues not converged
     c_bands:  5 eigenvalues not converged
     c_bands:  4 eigenvalues not converged
     ethr =  2.87E-05,  avg # of iterations =  6.3

     negative rho (up, down):  5.649E-03 2.343E-03

     total cpu time spent up to now is   119348.7 secs

     total energy              =   -6230.57762869 Ry
     estimated scf accuracy    <       0.05421835 Ry

     total magnetization       =    17.31 Bohr mag/cell
     absolute magnetization    =    31.07 Bohr mag/cell

     iteration #  7     ecut=   124.00 Ry     beta= 0.20
     CG style diagonalization
     c_bands:  1 eigenvalues not converged
     c_bands:  1 eigenvalues not converged
     c_bands:  2 eigenvalues not converged
     c_bands:  2 eigenvalues not converged
     c_bands:  1 eigenvalues not converged
     c_bands:  2 eigenvalues not converged
     c_bands:  1 eigenvalues not converged
     c_bands:  5 eigenvalues not converged
     c_bands:  2 eigenvalues not converged
     c_bands:  2 eigenvalues not converged
     c_bands:  2 eigenvalues not converged
     c_bands:  1 eigenvalues not converged
     c_bands:  5 eigenvalues not converged
     c_bands:  3 eigenvalues not converged
     c_bands:  2 eigenvalues not converged
     ethr =  1.51E-05,  avg # of iterations =  4.1

     negative rho (up, down):  5.776E-03 1.975E-03

     total cpu time spent up to now is   119785.6 secs

     total energy              =   -6230.59115242 Ry
     estimated scf accuracy    <       0.05120697 Ry

     total magnetization       =    17.41 Bohr mag/cell
     absolute magnetization    =    31.22 Bohr mag/cell

     iteration #  8     ecut=   124.00 Ry     beta= 0.20
     CG style diagonalization
     c_bands:  1 eigenvalues not converged
     c_bands:  2 eigenvalues not converged
     c_bands:  1 eigenvalues not converged
     c_bands:  1 eigenvalues not converged
     c_bands:  1 eigenvalues not converged
     c_bands:  1 eigenvalues not converged
     c_bands:  1 eigenvalues not converged
     c_bands:  1 eigenvalues not converged
     c_bands:  1 eigenvalues not converged
     c_bands:  1 eigenvalues not converged
     ethr =  1.43E-05,  avg # of iterations =  3.2

     negative rho (up, down):  6.201E-03 1.425E-03

     total cpu time spent up to now is   120112.0 secs

     total energy              =   -6230.59627610 Ry
     estimated scf accuracy    <       0.03309129 Ry

     total magnetization       =    17.74 Bohr mag/cell
     absolute magnetization    =    32.11 Bohr mag/cell

     iteration #  9     ecut=   124.00 Ry     beta= 0.20
     CG style diagonalization
     c_bands:  1 eigenvalues not converged
     c_bands:  1 eigenvalues not converged
     c_bands:  1 eigenvalues not converged
     c_bands:  1 eigenvalues not converged
     c_bands:  1 eigenvalues not converged
     c_bands:  1 eigenvalues not converged
     ethr =  9.22E-06,  avg # of iterations =  3.5

     negative rho (up, down):  6.223E-03 1.426E-03

     total cpu time spent up to now is   120477.6 secs

     total energy              =   -6230.60527821 Ry
     estimated scf accuracy    <       0.00777706 Ry

     total magnetization       =    18.34 Bohr mag/cell
     absolute magnetization    =    34.24 Bohr mag/cell

     iteration # 10     ecut=   124.00 Ry     beta= 0.20
     CG style diagonalization
     c_bands:  2 eigenvalues not converged
     c_bands:  2 eigenvalues not converged
     c_bands:  1 eigenvalues not converged
     c_bands:  1 eigenvalues not converged
     c_bands:  1 eigenvalues not converged
     c_bands:  1 eigenvalues not converged
     c_bands:  1 eigenvalues not converged
     c_bands:  1 eigenvalues not converged
     c_bands:  2 eigenvalues not converged
     c_bands:  1 eigenvalues not converged
     c_bands:  2 eigenvalues not converged
     c_bands:  4 eigenvalues not converged
     c_bands:  2 eigenvalues not converged
     c_bands:  2 eigenvalues not converged
     c_bands:  1 eigenvalues not converged
     c_bands:  1 eigenvalues not converged
     c_bands:  1 eigenvalues not converged
     c_bands:  2 eigenvalues not converged
     ethr =  2.17E-06,  avg # of iterations =  4.4

     negative rho (up, down):  6.468E-03 1.329E-03

     total cpu time spent up to now is   120948.5 secs

     total energy              =   -6230.60833567 Ry
     estimated scf accuracy    <       0.01005445 Ry

     total magnetization       =    18.39 Bohr mag/cell
     absolute magnetization    =    34.37 Bohr mag/cell

     iteration # 11     ecut=   124.00 Ry     beta= 0.20
     CG style diagonalization
     c_bands:  2 eigenvalues not converged
     c_bands:  1 eigenvalues not converged
     c_bands:  2 eigenvalues not converged
     c_bands:  1 eigenvalues not converged
     c_bands:  2 eigenvalues not converged
     c_bands:  2 eigenvalues not converged
     c_bands:  1 eigenvalues not converged
     c_bands:  1 eigenvalues not converged
     c_bands:  1 eigenvalues not converged
     c_bands:  2 eigenvalues not converged
     ethr =  2.17E-06,  avg # of iterations =  3.5

     negative rho (up, down):  6.867E-03 1.177E-03

     total cpu time spent up to now is   121308.0 secs

     total energy              =   -6230.61065142 Ry
     estimated scf accuracy    <       0.00301514 Ry

     total magnetization       =    18.68 Bohr mag/cell
     absolute magnetization    =    35.39 Bohr mag/cell

     iteration # 12     ecut=   124.00 Ry     beta= 0.20
     CG style diagonalization
     c_bands:  1 eigenvalues not converged
     c_bands:  1 eigenvalues not converged
     c_bands:  2 eigenvalues not converged
     c_bands:  1 eigenvalues not converged
     c_bands:  1 eigenvalues not converged
     ethr =  8.40E-07,  avg # of iterations =  4.2

     negative rho (up, down):  7.053E-03 1.172E-03

     total cpu time spent up to now is   121772.0 secs

     total energy              =   -6230.61492558 Ry
     estimated scf accuracy    <       0.00595235 Ry

     total magnetization       =    19.13 Bohr mag/cell
     absolute magnetization    =    37.07 Bohr mag/cell

     iteration # 13     ecut=   124.00 Ry     beta= 0.20
     CG style diagonalization
     c_bands:  2 eigenvalues not converged
     c_bands:  1 eigenvalues not converged
     c_bands:  1 eigenvalues not converged
     ethr =  8.40E-07,  avg # of iterations =  3.3

     negative rho (up, down):  7.070E-03 1.196E-03

     total cpu time spent up to now is   122107.5 secs

     total energy              =   -6230.61532497 Ry
     estimated scf accuracy    <       0.00398698 Ry

     total magnetization       =    19.26 Bohr mag/cell
     absolute magnetization    =    37.61 Bohr mag/cell

     iteration # 14     ecut=   124.00 Ry     beta= 0.20
     CG style diagonalization
     c_bands:  2 eigenvalues not converged
     ethr =  8.40E-07,  avg # of iterations =  3.1

     negative rho (up, down):  7.184E-03 1.172E-03

     total cpu time spent up to now is   122421.7 secs

     total energy              =   -6230.61571820 Ry
     estimated scf accuracy    <       0.00032117 Ry

     total magnetization       =    19.37 Bohr mag/cell
     absolute magnetization    =    37.81 Bohr mag/cell

     iteration # 15     ecut=   124.00 Ry     beta= 0.20
     CG style diagonalization
     c_bands:  1 eigenvalues not converged
     c_bands:  1 eigenvalues not converged
     ethr =  8.95E-08,  avg # of iterations =  4.8

     negative rho (up, down):  7.279E-03 1.136E-03

     total cpu time spent up to now is   122957.4 secs

     total energy              =   -6230.61608455 Ry
     estimated scf accuracy    <       0.00024782 Ry

     total magnetization       =    19.45 Bohr mag/cell
     absolute magnetization    =    38.19 Bohr mag/cell

     iteration # 16     ecut=   124.00 Ry     beta= 0.20
     CG style diagonalization
     c_bands:  1 eigenvalues not converged
     ethr =  6.90E-08,  avg # of iterations =  3.9

     negative rho (up, down):  7.313E-03 1.114E-03

     total cpu time spent up to now is   123378.9 secs

     total energy              =   -6230.61623855 Ry
     estimated scf accuracy    <       0.00002426 Ry

     total magnetization       =    19.47 Bohr mag/cell
     absolute magnetization    =    38.43 Bohr mag/cell

     iteration # 17     ecut=   124.00 Ry     beta= 0.20
     CG style diagonalization
     ethr =  6.76E-09,  avg # of iterations =  5.6

     negative rho (up, down):  7.330E-03 1.099E-03

     total cpu time spent up to now is   124015.2 secs

     total energy              =   -6230.61628507 Ry
     estimated scf accuracy    <       0.00000761 Ry

     total magnetization       =    19.48 Bohr mag/cell
     absolute magnetization    =    38.51 Bohr mag/cell

     iteration # 18     ecut=   124.00 Ry     beta= 0.20
     CG style diagonalization
     ethr =  2.12E-09,  avg # of iterations =  4.9

     negative rho (up, down):  7.321E-03 1.103E-03

     total cpu time spent up to now is   124570.2 secs

     total energy              =   -6230.61629495 Ry
     estimated scf accuracy    <       0.00000842 Ry

     total magnetization       =    19.48 Bohr mag/cell
     absolute magnetization    =    38.56 Bohr mag/cell

     iteration # 19     ecut=   124.00 Ry     beta= 0.20
     CG style diagonalization
     ethr =  2.12E-09,  avg # of iterations =  3.6

     negative rho (up, down):  7.341E-03 1.095E-03

     total cpu time spent up to now is   124937.8 secs

     total energy              =   -6230.61629977 Ry
     estimated scf accuracy    <       0.00000119 Ry

     total magnetization       =    19.47 Bohr mag/cell
     absolute magnetization    =    38.52 Bohr mag/cell

     iteration # 20     ecut=   124.00 Ry     beta= 0.20
     CG style diagonalization
     ethr =  3.32E-10,  avg # of iterations =  5.2

     negative rho (up, down):  7.338E-03 1.094E-03

     total cpu time spent up to now is   125524.8 secs

     total energy              =   -6230.61630452 Ry
     estimated scf accuracy    <       0.00000049 Ry

     total magnetization       =    19.47 Bohr mag/cell
     absolute magnetization    =    38.56 Bohr mag/cell

     iteration # 21     ecut=   124.00 Ry     beta= 0.20
     CG style diagonalization
     ethr =  1.35E-10,  avg # of iterations =  4.6

     negative rho (up, down):  7.344E-03 1.093E-03

     total cpu time spent up to now is   126030.2 secs

     total energy              =   -6230.61630607 Ry
     estimated scf accuracy    <       0.00000020 Ry

     total magnetization       =    19.46 Bohr mag/cell
     absolute magnetization    =    38.55 Bohr mag/cell

     iteration # 22     ecut=   124.00 Ry     beta= 0.20
     CG style diagonalization
     ethr =  5.49E-11,  avg # of iterations =  4.5

     negative rho (up, down):  7.348E-03 1.094E-03

     total cpu time spent up to now is   126526.6 secs

     total energy              =   -6230.61630695 Ry
     estimated scf accuracy    <       0.00000011 Ry

     total magnetization       =    19.46 Bohr mag/cell
     absolute magnetization    =    38.56 Bohr mag/cell

     iteration # 23     ecut=   124.00 Ry     beta= 0.20
     CG style diagonalization
     ethr =  2.96E-11,  avg # of iterations =  4.3

     negative rho (up, down):  7.346E-03 1.093E-03

     total cpu time spent up to now is   126994.6 secs

     total energy              =   -6230.61630742 Ry
     estimated scf accuracy    <       0.00000005 Ry

     total magnetization       =    19.46 Bohr mag/cell
     absolute magnetization    =    38.57 Bohr mag/cell

     iteration # 24     ecut=   124.00 Ry     beta= 0.20
     CG style diagonalization
     ethr =  1.27E-11,  avg # of iterations =  4.2

     negative rho (up, down):  7.347E-03 1.093E-03

     total cpu time spent up to now is   127447.7 secs

     total energy              =   -6230.61630773 Ry
     estimated scf accuracy    <       0.00000001 Ry

     total magnetization       =    19.46 Bohr mag/cell
     absolute magnetization    =    38.56 Bohr mag/cell

     iteration # 25     ecut=   124.00 Ry     beta= 0.20
     CG style diagonalization
     ethr =  3.45E-12,  avg # of iterations =  5.0

     negative rho (up, down):  7.347E-03 1.093E-03

     total cpu time spent up to now is   128012.3 secs

     total energy              =   -6230.61630791 Ry
     estimated scf accuracy    <          4.9E-09 Ry

     total magnetization       =    19.46 Bohr mag/cell
     absolute magnetization    =    38.57 Bohr mag/cell

     iteration # 26     ecut=   124.00 Ry     beta= 0.20
     CG style diagonalization
     ethr =  1.35E-12,  avg # of iterations =  4.5

     negative rho (up, down):  7.347E-03 1.093E-03

     total cpu time spent up to now is   128503.6 secs

     total energy              =   -6230.61630802 Ry
     estimated scf accuracy    <          5.0E-09 Ry

     total magnetization       =    19.46 Bohr mag/cell
     absolute magnetization    =    38.57 Bohr mag/cell

     iteration # 27     ecut=   124.00 Ry     beta= 0.20
     CG style diagonalization
     ethr =  1.35E-12,  avg # of iterations =  3.2

     negative rho (up, down):  7.347E-03 1.093E-03

     total cpu time spent up to now is   128824.6 secs

     total energy              =   -6230.61630809 Ry
     estimated scf accuracy    <          2.3E-09 Ry

     total magnetization       =    19.46 Bohr mag/cell
     absolute magnetization    =    38.57 Bohr mag/cell

     iteration # 28     ecut=   124.00 Ry     beta= 0.20
     CG style diagonalization
     ethr =  6.37E-13,  avg # of iterations =  3.7

     negative rho (up, down):  7.347E-03 1.093E-03

     total cpu time spent up to now is   129207.8 secs

     total energy              =   -6230.61630813 Ry
     estimated scf accuracy    <          7.1E-10 Ry

     total magnetization       =    19.46 Bohr mag/cell
     absolute magnetization    =    38.57 Bohr mag/cell

     iteration # 29     ecut=   124.00 Ry     beta= 0.20
     CG style diagonalization
     ethr =  1.98E-13,  avg # of iterations =  4.3

     negative rho (up, down):  7.347E-03 1.093E-03

     total cpu time spent up to now is   129679.9 secs

     total energy              =   -6230.61630816 Ry
     estimated scf accuracy    <          3.6E-10 Ry

     total magnetization       =    19.46 Bohr mag/cell
     absolute magnetization    =    38.57 Bohr mag/cell

     iteration # 30     ecut=   124.00 Ry     beta= 0.20
     CG style diagonalization
     ethr =  1.00E-13,  avg # of iterations =  4.3

     negative rho (up, down):  7.347E-03 1.093E-03

     total cpu time spent up to now is   130150.9 secs

     total energy              =   -6230.61630818 Ry
     estimated scf accuracy    <          1.9E-10 Ry

     total magnetization       =    19.46 Bohr mag/cell
     absolute magnetization    =    38.57 Bohr mag/cell

     iteration # 31     ecut=   124.00 Ry     beta= 0.20
     CG style diagonalization
     ethr =  1.00E-13,  avg # of iterations =  3.1

     negative rho (up, down):  7.347E-03 1.093E-03

     Magnetic moment per site  (integrated on atomic sphere of radius R)
     atom   1 (R=0.089)  charge= 11.1816  magn=  1.3881
     atom   2 (R=0.089)  charge= 11.1731  magn=  1.3547
     atom   3 (R=0.089)  charge= 11.1816  magn=  1.3881
     atom   4 (R=0.089)  charge= 11.1816  magn=  1.3881
     atom   5 (R=0.089)  charge= 11.1816  magn=  1.3881
     atom   6 (R=0.089)  charge= 11.1816  magn=  1.3881
     atom   7 (R=0.089)  charge= 11.1816  magn=  1.3881
     atom   8 (R=0.089)  charge= 11.1731  magn=  1.3547
     atom   9 (R=0.089)  charge= 11.1731  magn=  1.3547
     atom  10 (R=0.089)  charge= 11.1816  magn=  1.3881
     atom  11 (R=0.089)  charge= 11.1816  magn=  1.3881
     atom  12 (R=0.089)  charge= 11.1816  magn=  1.3881
     atom  13 (R=0.089)  charge= 11.1731  magn=  1.3547
     atom  14 (R=0.089)  charge= 11.1816  magn=  1.3881
     atom  15 (R=0.089)  charge= 11.1816  magn=  1.3881
     atom  16 (R=0.089)  charge= 11.1816  magn=  1.3881
     atom  17 (R=0.171)  charge= 10.2036  magn= -0.7544
     atom  18 (R=0.171)  charge= 10.1996  magn= -0.8182
     atom  19 (R=0.171)  charge= 10.1938  magn= -0.8500
     atom  20 (R=0.171)  charge= 10.1996  magn= -0.8182
     atom  21 (R=0.171)  charge= 10.1938  magn= -0.8500
     atom  22 (R=0.171)  charge= 10.1996  magn= -0.8182
     atom  23 (R=0.171)  charge= 10.1996  magn= -0.8182
     atom  24 (R=0.171)  charge= 10.1938  magn= -0.8500
     atom  25 (R=0.089)  charge=  0.9808  magn= -0.0057
     atom  26 (R=0.089)  charge=  0.9910  magn= -0.0055
     atom  27 (R=0.089)  charge=  0.9808  magn= -0.0057
     atom  28 (R=0.089)  charge=  0.9910  magn= -0.0055
     atom  29 (R=0.089)  charge=  0.9808  magn= -0.0057
     atom  30 (R=0.089)  charge=  0.9808  magn= -0.0057
     atom  31 (R=0.089)  charge=  0.9910  magn= -0.0055

     total cpu time spent up to now is   130461.7 secs

     End of self-consistent calculation

 ------ SPIN UP ------------


          k = 0.0000 0.0000 0.0000 ( 54531 PWs)   bands (ev):

   -72.9110 -72.8805 -72.8803 -72.8803 -72.8803 -72.8800 -72.8800 -72.8516
   -72.8516 -72.8516 -72.8503 -72.8503 -72.8503 -72.8071 -72.8071 -72.8071
   -41.6628 -41.6204 -41.6090 -41.6090 -41.6090 -41.5934 -41.5934 -41.5789
   -39.3805 -39.2272 -39.1828 -39.1828 -39.1828 -39.1824 -39.1824 -39.0460
   -39.0460 -39.0460 -38.9880 -38.9880 -38.9880 -38.9777 -38.9777 -38.9777
   -38.9172 -38.9172 -38.9093 -38.8989 -38.8989 -38.8934 -38.8934 -38.8934
   -38.8683 -38.8683 -38.8683 -38.8659 -38.8659 -38.8659 -38.8599 -38.8599
   -38.8335 -38.8335 -38.8335 -38.8326 -38.8100 -38.8100 -38.8100 -38.7818
   -38.7818 -38.7818 -38.7508 -38.7508 -38.7508 -38.7491 -38.7491 -38.7491
   -17.9271 -17.9271 -17.9271 -17.9015 -17.9015 -17.9015 -17.8918 -17.8918
   -17.8918 -17.8330 -17.8330 -17.8316 -17.8316 -17.8316 -17.8260 -17.7686
   -17.7686 -17.7686 -17.7562 -17.7562 -17.7562 -17.7355 -17.7355 -17.7355
     4.1162   5.9852   5.9852   6.0493   6.0493   6.0493   8.0037   9.2066
    10.8754  10.8754  10.8754  10.9901  11.1315  11.1315  11.1378  11.1378
    11.1378  11.7258  11.7350  11.7350  11.7350  11.8516  11.8714  11.8714
    11.8714  11.8734  11.8734  11.8734  11.9061  11.9061  11.9279  11.9279
    11.9279  12.1380  12.1380  12.3301  12.3301  12.3301  12.4443  12.4443
    12.4443  12.4534  12.4670  12.4670  12.4670  12.5110  12.5110  12.8953
    12.8953  12.9639  12.9639  12.9639  12.9757  12.9757  12.9757  13.0252
    13.0620  13.0620  13.0620  13.1104  13.1104  13.1104  13.2239  13.2239
    13.2239  13.6436  13.6436  13.6436  13.7276  13.7276  13.7276  13.7449
    13.7449  13.7449  13.8470  13.8470  13.8887  13.8887  13.9183  13.9183
    13.9183  13.9784  13.9784  13.9784  13.9864  14.5169  14.5169  14.7240
    14.7240  14.7240  14.9133  15.0101  15.0101  15.0101  15.0982  15.0982
    15.3362  15.3362  15.3362  16.1647  16.1648  16.1649  16.1813  16.1814
    16.1814  16.2202  16.2202  16.2202  16.5305  16.5305  16.5305  16.5858
    16.5859  16.5883  16.6968  16.6977  17.4418  17.6080  17.6081  17.6081

          k = 0.0000 0.0000 0.1924 ( 54547 PWs)   bands (ev):

   -72.9095 -72.8894 -72.8804 -72.8803 -72.8803 -72.8800 -72.8711 -72.8528
   -72.8516 -72.8516 -72.8503 -72.8503 -72.8503 -72.8072 -72.8071 -72.8071
   -41.6628 -41.6201 -41.6105 -41.6090 -41.6090 -41.5934 -41.5914 -41.5798
   -39.3707 -39.2499 -39.2130 -39.1823 -39.1823 -39.1819 -39.1348 -39.0495
   -39.0418 -39.0418 -38.9941 -38.9941 -38.9904 -38.9817 -38.9817 -38.9790
   -38.9171 -38.9145 -38.9113 -38.9032 -38.8985 -38.8957 -38.8957 -38.8882
   -38.8720 -38.8707 -38.8645 -38.8645 -38.8619 -38.8594 -38.8594 -38.8497
   -38.8339 -38.8313 -38.8313 -38.8206 -38.8134 -38.8110 -38.8110 -38.7851
   -38.7834 -38.7834 -38.7541 -38.7528 -38.7528 -38.7506 -38.7495 -38.7495
   -17.9273 -17.9264 -17.9264 -17.9019 -17.9019 -17.9018 -17.8927 -17.8927
   -17.8896 -17.8466 -17.8327 -17.8315 -17.8315 -17.8279 -17.8157 -17.7705
   -17.7677 -17.7677 -17.7566 -17.7554 -17.7554 -17.7367 -17.7367 -17.7354
     4.2015   5.4367   5.9876   6.0518   6.0518   6.5872   7.9873   9.2979
    10.6028  10.8025  10.9266  10.9266  11.1180  11.1720  11.1720  11.1752
    11.2890  11.5933  11.5933  11.6040  11.7068  11.7068  11.7071  11.7256
    11.7442  11.8877  11.9605  11.9646  11.9646  11.9918  11.9918  12.0186
    12.0946  12.1459  12.1782  12.2115  12.2719  12.2719  12.3025  12.3999
    12.3999  12.4249  12.4801  12.5206  12.5281  12.5281  12.7237  12.8039
    12.8459  12.8459  12.8554  12.9300  12.9300  12.9476  12.9685  13.1088
    13.1088  13.1195  13.2059  13.2379  13.2708  13.2708  13.3307  13.3523
    13.3523  13.6146  13.6215  13.6215  13.6633  13.6865  13.6865  13.7054
    13.7530  13.7979  13.8173  13.8173  13.8456  13.8596  13.8596  13.8881
    13.9567  14.0592  14.0592  14.0710  14.0966  14.5237  14.6360  14.6360
    14.6534  14.6858  14.7913  14.9518  14.9522  14.9522  15.0502  15.1910
    15.4173  15.4866  15.4866  16.1141  16.1141  16.1447  16.1594  16.1595
    16.1636  16.1914  16.1914  16.2731  16.3191  16.3796  16.3952  16.3952
    16.4669  16.4995  16.4995  16.8437  16.8949  16.8952  16.8991  17.0503

          k = 0.0000 0.0000 0.3847 ( 54539 PWs)   bands (ev):

   -72.9054 -72.8976 -72.8804 -72.8803 -72.8803 -72.8800 -72.8635 -72.8562
   -72.8516 -72.8516 -72.8503 -72.8503 -72.8503 -72.8073 -72.8071 -72.8071
   -41.6628 -41.6193 -41.6128 -41.6090 -41.6090 -41.5934 -41.5876 -41.5820
   -39.3426 -39.2995 -39.2155 -39.1815 -39.1815 -39.1811 -39.0994 -39.0593
   -39.0306 -39.0306 -39.0088 -39.0088 -38.9940 -38.9869 -38.9869 -38.9812
   -38.9168 -38.9142 -38.9085 -38.9063 -38.8979 -38.8979 -38.8961 -38.8863
   -38.8863 -38.8625 -38.8612 -38.8609 -38.8609 -38.8471 -38.8471 -38.8437
   -38.8285 -38.8278 -38.8278 -38.8170 -38.8134 -38.8134 -38.8063 -38.7939
   -38.7858 -38.7858 -38.7603 -38.7571 -38.7571 -38.7534 -38.7496 -38.7496
   -17.9277 -17.9251 -17.9251 -17.9025 -17.9025 -17.9023 -17.8943 -17.8943
   -17.8849 -17.8579 -17.8323 -17.8314 -17.8314 -17.8273 -17.8043 -17.7750
   -17.7664 -17.7664 -17.7571 -17.7536 -17.7536 -17.7390 -17.7390 -17.7353
     4.4318   4.9453   5.9915   6.0559   6.0559   6.9964   7.9373   9.5757
    10.0379  10.6996  11.0761  11.0761  11.2010  11.2453  11.2453  11.2769
    11.2871  11.3164  11.3164  11.4679  11.5913  11.5913  11.6168  11.6837
    11.6934  11.7819  11.9797  12.0426  12.0541  12.0541  12.1042  12.1042
    12.1254  12.1336  12.1336  12.1547  12.1624  12.1678  12.3011  12.3107
    12.3107  12.3707  12.3707  12.4001  12.4890  12.5064  12.8011  12.8714
    12.9443  12.9443  12.9650  12.9880  13.0742  13.0742  13.1108  13.1747
    13.1747  13.2223  13.2998  13.3953  13.4155  13.4155  13.4352  13.4547
    13.4547  13.4626  13.5171  13.5171  13.5474  13.5672  13.5672  13.5823
    13.6006  13.6492  13.6660  13.6660  13.8341  13.8701  14.1331  14.1331
    14.1722  14.2449  14.2449  14.2624  14.3185  14.4398  14.4398  14.4544
    14.6153  14.6498  14.7845  14.8112  14.8112  14.9065  15.0003  15.1991
    15.6545  15.7654  15.7654  15.9835  15.9835  15.9957  16.1183  16.1183
    16.1213  16.1288  16.1649  16.1649  16.2085  16.2233  16.2391  16.2391
    16.3406  16.3406  16.4874  16.8909  17.0690  17.0693  17.0861  17.5980

          k = 0.0000 0.1924 0.1924 ( 54543 PWs)   bands (ev):

   -72.9081 -72.8899 -72.8880 -72.8828 -72.8778 -72.8729 -72.8702 -72.8538
   -72.8518 -72.8516 -72.8503 -72.8503 -72.8503 -72.8072 -72.8071 -72.8071
   -41.6628 -41.6197 -41.6116 -41.6098 -41.6086 -41.5922 -41.5907 -41.5806
   -39.3615 -39.2516 -39.2404 -39.2101 -39.1730 -39.1425 -39.1281 -39.0498
   -39.0411 -39.0379 -38.9988 -38.9970 -38.9952 -38.9861 -38.9830 -38.9830
   -38.9156 -38.9130 -38.9119 -38.9020 -38.9019 -38.8969 -38.8920 -38.8908
   -38.8769 -38.8690 -38.8657 -38.8584 -38.8572 -38.8568 -38.8526 -38.8500
   -38.8359 -38.8287 -38.8266 -38.8186 -38.8161 -38.8111 -38.8086 -38.7893
   -38.7852 -38.7827 -38.7579 -38.7539 -38.7528 -38.7514 -38.7507 -38.7494
   -17.9275 -17.9256 -17.9255 -17.9040 -17.9022 -17.8994 -17.8939 -17.8919
   -17.8892 -17.8478 -17.8465 -17.8391 -17.8225 -17.8150 -17.8147 -17.7721
   -17.7670 -17.7665 -17.7574 -17.7558 -17.7540 -17.7382 -17.7372 -17.7359
     4.2831   5.3683   5.5760   6.0164   6.4258   6.7388   7.9481   9.3897
    10.5997  10.7227  10.8189  10.9695  10.9707  11.1738  11.1998  11.2839
    11.3097  11.4869  11.5379  11.5687  11.5957  11.6244  11.6281  11.6805
    11.7493  11.7924  11.8735  11.9246  12.0004  12.0033  12.0856  12.1106
    12.1199  12.1302  12.1739  12.2084  12.2657  12.3238  12.3550  12.3630
    12.4142  12.4778  12.4788  12.5014  12.5407  12.6393  12.6917  12.7514
    12.7806  12.7894  12.8393  12.8668  12.9316  12.9518  13.0572  13.0996
    13.1669  13.1729  13.2528  13.3234  13.3274  13.3409  13.3686  13.4410
    13.4528  13.5277  13.5699  13.5826  13.5962  13.6564  13.6761  13.6765
    13.7610  13.7860  13.7890  13.8284  13.8384  13.8793  13.8919  13.9134
    13.9559  14.0467  14.1526  14.2505  14.2836  14.3131  14.5449  14.6305
    14.6702  14.6731  14.7743  14.8369  14.9765  15.1084  15.1426  15.2296
    15.3961  15.5952  15.6133  16.0071  16.0805  16.0897  16.1040  16.1161
    16.1341  16.1454  16.1721  16.2298  16.2875  16.3474  16.3766  16.3917
    16.4242  16.4974  16.5430  16.5906  16.6363  17.0732  17.1107  17.2404

          k = 0.0000 0.1924 0.3847 ( 54506 PWs)   bands (ev):

   -72.9042 -72.8969 -72.8877 -72.8850 -72.8759 -72.8727 -72.8638 -72.8571
   -72.8519 -72.8516 -72.8503 -72.8503 -72.8503 -72.8073 -72.8071 -72.8071
   -41.6627 -41.6187 -41.6137 -41.6105 -41.6081 -41.5918 -41.5877 -41.5827
   -39.3351 -39.2945 -39.2407 -39.2235 -39.1627 -39.1367 -39.0972 -39.0593
   -39.0315 -39.0281 -39.0113 -39.0090 -38.9999 -38.9913 -38.9886 -38.9852
   -38.9147 -38.9128 -38.9075 -38.9052 -38.9003 -38.8984 -38.8939 -38.8901
   -38.8810 -38.8705 -38.8627 -38.8576 -38.8529 -38.8466 -38.8455 -38.8419
   -38.8326 -38.8291 -38.8266 -38.8208 -38.8137 -38.8114 -38.8025 -38.7956
   -38.7878 -38.7849 -38.7600 -38.7574 -38.7556 -38.7523 -38.7514 -38.7509
   -17.9276 -17.9244 -17.9239 -17.9052 -17.9025 -17.8988 -17.8950 -17.8930
   -17.8847 -17.8593 -17.8482 -17.8444 -17.8171 -17.8133 -17.8028 -17.7765
   -17.7654 -17.7651 -17.7583 -17.7552 -17.7515 -17.7412 -17.7393 -17.7362
     4.5043   4.9753   5.5343   5.9616   6.5366   7.0876   7.8435   9.6656
    10.1178  10.6954  10.9107  11.0983  11.1044  11.1428  11.2437  11.2748
    11.2872  11.3204  11.3231  11.3777  11.4428  11.5204  11.6185  11.6685
    11.7055  11.7850  11.7894  11.8562  12.0741  12.0922  12.1248  12.1678
    12.1710  12.1865  12.2002  12.2122  12.2309  12.2720  12.2963  12.3347
    12.3502  12.3632  12.3808  12.5568  12.5713  12.6073  12.7162  12.7635
    12.7858  12.7913  12.8757  12.9697  13.0982  13.1528  13.1704  13.2123
    13.2328  13.2639  13.2780  13.2886  13.3138  13.3569  13.4089  13.4487
    13.4611  13.4828  13.5217  13.5327  13.5469  13.5766  13.5989  13.6508
    13.6751  13.6986  13.7386  13.7655  13.8528  13.8890  14.0169  14.0473
    14.1046  14.1714  14.2049  14.3566  14.3819  14.4845  14.5005  14.5726
    14.5863  14.6220  14.6693  14.7723  15.0730  15.1100  15.1812  15.2547
    15.6613  15.8072  15.8303  15.9476  15.9698  15.9870  16.0371  16.0484
    16.0665  16.0759  16.1047  16.1196  16.1413  16.1953  16.2125  16.2600
    16.3088  16.3839  16.6231  16.8111  16.8615  17.0243  17.0631  17.1249

          k = 0.0000 0.3847 0.3847 ( 54436 PWs)   bands (ev):

   -72.9008 -72.8958 -72.8938 -72.8889 -72.8729 -72.8671 -72.8638 -72.8598
   -72.8522 -72.8516 -72.8503 -72.8503 -72.8503 -72.8073 -72.8072 -72.8072
   -41.6627 -41.6171 -41.6148 -41.6131 -41.6070 -41.5890 -41.5875 -41.5847
   -39.3133 -39.2810 -39.2786 -39.2556 -39.1445 -39.1023 -39.0905 -39.0667
   -39.0286 -39.0214 -39.0189 -39.0122 -39.0079 -38.9978 -38.9925 -38.9917
   -38.9112 -38.9096 -38.9048 -38.9023 -38.9007 -38.8991 -38.8985 -38.8859
   -38.8821 -38.8747 -38.8634 -38.8628 -38.8491 -38.8450 -38.8395 -38.8377
   -38.8328 -38.8312 -38.8279 -38.8169 -38.8135 -38.8110 -38.8030 -38.8010
   -38.7881 -38.7832 -38.7608 -38.7574 -38.7570 -38.7537 -38.7514 -38.7496
   -17.9268 -17.9228 -17.9226 -17.9076 -17.9028 -17.8962 -17.8960 -17.8905
   -17.8818 -17.8615 -17.8614 -17.8548 -17.8079 -17.8007 -17.7995 -17.7815
   -17.7629 -17.7625 -17.7597 -17.7585 -17.7473 -17.7453 -17.7398 -17.7386
     4.7055   4.9945   5.1605   5.8187   6.9764   7.2382   7.5972   9.9283
    10.2952  10.4323  10.7066  10.8261  11.1695  11.2036  11.2302  11.2421
    11.2622  11.2959  11.3065  11.3124  11.3871  11.4481  11.4576  11.6096
    11.6750  11.6977  11.7184  11.7721  12.1123  12.1525  12.1662  12.1926
    12.2165  12.2360  12.2621  12.2819  12.2999  12.3425  12.3678  12.4382
    12.4459  12.4900  12.5167  12.5341  12.5440  12.5908  12.6033  12.6858
    12.6869  12.7331  12.8648  12.9180  12.9778  13.0093  13.0884  13.1270
    13.1649  13.2001  13.2747  13.2902  13.3312  13.3574  13.3675  13.4136
    13.4711  13.5159  13.5641  13.6304  13.6643  13.6947  13.7093  13.7098
    13.7487  13.7953  13.8181  13.8437  13.8802  13.9022  13.9641  14.0827
    14.1009  14.1326  14.2309  14.3061  14.3905  14.4049  14.4682  14.4943
    14.5373  14.6474  14.6652  14.7357  15.3833  15.4194  15.5243  15.5919
    15.7098  15.8917  15.9186  15.9302  15.9492  15.9548  15.9624  15.9881
    15.9917  15.9999  16.0140  16.0325  16.0593  16.1376  16.1514  16.1577
    16.2966  16.4272  16.4421  16.7126  16.8632  16.9548  17.1037  17.6471

          k = 0.1924 0.1924 0.1924 ( 54468 PWs)   bands (ev):

   -72.9068 -72.8899 -72.8899 -72.8868 -72.8749 -72.8702 -72.8702 -72.8548
   -72.8518 -72.8518 -72.8503 -72.8503 -72.8503 -72.8072 -72.8071 -72.8071
   -41.6628 -41.6193 -41.6116 -41.6116 -41.6079 -41.5907 -41.5907 -41.5814
   -39.3530 -39.2549 -39.2412 -39.2412 -39.1578 -39.1253 -39.1253 -39.0495
   -39.0378 -39.0378 -39.0032 -38.9995 -38.9995 -38.9877 -38.9865 -38.9865
   -38.9128 -38.9128 -38.9117 -38.9001 -38.9001 -38.8977 -38.8935 -38.8935
   -38.8716 -38.8716 -38.8676 -38.8588 -38.8588 -38.8540 -38.8474 -38.8474
   -38.8392 -38.8248 -38.8248 -38.8201 -38.8112 -38.8111 -38.8111 -38.7898
   -38.7898 -38.7804 -38.7602 -38.7555 -38.7555 -38.7501 -38.7501 -38.7491
   -17.9268 -17.9250 -17.9250 -17.9036 -17.9036 -17.8975 -17.8929 -17.8929
   -17.8897 -17.8504 -17.8504 -17.8480 -17.8126 -17.8126 -17.8117 -17.7721
   -17.7666 -17.7666 -17.7566 -17.7566 -17.7539 -17.7394 -17.7374 -17.7374
     4.3603   5.3723   5.3723   5.9176   6.7380   6.7380   7.8981   9.4818
    10.5930  10.7902  10.7902  10.8506  11.0133  11.0133  11.2691  11.2916
    11.2916  11.3987  11.5307  11.5307  11.5772  11.6118  11.6118  11.6462
    11.6462  11.6574  11.7006  11.8565  12.0271  12.0271  12.1536  12.1536
    12.1556  12.2174  12.2174  12.2770  12.2770  12.3200  12.3420  12.4294
    12.4381  12.4381  12.5061  12.5061  12.6010  12.6681  12.6681  12.6848
    12.6848  12.7571  12.9005  12.9005  12.9757  12.9757  13.0211  13.0580
    13.1338  13.1406  13.1406  13.3735  13.3877  13.3877  13.4352  13.4352
    13.4781  13.4781  13.5230  13.5484  13.5678  13.5678  13.7242  13.7242
    13.7757  13.8328  13.8696  13.8696  13.9012  13.9012  13.9058  13.9458
    13.9458  13.9992  14.2753  14.2753  14.3616  14.3777  14.3777  14.5435
    14.6387  14.6932  14.6932  15.0729  15.0729  15.2141  15.2809  15.2809
    15.3321  15.6643  15.6643  15.9446  15.9446  15.9857  16.0888  16.0888
    16.0969  16.1343  16.1343  16.2716  16.2717  16.3719  16.3741  16.3997
    16.3998  16.4363  16.4642  16.5389  16.5389  17.1816  17.2135  17.4373

          k = 0.1924 0.1924 0.3847 ( 54530 PWs)   bands (ev):

   -72.9032 -72.8964 -72.8899 -72.8873 -72.8744 -72.8702 -72.8640 -72.8578
   -72.8519 -72.8518 -72.8503 -72.8503 -72.8503 -72.8073 -72.8072 -72.8071
   -41.6627 -41.6182 -41.6141 -41.6117 -41.6076 -41.5907 -41.5877 -41.5834
   -39.3286 -39.2911 -39.2515 -39.2424 -39.1512 -39.1204 -39.0939 -39.0583
   -39.0296 -39.0293 -39.0133 -39.0109 -39.0043 -38.9935 -38.9913 -38.9885
   -38.9123 -38.9115 -38.9066 -38.9029 -38.9011 -38.8951 -38.8934 -38.8915
   -38.8791 -38.8718 -38.8645 -38.8618 -38.8554 -38.8480 -38.8421 -38.8400
   -38.8369 -38.8272 -38.8262 -38.8223 -38.8188 -38.8075 -38.8014 -38.7944
   -38.7927 -38.7808 -38.7605 -38.7562 -38.7557 -38.7521 -38.7512 -38.7495
   -17.9266 -17.9239 -17.9230 -17.9045 -17.9036 -17.8966 -17.8941 -17.8934
   -17.8857 -17.8617 -17.8542 -17.8525 -17.8091 -17.8080 -17.8006 -17.7758
   -17.7664 -17.7638 -17.7589 -17.7542 -17.7527 -17.7420 -17.7404 -17.7375
     4.5692   4.9954   5.3788   5.8883   6.7367   7.1311   7.7622   9.7546
    10.1977  10.6972  10.9506  10.9718  11.1206  11.1418  11.2069  11.2429
    11.2465  11.2722  11.3345  11.3455  11.3816  11.4427  11.5777  11.6089
    11.6542  11.6731  11.6815  11.7716  12.1107  12.1184  12.1852  12.1996
    12.2104  12.2306  12.2386  12.2749  12.2840  12.2922  12.3307  12.3605
    12.3984  12.4236  12.4689  12.5716  12.6211  12.6424  12.6461  12.6958
    12.7332  12.8101  12.9074  12.9184  12.9633  13.0199  13.1059  13.1366
    13.1867  13.1905  13.2285  13.2617  13.2765  13.3014  13.3484  13.3912
    13.4559  13.4613  13.5638  13.6032  13.6142  13.6408  13.7060  13.7260
    13.7771  13.7806  13.8217  13.8335  13.8614  13.8957  13.9481  14.0017
    14.0609  14.0919  14.2076  14.3153  14.4293  14.4662  14.5808  14.6271
    14.6689  14.6793  14.7328  15.0068  15.2159  15.2711  15.3029  15.3389
    15.6548  15.7574  15.8491  15.8495  15.9231  15.9473  15.9704  15.9782
    16.0039  16.0609  16.0859  16.1425  16.1667  16.1793  16.2128  16.2880
    16.3175  16.3718  16.6241  16.6654  16.6835  16.9652  17.0275  17.0278

          k = 0.1924 0.3847 0.3847 ( 54507 PWs)   bands (ev):

   -72.9002 -72.8958 -72.8942 -72.8897 -72.8728 -72.8661 -72.8638 -72.8602
   -72.8522 -72.8518 -72.8503 -72.8503 -72.8503 -72.8072 -72.8072 -72.8072
   -41.6627 -41.6169 -41.6148 -41.6137 -41.6069 -41.5885 -41.5874 -41.5850
   -39.3097 -39.2823 -39.2798 -39.2644 -39.1387 -39.0939 -39.0852 -39.0635
   -39.0282 -39.0238 -39.0202 -39.0151 -39.0115 -38.9982 -38.9948 -38.9943
   -38.9090 -38.9083 -38.9038 -38.8997 -38.8989 -38.8978 -38.8956 -38.8858
   -38.8803 -38.8745 -38.8661 -38.8649 -38.8550 -38.8495 -38.8437 -38.8407
   -38.8357 -38.8331 -38.8256 -38.8242 -38.8166 -38.8086 -38.7990 -38.7977
   -38.7913 -38.7785 -38.7594 -38.7557 -38.7541 -38.7513 -38.7509 -38.7495
   -17.9250 -17.9221 -17.9220 -17.9058 -17.9029 -17.8947 -17.8945 -17.8907
   -17.8845 -17.8657 -17.8655 -17.8613 -17.8019 -17.7974 -17.7964 -17.7784
   -17.7638 -17.7631 -17.7586 -17.7578 -17.7495 -17.7454 -17.7415 -17.7405
     4.7473   4.9995   5.1192   5.7986   7.0499   7.2304   7.5474  10.0069
    10.3598  10.5241  10.7495  10.8968  11.1505  11.1747  11.1867  11.2123
    11.2252  11.2430  11.2829  11.3137  11.3557  11.3974  11.4417  11.5219
    11.5512  11.5640  11.6083  11.6976  12.1405  12.1880  12.1887  12.2243
    12.2385  12.2906  12.2949  12.3373  12.3727  12.3729  12.3889  12.4450
    12.4779  12.5121  12.5283  12.5879  12.5981  12.6143  12.6595  12.7087
    12.7180  12.7420  12.7718  12.8346  12.8855  12.9135  12.9688  13.0265
    13.0571  13.1049  13.1750  13.1997  13.2034  13.2647  13.2679  13.3346
    13.5745  13.6230  13.6271  13.6804  13.6936  13.7019  13.7697  13.7749
    13.8153  13.8267  13.8514  13.8749  13.8986  13.9009  13.9463  13.9843
    14.0566  14.0863  14.1314  14.1893  14.5085  14.5586  14.6131  14.6868
    14.7550  14.8904  14.9094  15.0521  15.4817  15.4984  15.5856  15.6538
    15.6777  15.8072  15.8136  15.8311  15.8318  15.8698  15.8907  15.9097
    15.9224  16.0380  16.0466  16.0743  16.1285  16.1317  16.1767  16.1829
    16.2769  16.3880  16.3956  16.6021  16.7119  16.7654  16.8439  16.8997

          k = 0.3847 0.3847 0.3847 ( 54492 PWs)   bands (ev):

   -72.8983 -72.8958 -72.8958 -72.8908 -72.8727 -72.8638 -72.8638 -72.8615
   -72.8522 -72.8522 -72.8503 -72.8503 -72.8503 -72.8072 -72.8072 -72.8072
   -41.6628 -41.6161 -41.6149 -41.6149 -41.6067 -41.5874 -41.5874 -41.5860
   -39.2993 -39.2851 -39.2817 -39.2817 -39.1302 -39.0754 -39.0754 -39.0612
   -39.0268 -39.0268 -39.0238 -39.0198 -39.0198 -38.9993 -38.9989 -38.9989
   -38.9078 -38.9027 -38.9027 -38.8987 -38.8987 -38.8972 -38.8840 -38.8840
   -38.8733 -38.8714 -38.8714 -38.8687 -38.8595 -38.8595 -38.8475 -38.8475
   -38.8403 -38.8401 -38.8343 -38.8343 -38.8091 -38.8091 -38.7944 -38.7937
   -38.7937 -38.7744 -38.7544 -38.7523 -38.7523 -38.7497 -38.7497 -38.7489
   -17.9217 -17.9208 -17.9208 -17.9031 -17.9031 -17.8915 -17.8915 -17.8904
   -17.8868 -17.8730 -17.8730 -17.8725 -17.7926 -17.7919 -17.7919 -17.7753
   -17.7636 -17.7636 -17.7556 -17.7556 -17.7550 -17.7461 -17.7447 -17.7447
     4.8573   5.0076   5.0076   5.7722   7.2180   7.2180   7.4146  10.1947
    10.5068  10.7709  10.7709  10.9157  11.0832  11.1162  11.1162  11.1523
    11.1545  11.1545  11.2688  11.2775  11.2775  11.3812  11.3812  11.4166
    11.4231  11.4231  11.4265  11.5413  12.2165  12.2165  12.2663  12.2663
    12.2787  12.3396  12.3396  12.3436  12.3998  12.4828  12.4828  12.5494
    12.5494  12.5820  12.5820  12.5915  12.6282  12.6792  12.6792  12.6936
    12.7153  12.7153  12.7504  12.8053  12.8053  12.8143  12.8143  12.8602
    12.9259  12.9259  13.0605  13.0790  13.0971  13.0971  13.1594  13.1594
    13.6669  13.6669  13.7354  13.7372  13.7372  13.7485  13.7991  13.7991
    13.8552  13.8552  13.8690  13.8881  13.9344  13.9514  13.9514  13.9960
    13.9960  14.0357  14.0498  14.0498  14.8644  14.8918  14.8918  15.0034
    15.1105  15.1236  15.1236  15.3226  15.6352  15.6429  15.6429  15.6831
    15.6831  15.7188  15.7188  15.7992  15.8157  15.8158  15.8250  15.8782
    15.8782  16.0421  16.0421  16.0516  16.0752  16.0752  16.1214  16.1215
    16.1902  16.2789  16.3383  16.3399  16.5442  16.5494  16.5914  17.5570

 ------ SPIN DOWN ----------


          k = 0.0000 0.0000 0.0000 ( 54531 PWs)   bands (ev):

   -70.8432 -70.8108 -70.7866 -70.7866 -70.7866 -70.7840 -70.7840 -70.7566
   -70.7566 -70.7566 -70.7535 -70.7535 -70.7535 -70.7521 -70.7521 -70.7521
   -42.4020 -42.3870 -42.3870 -42.3719 -42.3719 -42.3719 -42.3687 -42.3506
   -37.4662 -37.3224 -37.2358 -37.2358 -37.2358 -37.2347 -37.2347 -37.0673
   -37.0673 -37.0673 -37.0185 -37.0185 -37.0185 -37.0165 -37.0165 -37.0165
   -36.8712 -36.8712 -36.8270 -36.8270 -36.8216 -36.8160 -36.8160 -36.8160
   -36.8006 -36.8006 -36.8006 -36.7851 -36.7851 -36.7851 -36.7706 -36.7706
   -36.7563 -36.7563 -36.7563 -36.7487 -36.7482 -36.7482 -36.7482 -36.7061
   -36.7061 -36.7061 -36.7036 -36.7036 -36.7036 -36.6838 -36.6838 -36.6838
   -18.6858 -18.6858 -18.6858 -18.6848 -18.6848 -18.6848 -18.6547 -18.6547
   -18.6547 -18.6043 -18.6043 -18.6043 -18.5995 -18.5995 -18.5896 -18.5413
   -18.5413 -18.5413 -18.5182 -18.5182 -18.5182 -18.5136 -18.5136 -18.5136
     4.4377   6.3300   6.3300   6.3881   6.3881   6.3881   8.2529   9.4364
    11.1417  11.4229  11.4229  11.4305  11.4305  11.4305  11.8827  11.8827
    11.8827  12.1753  12.4300  12.4300  12.4300  12.4492  12.4492  12.8191
    12.8778  12.8778  12.8778  12.9223  12.9223  12.9223  12.9948  12.9948
    12.9948  13.0724  13.0724  13.0724  13.1944  13.1944  13.1944  13.3701
    13.3701  13.5852  13.6461  13.6461  13.6461  13.6849  13.6849  13.7859
    13.7859  13.8096  13.8096  13.8096  13.8598  13.8598  13.8598  13.8948
    13.9472  13.9472  13.9472  13.9611  13.9611  14.2532  14.2532  14.2532
    14.3957  14.3957  14.3957  14.5772  14.5772  14.5772  15.0962  15.0962
    15.0962  15.3963  15.3963  15.3963  15.4673  15.4673  15.4673  15.5843
    15.5843  15.6409  15.6798  15.6799  15.6947  15.6947  15.6947  15.8128
    15.8167  15.8168  15.8168  15.8545  15.8545  16.0270  16.0270  16.0270
    16.4010  16.4010  16.4010  16.4677  16.4677  16.4678  16.4986  16.4987
    16.4988  16.9136  16.9177  16.9232  16.9399  16.9412  16.9735  16.9820
    17.0393  17.0393  17.0393  17.0765  17.0765  17.1520  17.1520  17.1520

          k = 0.0000 0.0000 0.1924 ( 54547 PWs)   bands (ev):

   -70.8428 -70.8107 -70.7935 -70.7866 -70.7866 -70.7840 -70.7761 -70.7568
   -70.7566 -70.7566 -70.7548 -70.7535 -70.7535 -70.7521 -70.7521 -70.7521
   -42.4011 -42.3892 -42.3870 -42.3727 -42.3719 -42.3719 -42.3659 -42.3515
   -37.4561 -37.3365 -37.2791 -37.2355 -37.2355 -37.2344 -37.1802 -37.0735
   -37.0635 -37.0635 -37.0240 -37.0240 -37.0197 -37.0172 -37.0171 -37.0171
   -36.8712 -36.8702 -36.8288 -36.8262 -36.8250 -36.8186 -36.8186 -36.8103
   -36.7998 -36.7969 -36.7969 -36.7906 -36.7821 -36.7821 -36.7750 -36.7630
   -36.7605 -36.7575 -36.7575 -36.7505 -36.7454 -36.7454 -36.7331 -36.7100
   -36.7084 -36.7084 -36.7057 -36.7028 -36.7028 -36.6873 -36.6861 -36.6861
   -18.6868 -18.6868 -18.6861 -18.6847 -18.6826 -18.6826 -18.6568 -18.6568
   -18.6524 -18.6178 -18.6040 -18.6040 -18.5993 -18.5934 -18.5815 -18.5444
   -18.5389 -18.5389 -18.5196 -18.5196 -18.5182 -18.5140 -18.5140 -18.5137
     4.5268   5.7838   6.3336   6.3919   6.3919   6.9118   8.2393   9.5108
    10.7432  11.2241  11.4345  11.4404  11.4404  11.7003  11.9292  11.9292
    11.9991  12.1112  12.2987  12.3179  12.3179  12.3325  12.6235  12.6235
    12.7105  12.8262  12.8661  12.8846  12.8853  12.8853  12.9162  13.0299
    13.0299  13.1406  13.1650  13.1650  13.2405  13.3800  13.3800  13.3858
    13.4046  13.5688  13.6084  13.6084  13.6126  13.6848  13.7321  13.7321
    13.7593  13.7764  13.8265  13.8600  13.8907  13.9098  13.9098  13.9250
    13.9523  13.9903  13.9903  14.0005  14.0325  14.0995  14.2075  14.2075
    14.4220  14.5056  14.5056  14.6064  14.6950  14.6950  15.1048  15.1048
    15.1060  15.2053  15.2499  15.2499  15.3177  15.4457  15.5311  15.5311
    15.5649  15.6587  15.6823  15.7578  15.7987  15.7988  15.8178  15.8239
    15.9250  15.9386  15.9386  15.9591  16.0174  16.0174  16.0388  16.0993
    16.3704  16.3704  16.3839  16.3839  16.4258  16.4400  16.4403  16.4594
    16.5389  16.7288  16.7769  16.8284  16.8394  16.8401  16.8512  16.9038
    16.9412  16.9422  16.9835  17.0168  17.0267  17.2303  17.2331  17.3397

          k = 0.0000 0.0000 0.3847 ( 54539 PWs)   bands (ev):

   -70.8421 -70.8104 -70.7985 -70.7866 -70.7866 -70.7840 -70.7676 -70.7600
   -70.7566 -70.7566 -70.7561 -70.7535 -70.7535 -70.7521 -70.7521 -70.7521
   -42.3986 -42.3932 -42.3870 -42.3731 -42.3719 -42.3719 -42.3618 -42.3535
   -37.4284 -37.3776 -37.2922 -37.2350 -37.2350 -37.2338 -37.1339 -37.0917
   -37.0539 -37.0539 -37.0359 -37.0359 -37.0215 -37.0187 -37.0187 -37.0183
   -36.8711 -36.8686 -36.8328 -36.8280 -36.8213 -36.8213 -36.8190 -36.8077
   -36.8038 -36.7927 -36.7927 -36.7922 -36.7761 -36.7760 -36.7760 -36.7706
   -36.7603 -36.7603 -36.7487 -36.7467 -36.7388 -36.7388 -36.7192 -36.7159
   -36.7148 -36.7148 -36.7088 -36.6988 -36.6988 -36.6971 -36.6918 -36.6918
   -18.6875 -18.6875 -18.6865 -18.6846 -18.6791 -18.6791 -18.6610 -18.6610
   -18.6457 -18.6320 -18.6036 -18.6036 -18.5989 -18.5923 -18.5664 -18.5532
   -18.5336 -18.5336 -18.5236 -18.5236 -18.5182 -18.5144 -18.5144 -18.5139
     4.7679   5.2852   6.3395   6.3979   6.3979   7.3028   8.1928   9.7485
    10.1850  11.2332  11.4570  11.4586  11.4586  11.5049  12.0498  12.0587
    12.0587  12.1215  12.1777  12.1810  12.1810  12.3231  12.3231  12.4836
    12.7268  12.7884  12.8152  12.8214  12.8214  12.8216  13.1290  13.1290
    13.1403  13.2480  13.2510  13.2510  13.2981  13.3292  13.3292  13.4006
    13.4961  13.5393  13.5473  13.5473  13.5793  13.6445  13.6742  13.7219
    13.8570  13.8570  13.8723  13.8868  13.9334  13.9390  13.9739  13.9739
    13.9858  14.0311  14.0778  14.0778  14.1193  14.2296  14.2296  14.2730
    14.3552  14.4930  14.4930  14.5334  14.8924  14.8924  15.0497  15.0497
    15.0551  15.1286  15.1286  15.1506  15.1764  15.2634  15.5636  15.6123
    15.6976  15.7692  15.7692  15.8116  15.9719  15.9719  15.9897  15.9963
    15.9963  16.0096  16.0387  16.1166  16.1166  16.1536  16.1987  16.2159
    16.2159  16.2572  16.2572  16.2874  16.3398  16.3399  16.3442  16.3594
    16.5153  16.5835  16.6418  16.6631  16.6631  16.7265  16.8737  16.9246
    16.9518  16.9520  16.9523  16.9867  16.9875  17.0058  17.0892  17.1473

          k = 0.0000 0.1924 0.1924 ( 54543 PWs)   bands (ev):

   -70.8425 -70.8103 -70.7956 -70.7913 -70.7859 -70.7783 -70.7749 -70.7575
   -70.7566 -70.7565 -70.7555 -70.7537 -70.7535 -70.7521 -70.7521 -70.7521
   -42.4002 -42.3897 -42.3883 -42.3750 -42.3714 -42.3692 -42.3651 -42.3523
   -37.4467 -37.3421 -37.2991 -37.2691 -37.2276 -37.1905 -37.1731 -37.0763
   -37.0632 -37.0601 -37.0272 -37.0256 -37.0239 -37.0216 -37.0180 -37.0168
   -36.8706 -36.8696 -36.8291 -36.8268 -36.8246 -36.8187 -36.8148 -36.8124
   -36.8092 -36.7954 -36.7929 -36.7865 -36.7817 -36.7807 -36.7697 -36.7651
   -36.7651 -36.7578 -36.7563 -36.7523 -36.7416 -36.7366 -36.7294 -36.7194
   -36.7085 -36.7067 -36.7042 -36.7041 -36.7020 -36.6931 -36.6886 -36.6855
   -18.6887 -18.6862 -18.6845 -18.6840 -18.6817 -18.6813 -18.6589 -18.6564
   -18.6527 -18.6187 -18.6175 -18.6100 -18.5902 -18.5833 -18.5792 -18.5445
   -18.5394 -18.5367 -18.5211 -18.5201 -18.5191 -18.5150 -18.5149 -18.5131
     4.6122   5.7190   5.9247   6.3573   6.7548   7.0583   8.2026   9.5859
    10.7151  10.8657  11.2871  11.3910  11.6560  11.8632  11.9521  11.9623
    12.0213  12.0831  12.1751  12.2230  12.3448  12.3515  12.3958  12.5626
    12.6083  12.6246  12.7894  12.8359  12.9622  12.9842  13.0589  13.1047
    13.1065  13.1942  13.2030  13.2662  13.3450  13.3738  13.4125  13.4198
    13.4262  13.5297  13.5662  13.5686  13.6593  13.7388  13.7561  13.7588
    13.7984  13.8051  13.8060  13.8398  13.8408  13.8718  13.9029  13.9361
    13.9592  13.9860  13.9965  14.0282  14.0317  14.0410  14.1123  14.2030
    14.5491  14.5880  14.6560  14.7304  14.7346  14.7686  15.0980  15.1257
    15.1295  15.1347  15.1681  15.2144  15.3068  15.3873  15.3926  15.5899
    15.6472  15.6579  15.6884  15.6994  15.7604  15.8555  15.8778  15.9560
    15.9816  15.9844  16.0053  16.0254  16.0525  16.0877  16.1094  16.1693
    16.2687  16.2912  16.3613  16.3825  16.3831  16.4051  16.4096  16.4605
    16.5222  16.6848  16.6896  16.7272  16.7810  16.8459  16.8630  16.8822
    16.8926  16.9328  16.9350  16.9780  17.0057  17.0136  17.0587  17.0674

          k = 0.0000 0.1924 0.3847 ( 54506 PWs)   bands (ev):

   -70.8420 -70.8093 -70.7999 -70.7929 -70.7849 -70.7776 -70.7681 -70.7611
   -70.7566 -70.7564 -70.7561 -70.7538 -70.7535 -70.7521 -70.7521 -70.7521
   -42.3978 -42.3930 -42.3886 -42.3762 -42.3705 -42.3685 -42.3624 -42.3541
   -37.4214 -37.3724 -37.3131 -37.2818 -37.2175 -37.1850 -37.1338 -37.0932
   -37.0549 -37.0514 -37.0377 -37.0355 -37.0268 -37.0250 -37.0194 -37.0180
   -36.8704 -36.8680 -36.8309 -36.8267 -36.8220 -36.8202 -36.8166 -36.8109
   -36.8047 -36.8019 -36.7959 -36.7854 -36.7814 -36.7743 -36.7693 -36.7651
   -36.7589 -36.7569 -36.7546 -36.7478 -36.7381 -36.7355 -36.7288 -36.7175
   -36.7150 -36.7073 -36.7040 -36.7020 -36.7015 -36.6972 -36.6944 -36.6897
   -18.6897 -18.6863 -18.6841 -18.6827 -18.6791 -18.6780 -18.6623 -18.6603
   -18.6466 -18.6327 -18.6184 -18.6155 -18.5843 -18.5799 -18.5654 -18.5523
   -18.5349 -18.5317 -18.5252 -18.5233 -18.5199 -18.5167 -18.5150 -18.5130
     4.8436   5.3199   5.8892   6.3022   6.8622   7.3886   8.1039   9.8200
    10.2434  10.9178  11.1321  11.3183  11.7218  11.8401  11.9605  12.0336
    12.0763  12.1162  12.1191  12.1945  12.2349  12.2575  12.3212  12.3945
    12.5009  12.5285  12.5984  12.8322  13.0956  13.1154  13.1587  13.2174
    13.2384  13.2698  13.2845  13.3110  13.3485  13.3549  13.4282  13.4332
    13.4683  13.4961  13.5069  13.5755  13.6306  13.6720  13.7083  13.7415
    13.8006  13.8065  13.8145  13.8461  13.8652  13.9038  13.9618  13.9841
    13.9860  14.0047  14.0350  14.0513  14.0739  14.1016  14.1405  14.2038
    14.6188  14.6627  14.7134  14.7456  14.9204  14.9461  15.0347  15.0505
    15.0800  15.1315  15.1539  15.1674  15.2402  15.2628  15.5208  15.5774
    15.5959  15.6696  15.7877  15.8669  15.8849  15.9342  15.9798  15.9995
    16.0293  16.0490  16.0618  16.1254  16.1357  16.1641  16.1908  16.2169
    16.2323  16.2424  16.2638  16.2731  16.2951  16.3481  16.4029  16.4163
    16.4433  16.5657  16.6224  16.6497  16.6852  16.7412  16.7751  16.8154
    16.8489  16.8782  16.8869  16.9018  16.9453  16.9842  17.0382  17.1538

          k = 0.0000 0.3847 0.3847 ( 54436 PWs)   bands (ev):

   -70.8417 -70.8065 -70.8019 -70.7989 -70.7823 -70.7717 -70.7684 -70.7642
   -70.7566 -70.7562 -70.7561 -70.7541 -70.7535 -70.7521 -70.7521 -70.7521
   -42.3958 -42.3930 -42.3915 -42.3785 -42.3678 -42.3658 -42.3636 -42.3552
   -37.4046 -37.3619 -37.3402 -37.3188 -37.1966 -37.1463 -37.1306 -37.1046
   -37.0532 -37.0450 -37.0423 -37.0361 -37.0355 -37.0318 -37.0224 -37.0210
   -36.8696 -36.8664 -36.8270 -36.8225 -36.8209 -36.8190 -36.8180 -36.8119
   -36.8109 -36.8024 -36.8022 -36.7932 -36.7737 -36.7709 -36.7671 -36.7621
   -36.7572 -36.7526 -36.7521 -36.7505 -36.7423 -36.7332 -36.7242 -36.7220
   -36.7155 -36.7129 -36.7094 -36.7010 -36.6968 -36.6960 -36.6951 -36.6902
   -18.6900 -18.6836 -18.6832 -18.6822 -18.6778 -18.6755 -18.6632 -18.6608
   -18.6445 -18.6336 -18.6321 -18.6275 -18.5714 -18.5651 -18.5648 -18.5544
   -18.5359 -18.5288 -18.5277 -18.5243 -18.5228 -18.5172 -18.5167 -18.5139
     5.0527   5.3473   5.5159   6.1539   7.2816   7.5292   7.8703  10.0302
    10.3634  10.5180  10.7612  11.3266  11.9136  11.9632  12.0098  12.0704
    12.0710  12.0818  12.0918  12.1308  12.1338  12.1827  12.2262  12.3141
    12.3700  12.3777  12.4158  12.8539  13.2046  13.2853  13.2979  13.3226
    13.3344  13.3758  13.3777  13.4140  13.4338  13.4465  13.4745  13.4967
    13.5120  13.5128  13.5185  13.5618  13.5872  13.6243  13.6583  13.6967
    13.7028  13.7071  13.7272  13.7762  13.7898  13.7984  13.8376  13.8790
    13.9948  14.0303  14.0478  14.1169  14.1324  14.1443  14.2098  14.2123
    14.8842  14.8996  14.9229  14.9549  14.9609  14.9826  15.0191  15.0623
    15.0847  15.1818  15.2007  15.2404  15.2815  15.3673  15.3811  15.4490
    15.5248  15.5466  15.6801  15.8120  15.8573  15.9363  15.9584  16.0354
    16.0824  16.1092  16.1104  16.1191  16.1378  16.1609  16.1787  16.1902
    16.2187  16.2583  16.2936  16.2975  16.3305  16.3478  16.3494  16.3840
    16.4114  16.4427  16.5622  16.5941  16.6702  16.6881  16.7013  16.7810
    16.8370  16.8556  16.8759  16.8831  16.8996  16.9124  17.0086  17.0737

          k = 0.1924 0.1924 0.1924 ( 54468 PWs)   bands (ev):

   -70.8422 -70.8098 -70.7956 -70.7956 -70.7844 -70.7749 -70.7749 -70.7585
   -70.7565 -70.7565 -70.7558 -70.7537 -70.7537 -70.7521 -70.7521 -70.7521
   -42.3994 -42.3898 -42.3898 -42.3764 -42.3692 -42.3692 -42.3646 -42.3530
   -37.4382 -37.3467 -37.2998 -37.2998 -37.2123 -37.1707 -37.1707 -37.0785
   -37.0602 -37.0602 -37.0288 -37.0288 -37.0275 -37.0224 -37.0197 -37.0197
   -36.8695 -36.8695 -36.8290 -36.8242 -36.8242 -36.8181 -36.8181 -36.8151
   -36.8014 -36.8014 -36.7951 -36.7829 -36.7814 -36.7814 -36.7670 -36.7670
   -36.7640 -36.7565 -36.7565 -36.7555 -36.7340 -36.7340 -36.7264 -36.7208
   -36.7146 -36.7146 -36.7004 -36.7004 -36.6994 -36.6949 -36.6949 -36.6838
   -18.6878 -18.6878 -18.6835 -18.6817 -18.6808 -18.6808 -18.6578 -18.6578
   -18.6541 -18.6214 -18.6214 -18.6187 -18.5805 -18.5805 -18.5755 -18.5438
   -18.5376 -18.5376 -18.5222 -18.5206 -18.5206 -18.5154 -18.5154 -18.5138
     4.6930   5.7261   5.7261   6.2559   7.0543   7.0543   8.1529   9.6611
    10.6902  10.9007  10.9007  11.4546  11.8531  11.8531  11.9047  11.9322
    11.9322  12.1437  12.1437  12.1572  12.3339  12.3462  12.3462  12.4756
    12.4756  12.4974  12.6800  12.8225  13.0952  13.1119  13.1119  13.1379
    13.1379  13.2913  13.2913  13.3274  13.3783  13.4051  13.4051  13.4414
    13.4414  13.5715  13.6085  13.6085  13.6384  13.7152  13.7152  13.7790
    13.7790  13.7821  13.7900  13.7900  13.8344  13.8752  13.9099  13.9099
    13.9294  13.9333  13.9333  14.0040  14.0040  14.0914  14.1727  14.1727
    14.7134  14.7156  14.7156  14.8207  14.8207  14.8250  15.1213  15.1213
    15.1344  15.1915  15.1915  15.2089  15.3046  15.3062  15.3062  15.6143
    15.6143  15.6729  15.6729  15.7119  15.8015  15.8015  15.8513  16.0062
    16.0270  16.0553  16.0553  16.0806  16.0806  16.1549  16.1940  16.1941
    16.2525  16.2660  16.2661  16.3275  16.3275  16.3617  16.3617  16.3784
    16.6428  16.6429  16.6816  16.6855  16.7331  16.7509  16.7510  16.8426
    16.8427  16.9571  16.9584  16.9722  16.9754  17.0168  17.0175  17.0576

          k = 0.1924 0.1924 0.3847 ( 54530 PWs)   bands (ev):

   -70.8418 -70.8084 -70.8006 -70.7956 -70.7839 -70.7749 -70.7684 -70.7620
   -70.7565 -70.7564 -70.7561 -70.7538 -70.7537 -70.7521 -70.7521 -70.7521
   -42.3972 -42.3929 -42.3898 -42.3774 -42.3692 -42.3675 -42.3628 -42.3545
   -37.4158 -37.3689 -37.3234 -37.3010 -37.2061 -37.1668 -37.1321 -37.0936
   -37.0531 -37.0524 -37.0378 -37.0375 -37.0303 -37.0271 -37.0221 -37.0208
   -36.8693 -36.8676 -36.8290 -36.8241 -36.8236 -36.8185 -36.8149 -36.8139
   -36.8032 -36.8030 -36.7949 -36.7900 -36.7831 -36.7775 -36.7680 -36.7634
   -36.7573 -36.7570 -36.7537 -36.7509 -36.7353 -36.7350 -36.7276 -36.7199
   -36.7165 -36.7104 -36.7061 -36.7020 -36.6981 -36.6978 -36.6931 -36.6864
   -18.6890 -18.6859 -18.6832 -18.6803 -18.6780 -18.6780 -18.6619 -18.6607
   -18.6487 -18.6346 -18.6252 -18.6229 -18.5764 -18.5731 -18.5632 -18.5505
   -18.5337 -18.5333 -18.5254 -18.5246 -18.5211 -18.5175 -18.5161 -18.5139
     4.9119   5.3447   5.7378   6.2295   7.0477   7.4243   8.0217   9.8868
    10.3047  10.8516  10.9710  11.3311  11.7029  11.7689  11.9536  12.0375
    12.0614  12.1193  12.1399  12.1804  12.2252  12.2380  12.2704  12.3426
    12.3969  12.4065  12.4864  12.8167  13.2164  13.2207  13.2370  13.2789
    13.2882  13.3215  13.3397  13.3625  13.3711  13.4157  13.4572  13.4607
    13.5130  13.5159  13.5494  13.6028  13.6076  13.6700  13.6870  13.7232
    13.7436  13.7899  13.7926  13.8089  13.8381  13.8478  13.8877  13.9179
    13.9556  13.9816  14.0016  14.0253  14.0584  14.1257  14.1510  14.1920
    14.7773  14.8194  14.8245  14.9061  14.9651  15.0115  15.0704  15.1049
    15.1259  15.1469  15.1530  15.2614  15.2877  15.3078  15.4557  15.5519
    15.6078  15.6631  15.6924  15.7889  15.8164  15.8584  15.9137  15.9632
    16.0481  16.0735  16.1187  16.1273  16.1543  16.1935  16.1996  16.2056
    16.2187  16.2395  16.2588  16.2672  16.3375  16.3491  16.3754  16.3875
    16.4640  16.4754  16.5125  16.5757  16.6384  16.6624  16.6997  16.7607
    16.7811  16.8331  16.9341  16.9455  16.9860  17.0510  17.0823  17.1917

          k = 0.1924 0.3847 0.3847 ( 54507 PWs)   bands (ev):

   -70.8416 -70.8060 -70.8019 -70.7998 -70.7824 -70.7706 -70.7684 -70.7647
   -70.7565 -70.7562 -70.7561 -70.7541 -70.7537 -70.7521 -70.7521 -70.7521
   -42.3955 -42.3930 -42.3919 -42.3787 -42.3671 -42.3658 -42.3638 -42.3553
   -37.4030 -37.3612 -37.3414 -37.3271 -37.1925 -37.1372 -37.1258 -37.1023
   -37.0524 -37.0470 -37.0425 -37.0382 -37.0377 -37.0324 -37.0260 -37.0252
   -36.8682 -36.8662 -36.8255 -36.8221 -36.8207 -36.8181 -36.8171 -36.8111
   -36.8074 -36.8016 -36.8007 -36.7928 -36.7799 -36.7767 -36.7705 -36.7662
   -36.7605 -36.7540 -36.7529 -36.7523 -36.7342 -36.7301 -36.7242 -36.7208
   -36.7182 -36.7145 -36.7133 -36.7071 -36.6926 -36.6911 -36.6910 -36.6863
   -18.6881 -18.6840 -18.6807 -18.6797 -18.6764 -18.6753 -18.6628 -18.6612
   -18.6489 -18.6375 -18.6364 -18.6331 -18.5654 -18.5608 -18.5604 -18.5509
   -18.5355 -18.5299 -18.5287 -18.5253 -18.5238 -18.5186 -18.5180 -18.5156
     5.0983   5.3565   5.4790   6.1384   7.3387   7.5101   7.8110  10.0634
    10.4180  10.5975  10.7856  11.3270  11.7067  11.8479  11.9071  11.9853
    12.0325  12.1065  12.1186  12.1451  12.1559  12.1720  12.1977  12.2565
    12.3071  12.3096  12.3471  12.8031  13.2995  13.3503  13.3672  13.3751
    13.3896  13.4006  13.4355  13.4465  13.4715  13.4716  13.5112  13.5142
    13.5262  13.5386  13.5619  13.5704  13.6152  13.6286  13.6621  13.6636
    13.6850  13.7025  13.7352  13.7464  13.7597  13.7852  13.8271  13.8676
    13.9618  13.9927  14.0103  14.0481  14.0928  14.1396  14.1832  14.1928
    14.9727  14.9965  15.0335  15.0502  15.0545  15.0961  15.1169  15.1695
    15.1912  15.2377  15.3115  15.3260  15.3662  15.4190  15.4330  15.4911
    15.5086  15.5538  15.6619  15.7004  15.7433  15.7927  15.9095  15.9459
    15.9680  15.9877  16.0573  16.0688  16.1181  16.1647  16.1719  16.1787
    16.2076  16.2306  16.2684  16.2731  16.2935  16.2972  16.3264  16.3517
    16.4269  16.4287  16.4835  16.5354  16.6223  16.7341  16.7370  16.7740
    16.7879  16.8697  16.8709  16.9207  16.9608  17.0395  17.0568  17.1394

          k = 0.3847 0.3847 0.3847 ( 54492 PWs)   bands (ev):

   -70.8416 -70.8044 -70.8019 -70.8019 -70.7826 -70.7684 -70.7684 -70.7661
   -70.7562 -70.7562 -70.7561 -70.7541 -70.7541 -70.7521 -70.7521 -70.7521
   -42.3945 -42.3931 -42.3931 -42.3791 -42.3658 -42.3658 -42.3645 -42.3554
   -37.4001 -37.3567 -37.3431 -37.3431 -37.1866 -37.1173 -37.1173 -37.1022
   -37.0505 -37.0505 -37.0427 -37.0427 -37.0413 -37.0337 -37.0327 -37.0327
   -36.8658 -36.8658 -36.8231 -36.8231 -36.8225 -36.8169 -36.8094 -36.8094
   -36.8038 -36.7977 -36.7951 -36.7951 -36.7835 -36.7835 -36.7766 -36.7766
   -36.7703 -36.7563 -36.7545 -36.7545 -36.7251 -36.7251 -36.7248 -36.7209
   -36.7209 -36.7158 -36.7137 -36.7137 -36.6865 -36.6865 -36.6862 -36.6837
   -18.6840 -18.6840 -18.6757 -18.6757 -18.6746 -18.6734 -18.6624 -18.6624
   -18.6565 -18.6434 -18.6434 -18.6429 -18.5536 -18.5536 -18.5529 -18.5462
   -18.5344 -18.5344 -18.5290 -18.5276 -18.5276 -18.5203 -18.5203 -18.5189
     5.2166   5.3715   5.3715   6.1183   7.4794   7.4794   7.6663  10.1103
    10.5691  10.7629  10.7629  11.3058  11.5823  11.5823  11.7220  12.0219
    12.0273  12.0273  12.0905  12.0905  12.1160  12.1160  12.1235  12.2186
    12.2474  12.2474  12.2702  12.7312  13.4219  13.4219  13.4220  13.4652
    13.4652  13.4784  13.4883  13.4883  13.5318  13.5318  13.5403  13.5456
    13.5612  13.5612  13.5786  13.5946  13.5946  13.6401  13.6429  13.6429
    13.6888  13.6947  13.6947  13.7365  13.7365  13.7911  13.7976  13.7976
    13.9312  13.9990  13.9990  14.0326  14.0326  14.1517  14.1517  14.1576
    15.1445  15.1963  15.1963  15.2297  15.2297  15.2571  15.2571  15.3345
    15.3345  15.3430  15.4316  15.4473  15.5243  15.5243  15.5419  15.5852
    15.5852  15.6057  15.6211  15.6211  15.7081  15.7082  15.7497  15.7497
    15.7634  15.8035  15.8607  15.8607  15.9717  16.0880  16.0880  16.1140
    16.1426  16.1426  16.1835  16.2003  16.2075  16.2075  16.2605  16.2606
    16.4318  16.4700  16.4701  16.7010  16.7530  16.7530  16.7988  16.8020
    16.8022  16.8148  16.8464  16.8464  16.9233  16.9695  16.9705  17.2848

     the Fermi energy is    15.1887 ev

!    total energy              =   -6230.61630821 Ry
     estimated scf accuracy    <          9.4E-11 Ry
     smearing contrib. (-TS)   =       0.00046999 Ry
     internal energy E=F+TS    =   -6230.61677820 Ry

     The total energy is F=E-TS. E is the sum of the following terms:
     one-electron contribution =   -2592.58235477 Ry
     hartree contribution      =    1475.19987063 Ry
     xc contribution           =    -706.39423168 Ry
     ewald contribution        =   -3188.36545151 Ry
     one-center paw contrib.   =   -1218.47461087 Ry

     total magnetization       =    19.46 Bohr mag/cell
     absolute magnetization    =    38.57 Bohr mag/cell

     convergence has been achieved in  31 iterations

     negative rho (up, down):  7.347E-03 1.093E-03

     Forces acting on atoms (cartesian axes, Ry/au):

     atom    1 type  1   force =     0.00002009    0.00002009    0.00000388
     atom    2 type  1   force =    -0.00002238   -0.00002238   -0.00002238
     atom    3 type  1   force =    -0.00002009    0.00000388   -0.00002009
     atom    4 type  1   force =    -0.00000388   -0.00002009    0.00002009
     atom    5 type  1   force =     0.00002009    0.00000388    0.00002009
     atom    6 type  1   force =     0.00000388    0.00002009    0.00002009
     atom    7 type  1   force =    -0.00002009   -0.00000388    0.00002009
     atom    8 type  1   force =     0.00002238   -0.00002238    0.00002238
     atom    9 type  1   force =    -0.00002238    0.00002238    0.00002238
     atom   10 type  1   force =     0.00000388   -0.00002009   -0.00002009
     atom   11 type  1   force =    -0.00000388    0.00002009   -0.00002009
     atom   12 type  1   force =    -0.00002009   -0.00002009    0.00000388
     atom   13 type  1   force =     0.00002238    0.00002238   -0.00002238
     atom   14 type  1   force =    -0.00002009    0.00002009   -0.00000388
     atom   15 type  1   force =     0.00002009   -0.00000388   -0.00002009
     atom   16 type  1   force =     0.00002009   -0.00002009   -0.00000388
     atom   17 type  2   force =     0.00000000    0.00000000    0.00000000
     atom   18 type  2   force =    -0.00005465   -0.00005465    0.00005465
     atom   19 type  2   force =     0.00000000    0.00000000    0.00000000
     atom   20 type  2   force =    -0.00005465    0.00005465   -0.00005465
     atom   21 type  2   force =     0.00000000    0.00000000    0.00000000
     atom   22 type  2   force =     0.00005465    0.00005465    0.00005465
     atom   23 type  2   force =     0.00005465   -0.00005465   -0.00005465
     atom   24 type  2   force =     0.00000000    0.00000000    0.00000000
     atom   25 type  3   force =    -0.00000099   -0.00000099    0.00000099
     atom   26 type  3   force =     0.00000000    0.00000000    0.00000000
     atom   27 type  3   force =    -0.00000099    0.00000099   -0.00000099
     atom   28 type  3   force =     0.00000000    0.00000000    0.00000000
     atom   29 type  3   force =     0.00000099    0.00000099    0.00000099
     atom   30 type  3   force =     0.00000099   -0.00000099   -0.00000099
     atom   31 type  3   force =     0.00000000    0.00000000    0.00000000

     Total force =     0.000227     Total SCF correction =     0.000020


     Computing stress (Cartesian axis) and pressure


     negative rho (up, down):  7.347E-03 1.093E-03
          total   stress  (Ry/bohr**3)                   (kbar)     P=        0.34
   0.00000234   0.00000000   0.00000000            0.34        0.00        0.00
   0.00000000   0.00000234   0.00000000            0.00        0.34        0.00
   0.00000000   0.00000000   0.00000234            0.00        0.00        0.34


     Writing all to output data dir ./TiFe2_cub_8b_8H.save/ :
     XML data file
     init_run     :     41.57s CPU     44.78s WALL (       2 calls)
     electrons    : 126971.05s CPU 129768.10s WALL (      15 calls)
     update_pot   :     14.77s CPU     15.64s WALL (      13 calls)
     forces       :    123.08s CPU    128.23s WALL (      15 calls)
     stress       :    462.74s CPU    474.87s WALL (      15 calls)

     Called by init_run:
     wfcinit      :     33.21s CPU     35.55s WALL (       2 calls)
     potinit      :      2.63s CPU      2.90s WALL (       2 calls)
     hinit0       :      1.44s CPU      1.51s WALL (       2 calls)

     Called by electrons:
     c_bands      : 124764.02s CPU 127349.21s WALL (     302 calls)
     sum_band     :   1534.25s CPU   1673.21s WALL (     302 calls)
     v_of_rho     :    130.81s CPU    142.33s WALL (     312 calls)
     newd         :    340.59s CPU    397.39s WALL (     312 calls)
     PAW_pot      :    196.74s CPU    200.56s WALL (     325 calls)
     mix_rho      :     29.57s CPU     32.64s WALL (     302 calls)

     Called by c_bands:
     init_us_2    :     95.97s CPU     97.52s WALL (   12980 calls)
     ccgdiagg     : 121273.87s CPU 123670.59s WALL (    6213 calls)
     wfcrot       :   3399.26s CPU   3584.86s WALL (    5853 calls)

     Called by *cgdiagg:
     h_psi        :  48732.34s CPU  50254.40s WALL ( 4348576 calls)
     s_psi        :  21144.81s CPU  21601.78s WALL ( 8691299 calls)

     Called by h_psi:
     h_psi:calbec :  20571.79s CPU  21022.81s WALL ( 4348576 calls)
     vloc_psi     :  13608.01s CPU  14439.55s WALL ( 4348576 calls)
     add_vuspsi   :  14430.69s CPU  14684.74s WALL ( 4348576 calls)
     hs_1psi      :  56717.03s CPU  58290.00s WALL ( 4342723 calls)
     s_1psi       :  29544.85s CPU  29997.68s WALL ( 4342723 calls)

     General routines
     calbec       :  40239.97s CPU  40964.63s WALL ( 8702699 calls)
     fft          :     91.92s CPU    104.55s WALL (    8393 calls)
     ffts         :      7.50s CPU      8.66s WALL (    7490 calls)
     fftw         :   9313.47s CPU  10045.73s WALL (12524902 calls)
     interpolate  :      8.86s CPU      9.74s WALL (     624 calls)

     Parallel routines

     PWSCF        : 127656.71s CPU 130506.17s WALL


   This run was terminated on:  12:13:56  25Nov2025            

=------------------------------------------------------------------------------=
   JOB DONE.
=------------------------------------------------------------------------------=
