
     Program PWSCF v.7.4 starts on  1Dec2025 at 13:36:44 

     This program is part of the open-source Quantum ESPRESSO suite
     for quantum simulation of materials; please cite
         "P. Giannozzi et al., J. Phys.:Condens. Matter 21 395502 (2009);
         "P. Giannozzi et al., J. Phys.:Condens. Matter 29 465901 (2017);
         "P. Giannozzi et al., J. Chem. Phys. 152 154105 (2020);
          URL http://www.quantum-espresso.org", 
     in publications or presentations arising from this work. More details at
     http://www.quantum-espresso.org/quote

     Parallel version (MPI & OpenMP), running on      16 processor cores
     Number of MPI processes:                16
     Threads/MPI process:                     1

     MPI processes distributed on     1 nodes
     305471 MiB available memory on the printing compute node when the environment starts

     Reading input from TiFe_octa1_1_1_def.in

     Current dimensions of program PWSCF are:
     Max number of different atomic species (ntypx) = 10
     Max number of k-points (npk) =  40000
     Max angular momentum in pseudopotentials (lmaxx) =  4
     file Fe.pbe-spn-kjpaw_psl.0.2.1.UPF: wavefunction(s)  3D renormalized

     IMPORTANT: XC functional enforced from input :
     Exchange-correlation= PBE
                           (   1   4   3   4   0   0   0)
     Any further DFT definition will be discarded
     Please, verify this is what you really want


     R & G space division:  proc/nbgrp/npool/nimage =      16
     Subspace diagonalization in iterative solution of the eigenvalue problem:
     a serial algorithm will be used


     Parallelization info
     --------------------
     sticks:   dense  smooth     PW     G-vecs:    dense   smooth      PW
     Min        1075     307     84               106249    16243    2316
     Max        1077     308     85               106252    16246    2319
     Sum       17217    4921   1353              1700005   259911   37073

     Using Slab Decomposition



     bravais-lattice index     =            0
     lattice parameter (alat)  =       5.5824  a.u.
     unit-cell volume          =    1391.7400 (a.u.)^3
     number of atoms/cell      =           24
     number of atomic types    =            3
     number of electrons       =       232.00
     number of Kohn-Sham states=          139
     kinetic-energy cutoff     =     124.0000  Ry
     charge density cutoff     =    1736.0000  Ry
     scf convergence threshold =      1.0E-08
     mixing beta               =       0.7000
     number of iterations used =            8  plain     mixing
     energy convergence thresh.=      1.0E-04
     force convergence thresh. =      1.0E-03
     press convergence thresh. =      1.0E-01
     Exchange-correlation= PBE
                           (   1   4   3   4   0   0   0)
     nstep                     =           50


     celldm(1)=   5.582423  celldm(2)=   0.000000  celldm(3)=   0.000000
     celldm(4)=   0.000000  celldm(5)=   0.000000  celldm(6)=   0.000000

     crystal axes: (cart. coord. in units of alat)
               a(1) = (   2.000000   0.000000   0.000000 )  
               a(2) = (   0.000000   2.000000   0.000000 )  
               a(3) = (   0.000000   0.000000   2.000000 )  

     reciprocal axes: (cart. coord. in units 2 pi/alat)
               b(1) = (  0.500000  0.000000  0.000000 )  
               b(2) = (  0.000000  0.500000  0.000000 )  
               b(3) = (  0.000000  0.000000  0.500000 )  


     PseudoPot. # 1 for Fe read from file:
     ../../../../pseudos/Fe.pbe-spn-kjpaw_psl.0.2.1.UPF
     MD5 check sum: e86618425769142926afa95317d90200
     Pseudo is Projector augmented-wave + core cor, Zval = 16.0
     Generated using "atomic" code by A. Dal Corso  v.5.0.99 svn rev. 10869
     Shape of augmentation charge: PSQ
     Using radial grid of 1191 points,  6 beta functions with: 
                l(1) =   0
                l(2) =   0
                l(3) =   1
                l(4) =   1
                l(5) =   2
                l(6) =   2
     Q(r) pseudized with 0 coefficients 


     PseudoPot. # 2 for Ti read from file:
     ../../../../pseudos/ti_pbe_v1.4.uspp.F.UPF
     MD5 check sum: 88a00a6731bd790ddea75d31a80cb452
     Pseudo is Ultrasoft + core correction, Zval = 12.0
     Generated by new atomic code, or converted to UPF format
     Using radial grid of  851 points,  6 beta functions with: 
                l(1) =   0
                l(2) =   0
                l(3) =   1
                l(4) =   1
                l(5) =   2
                l(6) =   2
     Q(r) pseudized with  6 coefficients,  rinner =    1.000   1.000   1.000
                                                       1.000   1.000

     PseudoPot. # 3 for H  read from file:
     ../../../../pseudos/H.pbe-rrkjus_psl.1.0.0.UPF
     MD5 check sum: f52b6d4d1c606e5624b1dc7b2218f220
     Pseudo is Ultrasoft, Zval =  1.0
     Generated using "atomic" code by A. Dal Corso  v.5.1
     Using radial grid of  929 points,  2 beta functions with: 
                l(1) =   0
                l(2) =   0
     Q(r) pseudized with 0 coefficients 


     atomic species   valence    mass     pseudopotential
     Fe               16.00    55.84500     Fe( 1.00)
     Ti               12.00    47.86700     Ti( 1.00)
     H                 1.00     1.00784     H ( 1.00)

     No symmetry found



   Cartesian axes

     site n.     atom                  positions (alat units)
         1        Fe     tau(   1) = (   0.0000000   0.0000000   0.0000000  )
         2        Fe     tau(   2) = (   1.0200000   1.0200000   0.0000000  )
         3        Fe     tau(   3) = (   1.0200000   0.0000000   0.0000000  )
         4        Fe     tau(   4) = (   0.0000000   1.0200000   1.0200000  )
         5        Fe     tau(   5) = (   0.0000000   0.0000000   1.0200000  )
         6        Fe     tau(   6) = (   0.9800000   1.0200000   1.0200000  )
         7        Fe     tau(   7) = (   1.0000000   0.0000000   1.0200000  )
         8        Fe     tau(   8) = (   0.0000000   1.0200000   0.0000000  )
         9        Ti     tau(   9) = (   0.4800000   0.5200000   0.4800000  )
        10        Ti     tau(  10) = (   1.4800000   1.5200000   0.5200000  )
        11        Ti     tau(  11) = (   1.5000000   0.5000000   0.5000000  )
        12        Ti     tau(  12) = (   0.5200000   1.4800000   1.5000000  )
        13        Ti     tau(  13) = (   0.5000000   0.5000000   1.5200000  )
        14        Ti     tau(  14) = (   1.5000000   1.5000000   1.5200000  )
        15        Ti     tau(  15) = (   1.5000000   0.5000000   1.4800000  )
        16        Ti     tau(  16) = (   0.5000000   1.4800000   0.5000000  )
        17        H      tau(  17) = (   1.5000000   0.5000000   0.0000000  )
        18        H      tau(  18) = (   1.5000000   1.5200000   1.0000000  )
        19        H      tau(  19) = (   0.5000000   1.4800000   0.0000000  )
        20        H      tau(  20) = (   0.5000000   0.5000000   0.9800000  )
        21        H      tau(  21) = (   0.5000000   0.5000000   0.0000000  )
        22        H      tau(  22) = (   1.5000000   0.5000000   1.0000000  )
        23        H      tau(  23) = (   0.5000000   1.5000000   1.0000000  )
        24        H      tau(  24) = (   1.5000000   1.5000000   0.0000000  )

     number of k points=   112  Marzari-Vanderbilt smearing, width (Ry)=  0.0050

     Number of k-points >= 100: set verbosity='high' to print them.

     Dense  grid:  1700005 G-vectors     FFT dimensions: ( 150, 150, 150)

     Smooth grid:   259911 G-vectors     FFT dimensions: (  80,  80,  80)

     Estimated max dynamical RAM per process >     919.00 MB

     Estimated total dynamical RAM >      14.36 GB

     Check: negative core charge=   -0.000002

     Initial potential from superposition of free atoms

     starting charge     223.9961, renormalised to     232.0000

     negative rho (up, down):  1.053E-02 0.000E+00
     Starting wfcs are  192 randomized atomic wfcs
     Checking if some PAW data can be deallocated... 

     total cpu time spent up to now is       35.1 secs

     per-process dynamical memory:   697.1 Mb

     Self-consistent Calculation

     iteration #  1     ecut=   124.00 Ry     beta= 0.70
     Davidson diagonalization with overlap
     ethr =  1.00E-02,  avg # of iterations =  2.4

     negative rho (up, down):  8.077E-04 0.000E+00

     total cpu time spent up to now is      112.6 secs

     total energy              =   -3476.90988169 Ry
     estimated scf accuracy    <     152.62500287 Ry

     iteration #  2     ecut=   124.00 Ry     beta= 0.70
     Davidson diagonalization with overlap
     ethr =  1.00E-02,  avg # of iterations =  7.5

     negative rho (up, down):  8.769E-05 0.000E+00

     total cpu time spent up to now is      281.2 secs

     total energy              =   -3585.00966251 Ry
     estimated scf accuracy    <     608.53000614 Ry

     iteration #  3     ecut=   124.00 Ry     beta= 0.70
     Davidson diagonalization with overlap
     ethr =  1.00E-02,  avg # of iterations =  3.7

     negative rho (up, down):  5.594E-04 0.000E+00

     total cpu time spent up to now is      382.0 secs

     total energy              =   -3607.12792766 Ry
     estimated scf accuracy    <     142.15932731 Ry

     iteration #  4     ecut=   124.00 Ry     beta= 0.70
     Davidson diagonalization with overlap
     ethr =  1.00E-02,  avg # of iterations =  2.1

     negative rho (up, down):  1.630E-03 0.000E+00

     total cpu time spent up to now is      452.4 secs

     total energy              =   -3598.90395088 Ry
     estimated scf accuracy    <      83.01429157 Ry

     iteration #  5     ecut=   124.00 Ry     beta= 0.70
     Davidson diagonalization with overlap
     ethr =  1.00E-02,  avg # of iterations =  2.1

     negative rho (up, down):  1.882E-03 0.000E+00

     total cpu time spent up to now is      515.0 secs

     total energy              =   -3600.00616305 Ry
     estimated scf accuracy    <      34.19625032 Ry

     iteration #  6     ecut=   124.00 Ry     beta= 0.70
     Davidson diagonalization with overlap
     ethr =  1.00E-02,  avg # of iterations =  1.0

     negative rho (up, down):  1.948E-03 0.000E+00

     total cpu time spent up to now is      572.8 secs

     total energy              =   -3600.06662764 Ry
     estimated scf accuracy    <      31.96405753 Ry

     iteration #  7     ecut=   124.00 Ry     beta= 0.70
     Davidson diagonalization with overlap
     ethr =  1.00E-02,  avg # of iterations =  1.0

     negative rho (up, down):  3.169E-03 0.000E+00

     total cpu time spent up to now is      630.2 secs

     total energy              =   -3598.60557177 Ry
     estimated scf accuracy    <      29.60421986 Ry

     iteration #  8     ecut=   124.00 Ry     beta= 0.70
     Davidson diagonalization with overlap
     ethr =  1.00E-02,  avg # of iterations =  1.4

     negative rho (up, down):  5.174E-03 0.000E+00

     total cpu time spent up to now is      689.5 secs

     total energy              =   -3596.96052721 Ry
     estimated scf accuracy    <      22.52616433 Ry

     iteration #  9     ecut=   124.00 Ry     beta= 0.70
     Davidson diagonalization with overlap
     ethr =  9.71E-03,  avg # of iterations =  1.1

     negative rho (up, down):  6.848E-03 0.000E+00

     total cpu time spent up to now is      747.9 secs

     total energy              =   -3596.39131538 Ry
     estimated scf accuracy    <      10.93516901 Ry

     iteration # 10     ecut=   124.00 Ry     beta= 0.70
     Davidson diagonalization with overlap
     ethr =  4.71E-03,  avg # of iterations =  1.4

     negative rho (up, down):  1.104E-02 0.000E+00

     total cpu time spent up to now is      808.2 secs

     total energy              =   -3595.98225285 Ry
     estimated scf accuracy    <       5.09027941 Ry

     iteration # 11     ecut=   124.00 Ry     beta= 0.70
     Davidson diagonalization with overlap
     ethr =  2.19E-03,  avg # of iterations =  5.5

     negative rho (up, down):  9.493E-03 0.000E+00

     total cpu time spent up to now is      901.3 secs

     total energy              =   -3597.26791419 Ry
     estimated scf accuracy    <      22.58391711 Ry

     iteration # 12     ecut=   124.00 Ry     beta= 0.70
     Davidson diagonalization with overlap
     ethr =  2.19E-03,  avg # of iterations =  1.0

     negative rho (up, down):  8.130E-03 0.000E+00

     total cpu time spent up to now is      958.4 secs

     total energy              =   -3596.81257332 Ry
     estimated scf accuracy    <      14.23625619 Ry

     iteration # 13     ecut=   124.00 Ry     beta= 0.70
     Davidson diagonalization with overlap
     ethr =  2.19E-03,  avg # of iterations =  1.7

     negative rho (up, down):  4.448E-03 0.000E+00

     total cpu time spent up to now is     1020.2 secs

     total energy              =   -3595.80872906 Ry
     estimated scf accuracy    <       5.68367907 Ry

     iteration # 14     ecut=   124.00 Ry     beta= 0.70
     Davidson diagonalization with overlap
     ethr =  2.19E-03,  avg # of iterations =  3.5

     negative rho (up, down):  5.055E-03 0.000E+00

     total cpu time spent up to now is     1092.7 secs

     total energy              =   -3596.84747658 Ry
     estimated scf accuracy    <       2.52204749 Ry

     iteration # 15     ecut=   124.00 Ry     beta= 0.70
     Davidson diagonalization with overlap
     ethr =  1.09E-03,  avg # of iterations =  1.1

     negative rho (up, down):  5.762E-03 0.000E+00

     total cpu time spent up to now is     1149.3 secs

     total energy              =   -3596.74658300 Ry
     estimated scf accuracy    <       2.83277905 Ry

     iteration # 16     ecut=   124.00 Ry     beta= 0.70
     Davidson diagonalization with overlap
     ethr =  1.09E-03,  avg # of iterations =  1.0

     negative rho (up, down):  6.061E-03 0.000E+00

     total cpu time spent up to now is     1206.7 secs

     total energy              =   -3596.71295687 Ry
     estimated scf accuracy    <       2.36854294 Ry

     iteration # 17     ecut=   124.00 Ry     beta= 0.70
     Davidson diagonalization with overlap
     ethr =  1.02E-03,  avg # of iterations =  1.0

     negative rho (up, down):  6.383E-03 0.000E+00

     total cpu time spent up to now is     1264.2 secs

     total energy              =   -3596.72714331 Ry
     estimated scf accuracy    <       0.68548228 Ry

     iteration # 18     ecut=   124.00 Ry     beta= 0.70
     Davidson diagonalization with overlap
     ethr =  2.95E-04,  avg # of iterations =  2.3

     negative rho (up, down):  6.454E-03 0.000E+00

     total cpu time spent up to now is     1330.8 secs

     total energy              =   -3596.63623369 Ry
     estimated scf accuracy    <       3.26335228 Ry

     iteration # 19     ecut=   124.00 Ry     beta= 0.70
     Davidson diagonalization with overlap
     ethr =  2.95E-04,  avg # of iterations =  1.8

     negative rho (up, down):  6.518E-03 0.000E+00

     total cpu time spent up to now is     1394.2 secs

     total energy              =   -3596.70491073 Ry
     estimated scf accuracy    <       0.91659503 Ry

     iteration # 20     ecut=   124.00 Ry     beta= 0.70
     Davidson diagonalization with overlap
     ethr =  2.95E-04,  avg # of iterations =  1.0

     negative rho (up, down):  6.784E-03 0.000E+00

     total cpu time spent up to now is     1451.4 secs

     total energy              =   -3596.71303858 Ry
     estimated scf accuracy    <       0.22566709 Ry

     iteration # 21     ecut=   124.00 Ry     beta= 0.70
     Davidson diagonalization with overlap
     ethr =  9.73E-05,  avg # of iterations =  7.9

     negative rho (up, down):  6.842E-03 0.000E+00

     total cpu time spent up to now is     1559.1 secs

     total energy              =   -3596.59005187 Ry
     estimated scf accuracy    <       2.15361410 Ry

     iteration # 22     ecut=   124.00 Ry     beta= 0.70
     Davidson diagonalization with overlap
     ethr =  9.73E-05,  avg # of iterations =  5.8

     negative rho (up, down):  7.174E-03 0.000E+00

     total cpu time spent up to now is     1660.0 secs

     total energy              =   -3596.50629494 Ry
     estimated scf accuracy    <       7.23979146 Ry

     iteration # 23     ecut=   124.00 Ry     beta= 0.70
     Davidson diagonalization with overlap
     ethr =  9.73E-05,  avg # of iterations =  7.6

     negative rho (up, down):  7.134E-03 0.000E+00

     total cpu time spent up to now is     1770.2 secs

     total energy              =   -3596.62105209 Ry
     estimated scf accuracy    <       2.37177277 Ry

     iteration # 24     ecut=   124.00 Ry     beta= 0.70
     Davidson diagonalization with overlap
     ethr =  9.73E-05,  avg # of iterations =  6.3

     negative rho (up, down):  7.081E-03 0.000E+00

     total cpu time spent up to now is     1876.5 secs

     total energy              =   -3596.49027463 Ry
     estimated scf accuracy    <       5.38050247 Ry

     iteration # 25     ecut=   124.00 Ry     beta= 0.70
     Davidson diagonalization with overlap
     ethr =  9.73E-05,  avg # of iterations =  5.5

     negative rho (up, down):  7.041E-03 0.000E+00

     total cpu time spent up to now is     1979.9 secs

     total energy              =   -3596.48034023 Ry
     estimated scf accuracy    <       8.36953880 Ry

     iteration # 26     ecut=   124.00 Ry     beta= 0.70
     Davidson diagonalization with overlap
     ethr =  9.73E-05,  avg # of iterations =  6.5

     negative rho (up, down):  7.001E-03 0.000E+00

     total cpu time spent up to now is     2084.9 secs

     total energy              =   -3596.64023883 Ry
     estimated scf accuracy    <       3.77871380 Ry

     iteration # 27     ecut=   124.00 Ry     beta= 0.70
     Davidson diagonalization with overlap
     ethr =  9.73E-05,  avg # of iterations =  3.9

     negative rho (up, down):  6.972E-03 0.000E+00

     total cpu time spent up to now is     2159.5 secs

     total energy              =   -3596.72647150 Ry
     estimated scf accuracy    <       0.09462963 Ry

     iteration # 28     ecut=   124.00 Ry     beta= 0.70
     Davidson diagonalization with overlap
     ethr =  4.08E-05,  avg # of iterations =  2.7

     negative rho (up, down):  6.933E-03 0.000E+00

     total cpu time spent up to now is     2229.5 secs

     total energy              =   -3596.71677612 Ry
     estimated scf accuracy    <       0.38383458 Ry

     iteration # 29     ecut=   124.00 Ry     beta= 0.70
     Davidson diagonalization with overlap
     ethr =  4.08E-05,  avg # of iterations =  6.8

     negative rho (up, down):  6.794E-03 0.000E+00

     total cpu time spent up to now is     2320.0 secs

     total energy              =   -3596.64850092 Ry
     estimated scf accuracy    <       1.89147874 Ry

     iteration # 30     ecut=   124.00 Ry     beta= 0.70
     Davidson diagonalization with overlap
     c_bands:  1 eigenvalues not converged
     c_bands:  1 eigenvalues not converged
     c_bands:  1 eigenvalues not converged
     c_bands:  2 eigenvalues not converged
     ethr =  4.08E-05,  avg # of iterations = 10.7

     negative rho (up, down):  6.940E-03 0.000E+00

     total cpu time spent up to now is     2458.7 secs

     total energy              =   -3596.55001342 Ry
     estimated scf accuracy    <       4.53030153 Ry

     iteration # 31     ecut=   124.00 Ry     beta= 0.70
     Davidson diagonalization with overlap
     c_bands:  1 eigenvalues not converged
     ethr =  4.08E-05,  avg # of iterations = 11.3

     negative rho (up, down):  6.952E-03 0.000E+00

     total cpu time spent up to now is     2592.8 secs

     total energy              =   -3596.71443753 Ry
     estimated scf accuracy    <       0.31728182 Ry

     iteration # 32     ecut=   124.00 Ry     beta= 0.70
     Davidson diagonalization with overlap
     ethr =  4.08E-05,  avg # of iterations =  4.1

     negative rho (up, down):  7.002E-03 0.000E+00

     total cpu time spent up to now is     2667.2 secs

     total energy              =   -3596.69858984 Ry
     estimated scf accuracy    <       1.20606736 Ry

     iteration # 33     ecut=   124.00 Ry     beta= 0.70
     Davidson diagonalization with overlap
     ethr =  4.08E-05,  avg # of iterations =  7.0

     negative rho (up, down):  7.003E-03 0.000E+00

     total cpu time spent up to now is     2761.4 secs

     total energy              =   -3596.70034146 Ry
     estimated scf accuracy    <       0.98041469 Ry

     iteration # 34     ecut=   124.00 Ry     beta= 0.70
     Davidson diagonalization with overlap
     ethr =  4.08E-05,  avg # of iterations =  4.0

     negative rho (up, down):  7.000E-03 0.000E+00

     total cpu time spent up to now is     2836.6 secs

     total energy              =   -3596.71997895 Ry
     estimated scf accuracy    <       0.32141107 Ry

     iteration # 35     ecut=   124.00 Ry     beta= 0.70
     Davidson diagonalization with overlap
     ethr =  4.08E-05,  avg # of iterations =  3.9

     negative rho (up, down):  6.998E-03 0.000E+00

     total cpu time spent up to now is     2910.1 secs

     total energy              =   -3596.71027122 Ry
     estimated scf accuracy    <       0.85784482 Ry

     iteration # 36     ecut=   124.00 Ry     beta= 0.70
     Davidson diagonalization with overlap
     ethr =  4.08E-05,  avg # of iterations =  4.0

     negative rho (up, down):  7.001E-03 0.000E+00

     total cpu time spent up to now is     2985.9 secs

     total energy              =   -3596.68660507 Ry
     estimated scf accuracy    <       1.49168094 Ry

     iteration # 37     ecut=   124.00 Ry     beta= 0.70
     Davidson diagonalization with overlap
     c_bands:  1 eigenvalues not converged
     c_bands:  1 eigenvalues not converged
     ethr =  4.08E-05,  avg # of iterations = 13.0

     negative rho (up, down):  6.898E-03 0.000E+00

     total cpu time spent up to now is     3124.0 secs

     total energy              =   -3596.61827830 Ry
     estimated scf accuracy    <       2.31945399 Ry

     iteration # 38     ecut=   124.00 Ry     beta= 0.70
     Davidson diagonalization with overlap
     c_bands:  1 eigenvalues not converged
     c_bands:  1 eigenvalues not converged
     c_bands:  1 eigenvalues not converged
     ethr =  4.08E-05,  avg # of iterations =  9.6

     negative rho (up, down):  6.967E-03 0.000E+00

     total cpu time spent up to now is     3248.8 secs

     total energy              =   -3596.57204653 Ry
     estimated scf accuracy    <       4.35803189 Ry

     iteration # 39     ecut=   124.00 Ry     beta= 0.70
     Davidson diagonalization with overlap
     ethr =  4.08E-05,  avg # of iterations =  6.5

     negative rho (up, down):  7.012E-03 0.000E+00

     total cpu time spent up to now is     3356.1 secs

     total energy              =   -3596.68452990 Ry
     estimated scf accuracy    <       1.50018058 Ry

     iteration # 40     ecut=   124.00 Ry     beta= 0.70
     Davidson diagonalization with overlap
     ethr =  4.08E-05,  avg # of iterations =  4.2

     negative rho (up, down):  7.031E-03 0.000E+00

     total cpu time spent up to now is     3432.0 secs

     total energy              =   -3596.72522588 Ry
     estimated scf accuracy    <       0.05677468 Ry

     iteration # 41     ecut=   124.00 Ry     beta= 0.70
     Davidson diagonalization with overlap
     c_bands:  1 eigenvalues not converged
     c_bands:  1 eigenvalues not converged
     c_bands:  1 eigenvalues not converged
     c_bands:  1 eigenvalues not converged
     c_bands:  1 eigenvalues not converged
     c_bands:  1 eigenvalues not converged
     ethr =  2.45E-05,  avg # of iterations = 12.5

     negative rho (up, down):  7.028E-03 0.000E+00

     total cpu time spent up to now is     3570.6 secs

     total energy              =   -3596.67265941 Ry
     estimated scf accuracy    <       1.29503730 Ry

     iteration # 42     ecut=   124.00 Ry     beta= 0.70
     Davidson diagonalization with overlap
     ethr =  2.45E-05,  avg # of iterations =  5.7

     negative rho (up, down):  7.052E-03 0.000E+00

     total cpu time spent up to now is     3676.6 secs

     total energy              =   -3596.66360224 Ry
     estimated scf accuracy    <       2.41285904 Ry

     iteration # 43     ecut=   124.00 Ry     beta= 0.70
     Davidson diagonalization with overlap
     c_bands:  1 eigenvalues not converged
     ethr =  2.45E-05,  avg # of iterations = 11.2

     negative rho (up, down):  7.093E-03 0.000E+00

     total cpu time spent up to now is     3806.7 secs

     total energy              =   -3596.66254075 Ry
     estimated scf accuracy    <       2.09129703 Ry

     iteration # 44     ecut=   124.00 Ry     beta= 0.70
     Davidson diagonalization with overlap
     ethr =  2.45E-05,  avg # of iterations =  5.6

     negative rho (up, down):  7.055E-03 0.000E+00

     total cpu time spent up to now is     3911.9 secs

     total energy              =   -3596.64563942 Ry
     estimated scf accuracy    <       2.26923536 Ry

     iteration # 45     ecut=   124.00 Ry     beta= 0.70
     Davidson diagonalization with overlap
     c_bands:  1 eigenvalues not converged
     ethr =  2.45E-05,  avg # of iterations =  6.2

     negative rho (up, down):  7.032E-03 0.000E+00

     total cpu time spent up to now is     4018.2 secs

     total energy              =   -3596.64612774 Ry
     estimated scf accuracy    <       2.87419421 Ry

     iteration # 46     ecut=   124.00 Ry     beta= 0.70
     Davidson diagonalization with overlap
     ethr =  2.45E-05,  avg # of iterations =  5.7

     negative rho (up, down):  7.010E-03 0.000E+00

     total cpu time spent up to now is     4123.2 secs

     total energy              =   -3596.66875576 Ry
     estimated scf accuracy    <       2.74603821 Ry

     iteration # 47     ecut=   124.00 Ry     beta= 0.70
     Davidson diagonalization with overlap
     ethr =  2.45E-05,  avg # of iterations =  5.6

     negative rho (up, down):  7.012E-03 0.000E+00

     total cpu time spent up to now is     4212.1 secs

     total energy              =   -3596.73229552 Ry
     estimated scf accuracy    <       0.09193751 Ry

     iteration # 48     ecut=   124.00 Ry     beta= 0.70
     Davidson diagonalization with overlap
     ethr =  2.45E-05,  avg # of iterations =  1.1

     negative rho (up, down):  7.007E-03 0.000E+00

     total cpu time spent up to now is     4267.1 secs

     total energy              =   -3596.73397640 Ry
     estimated scf accuracy    <       0.03332446 Ry

     iteration # 49     ecut=   124.00 Ry     beta= 0.70
     Davidson diagonalization with overlap
     ethr =  1.44E-05,  avg # of iterations =  2.0

     negative rho (up, down):  7.104E-03 0.000E+00

     total cpu time spent up to now is     4334.7 secs

     total energy              =   -3596.72350547 Ry
     estimated scf accuracy    <       0.18892383 Ry

     iteration # 50     ecut=   124.00 Ry     beta= 0.70
     Davidson diagonalization with overlap
     c_bands:  1 eigenvalues not converged
     c_bands:  1 eigenvalues not converged
     c_bands:  1 eigenvalues not converged
     c_bands:  1 eigenvalues not converged
     c_bands:  1 eigenvalues not converged
     c_bands:  1 eigenvalues not converged
     c_bands:  1 eigenvalues not converged
     c_bands:  1 eigenvalues not converged
     c_bands:  1 eigenvalues not converged
     c_bands:  1 eigenvalues not converged
     c_bands:  1 eigenvalues not converged
     c_bands:  1 eigenvalues not converged
     c_bands:  1 eigenvalues not converged
     c_bands:  1 eigenvalues not converged
     ethr =  1.44E-05,  avg # of iterations = 13.0

     negative rho (up, down):  7.034E-03 0.000E+00

     total cpu time spent up to now is     4482.2 secs

     total energy              =   -3596.68472609 Ry
     estimated scf accuracy    <       1.07002526 Ry

     iteration # 51     ecut=   124.00 Ry     beta= 0.70
     Davidson diagonalization with overlap
     c_bands:  1 eigenvalues not converged
     c_bands:  1 eigenvalues not converged
     c_bands:  1 eigenvalues not converged
     c_bands:  1 eigenvalues not converged
     ethr =  1.44E-05,  avg # of iterations = 11.5

     negative rho (up, down):  7.039E-03 0.000E+00

     total cpu time spent up to now is     4615.6 secs

     total energy              =   -3596.73536606 Ry
     estimated scf accuracy    <       0.01558144 Ry

     iteration # 52     ecut=   124.00 Ry     beta= 0.70
     Davidson diagonalization with overlap
     ethr =  6.72E-06,  avg # of iterations =  2.7

     negative rho (up, down):  7.046E-03 0.000E+00

     total cpu time spent up to now is     4684.7 secs

     total energy              =   -3596.73292321 Ry
     estimated scf accuracy    <       0.12292027 Ry

     iteration # 53     ecut=   124.00 Ry     beta= 0.70
     Davidson diagonalization with overlap
     ethr =  6.72E-06,  avg # of iterations =  2.1

     negative rho (up, down):  7.041E-03 0.000E+00

     total cpu time spent up to now is     4753.1 secs

     total energy              =   -3596.73354397 Ry
     estimated scf accuracy    <       0.08749576 Ry

     iteration # 54     ecut=   124.00 Ry     beta= 0.70
     Davidson diagonalization with overlap
     ethr =  6.72E-06,  avg # of iterations =  1.9

     negative rho (up, down):  7.036E-03 0.000E+00

     total cpu time spent up to now is     4817.5 secs

     total energy              =   -3596.73562679 Ry
     estimated scf accuracy    <       0.01632476 Ry

     iteration # 55     ecut=   124.00 Ry     beta= 0.70
     Davidson diagonalization with overlap
     ethr =  6.72E-06,  avg # of iterations =  1.1

     negative rho (up, down):  7.033E-03 0.000E+00

     total cpu time spent up to now is     4875.4 secs

     total energy              =   -3596.73547700 Ry
     estimated scf accuracy    <       0.02430186 Ry

     iteration # 56     ecut=   124.00 Ry     beta= 0.70
     Davidson diagonalization with overlap
     ethr =  6.72E-06,  avg # of iterations =  2.0

     negative rho (up, down):  7.005E-03 0.000E+00

     total cpu time spent up to now is     4941.7 secs

     total energy              =   -3596.73165304 Ry
     estimated scf accuracy    <       0.14381312 Ry

     iteration # 57     ecut=   124.00 Ry     beta= 0.70
     Davidson diagonalization with overlap
     ethr =  6.72E-06,  avg # of iterations =  8.3

     negative rho (up, down):  7.005E-03 0.000E+00

     total cpu time spent up to now is     5047.9 secs

     total energy              =   -3596.71846213 Ry
     estimated scf accuracy    <       0.61447272 Ry

     iteration # 58     ecut=   124.00 Ry     beta= 0.70
     Davidson diagonalization with overlap
     c_bands:  2 eigenvalues not converged
     ethr =  6.72E-06,  avg # of iterations =  7.6

     negative rho (up, down):  7.026E-03 0.000E+00

     total cpu time spent up to now is     5155.9 secs

     total energy              =   -3596.73093786 Ry
     estimated scf accuracy    <       0.12635978 Ry

     iteration # 59     ecut=   124.00 Ry     beta= 0.70
     Davidson diagonalization with overlap
     ethr =  6.72E-06,  avg # of iterations =  4.0

     negative rho (up, down):  7.028E-03 0.000E+00

     total cpu time spent up to now is     5232.0 secs

     total energy              =   -3596.73561726 Ry
     estimated scf accuracy    <       0.01469665 Ry

     iteration # 60     ecut=   124.00 Ry     beta= 0.70
     Davidson diagonalization with overlap
     ethr =  6.33E-06,  avg # of iterations =  1.5

     negative rho (up, down):  7.038E-03 0.000E+00

     total cpu time spent up to now is     5292.6 secs

     total energy              =   -3596.73586452 Ry
     estimated scf accuracy    <       0.00435882 Ry

     iteration # 61     ecut=   124.00 Ry     beta= 0.70
     Davidson diagonalization with overlap
     c_bands:  1 eigenvalues not converged
     ethr =  1.88E-06,  avg # of iterations = 10.1

     negative rho (up, down):  7.036E-03 0.000E+00

     total cpu time spent up to now is     5412.1 secs

     total energy              =   -3596.73437301 Ry
     estimated scf accuracy    <       0.03300561 Ry

     iteration # 62     ecut=   124.00 Ry     beta= 0.70
     Davidson diagonalization with overlap
     ethr =  1.88E-06,  avg # of iterations =  8.2

     negative rho (up, down):  7.040E-03 0.000E+00

     total cpu time spent up to now is     5513.9 secs

     total energy              =   -3596.73435257 Ry
     estimated scf accuracy    <       0.07563599 Ry

     iteration # 63     ecut=   124.00 Ry     beta= 0.70
     Davidson diagonalization with overlap
     ethr =  1.88E-06,  avg # of iterations =  5.0

     negative rho (up, down):  7.054E-03 0.000E+00

     total cpu time spent up to now is     5598.4 secs

     total energy              =   -3596.73393871 Ry
     estimated scf accuracy    <       0.06567274 Ry

     iteration # 64     ecut=   124.00 Ry     beta= 0.70
     Davidson diagonalization with overlap
     ethr =  1.88E-06,  avg # of iterations =  6.4

     negative rho (up, down):  7.046E-03 0.000E+00

     total cpu time spent up to now is     5705.9 secs

     total energy              =   -3596.72882716 Ry
     estimated scf accuracy    <       0.21367465 Ry

     iteration # 65     ecut=   124.00 Ry     beta= 0.70
     Davidson diagonalization with overlap
     c_bands:  1 eigenvalues not converged
     ethr =  1.88E-06,  avg # of iterations =  6.3

     negative rho (up, down):  7.036E-03 0.000E+00

     total cpu time spent up to now is     5814.9 secs

     total energy              =   -3596.72466141 Ry
     estimated scf accuracy    <       0.45624836 Ry

     iteration # 66     ecut=   124.00 Ry     beta= 0.70
     Davidson diagonalization with overlap
     ethr =  1.88E-06,  avg # of iterations =  5.8

     negative rho (up, down):  7.034E-03 0.000E+00

     total cpu time spent up to now is     5920.4 secs

     total energy              =   -3596.73356536 Ry
     estimated scf accuracy    <       0.12021773 Ry

     iteration # 67     ecut=   124.00 Ry     beta= 0.70
     Davidson diagonalization with overlap
     ethr =  1.88E-06,  avg # of iterations =  4.2

     negative rho (up, down):  7.036E-03 0.000E+00

     total cpu time spent up to now is     5997.8 secs

     total energy              =   -3596.73600670 Ry
     estimated scf accuracy    <       0.01372601 Ry

     iteration # 68     ecut=   124.00 Ry     beta= 0.70
     Davidson diagonalization with overlap
     ethr =  1.88E-06,  avg # of iterations =  1.1

     negative rho (up, down):  7.031E-03 0.000E+00

     total cpu time spent up to now is     6055.2 secs

     total energy              =   -3596.73627535 Ry
     estimated scf accuracy    <       0.00067473 Ry

     iteration # 69     ecut=   124.00 Ry     beta= 0.70
     Davidson diagonalization with overlap
     ethr =  2.91E-07,  avg # of iterations =  6.0

     negative rho (up, down):  7.035E-03 0.000E+00

     total cpu time spent up to now is     6159.5 secs

     total energy              =   -3596.73454518 Ry
     estimated scf accuracy    <       0.04841918 Ry

     iteration # 70     ecut=   124.00 Ry     beta= 0.70
     Davidson diagonalization with overlap
     ethr =  2.91E-07,  avg # of iterations =  6.1

     negative rho (up, down):  7.034E-03 0.000E+00

     total cpu time spent up to now is     6267.4 secs

     total energy              =   -3596.73532725 Ry
     estimated scf accuracy    <       0.02043749 Ry

     iteration # 71     ecut=   124.00 Ry     beta= 0.70
     Davidson diagonalization with overlap
     ethr =  2.91E-07,  avg # of iterations =  5.9

     negative rho (up, down):  7.033E-03 0.000E+00

     total cpu time spent up to now is     6375.2 secs

     total energy              =   -3596.73629079 Ry
     estimated scf accuracy    <       0.00276310 Ry

     iteration # 72     ecut=   124.00 Ry     beta= 0.70
     Davidson diagonalization with overlap
     ethr =  2.91E-07,  avg # of iterations =  4.2

     negative rho (up, down):  7.033E-03 0.000E+00

     total cpu time spent up to now is     6454.3 secs

     total energy              =   -3596.73613987 Ry
     estimated scf accuracy    <       0.01294787 Ry

     iteration # 73     ecut=   124.00 Ry     beta= 0.70
     Davidson diagonalization with overlap
     ethr =  2.91E-07,  avg # of iterations =  4.0

     negative rho (up, down):  7.032E-03 0.000E+00

     total cpu time spent up to now is     6531.7 secs

     total energy              =   -3596.73635311 Ry
     estimated scf accuracy    <       0.00409531 Ry

     iteration # 74     ecut=   124.00 Ry     beta= 0.70
     Davidson diagonalization with overlap
     ethr =  2.91E-07,  avg # of iterations =  2.0

     negative rho (up, down):  7.032E-03 0.000E+00

     total cpu time spent up to now is     6597.0 secs

     total energy              =   -3596.73646606 Ry
     estimated scf accuracy    <       0.00017740 Ry

     iteration # 75     ecut=   124.00 Ry     beta= 0.70
     Davidson diagonalization with overlap
     ethr =  7.65E-08,  avg # of iterations =  2.5

     negative rho (up, down):  7.032E-03 0.000E+00

     total cpu time spent up to now is     6664.4 secs

     total energy              =   -3596.73646012 Ry
     estimated scf accuracy    <       0.00049858 Ry

     iteration # 76     ecut=   124.00 Ry     beta= 0.70
     Davidson diagonalization with overlap
     ethr =  7.65E-08,  avg # of iterations =  3.9

     negative rho (up, down):  7.031E-03 0.000E+00

     total cpu time spent up to now is     6737.2 secs

     total energy              =   -3596.73635723 Ry
     estimated scf accuracy    <       0.00381111 Ry

     iteration # 77     ecut=   124.00 Ry     beta= 0.70
     Davidson diagonalization with overlap
     ethr =  7.65E-08,  avg # of iterations =  5.4

     negative rho (up, down):  7.034E-03 0.000E+00

     total cpu time spent up to now is     6833.6 secs

     total energy              =   -3596.73604475 Ry
     estimated scf accuracy    <       0.01437808 Ry

     iteration # 78     ecut=   124.00 Ry     beta= 0.70
     Davidson diagonalization with overlap
     ethr =  7.65E-08,  avg # of iterations =  5.1

     negative rho (up, down):  7.035E-03 0.000E+00

     total cpu time spent up to now is     6938.9 secs

     total energy              =   -3596.73573415 Ry
     estimated scf accuracy    <       0.02829771 Ry

     iteration # 79     ecut=   124.00 Ry     beta= 0.70
     Davidson diagonalization with overlap
     ethr =  7.65E-08,  avg # of iterations =  5.0

     negative rho (up, down):  7.034E-03 0.000E+00

     total cpu time spent up to now is     7037.7 secs

     total energy              =   -3596.73646199 Ry
     estimated scf accuracy    <       0.00026360 Ry

     iteration # 80     ecut=   124.00 Ry     beta= 0.70
     Davidson diagonalization with overlap
     ethr =  7.65E-08,  avg # of iterations =  1.5

     negative rho (up, down):  7.034E-03 0.000E+00

     total cpu time spent up to now is     7096.0 secs

     total energy              =   -3596.73647345 Ry
     estimated scf accuracy    <       0.00009061 Ry

     iteration # 81     ecut=   124.00 Ry     beta= 0.70
     Davidson diagonalization with overlap
     ethr =  3.91E-08,  avg # of iterations =  2.1

     negative rho (up, down):  7.034E-03 0.000E+00

     total cpu time spent up to now is     7161.3 secs

     total energy              =   -3596.73647838 Ry
     estimated scf accuracy    <       0.00001997 Ry

     iteration # 82     ecut=   124.00 Ry     beta= 0.70
     Davidson diagonalization with overlap
     ethr =  8.61E-09,  avg # of iterations =  2.2

     negative rho (up, down):  7.034E-03 0.000E+00

     total cpu time spent up to now is     7230.1 secs

     total energy              =   -3596.73647930 Ry
     estimated scf accuracy    <       0.00000764 Ry

     iteration # 83     ecut=   124.00 Ry     beta= 0.70
     Davidson diagonalization with overlap
     ethr =  3.29E-09,  avg # of iterations =  2.6

     negative rho (up, down):  7.033E-03 0.000E+00

     total cpu time spent up to now is     7300.9 secs

     total energy              =   -3596.73647896 Ry
     estimated scf accuracy    <       0.00004228 Ry

     iteration # 84     ecut=   124.00 Ry     beta= 0.70
     Davidson diagonalization with overlap
     ethr =  3.29E-09,  avg # of iterations =  2.7

     negative rho (up, down):  7.033E-03 0.000E+00

     total cpu time spent up to now is     7374.1 secs

     total energy              =   -3596.73647973 Ry
     estimated scf accuracy    <       0.00000924 Ry

     iteration # 85     ecut=   124.00 Ry     beta= 0.70
     Davidson diagonalization with overlap
     ethr =  3.29E-09,  avg # of iterations =  1.5

     negative rho (up, down):  7.034E-03 0.000E+00

     total cpu time spent up to now is     7435.5 secs

     total energy              =   -3596.73648021 Ry
     estimated scf accuracy    <       0.00000164 Ry

     iteration # 86     ecut=   124.00 Ry     beta= 0.70
     Davidson diagonalization with overlap
     ethr =  7.09E-10,  avg # of iterations =  5.0

     negative rho (up, down):  7.034E-03 0.000E+00

     total cpu time spent up to now is     7527.7 secs

     total energy              =   -3596.73647736 Ry
     estimated scf accuracy    <       0.00012726 Ry

     iteration # 87     ecut=   124.00 Ry     beta= 0.70
     Davidson diagonalization with overlap
     ethr =  7.09E-10,  avg # of iterations =  5.0

     negative rho (up, down):  7.034E-03 0.000E+00

     total cpu time spent up to now is     7618.6 secs

     total energy              =   -3596.73647942 Ry
     estimated scf accuracy    <       0.00004058 Ry

     iteration # 88     ecut=   124.00 Ry     beta= 0.70
     Davidson diagonalization with overlap
     ethr =  7.09E-10,  avg # of iterations =  4.1

     negative rho (up, down):  7.034E-03 0.000E+00

     total cpu time spent up to now is     7695.7 secs

     total energy              =   -3596.73648039 Ry
     estimated scf accuracy    <       0.00000219 Ry

     iteration # 89     ecut=   124.00 Ry     beta= 0.70
     Davidson diagonalization with overlap
     ethr =  7.09E-10,  avg # of iterations =  2.1

     negative rho (up, down):  7.034E-03 0.000E+00

     total cpu time spent up to now is     7764.9 secs

     total energy              =   -3596.73648012 Ry
     estimated scf accuracy    <       0.00000916 Ry

     iteration # 90     ecut=   124.00 Ry     beta= 0.70
     Davidson diagonalization with overlap
     ethr =  7.09E-10,  avg # of iterations =  2.2

     negative rho (up, down):  7.033E-03 0.000E+00

     total cpu time spent up to now is     7832.3 secs

     total energy              =   -3596.73647993 Ry
     estimated scf accuracy    <       0.00000777 Ry

     iteration # 91     ecut=   124.00 Ry     beta= 0.70
     Davidson diagonalization with overlap
     ethr =  7.09E-10,  avg # of iterations =  4.0

     negative rho (up, down):  7.034E-03 0.000E+00

     total cpu time spent up to now is     7917.3 secs

     total energy              =   -3596.73647919 Ry
     estimated scf accuracy    <       0.00003150 Ry

     iteration # 92     ecut=   124.00 Ry     beta= 0.70
     Davidson diagonalization with overlap
     ethr =  7.09E-10,  avg # of iterations =  5.0

     negative rho (up, down):  7.034E-03 0.000E+00

     total cpu time spent up to now is     8015.1 secs

     total energy              =   -3596.73647812 Ry
     estimated scf accuracy    <       0.00007006 Ry

     iteration # 93     ecut=   124.00 Ry     beta= 0.70
     Davidson diagonalization with overlap
     ethr =  7.09E-10,  avg # of iterations =  4.2

     negative rho (up, down):  7.034E-03 0.000E+00

     total cpu time spent up to now is     8103.8 secs

     total energy              =   -3596.73648028 Ry
     estimated scf accuracy    <       0.00000527 Ry

     iteration # 94     ecut=   124.00 Ry     beta= 0.70
     Davidson diagonalization with overlap
     ethr =  7.09E-10,  avg # of iterations =  2.0

     negative rho (up, down):  7.034E-03 0.000E+00

     total cpu time spent up to now is     8169.2 secs

     total energy              =   -3596.73648039 Ry
     estimated scf accuracy    <       0.00000079 Ry

     iteration # 95     ecut=   124.00 Ry     beta= 0.70
     Davidson diagonalization with overlap
     ethr =  3.41E-10,  avg # of iterations =  3.7

     negative rho (up, down):  7.034E-03 0.000E+00

     total cpu time spent up to now is     8248.0 secs

     total energy              =   -3596.73648012 Ry
     estimated scf accuracy    <       0.00001188 Ry

     iteration # 96     ecut=   124.00 Ry     beta= 0.70
     Davidson diagonalization with overlap
     ethr =  3.41E-10,  avg # of iterations =  4.0

     negative rho (up, down):  7.034E-03 0.000E+00

     total cpu time spent up to now is     8327.9 secs

     total energy              =   -3596.73648011 Ry
     estimated scf accuracy    <       0.00001433 Ry

     iteration # 97     ecut=   124.00 Ry     beta= 0.70
     Davidson diagonalization with overlap
     ethr =  3.41E-10,  avg # of iterations =  4.1

     negative rho (up, down):  7.034E-03 0.000E+00

     total cpu time spent up to now is     8407.1 secs

     total energy              =   -3596.73648000 Ry
     estimated scf accuracy    <       0.00001358 Ry

     iteration # 98     ecut=   124.00 Ry     beta= 0.70
     Davidson diagonalization with overlap
     ethr =  3.41E-10,  avg # of iterations =  5.0

     negative rho (up, down):  7.034E-03 0.000E+00

     total cpu time spent up to now is     8502.7 secs

     total energy              =   -3596.73647953 Ry
     estimated scf accuracy    <       0.00002276 Ry

     iteration # 99     ecut=   124.00 Ry     beta= 0.70
     Davidson diagonalization with overlap
     ethr =  3.41E-10,  avg # of iterations =  5.0

     negative rho (up, down):  7.034E-03 0.000E+00

     total cpu time spent up to now is     8601.2 secs

     total energy              =   -3596.73647916 Ry
     estimated scf accuracy    <       0.00004323 Ry

     iteration #100     ecut=   124.00 Ry     beta= 0.70
     Davidson diagonalization with overlap
     ethr =  3.41E-10,  avg # of iterations =  5.0

     negative rho (up, down):  7.034E-03 0.000E+00

     total cpu time spent up to now is     8695.4 secs

     total energy              =   -3596.73648019 Ry
     estimated scf accuracy    <       0.00000713 Ry

     End of self-consistent calculation

     convergence NOT achieved after 100 iterations: stopping

     Writing config to output data dir ./TiFeH_supercell.save/ :
     XML data file
     init_run     :     33.92s CPU     34.90s WALL (       1 calls)
     electrons    :   8533.47s CPU   8660.28s WALL (       1 calls)

     Called by init_run:
     wfcinit      :     31.37s CPU     32.16s WALL (       1 calls)
     potinit      :      0.94s CPU      1.01s WALL (       1 calls)
     hinit0       :      0.54s CPU      0.55s WALL (       1 calls)

     Called by electrons:
     c_bands      :   7669.53s CPU   7765.17s WALL (     100 calls)
     sum_band     :    760.51s CPU    781.89s WALL (     100 calls)
     v_of_rho     :     10.71s CPU     12.35s WALL (     101 calls)
     newd         :     57.85s CPU     65.64s WALL (     101 calls)
     PAW_pot      :     32.59s CPU     32.83s WALL (     101 calls)
     mix_rho      :      1.84s CPU      1.99s WALL (     100 calls)

     Called by c_bands:
     init_us_2    :     45.33s CPU     45.82s WALL (   22512 calls)
     cegterg      :   7474.80s CPU   7568.40s WALL (   11200 calls)

     Called by *egterg:
     cdiaghg      :   1112.41s CPU   1120.70s WALL (   62332 calls)
     h_psi        :   3744.68s CPU   3807.57s WALL (   62444 calls)
     s_psi        :    436.29s CPU    439.93s WALL (   62444 calls)
     g_psi        :      9.81s CPU      9.94s WALL (   51132 calls)

     Called by h_psi:
     h_psi:calbec :    603.23s CPU    610.15s WALL (   62444 calls)
     vloc_psi     :   2692.55s CPU   2744.68s WALL (   62444 calls)
     add_vuspsi   :    437.58s CPU    441.19s WALL (   62444 calls)

     General routines
     calbec       :    804.02s CPU    813.67s WALL (   73644 calls)
     fft          :     41.65s CPU     43.07s WALL (    1313 calls)
     ffts         :      0.76s CPU      0.79s WALL (     201 calls)
     fftw         :   2762.88s CPU   2815.49s WALL ( 9586544 calls)
     interpolate  :      1.29s CPU      1.36s WALL (     101 calls)

     Parallel routines

     PWSCF        :   8567.58s CPU   8695.77s WALL


   This run was terminated on:  16: 1:40   1Dec2025            

=------------------------------------------------------------------------------=
   JOB DONE.
=------------------------------------------------------------------------------=
