
     Program PWSCF v.7.4 starts on 10Nov2025 at 22:32: 1 

     This program is part of the open-source Quantum ESPRESSO suite
     for quantum simulation of materials; please cite
         "P. Giannozzi et al., J. Phys.:Condens. Matter 21 395502 (2009);
         "P. Giannozzi et al., J. Phys.:Condens. Matter 29 465901 (2017);
         "P. Giannozzi et al., J. Chem. Phys. 152 154105 (2020);
          URL http://www.quantum-espresso.org", 
     in publications or presentations arising from this work. More details at
     http://www.quantum-espresso.org/quote

     Parallel version (MPI & OpenMP), running on      16 processor cores
     Number of MPI processes:                16
     Threads/MPI process:                     1

     MPI processes distributed on     1 nodes
     213462 MiB available memory on the printing compute node when the environment starts

     Reading input from TiNi_scf_mag.in
Warning: card &CELL ignored
Warning: card   CELL_DYNAMICS='BFGS', ignored
Warning: card / ignored

     Current dimensions of program PWSCF are:
     Max number of different atomic species (ntypx) = 10
     Max number of k-points (npk) =  40000
     Max angular momentum in pseudopotentials (lmaxx) =  4

     IMPORTANT: XC functional enforced from input :
     Exchange-correlation= PBE
                           (   1   4   3   4   0   0   0)
     Any further DFT definition will be discarded
     Please, verify this is what you really want

     Message from routine setup:
     using ibrav=0 with symmetry is DISCOURAGED, use correct ibrav instead

     R & G space division:  proc/nbgrp/npool/nimage =      16
     Subspace diagonalization in iterative solution of the eigenvalue problem:
     a serial algorithm will be used


     Parallelization info
     --------------------
     sticks:   dense  smooth     PW     G-vecs:    dense   smooth      PW
     Min         269      76     22                13288     2024     320
     Max         271      77     23                13289     2027     323
     Sum        4309    1225    357               212623    32423    5137

     Using Slab Decomposition



     bravais-lattice index     =            0
     lattice parameter (alat)  =       5.5824  a.u.
     unit-cell volume          =     173.9675 (a.u.)^3
     number of atoms/cell      =            2
     number of atomic types    =            2
     number of electrons       =        30.00
     number of Kohn-Sham states=           19
     kinetic-energy cutoff     =     124.0000  Ry
     charge density cutoff     =    1736.0000  Ry
     scf convergence threshold =      1.0E-08
     mixing beta               =       0.7000
     number of iterations used =            8  plain     mixing
     Exchange-correlation= PBE
                           (   1   4   3   4   0   0   0)

     celldm(1)=   5.582423  celldm(2)=   0.000000  celldm(3)=   0.000000
     celldm(4)=   0.000000  celldm(5)=   0.000000  celldm(6)=   0.000000

     crystal axes: (cart. coord. in units of alat)
               a(1) = (   1.000000   0.000000   0.000000 )  
               a(2) = (   0.000000   1.000000   0.000000 )  
               a(3) = (   0.000000   0.000000   1.000000 )  

     reciprocal axes: (cart. coord. in units 2 pi/alat)
               b(1) = (  1.000000  0.000000  0.000000 )  
               b(2) = (  0.000000  1.000000  0.000000 )  
               b(3) = (  0.000000  0.000000  1.000000 )  


     PseudoPot. # 1 for Ni read from file:
     ../../pseudos/ni_pbe_v1.4.uspp.F.UPF
     MD5 check sum: 1ee80287db30b12d2bc1f57a5b5d6409
     Pseudo is Ultrasoft + core correction, Zval = 18.0
     Generated by new atomic code, or converted to UPF format
     Using radial grid of  865 points,  6 beta functions with: 
                l(1) =   0
                l(2) =   0
                l(3) =   1
                l(4) =   1
                l(5) =   2
                l(6) =   2
     Q(r) pseudized with 10 coefficients,  rinner =    0.980   0.980   0.980
                                                       0.980   0.980

     PseudoPot. # 2 for Ti read from file:
     ../../pseudos/ti_pbe_v1.4.uspp.F.UPF
     MD5 check sum: 88a00a6731bd790ddea75d31a80cb452
     Pseudo is Ultrasoft + core correction, Zval = 12.0
     Generated by new atomic code, or converted to UPF format
     Using radial grid of  851 points,  6 beta functions with: 
                l(1) =   0
                l(2) =   0
                l(3) =   1
                l(4) =   1
                l(5) =   2
                l(6) =   2
     Q(r) pseudized with  6 coefficients,  rinner =    1.000   1.000   1.000
                                                       1.000   1.000

     atomic species   valence    mass     pseudopotential
     Ni               18.00    58.69300     Ni( 1.00)
     Ti               12.00    47.86700     Ti( 1.00)

     Starting magnetic structure 
     atomic species   magnetization
     Ni              0.041
     Ti             -0.083

     48 Sym. Ops., with inversion, found



   Cartesian axes

     site n.     atom                  positions (alat units)
         1        Ni     tau(   1) = (   0.5000000   0.5000000   0.5000000  )
         2        Ti     tau(   2) = (   0.0000000   0.0000000   0.0000000  )

     number of k points=   120  Marzari-Vanderbilt smearing, width (Ry)=  0.0050

     Number of k-points >= 100: set verbosity='high' to print them.

     Dense  grid:   212623 G-vectors     FFT dimensions: (  75,  75,  75)

     Smooth grid:    32423 G-vectors     FFT dimensions: (  40,  40,  40)

     Estimated max dynamical RAM per process >      78.46 MB

     Estimated total dynamical RAM >       1.23 GB

     Check: negative core charge=   -0.000003
     Generating pointlists ...
     new r_m :   0.3572 (alat units)  1.9942 (a.u.) for type    1
     new r_m :   0.3572 (alat units)  1.9942 (a.u.) for type    2

     Initial potential from superposition of free atoms

     starting charge      27.0000, renormalised to      30.0000

     negative rho (up, down):  6.978E-04 8.247E-04
     Starting wfcs are   23 randomized atomic wfcs

     total cpu time spent up to now is        2.2 secs

     per-process dynamical memory:   140.9 Mb

     Self-consistent Calculation

     iteration #  1     ecut=   124.00 Ry     beta= 0.70
     Davidson diagonalization with overlap
     ethr =  1.00E-02,  avg # of iterations =  5.4

     total cpu time spent up to now is        5.8 secs

     total energy              =    -418.06207753 Ry
     estimated scf accuracy    <      65.60362827 Ry

     total magnetization       =    -0.28 Bohr mag/cell
     absolute magnetization    =     0.32 Bohr mag/cell

     iteration #  2     ecut=   124.00 Ry     beta= 0.70
     Davidson diagonalization with overlap
     ethr =  1.00E-02,  avg # of iterations =  5.5

     negative rho (up, down):  1.756E-06 0.000E+00

     total cpu time spent up to now is       10.0 secs

     total energy              =    -449.82844999 Ry
     estimated scf accuracy    <     160.64906013 Ry

     total magnetization       =    -0.20 Bohr mag/cell
     absolute magnetization    =     0.20 Bohr mag/cell

     iteration #  3     ecut=   124.00 Ry     beta= 0.70
     Davidson diagonalization with overlap
     ethr =  1.00E-02,  avg # of iterations =  4.9

     negative rho (up, down):  1.554E-04 8.621E-05

     total cpu time spent up to now is       13.6 secs

     total energy              =    -463.06406069 Ry
     estimated scf accuracy    <      19.43419563 Ry

     total magnetization       =    -0.03 Bohr mag/cell
     absolute magnetization    =     0.04 Bohr mag/cell

     iteration #  4     ecut=   124.00 Ry     beta= 0.70
     Davidson diagonalization with overlap
     ethr =  1.00E-02,  avg # of iterations =  2.1

     negative rho (up, down):  2.890E-04 2.250E-04

     total cpu time spent up to now is       16.1 secs

     total energy              =    -463.11931091 Ry
     estimated scf accuracy    <       6.04036565 Ry

     total magnetization       =    -0.02 Bohr mag/cell
     absolute magnetization    =     0.04 Bohr mag/cell

     iteration #  5     ecut=   124.00 Ry     beta= 0.70
     Davidson diagonalization with overlap
     ethr =  1.00E-02,  avg # of iterations =  1.2

     negative rho (up, down):  4.241E-04 3.508E-04

     total cpu time spent up to now is       18.2 secs

     total energy              =    -462.84525500 Ry
     estimated scf accuracy    <       3.16894521 Ry

     total magnetization       =    -0.02 Bohr mag/cell
     absolute magnetization    =     0.04 Bohr mag/cell

     iteration #  6     ecut=   124.00 Ry     beta= 0.70
     Davidson diagonalization with overlap
     ethr =  1.00E-02,  avg # of iterations =  1.9

     negative rho (up, down):  6.311E-04 5.619E-04

     total cpu time spent up to now is       20.5 secs

     total energy              =    -462.13658054 Ry
     estimated scf accuracy    <       2.15420758 Ry

     total magnetization       =    -0.05 Bohr mag/cell
     absolute magnetization    =     0.06 Bohr mag/cell

     iteration #  7     ecut=   124.00 Ry     beta= 0.70
     Davidson diagonalization with overlap
     ethr =  7.18E-03,  avg # of iterations =  2.6

     negative rho (up, down):  5.378E-04 4.809E-04

     total cpu time spent up to now is       22.9 secs

     total energy              =    -462.46179051 Ry
     estimated scf accuracy    <       5.47297989 Ry

     total magnetization       =     0.01 Bohr mag/cell
     absolute magnetization    =     0.18 Bohr mag/cell

     iteration #  8     ecut=   124.00 Ry     beta= 0.70
     Davidson diagonalization with overlap
     ethr =  7.18E-03,  avg # of iterations =  1.0

     negative rho (up, down):  5.323E-04 4.798E-04

     total cpu time spent up to now is       25.0 secs

     total energy              =    -462.57717895 Ry
     estimated scf accuracy    <       0.33344433 Ry

     total magnetization       =    -0.04 Bohr mag/cell
     absolute magnetization    =     0.09 Bohr mag/cell

     iteration #  9     ecut=   124.00 Ry     beta= 0.70
     Davidson diagonalization with overlap
     ethr =  1.11E-03,  avg # of iterations =  1.5

     negative rho (up, down):  4.839E-04 4.456E-04

     total cpu time spent up to now is       27.2 secs

     total energy              =    -462.58239909 Ry
     estimated scf accuracy    <       0.07812269 Ry

     total magnetization       =    -0.05 Bohr mag/cell
     absolute magnetization    =     0.07 Bohr mag/cell

     iteration # 10     ecut=   124.00 Ry     beta= 0.70
     Davidson diagonalization with overlap
     ethr =  2.60E-04,  avg # of iterations =  1.7

     negative rho (up, down):  5.014E-04 4.689E-04

     total cpu time spent up to now is       29.3 secs

     total energy              =    -462.58724220 Ry
     estimated scf accuracy    <       0.05336966 Ry

     total magnetization       =    -0.05 Bohr mag/cell
     absolute magnetization    =     0.05 Bohr mag/cell

     iteration # 11     ecut=   124.00 Ry     beta= 0.70
     Davidson diagonalization with overlap
     ethr =  1.78E-04,  avg # of iterations =  1.2

     negative rho (up, down):  4.627E-04 4.473E-04

     total cpu time spent up to now is       31.5 secs

     total energy              =    -462.56974011 Ry
     estimated scf accuracy    <       0.11749693 Ry

     total magnetization       =    -0.04 Bohr mag/cell
     absolute magnetization    =     0.04 Bohr mag/cell

     iteration # 12     ecut=   124.00 Ry     beta= 0.70
     Davidson diagonalization with overlap
     ethr =  1.78E-04,  avg # of iterations =  1.5

     negative rho (up, down):  4.763E-04 4.544E-04

     total cpu time spent up to now is       33.6 secs

     total energy              =    -462.57948631 Ry
     estimated scf accuracy    <       0.00274384 Ry

     total magnetization       =    -0.04 Bohr mag/cell
     absolute magnetization    =     0.04 Bohr mag/cell

     iteration # 13     ecut=   124.00 Ry     beta= 0.70
     Davidson diagonalization with overlap
     ethr =  9.15E-06,  avg # of iterations =  2.7

     negative rho (up, down):  4.798E-04 4.599E-04

     total cpu time spent up to now is       36.1 secs

     total energy              =    -462.58082578 Ry
     estimated scf accuracy    <       0.00399981 Ry

     total magnetization       =    -0.04 Bohr mag/cell
     absolute magnetization    =     0.04 Bohr mag/cell

     iteration # 14     ecut=   124.00 Ry     beta= 0.70
     Davidson diagonalization with overlap
     ethr =  9.15E-06,  avg # of iterations =  1.0

     negative rho (up, down):  4.757E-04 4.581E-04

     total cpu time spent up to now is       38.2 secs

     total energy              =    -462.58051640 Ry
     estimated scf accuracy    <       0.00935368 Ry

     total magnetization       =    -0.04 Bohr mag/cell
     absolute magnetization    =     0.04 Bohr mag/cell

     iteration # 15     ecut=   124.00 Ry     beta= 0.70
     Davidson diagonalization with overlap
     ethr =  9.15E-06,  avg # of iterations =  1.0

     negative rho (up, down):  4.737E-04 4.575E-04

     total cpu time spent up to now is       40.3 secs

     total energy              =    -462.58042151 Ry
     estimated scf accuracy    <       0.00489851 Ry

     total magnetization       =    -0.04 Bohr mag/cell
     absolute magnetization    =     0.04 Bohr mag/cell

     iteration # 16     ecut=   124.00 Ry     beta= 0.70
     Davidson diagonalization with overlap
     ethr =  9.15E-06,  avg # of iterations =  1.0

     negative rho (up, down):  4.650E-04 4.560E-04

     total cpu time spent up to now is       42.3 secs

     total energy              =    -462.58006370 Ry
     estimated scf accuracy    <       0.00303694 Ry

     total magnetization       =    -0.03 Bohr mag/cell
     absolute magnetization    =     0.03 Bohr mag/cell

     iteration # 17     ecut=   124.00 Ry     beta= 0.70
     Davidson diagonalization with overlap
     ethr =  9.15E-06,  avg # of iterations =  1.0

     negative rho (up, down):  4.640E-04 4.553E-04

     total cpu time spent up to now is       44.4 secs

     total energy              =    -462.58019959 Ry
     estimated scf accuracy    <       0.00008366 Ry

     total magnetization       =    -0.02 Bohr mag/cell
     absolute magnetization    =     0.02 Bohr mag/cell

     iteration # 18     ecut=   124.00 Ry     beta= 0.70
     Davidson diagonalization with overlap
     ethr =  2.79E-07,  avg # of iterations =  3.1

     negative rho (up, down):  4.637E-04 4.555E-04

     total cpu time spent up to now is       46.9 secs

     total energy              =    -462.58021706 Ry
     estimated scf accuracy    <       0.00000390 Ry

     total magnetization       =    -0.01 Bohr mag/cell
     absolute magnetization    =     0.01 Bohr mag/cell

     iteration # 19     ecut=   124.00 Ry     beta= 0.70
     Davidson diagonalization with overlap
     ethr =  1.30E-08,  avg # of iterations =  2.1

     negative rho (up, down):  4.637E-04 4.553E-04

     total cpu time spent up to now is       49.2 secs

     total energy              =    -462.58021673 Ry
     estimated scf accuracy    <       0.00000443 Ry

     total magnetization       =    -0.01 Bohr mag/cell
     absolute magnetization    =     0.01 Bohr mag/cell

     iteration # 20     ecut=   124.00 Ry     beta= 0.70
     Davidson diagonalization with overlap
     ethr =  1.30E-08,  avg # of iterations =  1.0

     negative rho (up, down):  4.631E-04 4.551E-04

     total cpu time spent up to now is       51.3 secs

     total energy              =    -462.58021716 Ry
     estimated scf accuracy    <       0.00000160 Ry

     total magnetization       =    -0.01 Bohr mag/cell
     absolute magnetization    =     0.01 Bohr mag/cell

     iteration # 21     ecut=   124.00 Ry     beta= 0.70
     Davidson diagonalization with overlap
     ethr =  5.34E-09,  avg # of iterations =  1.2

     negative rho (up, down):  4.628E-04 4.552E-04

     total cpu time spent up to now is       53.4 secs

     total energy              =    -462.58021631 Ry
     estimated scf accuracy    <       0.00000786 Ry

     total magnetization       =    -0.01 Bohr mag/cell
     absolute magnetization    =     0.01 Bohr mag/cell

     iteration # 22     ecut=   124.00 Ry     beta= 0.70
     Davidson diagonalization with overlap
     ethr =  5.34E-09,  avg # of iterations =  2.1

     negative rho (up, down):  4.617E-04 4.568E-04

     total cpu time spent up to now is       55.7 secs

     total energy              =    -462.58021661 Ry
     estimated scf accuracy    <       0.00000052 Ry

     total magnetization       =    -0.01 Bohr mag/cell
     absolute magnetization    =     0.01 Bohr mag/cell

     iteration # 23     ecut=   124.00 Ry     beta= 0.70
     Davidson diagonalization with overlap
     ethr =  1.74E-09,  avg # of iterations =  2.3

     negative rho (up, down):  4.605E-04 4.575E-04

     total cpu time spent up to now is       58.1 secs

     total energy              =    -462.58021684 Ry
     estimated scf accuracy    <       0.00000002 Ry

     total magnetization       =    -0.01 Bohr mag/cell
     absolute magnetization    =     0.01 Bohr mag/cell

     iteration # 24     ecut=   124.00 Ry     beta= 0.70
     Davidson diagonalization with overlap
     ethr =  6.11E-11,  avg # of iterations =  3.6

     negative rho (up, down):  4.603E-04 4.577E-04

     Magnetic moment per site  (integrated on atomic sphere of radius R)
     atom   1 (R=0.357)  charge= 16.9505  magn= -0.0012
     atom   2 (R=0.357)  charge=  9.9767  magn= -0.0025

     total cpu time spent up to now is       61.1 secs

     End of self-consistent calculation

     Number of k-points >= 100: set verbosity='high' to print the bands.

     the Fermi energy is    17.0910 ev

!    total energy              =    -462.58021694 Ry
     estimated scf accuracy    <          8.7E-09 Ry
     smearing contrib. (-TS)   =      -0.00011495 Ry
     internal energy E=F+TS    =    -462.58010199 Ry

     The total energy is F=E-TS. E is the sum of the following terms:
     one-electron contribution =    -250.54277990 Ry
     hartree contribution      =     141.55508823 Ry
     xc contribution           =     -53.67037344 Ry
     ewald contribution        =    -299.92203688 Ry

     total magnetization       =    -0.00 Bohr mag/cell
     absolute magnetization    =     0.00 Bohr mag/cell

     convergence has been achieved in  24 iterations

     negative rho (up, down):  4.603E-04 4.577E-04

     Forces acting on atoms (cartesian axes, Ry/au):

     atom    1 type  1   force =     0.00000000    0.00000000    0.00000000
     atom    2 type  2   force =     0.00000000    0.00000000    0.00000000

     Total force =     0.000000     Total SCF correction =     0.000000


     Computing stress (Cartesian axis) and pressure


     negative rho (up, down):  4.603E-04 4.577E-04
          total   stress  (Ry/bohr**3)                   (kbar)     P=       99.93
   0.00067931   0.00000000   0.00000000           99.93        0.00        0.00
   0.00000000   0.00067931   0.00000000            0.00       99.93        0.00
   0.00000000   0.00000000   0.00067931            0.00        0.00       99.93


     Writing all to output data dir ./TiFe.save/ :
     XML data file
     init_run     :      1.59s CPU      1.78s WALL (       1 calls)
     electrons    :     56.19s CPU     58.88s WALL (       1 calls)
     forces       :      0.33s CPU      0.35s WALL (       1 calls)
     stress       :      1.13s CPU      1.17s WALL (       1 calls)

     Called by init_run:
     wfcinit      :      0.84s CPU      0.96s WALL (       1 calls)
     potinit      :      0.31s CPU      0.32s WALL (       1 calls)
     hinit0       :      0.19s CPU      0.25s WALL (       1 calls)

     Called by electrons:
     c_bands      :     41.92s CPU     43.34s WALL (      24 calls)
     sum_band     :     11.11s CPU     11.85s WALL (      24 calls)
     v_of_rho     :      0.72s CPU      0.82s WALL (      25 calls)
     newd         :      2.42s CPU      2.81s WALL (      25 calls)
     mix_rho      :      0.08s CPU      0.12s WALL (      24 calls)

     Called by c_bands:
     init_us_2    :      0.95s CPU      0.99s WALL (   12240 calls)
     cegterg      :     40.16s CPU     41.50s WALL (    5760 calls)

     Called by *egterg:
     cdiaghg      :      6.17s CPU      6.41s WALL (   18365 calls)
     h_psi        :     29.62s CPU     30.69s WALL (   18605 calls)
     s_psi        :      0.84s CPU      0.87s WALL (   18605 calls)
     g_psi        :      0.14s CPU      0.14s WALL (   12605 calls)

     Called by h_psi:
     h_psi:calbec :      1.33s CPU      1.38s WALL (   18605 calls)
     vloc_psi     :     27.29s CPU     28.27s WALL (   18605 calls)
     add_vuspsi   :      0.87s CPU      0.91s WALL (   18605 calls)

     General routines
     calbec       :      2.05s CPU      2.13s WALL (   28445 calls)
     fft          :      0.50s CPU      0.58s WALL (     663 calls)
     ffts         :      0.28s CPU      0.28s WALL (      98 calls)
     fftw         :     25.57s CPU     26.42s WALL (  635670 calls)
     interpolate  :      0.31s CPU      0.32s WALL (      50 calls)

     Parallel routines

     PWSCF        :     59.43s CPU     62.67s WALL


   This run was terminated on:  22:33: 4  10Nov2025            

=------------------------------------------------------------------------------=
   JOB DONE.
=------------------------------------------------------------------------------=
