
     Program PWSCF v.7.4 starts on 10Nov2025 at 22:15:51 

     This program is part of the open-source Quantum ESPRESSO suite
     for quantum simulation of materials; please cite
         "P. Giannozzi et al., J. Phys.:Condens. Matter 21 395502 (2009);
         "P. Giannozzi et al., J. Phys.:Condens. Matter 29 465901 (2017);
         "P. Giannozzi et al., J. Chem. Phys. 152 154105 (2020);
          URL http://www.quantum-espresso.org", 
     in publications or presentations arising from this work. More details at
     http://www.quantum-espresso.org/quote

     Parallel version (MPI & OpenMP), running on      16 processor cores
     Number of MPI processes:                16
     Threads/MPI process:                     1

     MPI processes distributed on     1 nodes
     175553 MiB available memory on the printing compute node when the environment starts

     Reading input from TiNi_scf_nomag.in
Warning: card &CELL ignored
Warning: card   CELL_DYNAMICS='BFGS', ignored
Warning: card / ignored

     Current dimensions of program PWSCF are:
     Max number of different atomic species (ntypx) = 10
     Max number of k-points (npk) =  40000
     Max angular momentum in pseudopotentials (lmaxx) =  4

     IMPORTANT: XC functional enforced from input :
     Exchange-correlation= PBE
                           (   1   4   3   4   0   0   0)
     Any further DFT definition will be discarded
     Please, verify this is what you really want

     Message from routine setup:
     using ibrav=0 with symmetry is DISCOURAGED, use correct ibrav instead

     R & G space division:  proc/nbgrp/npool/nimage =      16
     Subspace diagonalization in iterative solution of the eigenvalue problem:
     a serial algorithm will be used


     Parallelization info
     --------------------
     sticks:   dense  smooth     PW     G-vecs:    dense   smooth      PW
     Min         269      76     22                13288     2024     320
     Max         271      77     23                13289     2027     323
     Sum        4309    1225    357               212623    32423    5137

     Using Slab Decomposition



     bravais-lattice index     =            0
     lattice parameter (alat)  =       5.5824  a.u.
     unit-cell volume          =     173.9675 (a.u.)^3
     number of atoms/cell      =            2
     number of atomic types    =            2
     number of electrons       =        30.00
     number of Kohn-Sham states=           19
     kinetic-energy cutoff     =     124.0000  Ry
     charge density cutoff     =    1736.0000  Ry
     scf convergence threshold =      1.0E-08
     mixing beta               =       0.7000
     number of iterations used =            8  plain     mixing
     Exchange-correlation= PBE
                           (   1   4   3   4   0   0   0)

     celldm(1)=   5.582423  celldm(2)=   0.000000  celldm(3)=   0.000000
     celldm(4)=   0.000000  celldm(5)=   0.000000  celldm(6)=   0.000000

     crystal axes: (cart. coord. in units of alat)
               a(1) = (   1.000000   0.000000   0.000000 )  
               a(2) = (   0.000000   1.000000   0.000000 )  
               a(3) = (   0.000000   0.000000   1.000000 )  

     reciprocal axes: (cart. coord. in units 2 pi/alat)
               b(1) = (  1.000000  0.000000  0.000000 )  
               b(2) = (  0.000000  1.000000  0.000000 )  
               b(3) = (  0.000000  0.000000  1.000000 )  


     PseudoPot. # 1 for Ni read from file:
     ../../pseudos/ni_pbe_v1.4.uspp.F.UPF
     MD5 check sum: 1ee80287db30b12d2bc1f57a5b5d6409
     Pseudo is Ultrasoft + core correction, Zval = 18.0
     Generated by new atomic code, or converted to UPF format
     Using radial grid of  865 points,  6 beta functions with: 
                l(1) =   0
                l(2) =   0
                l(3) =   1
                l(4) =   1
                l(5) =   2
                l(6) =   2
     Q(r) pseudized with 10 coefficients,  rinner =    0.980   0.980   0.980
                                                       0.980   0.980

     PseudoPot. # 2 for Ti read from file:
     ../../pseudos/ti_pbe_v1.4.uspp.F.UPF
     MD5 check sum: 88a00a6731bd790ddea75d31a80cb452
     Pseudo is Ultrasoft + core correction, Zval = 12.0
     Generated by new atomic code, or converted to UPF format
     Using radial grid of  851 points,  6 beta functions with: 
                l(1) =   0
                l(2) =   0
                l(3) =   1
                l(4) =   1
                l(5) =   2
                l(6) =   2
     Q(r) pseudized with  6 coefficients,  rinner =    1.000   1.000   1.000
                                                       1.000   1.000

     atomic species   valence    mass     pseudopotential
     Ni               18.00    58.69300     Ni( 1.00)
     Ti               12.00    47.86700     Ti( 1.00)

     48 Sym. Ops., with inversion, found



   Cartesian axes

     site n.     atom                  positions (alat units)
         1        Ni     tau(   1) = (   0.5000000   0.5000000   0.5000000  )
         2        Ti     tau(   2) = (   0.0000000   0.0000000   0.0000000  )

     number of k points=   120  Marzari-Vanderbilt smearing, width (Ry)=  0.0050

     Number of k-points >= 100: set verbosity='high' to print them.

     Dense  grid:   212623 G-vectors     FFT dimensions: (  75,  75,  75)

     Smooth grid:    32423 G-vectors     FFT dimensions: (  40,  40,  40)

     Estimated max dynamical RAM per process >      64.23 MB

     Estimated total dynamical RAM >       1.00 GB

     Check: negative core charge=   -0.000003

     Initial potential from superposition of free atoms

     starting charge      27.0000, renormalised to      30.0000

     negative rho (up, down):  1.523E-03 0.000E+00
     Starting wfcs are   23 randomized atomic wfcs

     total cpu time spent up to now is        2.1 secs

     per-process dynamical memory:   129.7 Mb

     Self-consistent Calculation

     iteration #  1     ecut=   124.00 Ry     beta= 0.70
     Davidson diagonalization with overlap
     ethr =  1.00E-02,  avg # of iterations =  5.4

     total cpu time spent up to now is        4.6 secs

     total energy              =    -418.04249143 Ry
     estimated scf accuracy    <      65.59657538 Ry

     iteration #  2     ecut=   124.00 Ry     beta= 0.70
     Davidson diagonalization with overlap
     ethr =  1.00E-02,  avg # of iterations =  5.4

     total cpu time spent up to now is        7.3 secs

     total energy              =    -449.78476195 Ry
     estimated scf accuracy    <     160.91432322 Ry

     iteration #  3     ecut=   124.00 Ry     beta= 0.70
     Davidson diagonalization with overlap
     ethr =  1.00E-02,  avg # of iterations =  4.9

     negative rho (up, down):  2.366E-04 0.000E+00

     total cpu time spent up to now is        9.6 secs

     total energy              =    -463.07990887 Ry
     estimated scf accuracy    <      19.44705610 Ry

     iteration #  4     ecut=   124.00 Ry     beta= 0.70
     Davidson diagonalization with overlap
     ethr =  1.00E-02,  avg # of iterations =  2.1

     negative rho (up, down):  4.925E-04 0.000E+00

     total cpu time spent up to now is       11.3 secs

     total energy              =    -463.16728378 Ry
     estimated scf accuracy    <       6.07201221 Ry

     iteration #  5     ecut=   124.00 Ry     beta= 0.70
     Davidson diagonalization with overlap
     ethr =  1.00E-02,  avg # of iterations =  1.2

     negative rho (up, down):  6.342E-04 0.000E+00

     total cpu time spent up to now is       12.6 secs

     total energy              =    -463.02718847 Ry
     estimated scf accuracy    <       3.31313356 Ry

     iteration #  6     ecut=   124.00 Ry     beta= 0.70
     Davidson diagonalization with overlap
     ethr =  1.00E-02,  avg # of iterations =  1.4

     negative rho (up, down):  1.126E-03 0.000E+00

     total cpu time spent up to now is       14.0 secs

     total energy              =    -462.13106328 Ry
     estimated scf accuracy    <       2.68648130 Ry

     iteration #  7     ecut=   124.00 Ry     beta= 0.70
     Davidson diagonalization with overlap
     ethr =  8.95E-03,  avg # of iterations =  2.5

     negative rho (up, down):  9.581E-04 0.000E+00

     total cpu time spent up to now is       15.5 secs

     total energy              =    -462.45941101 Ry
     estimated scf accuracy    <       1.85148552 Ry

     iteration #  8     ecut=   124.00 Ry     beta= 0.70
     Davidson diagonalization with overlap
     ethr =  6.17E-03,  avg # of iterations =  1.0

     negative rho (up, down):  1.024E-03 0.000E+00

     total cpu time spent up to now is       16.9 secs

     total energy              =    -462.57049184 Ry
     estimated scf accuracy    <       0.01910141 Ry

     iteration #  9     ecut=   124.00 Ry     beta= 0.70
     Davidson diagonalization with overlap
     ethr =  6.37E-05,  avg # of iterations =  5.2

     negative rho (up, down):  9.277E-04 0.000E+00

     total cpu time spent up to now is       19.0 secs

     total energy              =    -462.57318077 Ry
     estimated scf accuracy    <       0.07124482 Ry

     iteration # 10     ecut=   124.00 Ry     beta= 0.70
     Davidson diagonalization with overlap
     ethr =  6.37E-05,  avg # of iterations =  2.8

     negative rho (up, down):  9.707E-04 0.000E+00

     total cpu time spent up to now is       20.5 secs

     total energy              =    -462.57879051 Ry
     estimated scf accuracy    <       0.00289846 Ry

     iteration # 11     ecut=   124.00 Ry     beta= 0.70
     Davidson diagonalization with overlap
     ethr =  9.66E-06,  avg # of iterations =  4.0

     negative rho (up, down):  9.571E-04 0.000E+00

     total cpu time spent up to now is       22.5 secs

     total energy              =    -462.59046092 Ry
     estimated scf accuracy    <       0.26446057 Ry

     iteration # 12     ecut=   124.00 Ry     beta= 0.70
     Davidson diagonalization with overlap
     ethr =  9.66E-06,  avg # of iterations =  1.4

     negative rho (up, down):  9.601E-04 0.000E+00

     total cpu time spent up to now is       24.0 secs

     total energy              =    -462.59672588 Ry
     estimated scf accuracy    <       0.16997018 Ry

     iteration # 13     ecut=   124.00 Ry     beta= 0.70
     Davidson diagonalization with overlap
     ethr =  9.66E-06,  avg # of iterations =  1.1

     negative rho (up, down):  9.224E-04 0.000E+00

     total cpu time spent up to now is       25.3 secs

     total energy              =    -462.56405967 Ry
     estimated scf accuracy    <       0.27408786 Ry

     iteration # 14     ecut=   124.00 Ry     beta= 0.70
     Davidson diagonalization with overlap
     ethr =  9.66E-06,  avg # of iterations =  4.1

     negative rho (up, down):  9.222E-04 0.000E+00

     total cpu time spent up to now is       27.3 secs

     total energy              =    -462.58020872 Ry
     estimated scf accuracy    <       0.00022787 Ry

     iteration # 15     ecut=   124.00 Ry     beta= 0.70
     Davidson diagonalization with overlap
     ethr =  7.60E-07,  avg # of iterations =  1.9

     negative rho (up, down):  9.244E-04 0.000E+00

     total cpu time spent up to now is       28.7 secs

     total energy              =    -462.58023519 Ry
     estimated scf accuracy    <       0.00004603 Ry

     iteration # 16     ecut=   124.00 Ry     beta= 0.70
     Davidson diagonalization with overlap
     ethr =  1.53E-07,  avg # of iterations =  1.8

     negative rho (up, down):  9.212E-04 0.000E+00

     total cpu time spent up to now is       30.2 secs

     total energy              =    -462.58023054 Ry
     estimated scf accuracy    <       0.00040914 Ry

     iteration # 17     ecut=   124.00 Ry     beta= 0.70
     Davidson diagonalization with overlap
     ethr =  1.53E-07,  avg # of iterations =  1.0

     negative rho (up, down):  9.188E-04 0.000E+00

     total cpu time spent up to now is       31.5 secs

     total energy              =    -462.58021336 Ry
     estimated scf accuracy    <       0.00019746 Ry

     iteration # 18     ecut=   124.00 Ry     beta= 0.70
     Davidson diagonalization with overlap
     ethr =  1.53E-07,  avg # of iterations =  1.6

     negative rho (up, down):  9.182E-04 0.000E+00

     total cpu time spent up to now is       32.9 secs

     total energy              =    -462.58021934 Ry
     estimated scf accuracy    <       0.00001261 Ry

     iteration # 19     ecut=   124.00 Ry     beta= 0.70
     Davidson diagonalization with overlap
     ethr =  4.20E-08,  avg # of iterations =  1.3

     negative rho (up, down):  9.176E-04 0.000E+00

     total cpu time spent up to now is       34.3 secs

     total energy              =    -462.58022009 Ry
     estimated scf accuracy    <       0.00000014 Ry

     iteration # 20     ecut=   124.00 Ry     beta= 0.70
     Davidson diagonalization with overlap
     ethr =  4.82E-10,  avg # of iterations =  4.2

     negative rho (up, down):  9.181E-04 0.000E+00

     total cpu time spent up to now is       36.1 secs

     total energy              =    -462.58022002 Ry
     estimated scf accuracy    <       0.00000255 Ry

     iteration # 21     ecut=   124.00 Ry     beta= 0.70
     Davidson diagonalization with overlap
     ethr =  4.82E-10,  avg # of iterations =  3.1

     negative rho (up, down):  9.181E-04 0.000E+00

     total cpu time spent up to now is       37.9 secs

     total energy              =    -462.58022021 Ry
     estimated scf accuracy    <       0.00000002 Ry

     iteration # 22     ecut=   124.00 Ry     beta= 0.70
     Davidson diagonalization with overlap
     ethr =  6.19E-11,  avg # of iterations =  1.5

     negative rho (up, down):  9.182E-04 0.000E+00

     total cpu time spent up to now is       39.3 secs

     End of self-consistent calculation

     Number of k-points >= 100: set verbosity='high' to print the bands.

     the Fermi energy is    17.0911 ev

!    total energy              =    -462.58022021 Ry
     estimated scf accuracy    <          3.1E-09 Ry
     smearing contrib. (-TS)   =      -0.00011496 Ry
     internal energy E=F+TS    =    -462.58010526 Ry

     The total energy is F=E-TS. E is the sum of the following terms:
     one-electron contribution =    -250.54389282 Ry
     hartree contribution      =     141.55625983 Ry
     xc contribution           =     -53.67043538 Ry
     ewald contribution        =    -299.92203688 Ry

     convergence has been achieved in  22 iterations

     negative rho (up, down):  9.182E-04 0.000E+00

     Forces acting on atoms (cartesian axes, Ry/au):

     atom    1 type  1   force =     0.00000000    0.00000000    0.00000000
     atom    2 type  2   force =     0.00000000    0.00000000    0.00000000

     Total force =     0.000000     Total SCF correction =     0.000000


     Computing stress (Cartesian axis) and pressure


     negative rho (up, down):  9.182E-04 0.000E+00
          total   stress  (Ry/bohr**3)                   (kbar)     P=      101.21
   0.00068803   0.00000000   0.00000000          101.21        0.00        0.00
   0.00000000   0.00068803   0.00000000            0.00      101.21        0.00
   0.00000000   0.00000000   0.00068803            0.00        0.00      101.21


     Writing all to output data dir ./TiFe.save/ :
     XML data file
     init_run     :      1.32s CPU      1.43s WALL (       1 calls)
     electrons    :     34.90s CPU     37.23s WALL (       1 calls)
     forces       :      0.19s CPU      0.22s WALL (       1 calls)
     stress       :      0.96s CPU      1.06s WALL (       1 calls)

     Called by init_run:
     wfcinit      :      0.58s CPU      0.60s WALL (       1 calls)
     potinit      :      0.31s CPU      0.31s WALL (       1 calls)
     hinit0       :      0.21s CPU      0.22s WALL (       1 calls)

     Called by electrons:
     c_bands      :     27.42s CPU     28.25s WALL (      22 calls)
     sum_band     :      5.57s CPU      6.38s WALL (      22 calls)
     v_of_rho     :      0.32s CPU      0.36s WALL (      23 calls)
     newd         :      1.57s CPU      2.22s WALL (      23 calls)
     mix_rho      :      0.06s CPU      0.06s WALL (      22 calls)

     Called by c_bands:
     init_us_2    :      0.52s CPU      0.53s WALL (    5640 calls)
     cegterg      :     26.36s CPU     27.15s WALL (    2640 calls)

     Called by *egterg:
     cdiaghg      :      4.01s CPU      4.13s WALL (    9700 calls)
     h_psi        :     19.56s CPU     20.17s WALL (    9820 calls)
     s_psi        :      0.34s CPU      0.36s WALL (    9820 calls)
     g_psi        :      0.08s CPU      0.08s WALL (    7060 calls)

     Called by h_psi:
     h_psi:calbec :      0.97s CPU      0.99s WALL (    9820 calls)
     vloc_psi     :     18.16s CPU     18.72s WALL (    9820 calls)
     add_vuspsi   :      0.36s CPU      0.37s WALL (    9820 calls)

     General routines
     calbec       :      1.40s CPU      1.44s WALL (   14500 calls)
     fft          :      0.37s CPU      0.42s WALL (     322 calls)
     ffts         :      0.29s CPU      0.29s WALL (      45 calls)
     fftw         :     17.52s CPU     18.02s WALL (  308372 calls)
     interpolate  :      0.30s CPU      0.31s WALL (      23 calls)

     Parallel routines

     PWSCF        :     37.58s CPU     40.62s WALL


   This run was terminated on:  22:16:31  10Nov2025            

=------------------------------------------------------------------------------=
   JOB DONE.
=------------------------------------------------------------------------------=
