
     Program PWSCF v.7.4 starts on 10Nov2025 at 22:50:36 

     This program is part of the open-source Quantum ESPRESSO suite
     for quantum simulation of materials; please cite
         "P. Giannozzi et al., J. Phys.:Condens. Matter 21 395502 (2009);
         "P. Giannozzi et al., J. Phys.:Condens. Matter 29 465901 (2017);
         "P. Giannozzi et al., J. Chem. Phys. 152 154105 (2020);
          URL http://www.quantum-espresso.org", 
     in publications or presentations arising from this work. More details at
     http://www.quantum-espresso.org/quote

     Parallel version (MPI & OpenMP), running on      16 processor cores
     Number of MPI processes:                16
     Threads/MPI process:                     1

     MPI processes distributed on     1 nodes
     213245 MiB available memory on the printing compute node when the environment starts

     Reading input from TiNi_vc_relax_nomag.in

     Current dimensions of program PWSCF are:
     Max number of different atomic species (ntypx) = 10
     Max number of k-points (npk) =  40000
     Max angular momentum in pseudopotentials (lmaxx) =  4

     IMPORTANT: XC functional enforced from input :
     Exchange-correlation= PBE
                           (   1   4   3   4   0   0   0)
     Any further DFT definition will be discarded
     Please, verify this is what you really want

     Message from routine setup:
     using ibrav=0 with symmetry is DISCOURAGED, use correct ibrav instead

     R & G space division:  proc/nbgrp/npool/nimage =      16
     Subspace diagonalization in iterative solution of the eigenvalue problem:
     a serial algorithm will be used


     Parallelization info
     --------------------
     sticks:   dense  smooth     PW     G-vecs:    dense   smooth      PW
     Min         269      76     22                13288     2024     320
     Max         271      77     23                13289     2027     323
     Sum        4309    1225    357               212623    32423    5137

     Using Slab Decomposition



     bravais-lattice index     =            0
     lattice parameter (alat)  =       5.5824  a.u.
     unit-cell volume          =     173.9675 (a.u.)^3
     number of atoms/cell      =            2
     number of atomic types    =            2
     number of electrons       =        30.00
     number of Kohn-Sham states=           19
     kinetic-energy cutoff     =     124.0000  Ry
     charge density cutoff     =    1736.0000  Ry
     scf convergence threshold =      1.0E-08
     mixing beta               =       0.7000
     number of iterations used =            8  plain     mixing
     energy convergence thresh.=      1.0E-04
     force convergence thresh. =      1.0E-03
     press convergence thresh. =      1.0E-01
     Exchange-correlation= PBE
                           (   1   4   3   4   0   0   0)
     nstep                     =           50


     celldm(1)=   5.582423  celldm(2)=   0.000000  celldm(3)=   0.000000
     celldm(4)=   0.000000  celldm(5)=   0.000000  celldm(6)=   0.000000

     crystal axes: (cart. coord. in units of alat)
               a(1) = (   1.000000   0.000000   0.000000 )  
               a(2) = (   0.000000   1.000000   0.000000 )  
               a(3) = (   0.000000   0.000000   1.000000 )  

     reciprocal axes: (cart. coord. in units 2 pi/alat)
               b(1) = (  1.000000  0.000000  0.000000 )  
               b(2) = (  0.000000  1.000000  0.000000 )  
               b(3) = (  0.000000  0.000000  1.000000 )  


     PseudoPot. # 1 for Ni read from file:
     ../../pseudos/ni_pbe_v1.4.uspp.F.UPF
     MD5 check sum: 1ee80287db30b12d2bc1f57a5b5d6409
     Pseudo is Ultrasoft + core correction, Zval = 18.0
     Generated by new atomic code, or converted to UPF format
     Using radial grid of  865 points,  6 beta functions with: 
                l(1) =   0
                l(2) =   0
                l(3) =   1
                l(4) =   1
                l(5) =   2
                l(6) =   2
     Q(r) pseudized with 10 coefficients,  rinner =    0.980   0.980   0.980
                                                       0.980   0.980

     PseudoPot. # 2 for Ti read from file:
     ../../pseudos/ti_pbe_v1.4.uspp.F.UPF
     MD5 check sum: 88a00a6731bd790ddea75d31a80cb452
     Pseudo is Ultrasoft + core correction, Zval = 12.0
     Generated by new atomic code, or converted to UPF format
     Using radial grid of  851 points,  6 beta functions with: 
                l(1) =   0
                l(2) =   0
                l(3) =   1
                l(4) =   1
                l(5) =   2
                l(6) =   2
     Q(r) pseudized with  6 coefficients,  rinner =    1.000   1.000   1.000
                                                       1.000   1.000

     atomic species   valence    mass     pseudopotential
     Ni               18.00    58.69300     Ni( 1.00)
     Ti               12.00    47.86700     Ti( 1.00)

     48 Sym. Ops., with inversion, found



   Cartesian axes

     site n.     atom                  positions (alat units)
         1        Ni     tau(   1) = (   0.5000000   0.5000000   0.5000000  )
         2        Ti     tau(   2) = (   0.0000000   0.0000000   0.0000000  )

     number of k points=   120  Marzari-Vanderbilt smearing, width (Ry)=  0.0050

     Number of k-points >= 100: set verbosity='high' to print them.

     Dense  grid:   212623 G-vectors     FFT dimensions: (  75,  75,  75)

     Smooth grid:    32423 G-vectors     FFT dimensions: (  40,  40,  40)

     Estimated max dynamical RAM per process >      70.91 MB

     Estimated total dynamical RAM >       1.11 GB

     Check: negative core charge=   -0.000003

     Initial potential from superposition of free atoms

     starting charge      27.0000, renormalised to      30.0000

     negative rho (up, down):  1.523E-03 0.000E+00
     Starting wfcs are   23 randomized atomic wfcs

     total cpu time spent up to now is        1.4 secs

     per-process dynamical memory:   137.1 Mb

     Self-consistent Calculation

     iteration #  1     ecut=   124.00 Ry     beta= 0.70
     Davidson diagonalization with overlap
     ethr =  1.00E-02,  avg # of iterations =  5.4

     total cpu time spent up to now is        3.3 secs

     total energy              =    -418.04249143 Ry
     estimated scf accuracy    <      65.59657538 Ry

     iteration #  2     ecut=   124.00 Ry     beta= 0.70
     Davidson diagonalization with overlap
     ethr =  1.00E-02,  avg # of iterations =  5.4

     total cpu time spent up to now is        5.4 secs

     total energy              =    -449.78476195 Ry
     estimated scf accuracy    <     160.91432322 Ry

     iteration #  3     ecut=   124.00 Ry     beta= 0.70
     Davidson diagonalization with overlap
     ethr =  1.00E-02,  avg # of iterations =  4.9

     negative rho (up, down):  2.366E-04 0.000E+00

     total cpu time spent up to now is        7.3 secs

     total energy              =    -463.07990887 Ry
     estimated scf accuracy    <      19.44705610 Ry

     iteration #  4     ecut=   124.00 Ry     beta= 0.70
     Davidson diagonalization with overlap
     ethr =  1.00E-02,  avg # of iterations =  2.1

     negative rho (up, down):  4.925E-04 0.000E+00

     total cpu time spent up to now is        8.6 secs

     total energy              =    -463.16728378 Ry
     estimated scf accuracy    <       6.07201221 Ry

     iteration #  5     ecut=   124.00 Ry     beta= 0.70
     Davidson diagonalization with overlap
     ethr =  1.00E-02,  avg # of iterations =  1.2

     negative rho (up, down):  6.342E-04 0.000E+00

     total cpu time spent up to now is        9.7 secs

     total energy              =    -463.02718847 Ry
     estimated scf accuracy    <       3.31313356 Ry

     iteration #  6     ecut=   124.00 Ry     beta= 0.70
     Davidson diagonalization with overlap
     ethr =  1.00E-02,  avg # of iterations =  1.4

     negative rho (up, down):  1.126E-03 0.000E+00

     total cpu time spent up to now is       10.8 secs

     total energy              =    -462.13106328 Ry
     estimated scf accuracy    <       2.68648130 Ry

     iteration #  7     ecut=   124.00 Ry     beta= 0.70
     Davidson diagonalization with overlap
     ethr =  8.95E-03,  avg # of iterations =  2.5

     negative rho (up, down):  9.581E-04 0.000E+00

     total cpu time spent up to now is       12.1 secs

     total energy              =    -462.45941101 Ry
     estimated scf accuracy    <       1.85148552 Ry

     iteration #  8     ecut=   124.00 Ry     beta= 0.70
     Davidson diagonalization with overlap
     ethr =  6.17E-03,  avg # of iterations =  1.0

     negative rho (up, down):  1.024E-03 0.000E+00

     total cpu time spent up to now is       13.2 secs

     total energy              =    -462.57049184 Ry
     estimated scf accuracy    <       0.01910141 Ry

     iteration #  9     ecut=   124.00 Ry     beta= 0.70
     Davidson diagonalization with overlap
     ethr =  6.37E-05,  avg # of iterations =  5.2

     negative rho (up, down):  9.277E-04 0.000E+00

     total cpu time spent up to now is       14.9 secs

     total energy              =    -462.57318077 Ry
     estimated scf accuracy    <       0.07124482 Ry

     iteration # 10     ecut=   124.00 Ry     beta= 0.70
     Davidson diagonalization with overlap
     ethr =  6.37E-05,  avg # of iterations =  2.8

     negative rho (up, down):  9.707E-04 0.000E+00

     total cpu time spent up to now is       16.2 secs

     total energy              =    -462.57879051 Ry
     estimated scf accuracy    <       0.00289846 Ry

     iteration # 11     ecut=   124.00 Ry     beta= 0.70
     Davidson diagonalization with overlap
     ethr =  9.66E-06,  avg # of iterations =  4.0

     negative rho (up, down):  9.571E-04 0.000E+00

     total cpu time spent up to now is       17.8 secs

     total energy              =    -462.59046092 Ry
     estimated scf accuracy    <       0.26446057 Ry

     iteration # 12     ecut=   124.00 Ry     beta= 0.70
     Davidson diagonalization with overlap
     ethr =  9.66E-06,  avg # of iterations =  1.4

     negative rho (up, down):  9.601E-04 0.000E+00

     total cpu time spent up to now is       19.0 secs

     total energy              =    -462.59672588 Ry
     estimated scf accuracy    <       0.16997018 Ry

     iteration # 13     ecut=   124.00 Ry     beta= 0.70
     Davidson diagonalization with overlap
     ethr =  9.66E-06,  avg # of iterations =  1.1

     negative rho (up, down):  9.224E-04 0.000E+00

     total cpu time spent up to now is       20.1 secs

     total energy              =    -462.56405967 Ry
     estimated scf accuracy    <       0.27408786 Ry

     iteration # 14     ecut=   124.00 Ry     beta= 0.70
     Davidson diagonalization with overlap
     ethr =  9.66E-06,  avg # of iterations =  4.1

     negative rho (up, down):  9.222E-04 0.000E+00

     total cpu time spent up to now is       21.7 secs

     total energy              =    -462.58020872 Ry
     estimated scf accuracy    <       0.00022787 Ry

     iteration # 15     ecut=   124.00 Ry     beta= 0.70
     Davidson diagonalization with overlap
     ethr =  7.60E-07,  avg # of iterations =  1.9

     negative rho (up, down):  9.244E-04 0.000E+00

     total cpu time spent up to now is       22.9 secs

     total energy              =    -462.58023519 Ry
     estimated scf accuracy    <       0.00004603 Ry

     iteration # 16     ecut=   124.00 Ry     beta= 0.70
     Davidson diagonalization with overlap
     ethr =  1.53E-07,  avg # of iterations =  1.8

     negative rho (up, down):  9.212E-04 0.000E+00

     total cpu time spent up to now is       24.1 secs

     total energy              =    -462.58023054 Ry
     estimated scf accuracy    <       0.00040914 Ry

     iteration # 17     ecut=   124.00 Ry     beta= 0.70
     Davidson diagonalization with overlap
     ethr =  1.53E-07,  avg # of iterations =  1.0

     negative rho (up, down):  9.188E-04 0.000E+00

     total cpu time spent up to now is       25.2 secs

     total energy              =    -462.58021336 Ry
     estimated scf accuracy    <       0.00019746 Ry

     iteration # 18     ecut=   124.00 Ry     beta= 0.70
     Davidson diagonalization with overlap
     ethr =  1.53E-07,  avg # of iterations =  1.6

     negative rho (up, down):  9.182E-04 0.000E+00

     total cpu time spent up to now is       26.3 secs

     total energy              =    -462.58021934 Ry
     estimated scf accuracy    <       0.00001261 Ry

     iteration # 19     ecut=   124.00 Ry     beta= 0.70
     Davidson diagonalization with overlap
     ethr =  4.20E-08,  avg # of iterations =  1.3

     negative rho (up, down):  9.176E-04 0.000E+00

     total cpu time spent up to now is       27.4 secs

     total energy              =    -462.58022009 Ry
     estimated scf accuracy    <       0.00000014 Ry

     iteration # 20     ecut=   124.00 Ry     beta= 0.70
     Davidson diagonalization with overlap
     ethr =  4.82E-10,  avg # of iterations =  4.2

     negative rho (up, down):  9.181E-04 0.000E+00

     total cpu time spent up to now is       29.0 secs

     total energy              =    -462.58022002 Ry
     estimated scf accuracy    <       0.00000255 Ry

     iteration # 21     ecut=   124.00 Ry     beta= 0.70
     Davidson diagonalization with overlap
     ethr =  4.82E-10,  avg # of iterations =  3.1

     negative rho (up, down):  9.181E-04 0.000E+00

     total cpu time spent up to now is       30.4 secs

     total energy              =    -462.58022021 Ry
     estimated scf accuracy    <       0.00000002 Ry

     iteration # 22     ecut=   124.00 Ry     beta= 0.70
     Davidson diagonalization with overlap
     ethr =  6.19E-11,  avg # of iterations =  1.5

     negative rho (up, down):  9.182E-04 0.000E+00

     total cpu time spent up to now is       31.6 secs

     End of self-consistent calculation

     Number of k-points >= 100: set verbosity='high' to print the bands.

     the Fermi energy is    17.0911 ev

!    total energy              =    -462.58022021 Ry
     estimated scf accuracy    <          3.1E-09 Ry
     smearing contrib. (-TS)   =      -0.00011496 Ry
     internal energy E=F+TS    =    -462.58010526 Ry

     The total energy is F=E-TS. E is the sum of the following terms:
     one-electron contribution =    -250.54389282 Ry
     hartree contribution      =     141.55625983 Ry
     xc contribution           =     -53.67043538 Ry
     ewald contribution        =    -299.92203688 Ry

     convergence has been achieved in  22 iterations

     negative rho (up, down):  9.182E-04 0.000E+00

     Forces acting on atoms (cartesian axes, Ry/au):

     atom    1 type  1   force =     0.00000000    0.00000000    0.00000000
     atom    2 type  2   force =     0.00000000    0.00000000    0.00000000

     Total force =     0.000000     Total SCF correction =     0.000000


     Computing stress (Cartesian axis) and pressure


     negative rho (up, down):  9.182E-04 0.000E+00
          total   stress  (Ry/bohr**3)                   (kbar)     P=      101.21
   0.00068803   0.00000000   0.00000000          101.21        0.00        0.00
   0.00000000   0.00068803   0.00000000            0.00      101.21        0.00
   0.00000000   0.00000000   0.00068803            0.00        0.00      101.21


     BFGS Geometry Optimization
     Energy error            =      6.0E-03 Ry
     Gradient error          =      0.0E+00 Ry/Bohr
     Cell gradient error     =      1.0E+02 kbar

     number of scf cycles    =   1
     number of bfgs steps    =   0

     enthalpy           new  =    -462.5802202133 Ry

     new trust radius        =       0.0453742154 bohr
     new conv_thr            =       0.0000000100 Ry

     new unit-cell volume =    183.09987 a.u.^3 (    27.13260 Ang^3 )
     density =      6.52157 g/cm^3

CELL_PARAMETERS (alat=  5.58242261)
   1.017200658   0.000000000   0.000000000
   0.000000000   1.017200658   0.000000000
   0.000000000   0.000000000   1.017200658

ATOMIC_POSITIONS (crystal)
Ni               0.5000000000        0.5000000000        0.5000000000
Ti               0.0000000000        0.0000000000        0.0000000000



     Writing config-only to output data dir ./TiFe.save/ :
     XML data file     NEW-OLD atomic charge density approx. for the potential
     New effective cutoffs (rho, wfc): 1677.34  119.83

     Check: negative core charge=   -0.000005

     negative rho (up, down):  9.624E-04 0.000E+00

     total cpu time spent up to now is       32.8 secs

     per-process dynamical memory:   141.5 Mb

     Self-consistent Calculation

     iteration #  1     ecut=   124.00 Ry     beta= 0.70
     Davidson diagonalization with overlap
     ethr =  1.00E-06,  avg # of iterations =  5.2

     negative rho (up, down):  1.017E-03 0.000E+00

     total cpu time spent up to now is       35.0 secs

     total energy              =    -462.55392484 Ry
     estimated scf accuracy    <       0.03645904 Ry

     iteration #  2     ecut=   124.00 Ry     beta= 0.70
     Davidson diagonalization with overlap
     ethr =  1.22E-04,  avg # of iterations =  4.5

     negative rho (up, down):  8.965E-04 0.000E+00

     total cpu time spent up to now is       36.8 secs

     total energy              =    -462.17586308 Ry
     estimated scf accuracy    <       8.72520512 Ry

     iteration #  3     ecut=   124.00 Ry     beta= 0.70
     Davidson diagonalization with overlap
     ethr =  1.22E-04,  avg # of iterations =  4.8

     negative rho (up, down):  9.143E-04 0.000E+00

     total cpu time spent up to now is       38.7 secs

     total energy              =    -462.58346094 Ry
     estimated scf accuracy    <       0.00563997 Ry

     iteration #  4     ecut=   124.00 Ry     beta= 0.70
     Davidson diagonalization with overlap
     ethr =  1.88E-05,  avg # of iterations =  1.7

     negative rho (up, down):  9.185E-04 0.000E+00

     total cpu time spent up to now is       39.8 secs

     total energy              =    -462.58337221 Ry
     estimated scf accuracy    <       0.00400776 Ry

     iteration #  5     ecut=   124.00 Ry     beta= 0.70
     Davidson diagonalization with overlap
     ethr =  1.34E-05,  avg # of iterations =  1.3

     negative rho (up, down):  9.200E-04 0.000E+00

     total cpu time spent up to now is       41.0 secs

     total energy              =    -462.58346586 Ry
     estimated scf accuracy    <       0.00068110 Ry

     iteration #  6     ecut=   124.00 Ry     beta= 0.70
     Davidson diagonalization with overlap
     ethr =  2.27E-06,  avg # of iterations =  1.5

     negative rho (up, down):  9.220E-04 0.000E+00

     total cpu time spent up to now is       42.1 secs

     total energy              =    -462.58346395 Ry
     estimated scf accuracy    <       0.00026009 Ry

     iteration #  7     ecut=   124.00 Ry     beta= 0.70
     Davidson diagonalization with overlap
     ethr =  8.67E-07,  avg # of iterations =  1.2

     negative rho (up, down):  9.235E-04 0.000E+00

     total cpu time spent up to now is       43.2 secs

     total energy              =    -462.58346195 Ry
     estimated scf accuracy    <       0.00005288 Ry

     iteration #  8     ecut=   124.00 Ry     beta= 0.70
     Davidson diagonalization with overlap
     ethr =  1.76E-07,  avg # of iterations =  2.4

     negative rho (up, down):  9.231E-04 0.000E+00

     total cpu time spent up to now is       44.4 secs

     total energy              =    -462.58346822 Ry
     estimated scf accuracy    <       0.00000245 Ry

     iteration #  9     ecut=   124.00 Ry     beta= 0.70
     Davidson diagonalization with overlap
     ethr =  8.17E-09,  avg # of iterations =  2.1

     negative rho (up, down):  9.230E-04 0.000E+00

     total cpu time spent up to now is       45.6 secs

     total energy              =    -462.58346834 Ry
     estimated scf accuracy    <       0.00000069 Ry

     iteration # 10     ecut=   124.00 Ry     beta= 0.70
     Davidson diagonalization with overlap
     ethr =  2.31E-09,  avg # of iterations =  1.1

     negative rho (up, down):  9.229E-04 0.000E+00

     total cpu time spent up to now is       46.8 secs

     total energy              =    -462.58346834 Ry
     estimated scf accuracy    <       0.00000011 Ry

     iteration # 11     ecut=   124.00 Ry     beta= 0.70
     Davidson diagonalization with overlap
     ethr =  3.60E-10,  avg # of iterations =  1.8

     negative rho (up, down):  9.228E-04 0.000E+00

     total cpu time spent up to now is       47.9 secs

     End of self-consistent calculation

     Number of k-points >= 100: set verbosity='high' to print the bands.

     the Fermi energy is    16.0753 ev

!    total energy              =    -462.58346835 Ry
     estimated scf accuracy    <          5.2E-09 Ry
     smearing contrib. (-TS)   =      -0.00015860 Ry
     internal energy E=F+TS    =    -462.58330975 Ry

     The total energy is F=E-TS. E is the sum of the following terms:
     one-electron contribution =    -258.66807873 Ry
     hartree contribution      =     144.52930901 Ry
     xc contribution           =     -53.59412437 Ry
     ewald contribution        =    -294.85041566 Ry

     convergence has been achieved in  11 iterations

     negative rho (up, down):  9.228E-04 0.000E+00

     Forces acting on atoms (cartesian axes, Ry/au):

     atom    1 type  1   force =     0.00000000    0.00000000    0.00000000
     atom    2 type  2   force =     0.00000000    0.00000000    0.00000000

     Total force =     0.000000     Total SCF correction =     0.000000


     Computing stress (Cartesian axis) and pressure


     negative rho (up, down):  9.228E-04 0.000E+00
          total   stress  (Ry/bohr**3)                   (kbar)     P=        6.27
   0.00004262   0.00000000   0.00000000            6.27        0.00        0.00
   0.00000000   0.00004262   0.00000000            0.00        6.27        0.00
   0.00000000   0.00000000   0.00004262            0.00        0.00        6.27

     Energy error            =      3.2E-03 Ry
     Gradient error          =      0.0E+00 Ry/Bohr
     Cell gradient error     =      6.3E+00 kbar

     number of scf cycles    =   2
     number of bfgs steps    =   1

     enthalpy           old  =    -462.5802202133 Ry
     enthalpy           new  =    -462.5834683478 Ry

     CASE: enthalpy          _new < enthalpy          _old

     new trust radius        =       0.0031340832 bohr
     new conv_thr            =            1.0E-10 Ry

     new unit-cell volume =    183.73673 a.u.^3 (    27.22697 Ang^3 )
     density =      6.49896 g/cm^3

CELL_PARAMETERS (alat=  5.58242261)
   1.018378652   0.000000000   0.000000000
   0.000000000   1.018378652   0.000000000
   0.000000000   0.000000000   1.018378652

ATOMIC_POSITIONS (crystal)
Ni               0.5000000000        0.5000000000        0.5000000000
Ti               0.0000000000        0.0000000000        0.0000000000



     Writing config-only to output data dir ./TiFe.save/ :
     XML data file     NEW-OLD atomic charge density approx. for the potential
     New effective cutoffs (rho, wfc): 1673.46  119.56

     Check: negative core charge=   -0.000005

     negative rho (up, down):  9.237E-04 0.000E+00

     total cpu time spent up to now is       49.2 secs

     per-process dynamical memory:   141.9 Mb

     Self-consistent Calculation

     iteration #  1     ecut=   124.00 Ry     beta= 0.70
     Davidson diagonalization with overlap
     ethr =  1.00E-06,  avg # of iterations =  2.0

     negative rho (up, down):  9.295E-04 0.000E+00

     total cpu time spent up to now is       50.6 secs

     total energy              =    -462.58333563 Ry
     estimated scf accuracy    <       0.00018873 Ry

     iteration #  2     ecut=   124.00 Ry     beta= 0.70
     Davidson diagonalization with overlap
     ethr =  6.29E-07,  avg # of iterations =  4.1

     negative rho (up, down):  9.230E-04 0.000E+00

     total cpu time spent up to now is       52.3 secs

     total energy              =    -462.58249194 Ry
     estimated scf accuracy    <       0.01625450 Ry

     iteration #  3     ecut=   124.00 Ry     beta= 0.70
     Davidson diagonalization with overlap
     ethr =  6.29E-07,  avg # of iterations =  3.9

     negative rho (up, down):  9.231E-04 0.000E+00

     total cpu time spent up to now is       53.9 secs

     total energy              =    -462.58348966 Ry
     estimated scf accuracy    <       0.00000068 Ry

     iteration #  4     ecut=   124.00 Ry     beta= 0.70
     Davidson diagonalization with overlap
     ethr =  2.25E-09,  avg # of iterations =  3.5

     negative rho (up, down):  9.230E-04 0.000E+00

     total cpu time spent up to now is       55.4 secs

     total energy              =    -462.58349006 Ry
     estimated scf accuracy    <       0.00000010 Ry

     iteration #  5     ecut=   124.00 Ry     beta= 0.70
     Davidson diagonalization with overlap
     ethr =  3.31E-10,  avg # of iterations =  1.8

     negative rho (up, down):  9.230E-04 0.000E+00

     total cpu time spent up to now is       56.6 secs

     total energy              =    -462.58349007 Ry
     estimated scf accuracy    <       0.00000001 Ry

     iteration #  6     ecut=   124.00 Ry     beta= 0.70
     Davidson diagonalization with overlap
     ethr =  4.36E-11,  avg # of iterations =  2.2

     negative rho (up, down):  9.230E-04 0.000E+00

     total cpu time spent up to now is       57.8 secs

     total energy              =    -462.58349007 Ry
     estimated scf accuracy    <          1.2E-09 Ry

     iteration #  7     ecut=   124.00 Ry     beta= 0.70
     Davidson diagonalization with overlap
     ethr =  3.99E-12,  avg # of iterations =  1.7

     negative rho (up, down):  9.230E-04 0.000E+00

     total cpu time spent up to now is       59.0 secs

     End of self-consistent calculation

     Number of k-points >= 100: set verbosity='high' to print the bands.

     the Fermi energy is    16.0080 ev

!    total energy              =    -462.58349007 Ry
     estimated scf accuracy    <          2.2E-13 Ry
     smearing contrib. (-TS)   =      -0.00016144 Ry
     internal energy E=F+TS    =    -462.58332863 Ry

     The total energy is F=E-TS. E is the sum of the following terms:
     one-electron contribution =    -259.21733159 Ry
     hartree contribution      =     144.73265412 Ry
     xc contribution           =     -53.58929928 Ry
     ewald contribution        =    -294.50935188 Ry

     convergence has been achieved in   7 iterations

     negative rho (up, down):  9.230E-04 0.000E+00

     Forces acting on atoms (cartesian axes, Ry/au):

     atom    1 type  1   force =     0.00000000    0.00000000    0.00000000
     atom    2 type  2   force =     0.00000000    0.00000000    0.00000000

     Total force =     0.000000     Total SCF correction =     0.000000


     Computing stress (Cartesian axis) and pressure


     negative rho (up, down):  9.230E-04 0.000E+00
          total   stress  (Ry/bohr**3)                   (kbar)     P=        2.21
   0.00001506   0.00000000   0.00000000            2.21        0.00        0.00
   0.00000000   0.00001506   0.00000000            0.00        2.21        0.00
   0.00000000   0.00000000   0.00001506            0.00        0.00        2.21

     Energy error            =      2.2E-05 Ry
     Gradient error          =      0.0E+00 Ry/Bohr
     Cell gradient error     =      2.2E+00 kbar

     number of scf cycles    =   3
     number of bfgs steps    =   2

     enthalpy           old  =    -462.5834683478 Ry
     enthalpy           new  =    -462.5834900740 Ry

     CASE: enthalpy          _new < enthalpy          _old

     new trust radius        =       0.0017191719 bohr
     new conv_thr            =            1.0E-10 Ry

     new unit-cell volume =    184.08651 a.u.^3 (    27.27881 Ang^3 )
     density =      6.48661 g/cm^3

CELL_PARAMETERS (alat=  5.58242261)
   1.019024456   0.000000000   0.000000000
   0.000000000   1.019024456   0.000000000
   0.000000000   0.000000000   1.019024456

ATOMIC_POSITIONS (crystal)
Ni               0.5000000000        0.5000000000        0.5000000000
Ti               0.0000000000        0.0000000000        0.0000000000



     Writing config-only to output data dir ./TiFe.save/ :
     XML data file     NEW-OLD atomic charge density approx. for the potential
     New effective cutoffs (rho, wfc): 1671.34  119.40

     Check: negative core charge=   -0.000005

     negative rho (up, down):  9.234E-04 0.000E+00

     total cpu time spent up to now is       60.2 secs

     per-process dynamical memory:   141.9 Mb

     Self-consistent Calculation

     iteration #  1     ecut=   124.00 Ry     beta= 0.70
     Davidson diagonalization with overlap
     ethr =  1.00E-06,  avg # of iterations =  2.0

     negative rho (up, down):  9.264E-04 0.000E+00

     total cpu time spent up to now is       61.7 secs

     total energy              =    -462.58345073 Ry
     estimated scf accuracy    <       0.00004992 Ry

     iteration #  2     ecut=   124.00 Ry     beta= 0.70
     Davidson diagonalization with overlap
     ethr =  1.66E-07,  avg # of iterations =  3.8

     negative rho (up, down):  9.231E-04 0.000E+00

     total cpu time spent up to now is       63.3 secs

     total energy              =    -462.58323198 Ry
     estimated scf accuracy    <       0.00421797 Ry

     iteration #  3     ecut=   124.00 Ry     beta= 0.70
     Davidson diagonalization with overlap
     ethr =  1.66E-07,  avg # of iterations =  3.8

     negative rho (up, down):  9.231E-04 0.000E+00

     total cpu time spent up to now is       64.9 secs

     total energy              =    -462.58349163 Ry
     estimated scf accuracy    <       0.00000015 Ry

     iteration #  4     ecut=   124.00 Ry     beta= 0.70
     Davidson diagonalization with overlap
     ethr =  5.04E-10,  avg # of iterations =  3.3

     negative rho (up, down):  9.230E-04 0.000E+00

     total cpu time spent up to now is       66.3 secs

     total energy              =    -462.58349171 Ry
     estimated scf accuracy    <       0.00000001 Ry

     iteration #  5     ecut=   124.00 Ry     beta= 0.70
     Davidson diagonalization with overlap
     ethr =  4.23E-11,  avg # of iterations =  1.9

     negative rho (up, down):  9.230E-04 0.000E+00

     total cpu time spent up to now is       67.5 secs

     End of self-consistent calculation

     Number of k-points >= 100: set verbosity='high' to print the bands.

     the Fermi energy is    15.9713 ev

!    total energy              =    -462.58349171 Ry
     estimated scf accuracy    <          2.4E-11 Ry
     smearing contrib. (-TS)   =      -0.00016298 Ry
     internal energy E=F+TS    =    -462.58332874 Ry

     The total energy is F=E-TS. E is the sum of the following terms:
     one-electron contribution =    -259.51732952 Ry
     hartree contribution      =     144.84330314 Ry
     xc contribution           =     -53.58659493 Ry
     ewald contribution        =    -294.32270743 Ry

     convergence has been achieved in   5 iterations

     negative rho (up, down):  9.230E-04 0.000E+00

     Forces acting on atoms (cartesian axes, Ry/au):

     atom    1 type  1   force =     0.00000000    0.00000000    0.00000000
     atom    2 type  2   force =     0.00000000    0.00000000    0.00000000

     Total force =     0.000000     Total SCF correction =     0.000000


     Computing stress (Cartesian axis) and pressure


     negative rho (up, down):  9.230E-04 0.000E+00
          total   stress  (Ry/bohr**3)                   (kbar)     P=       -0.87
  -0.00000595   0.00000000   0.00000000           -0.87        0.00        0.00
   0.00000000  -0.00000595   0.00000000            0.00       -0.87        0.00
   0.00000000   0.00000000  -0.00000595            0.00        0.00       -0.87

     Energy error            =      1.6E-06 Ry
     Gradient error          =      0.0E+00 Ry/Bohr
     Cell gradient error     =      8.7E-01 kbar

     number of scf cycles    =   4
     number of bfgs steps    =   3

     enthalpy           old  =    -462.5834900740 Ry
     enthalpy           new  =    -462.5834917144 Ry

     CASE: enthalpy          _new < enthalpy          _old

     new trust radius        =       0.0004873901 bohr
     new conv_thr            =            1.0E-10 Ry

     new unit-cell volume =    183.98733 a.u.^3 (    27.26411 Ang^3 )
     density =      6.49011 g/cm^3

CELL_PARAMETERS (alat=  5.58242261)
   1.018841427   0.000000000   0.000000000
   0.000000000   1.018841427   0.000000000
   0.000000000   0.000000000   1.018841427

ATOMIC_POSITIONS (crystal)
Ni               0.5000000000        0.5000000000        0.5000000000
Ti               0.0000000000        0.0000000000        0.0000000000



     Writing config-only to output data dir ./TiFe.save/ :
     XML data file     NEW-OLD atomic charge density approx. for the potential
     New effective cutoffs (rho, wfc): 1671.94  119.45

     Check: negative core charge=   -0.000005

     negative rho (up, down):  9.229E-04 0.000E+00

     total cpu time spent up to now is       68.8 secs

     per-process dynamical memory:   142.1 Mb

     Self-consistent Calculation

     iteration #  1     ecut=   124.00 Ry     beta= 0.70
     Davidson diagonalization with overlap
     ethr =  1.00E-06,  avg # of iterations =  2.0

     Threshold (ethr) on eigenvalues was too large:
     Diagonalizing with lowered threshold

     Davidson diagonalization with overlap
     ethr =  1.29E-08,  avg # of iterations =  1.0

     negative rho (up, down):  9.220E-04 0.000E+00

     total cpu time spent up to now is       71.2 secs

     total energy              =    -462.58348868 Ry
     estimated scf accuracy    <       0.00000402 Ry

     iteration #  2     ecut=   124.00 Ry     beta= 0.70
     Davidson diagonalization with overlap
     ethr =  1.34E-08,  avg # of iterations =  3.8

     negative rho (up, down):  9.230E-04 0.000E+00

     total cpu time spent up to now is       72.9 secs

     total energy              =    -462.58347161 Ry
     estimated scf accuracy    <       0.00032973 Ry

     iteration #  3     ecut=   124.00 Ry     beta= 0.70
     Davidson diagonalization with overlap
     ethr =  1.34E-08,  avg # of iterations =  3.8

     negative rho (up, down):  9.230E-04 0.000E+00

     total cpu time spent up to now is       74.5 secs

     total energy              =    -462.58349198 Ry
     estimated scf accuracy    <          3.5E-09 Ry

     iteration #  4     ecut=   124.00 Ry     beta= 0.70
     Davidson diagonalization with overlap
     ethr =  1.18E-11,  avg # of iterations =  4.1

     negative rho (up, down):  9.230E-04 0.000E+00

     total cpu time spent up to now is       76.1 secs

     total energy              =    -462.58349198 Ry
     estimated scf accuracy    <          2.1E-09 Ry

     iteration #  5     ecut=   124.00 Ry     beta= 0.70
     Davidson diagonalization with overlap
     ethr =  7.00E-12,  avg # of iterations =  2.1

     negative rho (up, down):  9.230E-04 0.000E+00

     total cpu time spent up to now is       77.4 secs

     total energy              =    -462.58349198 Ry
     estimated scf accuracy    <          2.6E-10 Ry

     iteration #  6     ecut=   124.00 Ry     beta= 0.70
     Davidson diagonalization with overlap
     ethr =  8.64E-13,  avg # of iterations =  1.9

     negative rho (up, down):  9.230E-04 0.000E+00

     total cpu time spent up to now is       78.6 secs

     End of self-consistent calculation

     Number of k-points >= 100: set verbosity='high' to print the bands.

     the Fermi energy is    15.9817 ev

!    total energy              =    -462.58349198 Ry
     estimated scf accuracy    <          1.1E-11 Ry
     smearing contrib. (-TS)   =      -0.00016254 Ry
     internal energy E=F+TS    =    -462.58332944 Ry

     The total energy is F=E-TS. E is the sum of the following terms:
     one-electron contribution =    -259.43241418 Ry
     hartree contribution      =     144.81203536 Ry
     xc contribution           =     -53.58736976 Ry
     ewald contribution        =    -294.37558086 Ry

     convergence has been achieved in   6 iterations

     negative rho (up, down):  9.230E-04 0.000E+00

     Forces acting on atoms (cartesian axes, Ry/au):

     atom    1 type  1   force =     0.00000000    0.00000000    0.00000000
     atom    2 type  2   force =     0.00000000    0.00000000    0.00000000

     Total force =     0.000000     Total SCF correction =     0.000000


     Computing stress (Cartesian axis) and pressure


     negative rho (up, down):  9.230E-04 0.000E+00
          total   stress  (Ry/bohr**3)                   (kbar)     P=        0.11
   0.00000072   0.00000000   0.00000000            0.11        0.00        0.00
   0.00000000   0.00000072   0.00000000            0.00        0.11        0.00
   0.00000000   0.00000000   0.00000072            0.00        0.00        0.11

     Energy error            =      2.7E-07 Ry
     Gradient error          =      0.0E+00 Ry/Bohr
     Cell gradient error     =      1.1E-01 kbar

     number of scf cycles    =   5
     number of bfgs steps    =   4

     enthalpy           old  =    -462.5834917144 Ry
     enthalpy           new  =    -462.5834919841 Ry

     CASE: enthalpy          _new < enthalpy          _old

     small trust_radius: resetting bfgs history

     new trust radius        =       0.0000488550 bohr
     new conv_thr            =            1.0E-10 Ry

     new unit-cell volume =    183.99727 a.u.^3 (    27.26558 Ang^3 )
     density =      6.48976 g/cm^3

CELL_PARAMETERS (alat=  5.58242261)
   1.018859775   0.000000000   0.000000000
   0.000000000   1.018859775   0.000000000
   0.000000000   0.000000000   1.018859775

ATOMIC_POSITIONS (crystal)
Ni               0.5000000000        0.5000000000        0.5000000000
Ti               0.0000000000        0.0000000000        0.0000000000



     Writing config-only to output data dir ./TiFe.save/ :
     XML data file     NEW-OLD atomic charge density approx. for the potential
     New effective cutoffs (rho, wfc): 1671.88  119.44

     Check: negative core charge=   -0.000005

     negative rho (up, down):  9.230E-04 0.000E+00

     total cpu time spent up to now is       79.9 secs

     per-process dynamical memory:   142.1 Mb

     Self-consistent Calculation

     iteration #  1     ecut=   124.00 Ry     beta= 0.70
     Davidson diagonalization with overlap
     ethr =  1.00E-06,  avg # of iterations =  2.0

     Threshold (ethr) on eigenvalues was too large:
     Diagonalizing with lowered threshold

     Davidson diagonalization with overlap
     ethr =  9.77E-11,  avg # of iterations =  1.0

     negative rho (up, down):  9.231E-04 0.000E+00

     total cpu time spent up to now is       82.3 secs

     total energy              =    -462.58349196 Ry
     estimated scf accuracy    <       0.00000003 Ry

     iteration #  2     ecut=   124.00 Ry     beta= 0.70
     Davidson diagonalization with overlap
     ethr =  1.01E-10,  avg # of iterations =  3.8

     negative rho (up, down):  9.230E-04 0.000E+00

     total cpu time spent up to now is       84.0 secs

     total energy              =    -462.58349183 Ry
     estimated scf accuracy    <       0.00000250 Ry

     iteration #  3     ecut=   124.00 Ry     beta= 0.70
     Davidson diagonalization with overlap
     ethr =  1.01E-10,  avg # of iterations =  3.8

     negative rho (up, down):  9.230E-04 0.000E+00

     total cpu time spent up to now is       85.6 secs

     End of self-consistent calculation

     Number of k-points >= 100: set verbosity='high' to print the bands.

     the Fermi energy is    15.9806 ev

!    total energy              =    -462.58349198 Ry
     estimated scf accuracy    <          3.4E-11 Ry
     smearing contrib. (-TS)   =      -0.00016259 Ry
     internal energy E=F+TS    =    -462.58332939 Ry

     The total energy is F=E-TS. E is the sum of the following terms:
     one-electron contribution =    -259.44097056 Ry
     hartree contribution      =     144.81521556 Ry
     xc contribution           =     -53.58729480 Ry
     ewald contribution        =    -294.37027960 Ry

     convergence has been achieved in   3 iterations

     negative rho (up, down):  9.230E-04 0.000E+00

     Forces acting on atoms (cartesian axes, Ry/au):

     atom    1 type  1   force =     0.00000000    0.00000000    0.00000000
     atom    2 type  2   force =     0.00000000    0.00000000    0.00000000

     Total force =     0.000000     Total SCF correction =     0.000000


     Computing stress (Cartesian axis) and pressure


     negative rho (up, down):  9.230E-04 0.000E+00
          total   stress  (Ry/bohr**3)                   (kbar)     P=        0.05
   0.00000032   0.00000000   0.00000000            0.05        0.00        0.00
   0.00000000   0.00000032   0.00000000            0.00        0.05        0.00
   0.00000000   0.00000000   0.00000032            0.00        0.00        0.05

     Energy error            =      9.4E-10 Ry
     Gradient error          =      0.0E+00 Ry/Bohr
     Cell gradient error     =      4.7E-02 kbar

     bfgs converged in   6 scf cycles and   5 bfgs steps
     (criteria: energy <  1.0E-04 Ry, force <  1.0E-03 Ry/Bohr, cell <  1.0E-01 kbar)

     End of BFGS Geometry Optimization

     Final enthalpy           =    -462.5834919832 Ry

     File ./TiFe.bfgs deleted, as requested
Begin final coordinates
     new unit-cell volume =    183.99727 a.u.^3 (    27.26558 Ang^3 )
     density =      6.48976 g/cm^3

CELL_PARAMETERS (alat=  5.58242261)
   1.018859775   0.000000000   0.000000000
   0.000000000   1.018859775   0.000000000
   0.000000000   0.000000000   1.018859775

ATOMIC_POSITIONS (crystal)
Ni               0.5000000000        0.5000000000        0.5000000000
Ti               0.0000000000        0.0000000000        0.0000000000
End final coordinates



     Writing config-only to output data dir ./TiFe.save/ :
     XML data file
     Final scf calculation at the relaxed structure.
     The G-vectors are recalculated for the final unit cell
     Results may differ from those at the preceding step.

     Parallelization info
     --------------------
     sticks:   dense  smooth     PW     G-vecs:    dense   smooth      PW
     Min         279      80     23                14063     2152     339
     Max         280      81     24                14068     2155     342
     Sum        4477    1281    373               225055    34457    5449

     Using Slab Decomposition



     bravais-lattice index     =            0
     lattice parameter (alat)  =       5.5824  a.u.
     unit-cell volume          =     183.9973 (a.u.)^3
     number of atoms/cell      =            2
     number of atomic types    =            2
     number of electrons       =        30.00
     number of Kohn-Sham states=           19
     kinetic-energy cutoff     =     124.0000  Ry
     charge density cutoff     =    1736.0000  Ry
     scf convergence threshold =      1.0E-10
     mixing beta               =       0.7000
     number of iterations used =            8  plain     mixing
     press convergence thresh. =      1.0E-01
     Exchange-correlation= PBE
                           (   1   4   3   4   0   0   0)

     celldm(1)=   5.582423  celldm(2)=   0.000000  celldm(3)=   0.000000
     celldm(4)=   0.000000  celldm(5)=   0.000000  celldm(6)=   0.000000

     crystal axes: (cart. coord. in units of alat)
               a(1) = (   1.018860   0.000000   0.000000 )  
               a(2) = (   0.000000   1.018860   0.000000 )  
               a(3) = (   0.000000   0.000000   1.018860 )  

     reciprocal axes: (cart. coord. in units 2 pi/alat)
               b(1) = (  0.981489  0.000000  0.000000 )  
               b(2) = (  0.000000  0.981489  0.000000 )  
               b(3) = (  0.000000  0.000000  0.981489 )  


     PseudoPot. # 1 for Ni read from file:
     ../../pseudos/ni_pbe_v1.4.uspp.F.UPF
     MD5 check sum: 1ee80287db30b12d2bc1f57a5b5d6409
     Pseudo is Ultrasoft + core correction, Zval = 18.0
     Generated by new atomic code, or converted to UPF format
     Using radial grid of  865 points,  6 beta functions with: 
                l(1) =   0
                l(2) =   0
                l(3) =   1
                l(4) =   1
                l(5) =   2
                l(6) =   2
     Q(r) pseudized with 10 coefficients,  rinner =    0.980   0.980   0.980
                                                       0.980   0.980

     PseudoPot. # 2 for Ti read from file:
     ../../pseudos/ti_pbe_v1.4.uspp.F.UPF
     MD5 check sum: 88a00a6731bd790ddea75d31a80cb452
     Pseudo is Ultrasoft + core correction, Zval = 12.0
     Generated by new atomic code, or converted to UPF format
     Using radial grid of  851 points,  6 beta functions with: 
                l(1) =   0
                l(2) =   0
                l(3) =   1
                l(4) =   1
                l(5) =   2
                l(6) =   2
     Q(r) pseudized with  6 coefficients,  rinner =    1.000   1.000   1.000
                                                       1.000   1.000

     atomic species   valence    mass     pseudopotential
     Ni               18.00    58.69300     Ni( 1.00)
     Ti               12.00    47.86700     Ti( 1.00)

     48 Sym. Ops., with inversion, found



   Cartesian axes

     site n.     atom                  positions (alat units)
         1        Ni     tau(   1) = (   0.5094299   0.5094299   0.5094299  )
         2        Ti     tau(   2) = (   0.0000000   0.0000000   0.0000000  )

     number of k points=   120  Marzari-Vanderbilt smearing, width (Ry)=  0.0050

     Number of k-points >= 100: set verbosity='high' to print them.

     Dense  grid:   225055 G-vectors     FFT dimensions: (  75,  75,  75)

     Smooth grid:    34457 G-vectors     FFT dimensions: (  45,  45,  45)

     Estimated max dynamical RAM per process >      74.38 MB

     Estimated total dynamical RAM >       1.16 GB

     Check: negative core charge=   -0.000003

     Initial potential from superposition of free atoms

     starting charge      27.0000, renormalised to      30.0000

     negative rho (up, down):  1.540E-03 0.000E+00
     Starting wfcs are   23 randomized atomic wfcs

     total cpu time spent up to now is       87.6 secs

     per-process dynamical memory:   138.8 Mb

     Self-consistent Calculation

     iteration #  1     ecut=   124.00 Ry     beta= 0.70
     Davidson diagonalization with overlap
     c_bands:  1 eigenvalues not converged
     c_bands:  1 eigenvalues not converged
     c_bands:  1 eigenvalues not converged
     c_bands:  1 eigenvalues not converged
     c_bands:  1 eigenvalues not converged
     c_bands:  1 eigenvalues not converged
     c_bands:  1 eigenvalues not converged
     c_bands:  1 eigenvalues not converged
     c_bands:  2 eigenvalues not converged
     c_bands:  1 eigenvalues not converged
     c_bands:  1 eigenvalues not converged
     c_bands:  1 eigenvalues not converged
     c_bands:  1 eigenvalues not converged
     c_bands:  1 eigenvalues not converged
     c_bands:  1 eigenvalues not converged
     c_bands:  1 eigenvalues not converged
     c_bands:  1 eigenvalues not converged
     c_bands:  1 eigenvalues not converged
     c_bands:  1 eigenvalues not converged
     c_bands:  1 eigenvalues not converged
     c_bands:  1 eigenvalues not converged
     c_bands:  1 eigenvalues not converged
     c_bands:  1 eigenvalues not converged
     c_bands:  2 eigenvalues not converged
     c_bands:  1 eigenvalues not converged
     c_bands:  1 eigenvalues not converged
     c_bands:  1 eigenvalues not converged
     c_bands:  1 eigenvalues not converged
     c_bands:  1 eigenvalues not converged
     c_bands:  1 eigenvalues not converged
     c_bands:  1 eigenvalues not converged
     c_bands:  1 eigenvalues not converged
     c_bands:  1 eigenvalues not converged
     c_bands:  1 eigenvalues not converged
     c_bands:  1 eigenvalues not converged
     c_bands:  2 eigenvalues not converged
     c_bands:  1 eigenvalues not converged
     c_bands:  1 eigenvalues not converged
     c_bands:  1 eigenvalues not converged
     c_bands:  1 eigenvalues not converged
     c_bands:  2 eigenvalues not converged
     c_bands:  1 eigenvalues not converged
     c_bands:  2 eigenvalues not converged
     c_bands:  1 eigenvalues not converged
     c_bands:  2 eigenvalues not converged
     c_bands:  1 eigenvalues not converged
     c_bands:  1 eigenvalues not converged
     c_bands:  1 eigenvalues not converged
     c_bands:  1 eigenvalues not converged
     ethr =  1.00E-06,  avg # of iterations = 18.2

     total cpu time spent up to now is       93.1 secs

     total energy              =    -417.78193724 Ry
     estimated scf accuracy    <      66.08820939 Ry

     iteration #  2     ecut=   124.00 Ry     beta= 0.70
     Davidson diagonalization with overlap
     ethr =  1.00E-02,  avg # of iterations =  5.7

     negative rho (up, down):  3.870E-06 0.000E+00

     total cpu time spent up to now is       95.8 secs

     total energy              =    -449.40649572 Ry
     estimated scf accuracy    <     163.44707214 Ry

     iteration #  3     ecut=   124.00 Ry     beta= 0.70
     Davidson diagonalization with overlap
     ethr =  1.00E-02,  avg # of iterations =  5.0

     negative rho (up, down):  2.844E-04 0.000E+00

     total cpu time spent up to now is       98.1 secs

     total energy              =    -463.12431778 Ry
     estimated scf accuracy    <      19.73428271 Ry

     iteration #  4     ecut=   124.00 Ry     beta= 0.70
     Davidson diagonalization with overlap
     ethr =  1.00E-02,  avg # of iterations =  2.1

     negative rho (up, down):  5.509E-04 0.000E+00

     total cpu time spent up to now is       99.8 secs

     total energy              =    -463.17462215 Ry
     estimated scf accuracy    <       6.26414895 Ry

     iteration #  5     ecut=   124.00 Ry     beta= 0.70
     Davidson diagonalization with overlap
     ethr =  1.00E-02,  avg # of iterations =  1.1

     negative rho (up, down):  6.803E-04 0.000E+00

     total cpu time spent up to now is      101.2 secs

     total energy              =    -463.05068762 Ry
     estimated scf accuracy    <       3.41422951 Ry

     iteration #  6     ecut=   124.00 Ry     beta= 0.70
     Davidson diagonalization with overlap
     ethr =  1.00E-02,  avg # of iterations =  1.3

     negative rho (up, down):  1.194E-03 0.000E+00

     total cpu time spent up to now is      102.5 secs

     total energy              =    -462.07052785 Ry
     estimated scf accuracy    <       2.81606558 Ry

     iteration #  7     ecut=   124.00 Ry     beta= 0.70
     Davidson diagonalization with overlap
     ethr =  9.39E-03,  avg # of iterations =  2.5

     negative rho (up, down):  1.139E-03 0.000E+00

     total cpu time spent up to now is      104.1 secs

     total energy              =    -462.65082662 Ry
     estimated scf accuracy    <       4.34166624 Ry

     iteration #  8     ecut=   124.00 Ry     beta= 0.70
     Davidson diagonalization with overlap
     ethr =  9.39E-03,  avg # of iterations =  1.0

     negative rho (up, down):  1.035E-03 0.000E+00

     total cpu time spent up to now is      105.5 secs

     total energy              =    -462.51137136 Ry
     estimated scf accuracy    <       2.05281901 Ry

     iteration #  9     ecut=   124.00 Ry     beta= 0.70
     Davidson diagonalization with overlap
     ethr =  6.84E-03,  avg # of iterations =  1.1

     negative rho (up, down):  1.111E-03 0.000E+00

     total cpu time spent up to now is      106.9 secs

     total energy              =    -462.60695331 Ry
     estimated scf accuracy    <       0.06173944 Ry

     iteration # 10     ecut=   124.00 Ry     beta= 0.70
     Davidson diagonalization with overlap
     ethr =  2.06E-04,  avg # of iterations =  4.2

     negative rho (up, down):  1.179E-03 0.000E+00

     total cpu time spent up to now is      108.6 secs

     total energy              =    -462.71711557 Ry
     estimated scf accuracy    <       1.61521090 Ry

     iteration # 11     ecut=   124.00 Ry     beta= 0.70
     Davidson diagonalization with overlap
     ethr =  2.06E-04,  avg # of iterations =  1.8

     negative rho (up, down):  1.108E-03 0.000E+00

     total cpu time spent up to now is      110.1 secs

     total energy              =    -462.61486773 Ry
     estimated scf accuracy    <       4.24445166 Ry

     iteration # 12     ecut=   124.00 Ry     beta= 0.70
     Davidson diagonalization with overlap
     ethr =  2.06E-04,  avg # of iterations =  1.3

     negative rho (up, down):  1.047E-03 0.000E+00

     total cpu time spent up to now is      111.5 secs

     total energy              =    -462.56805848 Ry
     estimated scf accuracy    <       1.28206443 Ry

     iteration # 13     ecut=   124.00 Ry     beta= 0.70
     Davidson diagonalization with overlap
     ethr =  2.06E-04,  avg # of iterations =  2.0

     negative rho (up, down):  1.010E-03 0.000E+00

     total cpu time spent up to now is      113.0 secs

     total energy              =    -462.59542009 Ry
     estimated scf accuracy    <       0.17382659 Ry

     iteration # 14     ecut=   124.00 Ry     beta= 0.70
     Davidson diagonalization with overlap
     ethr =  2.06E-04,  avg # of iterations =  1.0

     negative rho (up, down):  1.019E-03 0.000E+00

     total cpu time spent up to now is      114.3 secs

     total energy              =    -462.59634069 Ry
     estimated scf accuracy    <       0.19854050 Ry

     iteration # 15     ecut=   124.00 Ry     beta= 0.70
     Davidson diagonalization with overlap
     ethr =  2.06E-04,  avg # of iterations =  1.0

     negative rho (up, down):  9.805E-04 0.000E+00

     total cpu time spent up to now is      115.7 secs

     total energy              =    -462.58309281 Ry
     estimated scf accuracy    <       0.21089950 Ry

     iteration # 16     ecut=   124.00 Ry     beta= 0.70
     Davidson diagonalization with overlap
     ethr =  2.06E-04,  avg # of iterations =  1.0

     negative rho (up, down):  9.969E-04 0.000E+00

     total cpu time spent up to now is      117.1 secs

     total energy              =    -462.58710569 Ry
     estimated scf accuracy    <       0.04876327 Ry

     iteration # 17     ecut=   124.00 Ry     beta= 0.70
     Davidson diagonalization with overlap
     ethr =  1.63E-04,  avg # of iterations =  1.0

     negative rho (up, down):  9.879E-04 0.000E+00

     total cpu time spent up to now is      118.4 secs

     total energy              =    -462.58596025 Ry
     estimated scf accuracy    <       0.05951221 Ry

     iteration # 18     ecut=   124.00 Ry     beta= 0.70
     Davidson diagonalization with overlap
     ethr =  1.63E-04,  avg # of iterations =  1.0

     negative rho (up, down):  9.794E-04 0.000E+00

     total cpu time spent up to now is      119.8 secs

     total energy              =    -462.58494143 Ry
     estimated scf accuracy    <       0.04052129 Ry

     iteration # 19     ecut=   124.00 Ry     beta= 0.70
     Davidson diagonalization with overlap
     ethr =  1.35E-04,  avg # of iterations =  1.0

     negative rho (up, down):  9.793E-04 0.000E+00

     total cpu time spent up to now is      121.1 secs

     total energy              =    -462.58619880 Ry
     estimated scf accuracy    <       0.02526914 Ry

     iteration # 20     ecut=   124.00 Ry     beta= 0.70
     Davidson diagonalization with overlap
     ethr =  8.42E-05,  avg # of iterations =  1.0

     negative rho (up, down):  9.224E-04 0.000E+00

     total cpu time spent up to now is      122.5 secs

     total energy              =    -462.57861690 Ry
     estimated scf accuracy    <       0.04263432 Ry

     iteration # 21     ecut=   124.00 Ry     beta= 0.70
     Davidson diagonalization with overlap
     ethr =  8.42E-05,  avg # of iterations =  1.7

     negative rho (up, down):  9.214E-04 0.000E+00

     total cpu time spent up to now is      123.9 secs

     total energy              =    -462.58310406 Ry
     estimated scf accuracy    <       0.00575774 Ry

     iteration # 22     ecut=   124.00 Ry     beta= 0.70
     Davidson diagonalization with overlap
     ethr =  1.92E-05,  avg # of iterations =  1.1

     negative rho (up, down):  9.152E-04 0.000E+00

     total cpu time spent up to now is      125.3 secs

     total energy              =    -462.58354220 Ry
     estimated scf accuracy    <       0.00000361 Ry

     iteration # 23     ecut=   124.00 Ry     beta= 0.70
     Davidson diagonalization with overlap
     ethr =  1.20E-08,  avg # of iterations =  4.9

     negative rho (up, down):  9.228E-04 0.000E+00

     total cpu time spent up to now is      127.5 secs

     total energy              =    -462.58352191 Ry
     estimated scf accuracy    <       0.00007987 Ry

     iteration # 24     ecut=   124.00 Ry     beta= 0.70
     Davidson diagonalization with overlap
     ethr =  1.20E-08,  avg # of iterations =  4.7

     negative rho (up, down):  9.209E-04 0.000E+00

     total cpu time spent up to now is      129.6 secs

     total energy              =    -462.58353755 Ry
     estimated scf accuracy    <       0.00004702 Ry

     iteration # 25     ecut=   124.00 Ry     beta= 0.70
     Davidson diagonalization with overlap
     ethr =  1.20E-08,  avg # of iterations =  3.6

     negative rho (up, down):  9.213E-04 0.000E+00

     total cpu time spent up to now is      131.6 secs

     total energy              =    -462.58354166 Ry
     estimated scf accuracy    <       0.00000187 Ry

     iteration # 26     ecut=   124.00 Ry     beta= 0.70
     Davidson diagonalization with overlap
     ethr =  6.23E-09,  avg # of iterations =  1.0

     negative rho (up, down):  9.238E-04 0.000E+00

     total cpu time spent up to now is      132.9 secs

     total energy              =    -462.58354130 Ry
     estimated scf accuracy    <       0.00000160 Ry

     iteration # 27     ecut=   124.00 Ry     beta= 0.70
     Davidson diagonalization with overlap
     ethr =  5.32E-09,  avg # of iterations =  2.0

     negative rho (up, down):  9.235E-04 0.000E+00

     total cpu time spent up to now is      134.6 secs

     total energy              =    -462.58354136 Ry
     estimated scf accuracy    <       0.00000071 Ry

     iteration # 28     ecut=   124.00 Ry     beta= 0.70
     Davidson diagonalization with overlap
     ethr =  2.35E-09,  avg # of iterations =  1.0

     negative rho (up, down):  9.235E-04 0.000E+00

     total cpu time spent up to now is      135.9 secs

     total energy              =    -462.58354135 Ry
     estimated scf accuracy    <       0.00000016 Ry

     iteration # 29     ecut=   124.00 Ry     beta= 0.70
     Davidson diagonalization with overlap
     ethr =  5.43E-10,  avg # of iterations =  1.8

     negative rho (up, down):  9.235E-04 0.000E+00

     total cpu time spent up to now is      137.4 secs

     total energy              =    -462.58354137 Ry
     estimated scf accuracy    <          4.2E-09 Ry

     iteration # 30     ecut=   124.00 Ry     beta= 0.70
     Davidson diagonalization with overlap
     ethr =  1.42E-11,  avg # of iterations =  2.5

     negative rho (up, down):  9.235E-04 0.000E+00

     total cpu time spent up to now is      139.0 secs

     total energy              =    -462.58354137 Ry
     estimated scf accuracy    <          3.2E-10 Ry

     iteration # 31     ecut=   124.00 Ry     beta= 0.70
     Davidson diagonalization with overlap
     ethr =  1.05E-12,  avg # of iterations =  3.5

     negative rho (up, down):  9.235E-04 0.000E+00

     total cpu time spent up to now is      140.8 secs

     total energy              =    -462.58354137 Ry
     estimated scf accuracy    <          5.0E-10 Ry

     iteration # 32     ecut=   124.00 Ry     beta= 0.70
     Davidson diagonalization with overlap
     ethr =  1.05E-12,  avg # of iterations =  3.1

     negative rho (up, down):  9.235E-04 0.000E+00

     total cpu time spent up to now is      142.5 secs

     End of self-consistent calculation

     Number of k-points >= 100: set verbosity='high' to print the bands.

     the Fermi energy is    15.9806 ev

!    total energy              =    -462.58354137 Ry
     estimated scf accuracy    <          1.0E-11 Ry
     smearing contrib. (-TS)   =      -0.00016258 Ry
     internal energy E=F+TS    =    -462.58337879 Ry

     The total energy is F=E-TS. E is the sum of the following terms:
     one-electron contribution =    -259.44093822 Ry
     hartree contribution      =     144.81513719 Ry
     xc contribution           =     -53.58729816 Ry
     ewald contribution        =    -294.37027960 Ry

     convergence has been achieved in  32 iterations

     negative rho (up, down):  9.235E-04 0.000E+00

     Forces acting on atoms (cartesian axes, Ry/au):

     atom    1 type  1   force =     0.00000000    0.00000000    0.00000000
     atom    2 type  2   force =     0.00000000    0.00000000    0.00000000

     Total force =     0.000000     Total SCF correction =     0.000000


     Computing stress (Cartesian axis) and pressure


     negative rho (up, down):  9.235E-04 0.000E+00
          total   stress  (Ry/bohr**3)                   (kbar)     P=        0.05
   0.00000034   0.00000000   0.00000000            0.05        0.00        0.00
   0.00000000   0.00000034   0.00000000            0.00        0.05        0.00
   0.00000000   0.00000000   0.00000034            0.00        0.00        0.05


     Writing all to output data dir ./TiFe.save/ :
     XML data file
     init_run     :      2.11s CPU      2.20s WALL (       2 calls)
     electrons    :    125.57s CPU    132.78s WALL (       7 calls)
     update_pot   :      0.12s CPU      0.14s WALL (       5 calls)
     forces       :      1.26s CPU      1.42s WALL (       7 calls)
     stress       :      6.14s CPU      6.41s WALL (       7 calls)

     Called by init_run:
     wfcinit      :      1.01s CPU      1.03s WALL (       2 calls)
     potinit      :      0.41s CPU      0.42s WALL (       2 calls)
     hinit0       :      0.26s CPU      0.27s WALL (       2 calls)

     Called by electrons:
     c_bands      :     95.93s CPU     98.77s WALL (      88 calls)
     sum_band     :     22.06s CPU     24.68s WALL (      88 calls)
     v_of_rho     :      1.19s CPU      1.33s WALL (      93 calls)
     newd         :      6.70s CPU      8.41s WALL (      93 calls)
     mix_rho      :      0.14s CPU      0.16s WALL (      88 calls)

     Called by c_bands:
     init_us_2    :      1.87s CPU      1.95s WALL (   23040 calls)
     cegterg      :     92.57s CPU     95.24s WALL (   10560 calls)

     Called by *egterg:
     cdiaghg      :     13.59s CPU     13.92s WALL (   37916 calls)
     h_psi        :     68.78s CPU     70.89s WALL (   38996 calls)
     s_psi        :      1.73s CPU      1.78s WALL (   38996 calls)
     g_psi        :      0.30s CPU      0.31s WALL (   28196 calls)

     Called by h_psi:
     h_psi:calbec :      2.67s CPU      2.76s WALL (   38996 calls)
     vloc_psi     :     64.02s CPU     65.97s WALL (   38996 calls)
     add_vuspsi   :      1.81s CPU      1.87s WALL (   38996 calls)

     General routines
     calbec       :      4.39s CPU      4.54s WALL (   63836 calls)
     fft          :      0.91s CPU      1.07s WALL (    1377 calls)
     ffts         :      0.40s CPU      0.40s WALL (     181 calls)
     fftw         :     59.32s CPU     61.03s WALL ( 1246082 calls)
     interpolate  :      0.45s CPU      0.46s WALL (      93 calls)

     Parallel routines

     PWSCF        :    135.82s CPU    143.70s WALL


   This run was terminated on:  22:53: 0  10Nov2025            

=------------------------------------------------------------------------------=
   JOB DONE.
=------------------------------------------------------------------------------=
