
     Program PWSCF v.7.4 starts on 30Nov2025 at  2:48: 7 

     This program is part of the open-source Quantum ESPRESSO suite
     for quantum simulation of materials; please cite
         "P. Giannozzi et al., J. Phys.:Condens. Matter 21 395502 (2009);
         "P. Giannozzi et al., J. Phys.:Condens. Matter 29 465901 (2017);
         "P. Giannozzi et al., J. Chem. Phys. 152 154105 (2020);
          URL http://www.quantum-espresso.org", 
     in publications or presentations arising from this work. More details at
     http://www.quantum-espresso.org/quote

     Parallel version (MPI & OpenMP), running on      16 processor cores
     Number of MPI processes:                16
     Threads/MPI process:                     1

     MPI processes distributed on     1 nodes
     231492 MiB available memory on the printing compute node when the environment starts

     Reading input from TiFe_octa12_2_2.in

     Current dimensions of program PWSCF are:
     Max number of different atomic species (ntypx) = 10
     Max number of k-points (npk) =  40000
     Max angular momentum in pseudopotentials (lmaxx) =  4
     file Fe.pbe-spn-kjpaw_psl.0.2.1.UPF: wavefunction(s)  3D renormalized

     IMPORTANT: XC functional enforced from input :
     Exchange-correlation= PBE
                           (   1   4   3   4   0   0   0)
     Any further DFT definition will be discarded
     Please, verify this is what you really want

     Message from routine setup:
     using ibrav=0 with symmetry is DISCOURAGED, use correct ibrav instead

     R & G space division:  proc/nbgrp/npool/nimage =      16
     Subspace diagonalization in iterative solution of the eigenvalue problem:
     a serial algorithm will be used


     Parallelization info
     --------------------
     sticks:   dense  smooth     PW     G-vecs:    dense   smooth      PW
     Min         269      76     22                13288     2024     320
     Max         271      77     23                13289     2027     323
     Sum        4309    1225    357               212623    32423    5137

     Using Slab Decomposition



     bravais-lattice index     =            0
     lattice parameter (alat)  =       5.5824  a.u.
     unit-cell volume          =     173.9675 (a.u.)^3
     number of atoms/cell      =            4
     number of atomic types    =            3
     number of electrons       =        30.00
     number of Kohn-Sham states=           19
     kinetic-energy cutoff     =     124.0000  Ry
     charge density cutoff     =    1736.0000  Ry
     scf convergence threshold =      1.0E-08
     mixing beta               =       0.7000
     number of iterations used =            8  plain     mixing
     energy convergence thresh.=      1.0E-04
     force convergence thresh. =      1.0E-03
     press convergence thresh. =      1.0E-01
     Exchange-correlation= PBE
                           (   1   4   3   4   0   0   0)
     nstep                     =           50


     celldm(1)=   5.582423  celldm(2)=   0.000000  celldm(3)=   0.000000
     celldm(4)=   0.000000  celldm(5)=   0.000000  celldm(6)=   0.000000

     crystal axes: (cart. coord. in units of alat)
               a(1) = (   1.000000   0.000000   0.000000 )  
               a(2) = (   0.000000   1.000000   0.000000 )  
               a(3) = (   0.000000   0.000000   1.000000 )  

     reciprocal axes: (cart. coord. in units 2 pi/alat)
               b(1) = (  1.000000  0.000000  0.000000 )  
               b(2) = (  0.000000  1.000000  0.000000 )  
               b(3) = (  0.000000  0.000000  1.000000 )  


     PseudoPot. # 1 for Fe read from file:
     ../../../../pseudos/Fe.pbe-spn-kjpaw_psl.0.2.1.UPF
     MD5 check sum: e86618425769142926afa95317d90200
     Pseudo is Projector augmented-wave + core cor, Zval = 16.0
     Generated using "atomic" code by A. Dal Corso  v.5.0.99 svn rev. 10869
     Shape of augmentation charge: PSQ
     Using radial grid of 1191 points,  6 beta functions with: 
                l(1) =   0
                l(2) =   0
                l(3) =   1
                l(4) =   1
                l(5) =   2
                l(6) =   2
     Q(r) pseudized with 0 coefficients 


     PseudoPot. # 2 for Ti read from file:
     ../../../../pseudos/ti_pbe_v1.4.uspp.F.UPF
     MD5 check sum: 88a00a6731bd790ddea75d31a80cb452
     Pseudo is Ultrasoft + core correction, Zval = 12.0
     Generated by new atomic code, or converted to UPF format
     Using radial grid of  851 points,  6 beta functions with: 
                l(1) =   0
                l(2) =   0
                l(3) =   1
                l(4) =   1
                l(5) =   2
                l(6) =   2
     Q(r) pseudized with  6 coefficients,  rinner =    1.000   1.000   1.000
                                                       1.000   1.000

     PseudoPot. # 3 for H  read from file:
     ../../../../pseudos/H.pbe-rrkjus_psl.1.0.0.UPF
     MD5 check sum: f52b6d4d1c606e5624b1dc7b2218f220
     Pseudo is Ultrasoft, Zval =  1.0
     Generated using "atomic" code by A. Dal Corso  v.5.1
     Using radial grid of  929 points,  2 beta functions with: 
                l(1) =   0
                l(2) =   0
     Q(r) pseudized with 0 coefficients 


     atomic species   valence    mass     pseudopotential
     Fe               16.00    55.84500     Fe( 1.00)
     Ti               12.00    47.86700     Ti( 1.00)
     H                 1.00     1.00784     H ( 1.00)

     16 Sym. Ops., with inversion, found



   Cartesian axes

     site n.     atom                  positions (alat units)
         1        Fe     tau(   1) = (   0.5000000   0.5000000   0.5000000  )
         2        Ti     tau(   2) = (   0.0000000   0.0000000   0.0000000  )
         3        H      tau(   3) = (   0.5000000   0.5000000   0.0000000  )
         4        H      tau(   4) = (   0.0000000   0.0000000   0.5000000  )

     number of k points=   288  Marzari-Vanderbilt smearing, width (Ry)=  0.0050

     Number of k-points >= 100: set verbosity='high' to print them.

     Dense  grid:   212623 G-vectors     FFT dimensions: (  75,  75,  75)

     Smooth grid:    32423 G-vectors     FFT dimensions: (  40,  40,  40)

     Estimated max dynamical RAM per process >      90.34 MB

     Estimated total dynamical RAM >       1.41 GB

     Check: negative core charge=   -0.000001

     Initial potential from superposition of free atoms

     starting charge      28.9995, renormalised to      30.0000

     negative rho (up, down):  1.300E-03 0.000E+00
     Starting wfcs are   25 randomized atomic wfcs
     Checking if some PAW data can be deallocated... 

     total cpu time spent up to now is        2.4 secs

     per-process dynamical memory:   160.1 Mb

     Self-consistent Calculation

     iteration #  1     ecut=   124.00 Ry     beta= 0.70
     Davidson diagonalization with overlap
     ethr =  1.00E-02,  avg # of iterations =  2.2

     negative rho (up, down):  6.306E-05 0.000E+00

     total cpu time spent up to now is        5.4 secs

     total energy              =    -437.84358029 Ry
     estimated scf accuracy    <      16.40624870 Ry

     iteration #  2     ecut=   124.00 Ry     beta= 0.70
     Davidson diagonalization with overlap
     ethr =  1.00E-02,  avg # of iterations =  6.3

     negative rho (up, down):  1.904E-05 0.000E+00

     total cpu time spent up to now is       10.8 secs

     total energy              =    -450.01646824 Ry
     estimated scf accuracy    <      65.28417459 Ry

     iteration #  3     ecut=   124.00 Ry     beta= 0.70
     Davidson diagonalization with overlap
     ethr =  1.00E-02,  avg # of iterations =  2.9

     negative rho (up, down):  1.939E-04 0.000E+00

     total cpu time spent up to now is       14.4 secs

     total energy              =    -450.63230032 Ry
     estimated scf accuracy    <      15.22533361 Ry

     iteration #  4     ecut=   124.00 Ry     beta= 0.70
     Davidson diagonalization with overlap
     ethr =  1.00E-02,  avg # of iterations =  2.3

     negative rho (up, down):  2.580E-04 0.000E+00

     total cpu time spent up to now is       17.4 secs

     total energy              =    -451.15565156 Ry
     estimated scf accuracy    <       3.85454550 Ry

     iteration #  5     ecut=   124.00 Ry     beta= 0.70
     Davidson diagonalization with overlap
     ethr =  1.00E-02,  avg # of iterations =  1.1

     negative rho (up, down):  8.815E-04 0.000E+00

     total cpu time spent up to now is       19.8 secs

     total energy              =    -450.47391073 Ry
     estimated scf accuracy    <       3.62461241 Ry

     iteration #  6     ecut=   124.00 Ry     beta= 0.70
     Davidson diagonalization with overlap
     ethr =  1.00E-02,  avg # of iterations =  2.4

     negative rho (up, down):  9.551E-04 0.000E+00

     total cpu time spent up to now is       22.5 secs

     total energy              =    -450.69409801 Ry
     estimated scf accuracy    <       0.10288346 Ry

     iteration #  7     ecut=   124.00 Ry     beta= 0.70
     Davidson diagonalization with overlap
     ethr =  3.43E-04,  avg # of iterations =  5.2

     negative rho (up, down):  6.529E-04 0.000E+00

     total cpu time spent up to now is       26.7 secs

     total energy              =    -450.65464525 Ry
     estimated scf accuracy    <       0.33750101 Ry

     iteration #  8     ecut=   124.00 Ry     beta= 0.70
     Davidson diagonalization with overlap
     ethr =  3.43E-04,  avg # of iterations =  3.8

     negative rho (up, down):  7.863E-04 0.000E+00

     total cpu time spent up to now is       30.2 secs

     total energy              =    -450.73363191 Ry
     estimated scf accuracy    <       0.59830977 Ry

     iteration #  9     ecut=   124.00 Ry     beta= 0.70
     Davidson diagonalization with overlap
     ethr =  3.43E-04,  avg # of iterations =  1.5

     negative rho (up, down):  7.932E-04 0.000E+00

     total cpu time spent up to now is       32.8 secs

     total energy              =    -450.74712764 Ry
     estimated scf accuracy    <       0.13899785 Ry

     iteration # 10     ecut=   124.00 Ry     beta= 0.70
     Davidson diagonalization with overlap
     ethr =  3.43E-04,  avg # of iterations =  1.0

     negative rho (up, down):  8.430E-04 0.000E+00

     total cpu time spent up to now is       35.3 secs

     total energy              =    -450.73479645 Ry
     estimated scf accuracy    <       0.15695058 Ry

     iteration # 11     ecut=   124.00 Ry     beta= 0.70
     Davidson diagonalization with overlap
     ethr =  3.43E-04,  avg # of iterations =  1.1

     negative rho (up, down):  8.484E-04 0.000E+00

     total cpu time spent up to now is       37.7 secs

     total energy              =    -450.73826203 Ry
     estimated scf accuracy    <       0.03206857 Ry

     iteration # 12     ecut=   124.00 Ry     beta= 0.70
     Davidson diagonalization with overlap
     ethr =  1.07E-04,  avg # of iterations =  1.0

     negative rho (up, down):  8.906E-04 0.000E+00

     total cpu time spent up to now is       40.3 secs

     total energy              =    -450.73370245 Ry
     estimated scf accuracy    <       0.03692907 Ry

     iteration # 13     ecut=   124.00 Ry     beta= 0.70
     Davidson diagonalization with overlap
     ethr =  1.07E-04,  avg # of iterations =  1.3

     negative rho (up, down):  8.892E-04 0.000E+00

     total cpu time spent up to now is       42.7 secs

     total energy              =    -450.73606263 Ry
     estimated scf accuracy    <       0.00004101 Ry

     iteration # 14     ecut=   124.00 Ry     beta= 0.70
     Davidson diagonalization with overlap
     ethr =  1.37E-07,  avg # of iterations =  8.2

     negative rho (up, down):  8.895E-04 0.000E+00

     total cpu time spent up to now is       49.3 secs

     total energy              =    -450.73634752 Ry
     estimated scf accuracy    <       0.00005071 Ry

     iteration # 15     ecut=   124.00 Ry     beta= 0.70
     Davidson diagonalization with overlap
     ethr =  1.37E-07,  avg # of iterations =  1.0

     negative rho (up, down):  8.864E-04 0.000E+00

     total cpu time spent up to now is       51.7 secs

     total energy              =    -450.73633174 Ry
     estimated scf accuracy    <       0.00006592 Ry

     iteration # 16     ecut=   124.00 Ry     beta= 0.70
     Davidson diagonalization with overlap
     ethr =  1.37E-07,  avg # of iterations =  2.1

     negative rho (up, down):  8.861E-04 0.000E+00

     total cpu time spent up to now is       54.6 secs

     total energy              =    -450.73633886 Ry
     estimated scf accuracy    <       0.00000160 Ry

     iteration # 17     ecut=   124.00 Ry     beta= 0.70
     Davidson diagonalization with overlap
     ethr =  5.35E-09,  avg # of iterations =  3.8

     negative rho (up, down):  8.868E-04 0.000E+00

     total cpu time spent up to now is       57.9 secs

     total energy              =    -450.73633856 Ry
     estimated scf accuracy    <       0.00000323 Ry

     iteration # 18     ecut=   124.00 Ry     beta= 0.70
     Davidson diagonalization with overlap
     ethr =  5.35E-09,  avg # of iterations =  2.1

     negative rho (up, down):  8.866E-04 0.000E+00

     total cpu time spent up to now is       60.6 secs

     total energy              =    -450.73633883 Ry
     estimated scf accuracy    <       0.00000002 Ry

     iteration # 19     ecut=   124.00 Ry     beta= 0.70
     Davidson diagonalization with overlap
     ethr =  8.08E-11,  avg # of iterations =  5.0

     negative rho (up, down):  8.864E-04 0.000E+00

     total cpu time spent up to now is       64.8 secs

     total energy              =    -450.73633886 Ry
     estimated scf accuracy    <       0.00000008 Ry

     iteration # 20     ecut=   124.00 Ry     beta= 0.70
     Davidson diagonalization with overlap
     ethr =  8.08E-11,  avg # of iterations =  3.2

     negative rho (up, down):  8.864E-04 0.000E+00

     total cpu time spent up to now is       68.3 secs

     total energy              =    -450.73633885 Ry
     estimated scf accuracy    <       0.00000029 Ry

     iteration # 21     ecut=   124.00 Ry     beta= 0.70
     Davidson diagonalization with overlap
     ethr =  8.08E-11,  avg # of iterations =  1.7

     negative rho (up, down):  8.864E-04 0.000E+00

     total cpu time spent up to now is       70.9 secs

     total energy              =    -450.73633885 Ry
     estimated scf accuracy    <       0.00000012 Ry

     iteration # 22     ecut=   124.00 Ry     beta= 0.70
     Davidson diagonalization with overlap
     ethr =  8.08E-11,  avg # of iterations =  1.9

     negative rho (up, down):  8.864E-04 0.000E+00

     total cpu time spent up to now is       73.5 secs

     total energy              =    -450.73633884 Ry
     estimated scf accuracy    <       0.00000004 Ry

     iteration # 23     ecut=   124.00 Ry     beta= 0.70
     Davidson diagonalization with overlap
     ethr =  8.08E-11,  avg # of iterations =  2.4

     negative rho (up, down):  8.864E-04 0.000E+00

     total cpu time spent up to now is       76.2 secs

     End of self-consistent calculation

     Number of k-points >= 100: set verbosity='high' to print the bands.

     the Fermi energy is    18.9432 ev

!    total energy              =    -450.73633885 Ry
     estimated scf accuracy    <          7.2E-12 Ry
     smearing contrib. (-TS)   =      -0.00009648 Ry
     internal energy E=F+TS    =    -450.73624237 Ry

     The total energy is F=E-TS. E is the sum of the following terms:
     one-electron contribution =    -144.29642737 Ry
     hartree contribution      =      91.19464640 Ry
     xc contribution           =     -54.90861559 Ry
     ewald contribution        =    -266.57499627 Ry
     one-center paw contrib.   =     -76.15084953 Ry

     convergence has been achieved in  23 iterations

     negative rho (up, down):  8.864E-04 0.000E+00

     Forces acting on atoms (cartesian axes, Ry/au):

     atom    1 type  1   force =     0.00000000    0.00000000    0.00000000
     atom    2 type  2   force =     0.00000000    0.00000000    0.00000000
     atom    3 type  3   force =     0.00000000    0.00000000    0.00000000
     atom    4 type  3   force =     0.00000000    0.00000000    0.00000000

     Total force =     0.000000     Total SCF correction =     0.000000


     Computing stress (Cartesian axis) and pressure


     negative rho (up, down):  8.864E-04 0.000E+00
          total   stress  (Ry/bohr**3)                   (kbar)     P=      638.04
   0.00190201   0.00000000   0.00000000          279.80        0.00        0.00
   0.00000000   0.00190201   0.00000000            0.00      279.80        0.00
   0.00000000   0.00000000   0.00920781            0.00        0.00     1354.52


     BFGS Geometry Optimization
     Energy error            =      3.2E-01 Ry
     Gradient error          =      0.0E+00 Ry/Bohr
     Cell gradient error     =      1.4E+03 kbar

     number of scf cycles    =   1
     number of bfgs steps    =   0

     enthalpy           new  =    -450.7363388472 Ry

     new trust radius        =       0.5000000000 bohr
     new conv_thr            =       0.0000000100 Ry

     new unit-cell volume =    223.46358 a.u.^3 (    33.11389 Ang^3 )
     density =      5.30185 g/cm^3

CELL_PARAMETERS (alat=  5.58242261)
   1.039152735   0.000000000   0.000000000
   0.000000000   1.039152735   0.000000000
   0.000000000   0.000000000   1.189542211

ATOMIC_POSITIONS (crystal)
Fe               0.5000000000        0.5000000000        0.5000000000
Ti               0.0000000000        0.0000000000        0.0000000000
H                0.5000000000        0.5000000000        0.0000000000
H                0.0000000000        0.0000000000        0.5000000000



     Writing config-only to output data dir ./TiFeH_supercell.save/ :
     XML data file     NEW-OLD atomic charge density approx. for the potential
     New effective cutoffs (rho, wfc): 1607.22  114.82

     Check: negative core charge=   -0.000002

     negative rho (up, down):  1.034E-03 0.000E+00

     total cpu time spent up to now is       78.1 secs

     per-process dynamical memory:   164.3 Mb

     Self-consistent Calculation

     iteration #  1     ecut=   124.00 Ry     beta= 0.70
     Davidson diagonalization with overlap
     c_bands:  1 eigenvalues not converged
     c_bands:  1 eigenvalues not converged
     c_bands:  1 eigenvalues not converged
     c_bands:  1 eigenvalues not converged
     c_bands:  1 eigenvalues not converged
     c_bands:  1 eigenvalues not converged
     c_bands:  1 eigenvalues not converged
     c_bands:  1 eigenvalues not converged
     c_bands:  1 eigenvalues not converged
     c_bands:  2 eigenvalues not converged
     c_bands:  2 eigenvalues not converged
     c_bands:  2 eigenvalues not converged
     c_bands:  2 eigenvalues not converged
     c_bands:  2 eigenvalues not converged
     c_bands:  1 eigenvalues not converged
     ethr =  1.00E-06,  avg # of iterations = 16.0

     negative rho (up, down):  7.400E-04 0.000E+00

     total cpu time spent up to now is       91.4 secs

     total energy              =    -450.84583702 Ry
     estimated scf accuracy    <       0.05969233 Ry

     iteration #  2     ecut=   124.00 Ry     beta= 0.70
     Davidson diagonalization with overlap
     ethr =  1.99E-04,  avg # of iterations =  4.2

     negative rho (up, down):  8.396E-04 0.000E+00

     total cpu time spent up to now is       95.3 secs

     total energy              =    -450.80401514 Ry
     estimated scf accuracy    <       0.34129974 Ry

     iteration #  3     ecut=   124.00 Ry     beta= 0.70
     Davidson diagonalization with overlap
     ethr =  1.99E-04,  avg # of iterations =  4.5

     negative rho (up, down):  8.421E-04 0.000E+00

     total cpu time spent up to now is       99.1 secs

     total energy              =    -450.79226352 Ry
     estimated scf accuracy    <       1.70219280 Ry

     iteration #  4     ecut=   124.00 Ry     beta= 0.70
     Davidson diagonalization with overlap
     ethr =  1.99E-04,  avg # of iterations =  3.9

     negative rho (up, down):  8.395E-04 0.000E+00

     total cpu time spent up to now is      102.4 secs

     total energy              =    -450.87091032 Ry
     estimated scf accuracy    <       0.00203307 Ry

     iteration #  5     ecut=   124.00 Ry     beta= 0.70
     Davidson diagonalization with overlap
     ethr =  6.78E-06,  avg # of iterations =  3.3

     negative rho (up, down):  8.375E-04 0.000E+00

     total cpu time spent up to now is      105.6 secs

     total energy              =    -450.87133235 Ry
     estimated scf accuracy    <       0.00060607 Ry

     iteration #  6     ecut=   124.00 Ry     beta= 0.70
     Davidson diagonalization with overlap
     ethr =  2.02E-06,  avg # of iterations =  1.9

     negative rho (up, down):  8.354E-04 0.000E+00

     total cpu time spent up to now is      108.1 secs

     total energy              =    -450.87139677 Ry
     estimated scf accuracy    <       0.00003457 Ry

     iteration #  7     ecut=   124.00 Ry     beta= 0.70
     Davidson diagonalization with overlap
     ethr =  1.15E-07,  avg # of iterations =  4.7

     negative rho (up, down):  8.350E-04 0.000E+00

     total cpu time spent up to now is      112.4 secs

     total energy              =    -450.87141862 Ry
     estimated scf accuracy    <       0.00000271 Ry

     iteration #  8     ecut=   124.00 Ry     beta= 0.70
     Davidson diagonalization with overlap
     ethr =  9.04E-09,  avg # of iterations =  3.0

     negative rho (up, down):  8.352E-04 0.000E+00

     total cpu time spent up to now is      115.6 secs

     total energy              =    -450.87141911 Ry
     estimated scf accuracy    <       0.00000029 Ry

     iteration #  9     ecut=   124.00 Ry     beta= 0.70
     Davidson diagonalization with overlap
     ethr =  9.57E-10,  avg # of iterations =  4.0

     negative rho (up, down):  8.351E-04 0.000E+00

     total cpu time spent up to now is      119.1 secs

     total energy              =    -450.87141920 Ry
     estimated scf accuracy    <       0.00000002 Ry

     iteration # 10     ecut=   124.00 Ry     beta= 0.70
     Davidson diagonalization with overlap
     ethr =  7.33E-11,  avg # of iterations =  4.5

     negative rho (up, down):  8.352E-04 0.000E+00

     total cpu time spent up to now is      122.9 secs

     End of self-consistent calculation

     Number of k-points >= 100: set verbosity='high' to print the bands.

     the Fermi energy is    14.3285 ev

!    total energy              =    -450.87141921 Ry
     estimated scf accuracy    <          3.5E-09 Ry
     smearing contrib. (-TS)   =      -0.00014942 Ry
     internal energy E=F+TS    =    -450.87126979 Ry

     The total energy is F=E-TS. E is the sum of the following terms:
     one-electron contribution =    -175.92921047 Ry
     hartree contribution      =     101.72614507 Ry
     xc contribution           =     -54.27795936 Ry
     ewald contribution        =    -246.24505001 Ry
     one-center paw contrib.   =     -76.14519502 Ry

     convergence has been achieved in  10 iterations

     negative rho (up, down):  8.352E-04 0.000E+00

     Forces acting on atoms (cartesian axes, Ry/au):

     atom    1 type  1   force =     0.00000000    0.00000000    0.00000000
     atom    2 type  2   force =     0.00000000    0.00000000    0.00000000
     atom    3 type  3   force =     0.00000000    0.00000000    0.00000000
     atom    4 type  3   force =     0.00000000    0.00000000    0.00000000

     Total force =     0.000000     Total SCF correction =     0.000000


     Computing stress (Cartesian axis) and pressure


     negative rho (up, down):  8.352E-04 0.000E+00
          total   stress  (Ry/bohr**3)                   (kbar)     P=     -106.93
  -0.00147677   0.00000000   0.00000000         -217.24        0.00        0.00
   0.00000000  -0.00147677   0.00000000            0.00     -217.24        0.00
   0.00000000   0.00000000   0.00077280            0.00        0.00      113.68

     Energy error            =      1.4E-01 Ry
     Gradient error          =      0.0E+00 Ry/Bohr
     Cell gradient error     =      2.2E+02 kbar

     number of scf cycles    =   2
     number of bfgs steps    =   1

     enthalpy           old  =    -450.7363388472 Ry
     enthalpy           new  =    -450.8714192087 Ry

     CASE: enthalpy          _new < enthalpy          _old

     new trust radius        =       0.1214472411 bohr
     new conv_thr            =            1.0E-10 Ry

     new unit-cell volume =    212.49013 a.u.^3 (    31.48779 Ang^3 )
     density =      5.57565 g/cm^3

CELL_PARAMETERS (alat=  5.58242261)
   0.996940955   0.000000000   0.000000000
   0.000000000   0.996940955   0.000000000
   0.000000000   0.000000000   1.228943034

ATOMIC_POSITIONS (crystal)
Fe               0.5000000000        0.5000000000        0.5000000000
Ti               0.0000000000        0.0000000000        0.0000000000
H                0.5000000000        0.5000000000        0.0000000000
H                0.0000000000        0.0000000000        0.5000000000



     Writing config-only to output data dir ./TiFeH_supercell.save/ :
     XML data file     NEW-OLD atomic charge density approx. for the potential
     New effective cutoffs (rho, wfc): 1746.21  124.75

     Check: negative core charge=   -0.000002

     negative rho (up, down):  7.898E-04 0.000E+00

     total cpu time spent up to now is      124.8 secs

     per-process dynamical memory:   164.3 Mb

     Self-consistent Calculation

     iteration #  1     ecut=   124.00 Ry     beta= 0.70
     Davidson diagonalization with overlap
     c_bands:  1 eigenvalues not converged
     c_bands:  1 eigenvalues not converged
     c_bands:  1 eigenvalues not converged
     ethr =  1.00E-06,  avg # of iterations = 11.6

     negative rho (up, down):  7.530E-04 0.000E+00

     total cpu time spent up to now is      134.9 secs

     total energy              =    -450.88803620 Ry
     estimated scf accuracy    <       0.02032162 Ry

     iteration #  2     ecut=   124.00 Ry     beta= 0.70
     Davidson diagonalization with overlap
     ethr =  6.77E-05,  avg # of iterations =  4.8

     negative rho (up, down):  8.074E-04 0.000E+00

     total cpu time spent up to now is      139.2 secs

     total energy              =    -450.79629408 Ry
     estimated scf accuracy    <       2.05464825 Ry

     iteration #  3     ecut=   124.00 Ry     beta= 0.70
     Davidson diagonalization with overlap
     ethr =  6.77E-05,  avg # of iterations =  4.6

     negative rho (up, down):  8.268E-04 0.000E+00

     total cpu time spent up to now is      143.3 secs

     total energy              =    -450.90085687 Ry
     estimated scf accuracy    <       0.00436427 Ry

     iteration #  4     ecut=   124.00 Ry     beta= 0.70
     Davidson diagonalization with overlap
     ethr =  1.45E-05,  avg # of iterations =  2.2

     negative rho (up, down):  8.207E-04 0.000E+00

     total cpu time spent up to now is      146.1 secs

     total energy              =    -450.90128527 Ry
     estimated scf accuracy    <       0.00071830 Ry

     iteration #  5     ecut=   124.00 Ry     beta= 0.70
     Davidson diagonalization with overlap
     ethr =  2.39E-06,  avg # of iterations =  2.4

     negative rho (up, down):  8.233E-04 0.000E+00

     total cpu time spent up to now is      148.9 secs

     total energy              =    -450.90135354 Ry
     estimated scf accuracy    <       0.00006631 Ry

     iteration #  6     ecut=   124.00 Ry     beta= 0.70
     Davidson diagonalization with overlap
     ethr =  2.21E-07,  avg # of iterations =  4.1

     negative rho (up, down):  8.230E-04 0.000E+00

     total cpu time spent up to now is      152.3 secs

     total energy              =    -450.90137055 Ry
     estimated scf accuracy    <       0.00000262 Ry

     iteration #  7     ecut=   124.00 Ry     beta= 0.70
     Davidson diagonalization with overlap
     ethr =  8.75E-09,  avg # of iterations =  4.4

     negative rho (up, down):  8.229E-04 0.000E+00

     total cpu time spent up to now is      156.0 secs

     total energy              =    -450.90137177 Ry
     estimated scf accuracy    <       0.00000010 Ry

     iteration #  8     ecut=   124.00 Ry     beta= 0.70
     Davidson diagonalization with overlap
     ethr =  3.26E-10,  avg # of iterations =  4.5

     negative rho (up, down):  8.230E-04 0.000E+00

     total cpu time spent up to now is      159.8 secs

     total energy              =    -450.90137182 Ry
     estimated scf accuracy    <       0.00000002 Ry

     iteration #  9     ecut=   124.00 Ry     beta= 0.70
     Davidson diagonalization with overlap
     ethr =  7.83E-11,  avg # of iterations =  2.3

     negative rho (up, down):  8.230E-04 0.000E+00

     total cpu time spent up to now is      162.6 secs

     total energy              =    -450.90137182 Ry
     estimated scf accuracy    <          9.1E-10 Ry

     iteration # 10     ecut=   124.00 Ry     beta= 0.70
     Davidson diagonalization with overlap
     ethr =  3.02E-12,  avg # of iterations =  4.8

     negative rho (up, down):  8.230E-04 0.000E+00

     total cpu time spent up to now is      166.7 secs

     total energy              =    -450.90137182 Ry
     estimated scf accuracy    <          1.2E-10 Ry

     iteration # 11     ecut=   124.00 Ry     beta= 0.70
     Davidson diagonalization with overlap
     ethr =  4.10E-13,  avg # of iterations =  3.0

     negative rho (up, down):  8.230E-04 0.000E+00

     total cpu time spent up to now is      169.8 secs

     End of self-consistent calculation

     Number of k-points >= 100: set verbosity='high' to print the bands.

     the Fermi energy is    15.1919 ev

!    total energy              =    -450.90137182 Ry
     estimated scf accuracy    <          1.9E-12 Ry
     smearing contrib. (-TS)   =      -0.00009062 Ry
     internal energy E=F+TS    =    -450.90128120 Ry

     The total energy is F=E-TS. E is the sum of the following terms:
     one-electron contribution =    -168.89335936 Ry
     hartree contribution      =      99.19140194 Ry
     xc contribution           =     -54.34119119 Ry
     ewald contribution        =    -250.71139123 Ry
     one-center paw contrib.   =     -76.14674135 Ry

     convergence has been achieved in  11 iterations

     negative rho (up, down):  8.230E-04 0.000E+00

     Forces acting on atoms (cartesian axes, Ry/au):

     atom    1 type  1   force =     0.00000000    0.00000000    0.00000000
     atom    2 type  2   force =     0.00000000    0.00000000    0.00000000
     atom    3 type  3   force =     0.00000000    0.00000000    0.00000000
     atom    4 type  3   force =     0.00000000    0.00000000    0.00000000

     Total force =     0.000000     Total SCF correction =     0.000000


     Computing stress (Cartesian axis) and pressure


     negative rho (up, down):  8.230E-04 0.000E+00
          total   stress  (Ry/bohr**3)                   (kbar)     P=      -78.52
  -0.00114319   0.00000000   0.00000000         -168.17        0.00        0.00
   0.00000000  -0.00114319   0.00000000            0.00     -168.17        0.00
   0.00000000   0.00000000   0.00068503            0.00        0.00      100.77

     Energy error            =      3.0E-02 Ry
     Gradient error          =      0.0E+00 Ry/Bohr
     Cell gradient error     =      1.7E+02 kbar

     number of scf cycles    =   3
     number of bfgs steps    =   2

     enthalpy           old  =    -450.8714192087 Ry
     enthalpy           new  =    -450.9013718194 Ry

     CASE: enthalpy          _new < enthalpy          _old

     new trust radius        =       0.1357864037 bohr
     new conv_thr            =            1.0E-10 Ry

     new unit-cell volume =    200.17313 a.u.^3 (    29.66260 Ang^3 )
     density =      5.91873 g/cm^3

CELL_PARAMETERS (alat=  5.58242261)
   0.950507997   0.000000000   0.000000000
   0.000000000   0.950507997   0.000000000
   0.000000000   0.000000000   1.273579580

ATOMIC_POSITIONS (crystal)
Fe               0.5000000000        0.5000000000        0.5000000000
Ti               0.0000000000        0.0000000000        0.0000000000
H                0.5000000000        0.5000000000        0.0000000000
H                0.0000000000        0.0000000000        0.5000000000



     Writing config-only to output data dir ./TiFeH_supercell.save/ :
     XML data file     NEW-OLD atomic charge density approx. for the potential
     New effective cutoffs (rho, wfc): 1920.98  137.24

     Check: negative core charge=   -0.000002

     negative rho (up, down):  7.711E-04 0.000E+00

     total cpu time spent up to now is      171.7 secs

     per-process dynamical memory:   164.5 Mb

     Self-consistent Calculation

     iteration #  1     ecut=   124.00 Ry     beta= 0.70
     Davidson diagonalization with overlap
     c_bands:  1 eigenvalues not converged
     ethr =  1.00E-06,  avg # of iterations = 11.7

     negative rho (up, down):  7.476E-04 0.000E+00

     total cpu time spent up to now is      182.1 secs

     total energy              =    -450.91080932 Ry
     estimated scf accuracy    <       0.01373307 Ry

     iteration #  2     ecut=   124.00 Ry     beta= 0.70
     Davidson diagonalization with overlap
     ethr =  4.58E-05,  avg # of iterations =  4.6

     negative rho (up, down):  7.978E-04 0.000E+00

     total cpu time spent up to now is      186.0 secs

     total energy              =    -450.85902005 Ry
     estimated scf accuracy    <       0.99550005 Ry

     iteration #  3     ecut=   124.00 Ry     beta= 0.70
     Davidson diagonalization with overlap
     ethr =  4.58E-05,  avg # of iterations =  4.5

     negative rho (up, down):  8.048E-04 0.000E+00

     total cpu time spent up to now is      189.9 secs

     total energy              =    -450.91866977 Ry
     estimated scf accuracy    <       0.00645616 Ry

     iteration #  4     ecut=   124.00 Ry     beta= 0.70
     Davidson diagonalization with overlap
     ethr =  2.15E-05,  avg # of iterations =  1.1

     negative rho (up, down):  8.034E-04 0.000E+00

     total cpu time spent up to now is      192.4 secs

     total energy              =    -450.91906372 Ry
     estimated scf accuracy    <       0.00017705 Ry

     iteration #  5     ecut=   124.00 Ry     beta= 0.70
     Davidson diagonalization with overlap
     ethr =  5.90E-07,  avg # of iterations =  4.1

     negative rho (up, down):  8.062E-04 0.000E+00

     total cpu time spent up to now is      195.9 secs

     total energy              =    -450.91911944 Ry
     estimated scf accuracy    <       0.00000972 Ry

     iteration #  6     ecut=   124.00 Ry     beta= 0.70
     Davidson diagonalization with overlap
     ethr =  3.24E-08,  avg # of iterations =  4.1

     negative rho (up, down):  8.062E-04 0.000E+00

     total cpu time spent up to now is      199.6 secs

     total energy              =    -450.91912321 Ry
     estimated scf accuracy    <       0.00000137 Ry

     iteration #  7     ecut=   124.00 Ry     beta= 0.70
     Davidson diagonalization with overlap
     ethr =  4.57E-09,  avg # of iterations =  2.7

     negative rho (up, down):  8.066E-04 0.000E+00

     total cpu time spent up to now is      202.8 secs

     total energy              =    -450.91912349 Ry
     estimated scf accuracy    <       0.00000017 Ry

     iteration #  8     ecut=   124.00 Ry     beta= 0.70
     Davidson diagonalization with overlap
     ethr =  5.54E-10,  avg # of iterations =  4.4

     negative rho (up, down):  8.067E-04 0.000E+00

     total cpu time spent up to now is      206.4 secs

     total energy              =    -450.91912356 Ry
     estimated scf accuracy    <          9.2E-09 Ry

     iteration #  9     ecut=   124.00 Ry     beta= 0.70
     Davidson diagonalization with overlap
     ethr =  3.06E-11,  avg # of iterations =  4.1

     negative rho (up, down):  8.067E-04 0.000E+00

     total cpu time spent up to now is      210.1 secs

     total energy              =    -450.91912356 Ry
     estimated scf accuracy    <          1.3E-09 Ry

     iteration # 10     ecut=   124.00 Ry     beta= 0.70
     Davidson diagonalization with overlap
     ethr =  4.45E-12,  avg # of iterations =  4.1

     negative rho (up, down):  8.067E-04 0.000E+00

     total cpu time spent up to now is      213.7 secs

     total energy              =    -450.91912356 Ry
     estimated scf accuracy    <          1.3E-10 Ry

     iteration # 11     ecut=   124.00 Ry     beta= 0.70
     Davidson diagonalization with overlap
     ethr =  4.42E-13,  avg # of iterations =  3.7

     negative rho (up, down):  8.067E-04 0.000E+00

     total cpu time spent up to now is      217.0 secs

     End of self-consistent calculation

     Number of k-points >= 100: set verbosity='high' to print the bands.

     the Fermi energy is    16.0955 ev

!    total energy              =    -450.91912356 Ry
     estimated scf accuracy    <          8.4E-12 Ry
     smearing contrib. (-TS)   =      -0.00000108 Ry
     internal energy E=F+TS    =    -450.91912248 Ry

     The total energy is F=E-TS. E is the sum of the following terms:
     one-electron contribution =    -160.86325711 Ry
     hartree contribution      =      96.41355216 Ry
     xc contribution           =     -54.44188689 Ry
     ewald contribution        =    -255.87918725 Ry
     one-center paw contrib.   =     -76.14834339 Ry

     convergence has been achieved in  11 iterations

     negative rho (up, down):  8.067E-04 0.000E+00

     Forces acting on atoms (cartesian axes, Ry/au):

     atom    1 type  1   force =     0.00000000    0.00000000    0.00000000
     atom    2 type  2   force =     0.00000000    0.00000000    0.00000000
     atom    3 type  3   force =     0.00000000    0.00000000    0.00000000
     atom    4 type  3   force =     0.00000000    0.00000000    0.00000000

     Total force =     0.000000     Total SCF correction =     0.000000


     Computing stress (Cartesian axis) and pressure


     negative rho (up, down):  8.067E-04 0.000E+00
          total   stress  (Ry/bohr**3)                   (kbar)     P=       -3.97
  -0.00018396   0.00000000   0.00000000          -27.06        0.00        0.00
   0.00000000  -0.00018396   0.00000000            0.00      -27.06        0.00
   0.00000000   0.00000000   0.00028694            0.00        0.00       42.21

     Energy error            =      1.8E-02 Ry
     Gradient error          =      0.0E+00 Ry/Bohr
     Cell gradient error     =      4.2E+01 kbar

     number of scf cycles    =   4
     number of bfgs steps    =   3

     enthalpy           old  =    -450.9013718194 Ry
     enthalpy           new  =    -450.9191235592 Ry

     CASE: enthalpy          _new < enthalpy          _old

     new trust radius        =       0.0329310342 bohr
     new conv_thr            =            1.0E-10 Ry

     new unit-cell volume =    197.82691 a.u.^3 (    29.31492 Ang^3 )
     density =      5.98893 g/cm^3

CELL_PARAMETERS (alat=  5.58242261)
   0.939470258   0.000000000   0.000000000
   0.000000000   0.939470258   0.000000000
   0.000000000   0.000000000   1.288401299

ATOMIC_POSITIONS (crystal)
Fe               0.5000000000        0.5000000000        0.5000000000
Ti               0.0000000000        0.0000000000        0.0000000000
H                0.5000000000        0.5000000000        0.0000000000
H                0.0000000000        0.0000000000        0.5000000000



     Writing config-only to output data dir ./TiFeH_supercell.save/ :
     XML data file     NEW-OLD atomic charge density approx. for the potential
     New effective cutoffs (rho, wfc): 1966.39  140.48

     Check: negative core charge=   -0.000002

     negative rho (up, down):  7.923E-04 0.000E+00

     total cpu time spent up to now is      218.8 secs

     per-process dynamical memory:   164.5 Mb

     Self-consistent Calculation

     iteration #  1     ecut=   124.00 Ry     beta= 0.70
     Davidson diagonalization with overlap
     ethr =  1.00E-06,  avg # of iterations =  7.3

     negative rho (up, down):  7.761E-04 0.000E+00

     total cpu time spent up to now is      225.6 secs

     total energy              =    -450.91855673 Ry
     estimated scf accuracy    <       0.00122900 Ry

     iteration #  2     ecut=   124.00 Ry     beta= 0.70
     Davidson diagonalization with overlap
     ethr =  4.10E-06,  avg # of iterations =  4.8

     negative rho (up, down):  7.934E-04 0.000E+00

     total cpu time spent up to now is      229.7 secs

     total energy              =    -450.91366598 Ry
     estimated scf accuracy    <       0.10576478 Ry

     iteration #  3     ecut=   124.00 Ry     beta= 0.70
     Davidson diagonalization with overlap
     ethr =  4.10E-06,  avg # of iterations =  4.6

     negative rho (up, down):  7.983E-04 0.000E+00

     total cpu time spent up to now is      233.6 secs

     total energy              =    -450.91968065 Ry
     estimated scf accuracy    <       0.00072050 Ry

     iteration #  4     ecut=   124.00 Ry     beta= 0.70
     Davidson diagonalization with overlap
     ethr =  2.40E-06,  avg # of iterations =  1.0

     negative rho (up, down):  7.975E-04 0.000E+00

     total cpu time spent up to now is      236.2 secs

     total energy              =    -450.91972742 Ry
     estimated scf accuracy    <       0.00001338 Ry

     iteration #  5     ecut=   124.00 Ry     beta= 0.70
     Davidson diagonalization with overlap
     ethr =  4.46E-08,  avg # of iterations =  4.4

     negative rho (up, down):  7.980E-04 0.000E+00

     total cpu time spent up to now is      240.2 secs

     total energy              =    -450.91973359 Ry
     estimated scf accuracy    <       0.00000061 Ry

     iteration #  6     ecut=   124.00 Ry     beta= 0.70
     Davidson diagonalization with overlap
     ethr =  2.03E-09,  avg # of iterations =  4.1

     negative rho (up, down):  7.981E-04 0.000E+00

     total cpu time spent up to now is      244.3 secs

     total energy              =    -450.91973382 Ry
     estimated scf accuracy    <       0.00000008 Ry

     iteration #  7     ecut=   124.00 Ry     beta= 0.70
     Davidson diagonalization with overlap
     ethr =  2.58E-10,  avg # of iterations =  3.3

     negative rho (up, down):  7.982E-04 0.000E+00

     total cpu time spent up to now is      247.8 secs

     total energy              =    -450.91973383 Ry
     estimated scf accuracy    <       0.00000001 Ry

     iteration #  8     ecut=   124.00 Ry     beta= 0.70
     Davidson diagonalization with overlap
     ethr =  3.82E-11,  avg # of iterations =  4.2

     negative rho (up, down):  7.982E-04 0.000E+00

     total cpu time spent up to now is      251.7 secs

     total energy              =    -450.91973384 Ry
     estimated scf accuracy    <          9.1E-10 Ry

     iteration #  9     ecut=   124.00 Ry     beta= 0.70
     Davidson diagonalization with overlap
     ethr =  3.02E-12,  avg # of iterations =  3.6

     negative rho (up, down):  7.982E-04 0.000E+00

     total cpu time spent up to now is      255.5 secs

     End of self-consistent calculation

     Number of k-points >= 100: set verbosity='high' to print the bands.

     the Fermi energy is    16.2557 ev

!    total energy              =    -450.91973384 Ry
     estimated scf accuracy    <          3.5E-11 Ry
     smearing contrib. (-TS)   =       0.00005968 Ry
     internal energy E=F+TS    =    -450.91979352 Ry

     The total energy is F=E-TS. E is the sum of the following terms:
     one-electron contribution =    -159.32776823 Ry
     hartree contribution      =      95.89998558 Ry
     xc contribution           =     -54.46476722 Ry
     ewald contribution        =    -256.87860897 Ry
     one-center paw contrib.   =     -76.14863467 Ry

     convergence has been achieved in   9 iterations

     negative rho (up, down):  7.982E-04 0.000E+00

     Forces acting on atoms (cartesian axes, Ry/au):

     atom    1 type  1   force =     0.00000000    0.00000000    0.00000000
     atom    2 type  2   force =     0.00000000    0.00000000    0.00000000
     atom    3 type  3   force =     0.00000000    0.00000000    0.00000000
     atom    4 type  3   force =     0.00000000    0.00000000    0.00000000

     Total force =     0.000000     Total SCF correction =     0.000000


     Computing stress (Cartesian axis) and pressure


     negative rho (up, down):  7.982E-04 0.000E+00
          total   stress  (Ry/bohr**3)                   (kbar)     P=       15.50
   0.00011008   0.00000000   0.00000000           16.19        0.00        0.00
   0.00000000   0.00011008   0.00000000            0.00       16.19        0.00
   0.00000000   0.00000000   0.00009590            0.00        0.00       14.11

     Energy error            =      6.1E-04 Ry
     Gradient error          =      0.0E+00 Ry/Bohr
     Cell gradient error     =      1.6E+01 kbar

     number of scf cycles    =   5
     number of bfgs steps    =   4

     enthalpy           old  =    -450.9191235592 Ry
     enthalpy           new  =    -450.9197338383 Ry

     CASE: enthalpy          _new < enthalpy          _old

     new trust radius        =       0.0074088765 bohr
     new conv_thr            =            1.0E-10 Ry

     new unit-cell volume =    198.93633 a.u.^3 (    29.47932 Ang^3 )
     density =      5.95553 g/cm^3

CELL_PARAMETERS (alat=  5.58242261)
   0.941944617   0.000000000   0.000000000
   0.000000000   0.941944617   0.000000000
   0.000000000   0.000000000   1.288828825

ATOMIC_POSITIONS (crystal)
Fe               0.5000000000        0.5000000000        0.5000000000
Ti               0.0000000000        0.0000000000        0.0000000000
H                0.5000000000        0.5000000000        0.0000000000
H                0.0000000000        0.0000000000        0.5000000000



     Writing config-only to output data dir ./TiFeH_supercell.save/ :
     XML data file     NEW-OLD atomic charge density approx. for the potential
     New effective cutoffs (rho, wfc): 1956.07  139.74

     Check: negative core charge=   -0.000002

     negative rho (up, down):  8.022E-04 0.000E+00

     total cpu time spent up to now is      257.5 secs

     per-process dynamical memory:   164.6 Mb

     Self-consistent Calculation

     iteration #  1     ecut=   124.00 Ry     beta= 0.70
     Davidson diagonalization with overlap
     ethr =  1.00E-06,  avg # of iterations =  5.0

     negative rho (up, down):  8.012E-04 0.000E+00

     total cpu time spent up to now is      262.4 secs

     total energy              =    -450.91973040 Ry
     estimated scf accuracy    <       0.00005498 Ry

     iteration #  2     ecut=   124.00 Ry     beta= 0.70
     Davidson diagonalization with overlap
     ethr =  1.83E-07,  avg # of iterations =  4.6

     negative rho (up, down):  7.970E-04 0.000E+00

     total cpu time spent up to now is      266.6 secs

     total energy              =    -450.91940720 Ry
     estimated scf accuracy    <       0.00829865 Ry

     iteration #  3     ecut=   124.00 Ry     beta= 0.70
     Davidson diagonalization with overlap
     ethr =  1.83E-07,  avg # of iterations =  4.5

     negative rho (up, down):  7.981E-04 0.000E+00

     total cpu time spent up to now is      270.8 secs

     total energy              =    -450.91980673 Ry
     estimated scf accuracy    <       0.00000971 Ry

     iteration #  4     ecut=   124.00 Ry     beta= 0.70
     Davidson diagonalization with overlap
     ethr =  3.24E-08,  avg # of iterations =  3.2

     negative rho (up, down):  7.978E-04 0.000E+00

     total cpu time spent up to now is      274.1 secs

     total energy              =    -450.91980836 Ry
     estimated scf accuracy    <       0.00000192 Ry

     iteration #  5     ecut=   124.00 Ry     beta= 0.70
     Davidson diagonalization with overlap
     ethr =  6.39E-09,  avg # of iterations =  3.1

     negative rho (up, down):  7.976E-04 0.000E+00

     total cpu time spent up to now is      277.3 secs

     total energy              =    -450.91980853 Ry
     estimated scf accuracy    <       0.00000057 Ry

     iteration #  6     ecut=   124.00 Ry     beta= 0.70
     Davidson diagonalization with overlap
     ethr =  1.89E-09,  avg # of iterations =  2.3

     negative rho (up, down):  7.976E-04 0.000E+00

     total cpu time spent up to now is      280.4 secs

     total energy              =    -450.91980858 Ry
     estimated scf accuracy    <          6.6E-09 Ry

     iteration #  7     ecut=   124.00 Ry     beta= 0.70
     Davidson diagonalization with overlap
     ethr =  2.19E-11,  avg # of iterations =  6.0

     negative rho (up, down):  7.976E-04 0.000E+00

     total cpu time spent up to now is      285.8 secs

     total energy              =    -450.91980860 Ry
     estimated scf accuracy    <          6.4E-10 Ry

     iteration #  8     ecut=   124.00 Ry     beta= 0.70
     Davidson diagonalization with overlap
     ethr =  2.13E-12,  avg # of iterations =  3.3

     negative rho (up, down):  7.976E-04 0.000E+00

     total cpu time spent up to now is      289.2 secs

     total energy              =    -450.91980860 Ry
     estimated scf accuracy    <          3.5E-10 Ry

     iteration #  9     ecut=   124.00 Ry     beta= 0.70
     Davidson diagonalization with overlap
     ethr =  1.16E-12,  avg # of iterations =  2.3

     negative rho (up, down):  7.976E-04 0.000E+00

     total cpu time spent up to now is      292.5 secs

     End of self-consistent calculation

     Number of k-points >= 100: set verbosity='high' to print the bands.

     the Fermi energy is    16.1561 ev

!    total energy              =    -450.91980860 Ry
     estimated scf accuracy    <          9.3E-12 Ry
     smearing contrib. (-TS)   =       0.00006035 Ry
     internal energy E=F+TS    =    -450.91986895 Ry

     The total energy is F=E-TS. E is the sum of the following terms:
     one-electron contribution =    -160.06697400 Ry
     hartree contribution      =      96.15071117 Ry
     xc contribution           =     -54.45319563 Ry
     ewald contribution        =    -256.40192222 Ry
     one-center paw contrib.   =     -76.14848827 Ry

     convergence has been achieved in   9 iterations

     negative rho (up, down):  7.976E-04 0.000E+00

     Forces acting on atoms (cartesian axes, Ry/au):

     atom    1 type  1   force =     0.00000000    0.00000000    0.00000000
     atom    2 type  2   force =     0.00000000    0.00000000    0.00000000
     atom    3 type  3   force =     0.00000000    0.00000000    0.00000000
     atom    4 type  3   force =     0.00000000    0.00000000    0.00000000

     Total force =     0.000000     Total SCF correction =     0.000000


     Computing stress (Cartesian axis) and pressure


     negative rho (up, down):  7.976E-04 0.000E+00
          total   stress  (Ry/bohr**3)                   (kbar)     P=        4.73
   0.00002457   0.00000000   0.00000000            3.61        0.00        0.00
   0.00000000   0.00002457   0.00000000            0.00        3.61        0.00
   0.00000000   0.00000000   0.00004736            0.00        0.00        6.97

     Energy error            =      7.5E-05 Ry
     Gradient error          =      0.0E+00 Ry/Bohr
     Cell gradient error     =      7.0E+00 kbar

     number of scf cycles    =   6
     number of bfgs steps    =   5

     enthalpy           old  =    -450.9197338383 Ry
     enthalpy           new  =    -450.9198086002 Ry

     CASE: enthalpy          _new < enthalpy          _old

     new trust radius        =       0.0029640654 bohr
     new conv_thr            =            1.0E-10 Ry

     new unit-cell volume =    199.36588 a.u.^3 (    29.54297 Ang^3 )
     density =      5.94270 g/cm^3

CELL_PARAMETERS (alat=  5.58242261)
   0.942465967   0.000000000   0.000000000
   0.000000000   0.942465967   0.000000000
   0.000000000   0.000000000   1.290183066

ATOMIC_POSITIONS (crystal)
Fe               0.5000000000        0.5000000000        0.5000000000
Ti               0.0000000000        0.0000000000        0.0000000000
H                0.5000000000        0.5000000000        0.0000000000
H                0.0000000000        0.0000000000        0.5000000000



     Writing config-only to output data dir ./TiFeH_supercell.save/ :
     XML data file     NEW-OLD atomic charge density approx. for the potential
     New effective cutoffs (rho, wfc): 1953.91  139.59

     Check: negative core charge=   -0.000002

     negative rho (up, down):  7.986E-04 0.000E+00

     total cpu time spent up to now is      294.4 secs

     per-process dynamical memory:   164.6 Mb

     Self-consistent Calculation

     iteration #  1     ecut=   124.00 Ry     beta= 0.70
     Davidson diagonalization with overlap
     ethr =  1.00E-06,  avg # of iterations =  2.0

     Threshold (ethr) on eigenvalues was too large:
     Diagonalizing with lowered threshold

     Davidson diagonalization with overlap
     ethr =  4.24E-09,  avg # of iterations =  5.8

     negative rho (up, down):  7.964E-04 0.000E+00

     total cpu time spent up to now is      302.9 secs

     total energy              =    -450.91981470 Ry
     estimated scf accuracy    <       0.00000135 Ry

     iteration #  2     ecut=   124.00 Ry     beta= 0.70
     Davidson diagonalization with overlap
     ethr =  4.50E-09,  avg # of iterations =  4.1

     negative rho (up, down):  7.971E-04 0.000E+00

     total cpu time spent up to now is      307.0 secs

     total energy              =    -450.91981574 Ry
     estimated scf accuracy    <       0.00000625 Ry

     iteration #  3     ecut=   124.00 Ry     beta= 0.70
     Davidson diagonalization with overlap
     ethr =  4.50E-09,  avg # of iterations =  4.0

     negative rho (up, down):  7.971E-04 0.000E+00

     total cpu time spent up to now is      311.0 secs

     total energy              =    -450.91981539 Ry
     estimated scf accuracy    <       0.00003635 Ry

     iteration #  4     ecut=   124.00 Ry     beta= 0.70
     Davidson diagonalization with overlap
     ethr =  4.50E-09,  avg # of iterations =  3.6

     negative rho (up, down):  7.970E-04 0.000E+00

     total cpu time spent up to now is      314.4 secs

     total energy              =    -450.91981728 Ry
     estimated scf accuracy    <       0.00000006 Ry

     iteration #  5     ecut=   124.00 Ry     beta= 0.70
     Davidson diagonalization with overlap
     ethr =  1.84E-10,  avg # of iterations =  3.1

     negative rho (up, down):  7.969E-04 0.000E+00

     total cpu time spent up to now is      317.8 secs

     total energy              =    -450.91981729 Ry
     estimated scf accuracy    <       0.00000002 Ry

     iteration #  6     ecut=   124.00 Ry     beta= 0.70
     Davidson diagonalization with overlap
     ethr =  5.34E-11,  avg # of iterations =  1.9

     negative rho (up, down):  7.969E-04 0.000E+00

     total cpu time spent up to now is      320.7 secs

     total energy              =    -450.91981729 Ry
     estimated scf accuracy    <          2.3E-09 Ry

     iteration #  7     ecut=   124.00 Ry     beta= 0.70
     Davidson diagonalization with overlap
     ethr =  7.58E-12,  avg # of iterations =  3.8

     negative rho (up, down):  7.969E-04 0.000E+00

     total cpu time spent up to now is      324.5 secs

     End of self-consistent calculation

     Number of k-points >= 100: set verbosity='high' to print the bands.

     the Fermi energy is    16.1149 ev

!    total energy              =    -450.91981729 Ry
     estimated scf accuracy    <          5.3E-11 Ry
     smearing contrib. (-TS)   =       0.00006079 Ry
     internal energy E=F+TS    =    -450.91987807 Ry

     The total energy is F=E-TS. E is the sum of the following terms:
     one-electron contribution =    -160.35453333 Ry
     hartree contribution      =      96.24908049 Ry
     xc contribution           =     -54.44870254 Ry
     ewald contribution        =    -256.21729235 Ry
     one-center paw contrib.   =     -76.14843035 Ry

     convergence has been achieved in   7 iterations

     negative rho (up, down):  7.969E-04 0.000E+00

     Forces acting on atoms (cartesian axes, Ry/au):

     atom    1 type  1   force =     0.00000000    0.00000000    0.00000000
     atom    2 type  2   force =     0.00000000    0.00000000    0.00000000
     atom    3 type  3   force =     0.00000000    0.00000000    0.00000000
     atom    4 type  3   force =     0.00000000    0.00000000    0.00000000

     Total force =     0.000000     Total SCF correction =     0.000000


     Computing stress (Cartesian axis) and pressure


     negative rho (up, down):  7.969E-04 0.000E+00
          total   stress  (Ry/bohr**3)                   (kbar)     P=        0.47
  -0.00000027   0.00000000   0.00000000           -0.04        0.00        0.00
   0.00000000  -0.00000027   0.00000000            0.00       -0.04        0.00
   0.00000000   0.00000000   0.00001012            0.00        0.00        1.49

     Energy error            =      8.7E-06 Ry
     Gradient error          =      0.0E+00 Ry/Bohr
     Cell gradient error     =      1.5E+00 kbar

     number of scf cycles    =   7
     number of bfgs steps    =   6

     enthalpy           old  =    -450.9198086002 Ry
     enthalpy           new  =    -450.9198172872 Ry

     CASE: enthalpy          _new < enthalpy          _old

     new trust radius        =       0.0010338327 bohr
     new conv_thr            =            1.0E-10 Ry

     new unit-cell volume =    199.41237 a.u.^3 (    29.54986 Ang^3 )
     density =      5.94131 g/cm^3

CELL_PARAMETERS (alat=  5.58242261)
   0.942403361   0.000000000   0.000000000
   0.000000000   0.942403361   0.000000000
   0.000000000   0.000000000   1.290655397

ATOMIC_POSITIONS (crystal)
Fe               0.5000000000        0.5000000000        0.5000000000
Ti               0.0000000000        0.0000000000        0.0000000000
H                0.5000000000        0.5000000000        0.0000000000
H                0.0000000000        0.0000000000        0.5000000000



     Writing config-only to output data dir ./TiFeH_supercell.save/ :
     XML data file     NEW-OLD atomic charge density approx. for the potential
     New effective cutoffs (rho, wfc): 1954.16  139.61

     Check: negative core charge=   -0.000002

     negative rho (up, down):  7.968E-04 0.000E+00

     total cpu time spent up to now is      326.4 secs

     per-process dynamical memory:   164.6 Mb

     Self-consistent Calculation

     iteration #  1     ecut=   124.00 Ry     beta= 0.70
     Davidson diagonalization with overlap
     ethr =  1.00E-06,  avg # of iterations =  2.0

     Threshold (ethr) on eigenvalues was too large:
     Diagonalizing with lowered threshold

     Davidson diagonalization with overlap
     ethr =  3.37E-09,  avg # of iterations =  2.9

     negative rho (up, down):  7.960E-04 0.000E+00

     total cpu time spent up to now is      333.2 secs

     total energy              =    -450.91981695 Ry
     estimated scf accuracy    <       0.00000098 Ry

     iteration #  2     ecut=   124.00 Ry     beta= 0.70
     Davidson diagonalization with overlap
     ethr =  3.26E-09,  avg # of iterations =  4.8

     negative rho (up, down):  7.966E-04 0.000E+00

     total cpu time spent up to now is      337.6 secs

     total energy              =    -450.91981141 Ry
     estimated scf accuracy    <       0.00013260 Ry

     iteration #  3     ecut=   124.00 Ry     beta= 0.70
     Davidson diagonalization with overlap
     ethr =  3.26E-09,  avg # of iterations =  4.5

     negative rho (up, down):  7.967E-04 0.000E+00

     total cpu time spent up to now is      341.6 secs

     total energy              =    -450.91981769 Ry
     estimated scf accuracy    <       0.00000006 Ry

     iteration #  4     ecut=   124.00 Ry     beta= 0.70
     Davidson diagonalization with overlap
     ethr =  2.11E-10,  avg # of iterations =  3.1

     negative rho (up, down):  7.966E-04 0.000E+00

     total cpu time spent up to now is      345.1 secs

     total energy              =    -450.91981770 Ry
     estimated scf accuracy    <          3.3E-09 Ry

     iteration #  5     ecut=   124.00 Ry     beta= 0.70
     Davidson diagonalization with overlap
     ethr =  1.10E-11,  avg # of iterations =  4.3

     negative rho (up, down):  7.966E-04 0.000E+00

     total cpu time spent up to now is      349.4 secs

     total energy              =    -450.91981770 Ry
     estimated scf accuracy    <          1.7E-10 Ry

     iteration #  6     ecut=   124.00 Ry     beta= 0.70
     Davidson diagonalization with overlap
     ethr =  5.55E-13,  avg # of iterations =  4.3

     negative rho (up, down):  7.966E-04 0.000E+00

     total cpu time spent up to now is      353.3 secs

     End of self-consistent calculation

     Number of k-points >= 100: set verbosity='high' to print the bands.

     the Fermi energy is    16.1096 ev

!    total energy              =    -450.91981770 Ry
     estimated scf accuracy    <          8.8E-12 Ry
     smearing contrib. (-TS)   =       0.00006093 Ry
     internal energy E=F+TS    =    -450.91987863 Ry

     The total energy is F=E-TS. E is the sum of the following terms:
     one-electron contribution =    -160.38627400 Ry
     hartree contribution      =      96.26007455 Ry
     xc contribution           =     -54.44819238 Ry
     ewald contribution        =    -256.19706250 Ry
     one-center paw contrib.   =     -76.14842431 Ry

     convergence has been achieved in   6 iterations

     negative rho (up, down):  7.966E-04 0.000E+00

     Forces acting on atoms (cartesian axes, Ry/au):

     atom    1 type  1   force =     0.00000000    0.00000000    0.00000000
     atom    2 type  2   force =     0.00000000    0.00000000    0.00000000
     atom    3 type  3   force =     0.00000000    0.00000000    0.00000000
     atom    4 type  3   force =     0.00000000    0.00000000    0.00000000

     Total force =     0.000000     Total SCF correction =     0.000000


     Computing stress (Cartesian axis) and pressure


     negative rho (up, down):  7.966E-04 0.000E+00
          total   stress  (Ry/bohr**3)                   (kbar)     P=       -0.03
  -0.00000074   0.00000000   0.00000000           -0.11        0.00        0.00
   0.00000000  -0.00000074   0.00000000            0.00       -0.11        0.00
   0.00000000   0.00000000   0.00000094            0.00        0.00        0.14

     Energy error            =      4.2E-07 Ry
     Gradient error          =      0.0E+00 Ry/Bohr
     Cell gradient error     =      1.4E-01 kbar

     number of scf cycles    =   8
     number of bfgs steps    =   7

     enthalpy           old  =    -450.9198172872 Ry
     enthalpy           new  =    -450.9198177041 Ry

     CASE: enthalpy          _new < enthalpy          _old

     new trust radius        =       0.0001459641 bohr
     new conv_thr            =            1.0E-10 Ry

     new unit-cell volume =    199.40957 a.u.^3 (    29.54945 Ang^3 )
     density =      5.94139 g/cm^3

CELL_PARAMETERS (alat=  5.58242261)
   0.942372396   0.000000000   0.000000000
   0.000000000   0.942372396   0.000000000
   0.000000000   0.000000000   1.290722101

ATOMIC_POSITIONS (crystal)
Fe               0.5000000000        0.5000000000        0.5000000000
Ti               0.0000000000        0.0000000000        0.0000000000
H                0.5000000000        0.5000000000        0.0000000000
H                0.0000000000        0.0000000000        0.5000000000



     Writing config-only to output data dir ./TiFeH_supercell.save/ :
     XML data file     NEW-OLD atomic charge density approx. for the potential
     New effective cutoffs (rho, wfc): 1954.29  139.62

     Check: negative core charge=   -0.000002

     negative rho (up, down):  7.966E-04 0.000E+00

     total cpu time spent up to now is      355.3 secs

     per-process dynamical memory:   164.7 Mb

     Self-consistent Calculation

     iteration #  1     ecut=   124.00 Ry     beta= 0.70
     Davidson diagonalization with overlap
     ethr =  1.00E-06,  avg # of iterations =  2.0

     Threshold (ethr) on eigenvalues was too large:
     Diagonalizing with lowered threshold

     Davidson diagonalization with overlap
     ethr =  1.10E-10,  avg # of iterations =  3.0

     negative rho (up, down):  7.965E-04 0.000E+00

     total cpu time spent up to now is      362.0 secs

     total energy              =    -450.91981768 Ry
     estimated scf accuracy    <       0.00000003 Ry

     iteration #  2     ecut=   124.00 Ry     beta= 0.70
     Davidson diagonalization with overlap
     ethr =  1.15E-10,  avg # of iterations =  4.6

     negative rho (up, down):  7.966E-04 0.000E+00

     total cpu time spent up to now is      366.2 secs

     total energy              =    -450.91981748 Ry
     estimated scf accuracy    <       0.00000480 Ry

     iteration #  3     ecut=   124.00 Ry     beta= 0.70
     Davidson diagonalization with overlap
     ethr =  1.15E-10,  avg # of iterations =  4.6

     negative rho (up, down):  7.966E-04 0.000E+00

     total cpu time spent up to now is      370.2 secs

     total energy              =    -450.91981771 Ry
     estimated scf accuracy    <          2.2E-09 Ry

     iteration #  4     ecut=   124.00 Ry     beta= 0.70
     Davidson diagonalization with overlap
     ethr =  7.33E-12,  avg # of iterations =  2.7

     negative rho (up, down):  7.966E-04 0.000E+00

     total cpu time spent up to now is      373.6 secs

     total energy              =    -450.91981771 Ry
     estimated scf accuracy    <          1.6E-10 Ry

     iteration #  5     ecut=   124.00 Ry     beta= 0.70
     Davidson diagonalization with overlap
     ethr =  5.45E-13,  avg # of iterations =  4.7

     negative rho (up, down):  7.966E-04 0.000E+00

     total cpu time spent up to now is      377.9 secs

     End of self-consistent calculation

     Number of k-points >= 100: set verbosity='high' to print the bands.

     the Fermi energy is    16.1097 ev

!    total energy              =    -450.91981771 Ry
     estimated scf accuracy    <          2.3E-11 Ry
     smearing contrib. (-TS)   =       0.00006094 Ry
     internal energy E=F+TS    =    -450.91987866 Ry

     The total energy is F=E-TS. E is the sum of the following terms:
     one-electron contribution =    -160.38452968 Ry
     hartree contribution      =      96.25948573 Ry
     xc contribution           =     -54.44821188 Ry
     ewald contribution        =    -256.19819820 Ry
     one-center paw contrib.   =     -76.14842462 Ry

     convergence has been achieved in   5 iterations

     negative rho (up, down):  7.966E-04 0.000E+00

     Forces acting on atoms (cartesian axes, Ry/au):

     atom    1 type  1   force =     0.00000000    0.00000000    0.00000000
     atom    2 type  2   force =     0.00000000    0.00000000    0.00000000
     atom    3 type  3   force =     0.00000000    0.00000000    0.00000000
     atom    4 type  3   force =     0.00000000    0.00000000    0.00000000

     Total force =     0.000000     Total SCF correction =     0.000000


     Computing stress (Cartesian axis) and pressure


     negative rho (up, down):  7.966E-04 0.000E+00
          total   stress  (Ry/bohr**3)                   (kbar)     P=       -0.02
  -0.00000015   0.00000000   0.00000000           -0.02        0.00        0.00
   0.00000000  -0.00000015   0.00000000            0.00       -0.02        0.00
   0.00000000   0.00000000  -0.00000003            0.00        0.00       -0.00

     Energy error            =      1.0E-08 Ry
     Gradient error          =      0.0E+00 Ry/Bohr
     Cell gradient error     =      2.2E-02 kbar

     bfgs converged in   9 scf cycles and   8 bfgs steps
     (criteria: energy <  1.0E-04 Ry, force <  1.0E-03 Ry/Bohr, cell <  1.0E-01 kbar)

     End of BFGS Geometry Optimization

     Final enthalpy           =    -450.9198177145 Ry

     File ./TiFeH_supercell.bfgs deleted, as requested
Begin final coordinates
     new unit-cell volume =    199.40957 a.u.^3 (    29.54945 Ang^3 )
     density =      5.94139 g/cm^3

CELL_PARAMETERS (alat=  5.58242261)
   0.942372396   0.000000000   0.000000000
   0.000000000   0.942372396   0.000000000
   0.000000000   0.000000000   1.290722101

ATOMIC_POSITIONS (crystal)
Fe               0.5000000000        0.5000000000        0.5000000000
Ti               0.0000000000        0.0000000000        0.0000000000
H                0.5000000000        0.5000000000        0.0000000000
H                0.0000000000        0.0000000000        0.5000000000
End final coordinates



     Writing config-only to output data dir ./TiFeH_supercell.save/ :
     XML data file
     Final scf calculation at the relaxed structure.
     The G-vectors are recalculated for the final unit cell
     Results may differ from those at the preceding step.

     Parallelization info
     --------------------
     sticks:   dense  smooth     PW     G-vecs:    dense   smooth      PW
     Min         238      68     20                15212     2325     363
     Max         239      69     21                15217     2327     365
     Sum        3809    1093    325               243423    37215    5823

     Using Slab Decomposition



     bravais-lattice index     =            0
     lattice parameter (alat)  =       5.5824  a.u.
     unit-cell volume          =     199.4096 (a.u.)^3
     number of atoms/cell      =            4
     number of atomic types    =            3
     number of electrons       =        30.00
     number of Kohn-Sham states=           19
     kinetic-energy cutoff     =     124.0000  Ry
     charge density cutoff     =    1736.0000  Ry
     scf convergence threshold =      1.0E-10
     mixing beta               =       0.7000
     number of iterations used =            8  plain     mixing
     press convergence thresh. =      1.0E-01
     Exchange-correlation= PBE
                           (   1   4   3   4   0   0   0)

     celldm(1)=   5.582423  celldm(2)=   0.000000  celldm(3)=   0.000000
     celldm(4)=   0.000000  celldm(5)=   0.000000  celldm(6)=   0.000000

     crystal axes: (cart. coord. in units of alat)
               a(1) = (   0.942372   0.000000   0.000000 )  
               a(2) = (   0.000000   0.942372   0.000000 )  
               a(3) = (   0.000000   0.000000   1.290722 )  

     reciprocal axes: (cart. coord. in units 2 pi/alat)
               b(1) = (  1.061152  0.000000  0.000000 )  
               b(2) = (  0.000000  1.061152  0.000000 )  
               b(3) = (  0.000000  0.000000  0.774760 )  


     PseudoPot. # 1 for Fe read from file:
     ../../../../pseudos/Fe.pbe-spn-kjpaw_psl.0.2.1.UPF
     MD5 check sum: e86618425769142926afa95317d90200
     Pseudo is Projector augmented-wave + core cor, Zval = 16.0
     Generated using "atomic" code by A. Dal Corso  v.5.0.99 svn rev. 10869
     Shape of augmentation charge: PSQ
     Using radial grid of 1191 points,  6 beta functions with: 
                l(1) =   0
                l(2) =   0
                l(3) =   1
                l(4) =   1
                l(5) =   2
                l(6) =   2
     Q(r) pseudized with 0 coefficients 


     PseudoPot. # 2 for Ti read from file:
     ../../../../pseudos/ti_pbe_v1.4.uspp.F.UPF
     MD5 check sum: 88a00a6731bd790ddea75d31a80cb452
     Pseudo is Ultrasoft + core correction, Zval = 12.0
     Generated by new atomic code, or converted to UPF format
     Using radial grid of  851 points,  6 beta functions with: 
                l(1) =   0
                l(2) =   0
                l(3) =   1
                l(4) =   1
                l(5) =   2
                l(6) =   2
     Q(r) pseudized with  6 coefficients,  rinner =    1.000   1.000   1.000
                                                       1.000   1.000

     PseudoPot. # 3 for H  read from file:
     ../../../../pseudos/H.pbe-rrkjus_psl.1.0.0.UPF
     MD5 check sum: f52b6d4d1c606e5624b1dc7b2218f220
     Pseudo is Ultrasoft, Zval =  1.0
     Generated using "atomic" code by A. Dal Corso  v.5.1
     Using radial grid of  929 points,  2 beta functions with: 
                l(1) =   0
                l(2) =   0
     Q(r) pseudized with 0 coefficients 


     atomic species   valence    mass     pseudopotential
     Fe               16.00    55.84500     Fe( 1.00)
     Ti               12.00    47.86700     Ti( 1.00)
     H                 1.00     1.00784     H ( 1.00)

     16 Sym. Ops., with inversion, found



   Cartesian axes

     site n.     atom                  positions (alat units)
         1        Fe     tau(   1) = (   0.4711862   0.4711862   0.6453611  )
         2        Ti     tau(   2) = (   0.0000000   0.0000000   0.0000000  )
         3        H      tau(   3) = (   0.4711862   0.4711862   0.0000000  )
         4        H      tau(   4) = (   0.0000000   0.0000000   0.6453611  )

     number of k points=   288  Marzari-Vanderbilt smearing, width (Ry)=  0.0050

     Number of k-points >= 100: set verbosity='high' to print them.

     Dense  grid:   243423 G-vectors     FFT dimensions: (  72,  72,  96)

     Smooth grid:    37215 G-vectors     FFT dimensions: (  40,  40,  54)

     Estimated max dynamical RAM per process >     100.78 MB

     Estimated total dynamical RAM >       1.57 GB

     Check: negative core charge=   -0.000001

     Initial potential from superposition of free atoms

     starting charge      28.9995, renormalised to      30.0000

     negative rho (up, down):  1.341E-03 0.000E+00
     Starting wfcs are   25 randomized atomic wfcs
     Checking if some PAW data can be deallocated... 

     total cpu time spent up to now is      382.2 secs

     per-process dynamical memory:   164.6 Mb

     Self-consistent Calculation

     iteration #  1     ecut=   124.00 Ry     beta= 0.70
     Davidson diagonalization with overlap
     c_bands:  1 eigenvalues not converged
     c_bands:  1 eigenvalues not converged
     c_bands:  1 eigenvalues not converged
     c_bands:  1 eigenvalues not converged
     c_bands:  1 eigenvalues not converged
     c_bands:  1 eigenvalues not converged
     c_bands:  1 eigenvalues not converged
     c_bands:  1 eigenvalues not converged
     c_bands:  1 eigenvalues not converged
     c_bands:  1 eigenvalues not converged
     c_bands:  1 eigenvalues not converged
     c_bands:  1 eigenvalues not converged
     c_bands:  1 eigenvalues not converged
     c_bands:  1 eigenvalues not converged
     c_bands:  1 eigenvalues not converged
     c_bands:  1 eigenvalues not converged
     c_bands:  1 eigenvalues not converged
     c_bands:  1 eigenvalues not converged
     c_bands:  1 eigenvalues not converged
     c_bands:  1 eigenvalues not converged
     c_bands:  1 eigenvalues not converged
     c_bands:  1 eigenvalues not converged
     c_bands:  1 eigenvalues not converged
     c_bands:  1 eigenvalues not converged
     c_bands:  1 eigenvalues not converged
     c_bands:  1 eigenvalues not converged
     c_bands:  2 eigenvalues not converged
     c_bands:  2 eigenvalues not converged
     c_bands:  1 eigenvalues not converged
     c_bands:  1 eigenvalues not converged
     c_bands:  1 eigenvalues not converged
     c_bands:  1 eigenvalues not converged
     c_bands:  1 eigenvalues not converged
     c_bands:  1 eigenvalues not converged
     c_bands:  1 eigenvalues not converged
     c_bands:  1 eigenvalues not converged
     c_bands:  1 eigenvalues not converged
     c_bands:  1 eigenvalues not converged
     c_bands:  1 eigenvalues not converged
     c_bands:  1 eigenvalues not converged
     c_bands:  1 eigenvalues not converged
     c_bands:  1 eigenvalues not converged
     c_bands:  1 eigenvalues not converged
     c_bands:  1 eigenvalues not converged
     c_bands:  1 eigenvalues not converged
     c_bands:  1 eigenvalues not converged
     c_bands:  1 eigenvalues not converged
     c_bands:  1 eigenvalues not converged
     c_bands:  1 eigenvalues not converged
     c_bands:  1 eigenvalues not converged
     c_bands:  1 eigenvalues not converged
     c_bands:  1 eigenvalues not converged
     c_bands:  2 eigenvalues not converged
     c_bands:  2 eigenvalues not converged
     c_bands:  2 eigenvalues not converged
     c_bands:  2 eigenvalues not converged
     c_bands:  1 eigenvalues not converged
     c_bands:  1 eigenvalues not converged
     c_bands:  1 eigenvalues not converged
     c_bands:  1 eigenvalues not converged
     c_bands:  2 eigenvalues not converged
     c_bands:  2 eigenvalues not converged
     c_bands:  2 eigenvalues not converged
     c_bands:  1 eigenvalues not converged
     c_bands:  2 eigenvalues not converged
     c_bands:  1 eigenvalues not converged
     c_bands:  1 eigenvalues not converged
     c_bands:  2 eigenvalues not converged
     c_bands:  1 eigenvalues not converged
     c_bands:  2 eigenvalues not converged
     c_bands:  1 eigenvalues not converged
     c_bands:  1 eigenvalues not converged
     c_bands:  1 eigenvalues not converged
     ethr =  1.00E-06,  avg # of iterations = 17.3

     negative rho (up, down):  1.500E-04 0.000E+00

     total cpu time spent up to now is      400.8 secs

     total energy              =    -431.73975921 Ry
     estimated scf accuracy    <      24.07579044 Ry

     iteration #  2     ecut=   124.00 Ry     beta= 0.70
     Davidson diagonalization with overlap
     ethr =  1.00E-02,  avg # of iterations =  7.7

     total cpu time spent up to now is      409.1 secs

     total energy              =    -441.84615555 Ry
     estimated scf accuracy    <     128.23588588 Ry

     iteration #  3     ecut=   124.00 Ry     beta= 0.70
     Davidson diagonalization with overlap
     ethr =  1.00E-02,  avg # of iterations =  3.8

     negative rho (up, down):  2.184E-05 0.000E+00

     total cpu time spent up to now is      414.0 secs

     total energy              =    -452.69071634 Ry
     estimated scf accuracy    <      20.37621280 Ry

     iteration #  4     ecut=   124.00 Ry     beta= 0.70
     Davidson diagonalization with overlap
     ethr =  1.00E-02,  avg # of iterations =  2.1

     negative rho (up, down):  1.774E-04 0.000E+00

     total cpu time spent up to now is      417.5 secs

     total energy              =    -451.29973733 Ry
     estimated scf accuracy    <      12.27173408 Ry

     iteration #  5     ecut=   124.00 Ry     beta= 0.70
     Davidson diagonalization with overlap
     ethr =  1.00E-02,  avg # of iterations =  1.9

     negative rho (up, down):  4.112E-04 0.000E+00

     total cpu time spent up to now is      420.9 secs

     total energy              =    -451.06480911 Ry
     estimated scf accuracy    <       5.59810449 Ry

     iteration #  6     ecut=   124.00 Ry     beta= 0.70
     Davidson diagonalization with overlap
     ethr =  1.00E-02,  avg # of iterations =  1.3

     negative rho (up, down):  9.509E-04 0.000E+00

     total cpu time spent up to now is      424.0 secs

     total energy              =    -450.58581283 Ry
     estimated scf accuracy    <       3.11598741 Ry

     iteration #  7     ecut=   124.00 Ry     beta= 0.70
     Davidson diagonalization with overlap
     ethr =  1.00E-02,  avg # of iterations =  2.2

     negative rho (up, down):  8.458E-04 0.000E+00

     total cpu time spent up to now is      427.5 secs

     total energy              =    -450.87232176 Ry
     estimated scf accuracy    <       0.33079478 Ry

     iteration #  8     ecut=   124.00 Ry     beta= 0.70
     Davidson diagonalization with overlap
     ethr =  1.10E-03,  avg # of iterations =  3.7

     negative rho (up, down):  8.687E-04 0.000E+00

     total cpu time spent up to now is      431.4 secs

     total energy              =    -450.91637681 Ry
     estimated scf accuracy    <       0.01115373 Ry

     iteration #  9     ecut=   124.00 Ry     beta= 0.70
     Davidson diagonalization with overlap
     ethr =  3.72E-05,  avg # of iterations =  6.5

     negative rho (up, down):  6.605E-04 0.000E+00

     total cpu time spent up to now is      437.8 secs

     total energy              =    -450.89556840 Ry
     estimated scf accuracy    <       0.08957333 Ry

     iteration # 10     ecut=   124.00 Ry     beta= 0.70
     Davidson diagonalization with overlap
     ethr =  3.72E-05,  avg # of iterations =  5.1

     negative rho (up, down):  1.141E-03 0.000E+00

     total cpu time spent up to now is      443.2 secs

     total energy              =    -450.77042929 Ry
     estimated scf accuracy    <       0.75845949 Ry

     iteration # 11     ecut=   124.00 Ry     beta= 0.70
     Davidson diagonalization with overlap
     ethr =  3.72E-05,  avg # of iterations =  7.1

     negative rho (up, down):  9.017E-04 0.000E+00

     total cpu time spent up to now is      450.4 secs

     total energy              =    -450.83586989 Ry
     estimated scf accuracy    <       3.33301647 Ry

     iteration # 12     ecut=   124.00 Ry     beta= 0.70
     Davidson diagonalization with overlap
     ethr =  3.72E-05,  avg # of iterations =  5.5

     negative rho (up, down):  9.252E-04 0.000E+00

     total cpu time spent up to now is      456.0 secs

     total energy              =    -450.92201448 Ry
     estimated scf accuracy    <       0.11717245 Ry

     iteration # 13     ecut=   124.00 Ry     beta= 0.70
     Davidson diagonalization with overlap
     ethr =  3.72E-05,  avg # of iterations =  2.0

     negative rho (up, down):  9.963E-04 0.000E+00

     total cpu time spent up to now is      459.4 secs

     total energy              =    -450.93016918 Ry
     estimated scf accuracy    <       0.02790474 Ry

     iteration # 14     ecut=   124.00 Ry     beta= 0.70
     Davidson diagonalization with overlap
     ethr =  3.72E-05,  avg # of iterations =  2.4

     negative rho (up, down):  9.780E-04 0.000E+00

     total cpu time spent up to now is      463.0 secs

     total energy              =    -450.93181065 Ry
     estimated scf accuracy    <       0.30312786 Ry

     iteration # 15     ecut=   124.00 Ry     beta= 0.70
     Davidson diagonalization with overlap
     ethr =  3.72E-05,  avg # of iterations =  1.0

     negative rho (up, down):  9.001E-04 0.000E+00

     total cpu time spent up to now is      466.1 secs

     total energy              =    -450.91752492 Ry
     estimated scf accuracy    <       0.19970158 Ry

     iteration # 16     ecut=   124.00 Ry     beta= 0.70
     Davidson diagonalization with overlap
     ethr =  3.72E-05,  avg # of iterations =  2.4

     negative rho (up, down):  8.423E-04 0.000E+00

     total cpu time spent up to now is      469.9 secs

     total energy              =    -450.91814516 Ry
     estimated scf accuracy    <       0.02587565 Ry

     iteration # 17     ecut=   124.00 Ry     beta= 0.70
     Davidson diagonalization with overlap
     ethr =  3.72E-05,  avg # of iterations =  2.5

     negative rho (up, down):  8.438E-04 0.000E+00

     total cpu time spent up to now is      473.4 secs

     total energy              =    -450.92007210 Ry
     estimated scf accuracy    <       0.00039156 Ry

     iteration # 18     ecut=   124.00 Ry     beta= 0.70
     Davidson diagonalization with overlap
     ethr =  1.31E-06,  avg # of iterations =  5.0

     negative rho (up, down):  8.431E-04 0.000E+00

     total cpu time spent up to now is      479.2 secs

     total energy              =    -450.92025715 Ry
     estimated scf accuracy    <       0.00048214 Ry

     iteration # 19     ecut=   124.00 Ry     beta= 0.70
     Davidson diagonalization with overlap
     ethr =  1.31E-06,  avg # of iterations =  1.0

     negative rho (up, down):  8.484E-04 0.000E+00

     total cpu time spent up to now is      482.2 secs

     total energy              =    -450.92022775 Ry
     estimated scf accuracy    <       0.00023800 Ry

     iteration # 20     ecut=   124.00 Ry     beta= 0.70
     Davidson diagonalization with overlap
     ethr =  7.93E-07,  avg # of iterations =  1.2

     negative rho (up, down):  8.487E-04 0.000E+00

     total cpu time spent up to now is      485.6 secs

     total energy              =    -450.92024057 Ry
     estimated scf accuracy    <       0.00000898 Ry

     iteration # 21     ecut=   124.00 Ry     beta= 0.70
     Davidson diagonalization with overlap
     ethr =  2.99E-08,  avg # of iterations =  4.3

     negative rho (up, down):  8.488E-04 0.000E+00

     total cpu time spent up to now is      490.3 secs

     total energy              =    -450.92024405 Ry
     estimated scf accuracy    <       0.00000017 Ry

     iteration # 22     ecut=   124.00 Ry     beta= 0.70
     Davidson diagonalization with overlap
     ethr =  5.82E-10,  avg # of iterations =  5.0

     negative rho (up, down):  8.490E-04 0.000E+00

     total cpu time spent up to now is      495.4 secs

     total energy              =    -450.92024419 Ry
     estimated scf accuracy    <       0.00000020 Ry

     iteration # 23     ecut=   124.00 Ry     beta= 0.70
     Davidson diagonalization with overlap
     ethr =  5.82E-10,  avg # of iterations =  1.7

     negative rho (up, down):  8.490E-04 0.000E+00

     total cpu time spent up to now is      498.8 secs

     total energy              =    -450.92024420 Ry
     estimated scf accuracy    <          7.4E-09 Ry

     iteration # 24     ecut=   124.00 Ry     beta= 0.70
     Davidson diagonalization with overlap
     ethr =  2.47E-11,  avg # of iterations =  4.1

     negative rho (up, down):  8.490E-04 0.000E+00

     total cpu time spent up to now is      503.1 secs

     total energy              =    -450.92024420 Ry
     estimated scf accuracy    <          1.7E-10 Ry

     iteration # 25     ecut=   124.00 Ry     beta= 0.70
     Davidson diagonalization with overlap
     ethr =  5.71E-13,  avg # of iterations =  5.2

     negative rho (up, down):  8.490E-04 0.000E+00

     total cpu time spent up to now is      508.6 secs

     End of self-consistent calculation

     Number of k-points >= 100: set verbosity='high' to print the bands.

     the Fermi energy is    16.1095 ev

!    total energy              =    -450.92024420 Ry
     estimated scf accuracy    <          5.7E-11 Ry
     smearing contrib. (-TS)   =       0.00006113 Ry
     internal energy E=F+TS    =    -450.92030533 Ry

     The total energy is F=E-TS. E is the sum of the following terms:
     one-electron contribution =    -160.38459942 Ry
     hartree contribution      =      96.25941770 Ry
     xc contribution           =     -54.44842594 Ry
     ewald contribution        =    -256.19819820 Ry
     one-center paw contrib.   =     -76.14849947 Ry

     convergence has been achieved in  25 iterations

     negative rho (up, down):  8.490E-04 0.000E+00

     Forces acting on atoms (cartesian axes, Ry/au):

     atom    1 type  1   force =     0.00000000    0.00000000    0.00000000
     atom    2 type  2   force =     0.00000000    0.00000000    0.00000000
     atom    3 type  3   force =     0.00000000    0.00000000    0.00000000
     atom    4 type  3   force =     0.00000000    0.00000000    0.00000000

     Total force =     0.000000     Total SCF correction =     0.000000


     Computing stress (Cartesian axis) and pressure


     negative rho (up, down):  8.490E-04 0.000E+00
          total   stress  (Ry/bohr**3)                   (kbar)     P=        0.57
  -0.00000374   0.00000000   0.00000000           -0.55        0.00        0.00
   0.00000000  -0.00000374   0.00000000            0.00       -0.55        0.00
   0.00000000   0.00000000   0.00001906            0.00        0.00        2.80


     Writing all to output data dir ./TiFeH_supercell.save/ :
     XML data file
     init_run     :      4.51s CPU      4.70s WALL (       2 calls)
     electrons    :    468.85s CPU    486.77s WALL (      10 calls)
     update_pot   :      0.63s CPU      0.71s WALL (       8 calls)
     forces       :      2.75s CPU      2.94s WALL (      10 calls)
     stress       :     12.74s CPU     13.17s WALL (      10 calls)

     Called by init_run:
     wfcinit      :      2.69s CPU      2.80s WALL (       2 calls)
     potinit      :      0.47s CPU      0.50s WALL (       2 calls)
     hinit0       :      0.86s CPU      0.89s WALL (       2 calls)

     Called by electrons:
     c_bands      :    399.73s CPU    411.11s WALL (     119 calls)
     sum_band     :     52.69s CPU     56.83s WALL (     119 calls)
     v_of_rho     :      1.62s CPU      1.87s WALL (     126 calls)
     newd         :      9.04s CPU     10.60s WALL (     126 calls)
     PAW_pot      :      7.14s CPU      7.91s WALL (     134 calls)
     mix_rho      :      0.21s CPU      0.23s WALL (     119 calls)

     Called by c_bands:
     init_us_2    :      7.11s CPU      7.39s WALL (   77184 calls)
     cegterg      :    387.51s CPU    398.35s WALL (   34272 calls)

     Called by *egterg:
     cdiaghg      :     63.07s CPU     64.66s WALL (  163783 calls)
     h_psi        :    274.66s CPU    282.85s WALL (  167527 calls)
     s_psi        :      6.96s CPU      7.18s WALL (  167527 calls)
     g_psi        :      1.30s CPU      1.33s WALL (  132679 calls)

     Called by h_psi:
     h_psi:calbec :     13.29s CPU     13.69s WALL (  167527 calls)
     vloc_psi     :    252.89s CPU    260.44s WALL (  167527 calls)
     add_vuspsi   :      7.26s CPU      7.49s WALL (  167527 calls)

     General routines
     calbec       :     20.47s CPU     21.10s WALL (  253063 calls)
     fft          :      1.82s CPU      2.18s WALL (    1879 calls)
     ffts         :      0.35s CPU      0.36s WALL (     245 calls)
     fftw         :    230.03s CPU    236.64s WALL ( 4663442 calls)
     interpolate  :      0.42s CPU      0.46s WALL (     126 calls)

     Parallel routines

     PWSCF        :    491.45s CPU    510.55s WALL


   This run was terminated on:   2:56:37  30Nov2025            

=------------------------------------------------------------------------------=
   JOB DONE.
=------------------------------------------------------------------------------=
