
     Program PWSCF v.7.4 starts on 12Nov2025 at 22:58:50 

     This program is part of the open-source Quantum ESPRESSO suite
     for quantum simulation of materials; please cite
         "P. Giannozzi et al., J. Phys.:Condens. Matter 21 395502 (2009);
         "P. Giannozzi et al., J. Phys.:Condens. Matter 29 465901 (2017);
         "P. Giannozzi et al., J. Chem. Phys. 152 154105 (2020);
          URL http://www.quantum-espresso.org", 
     in publications or presentations arising from this work. More details at
     http://www.quantum-espresso.org/quote

     Parallel version (MPI & OpenMP), running on      16 processor cores
     Number of MPI processes:                16
     Threads/MPI process:                     1

     MPI processes distributed on     1 nodes
     200082 MiB available memory on the printing compute node when the environment starts

     Reading input from TiFe_H_faces_xy.in

     Current dimensions of program PWSCF are:
     Max number of different atomic species (ntypx) = 10
     Max number of k-points (npk) =  40000
     Max angular momentum in pseudopotentials (lmaxx) =  4
     file Fe.pbe-spn-kjpaw_psl.0.2.1.UPF: wavefunction(s)  3D renormalized

     IMPORTANT: XC functional enforced from input :
     Exchange-correlation= PBE
                           (   1   4   3   4   0   0   0)
     Any further DFT definition will be discarded
     Please, verify this is what you really want

     Message from routine setup:
     using ibrav=0 with symmetry is DISCOURAGED, use correct ibrav instead

     R & G space division:  proc/nbgrp/npool/nimage =      16
     Subspace diagonalization in iterative solution of the eigenvalue problem:
     a serial algorithm will be used


     Parallelization info
     --------------------
     sticks:   dense  smooth     PW     G-vecs:    dense   smooth      PW
     Min         269      76     22                13288     2024     320
     Max         271      77     23                13289     2027     323
     Sum        4309    1225    357               212623    32423    5137

     Using Slab Decomposition



     bravais-lattice index     =            0
     lattice parameter (alat)  =       5.5824  a.u.
     unit-cell volume          =     173.9675 (a.u.)^3
     number of atoms/cell      =            4
     number of atomic types    =            3
     number of electrons       =        30.00
     number of Kohn-Sham states=           19
     kinetic-energy cutoff     =     124.0000  Ry
     charge density cutoff     =    1736.0000  Ry
     scf convergence threshold =      1.0E-08
     mixing beta               =       0.7000
     number of iterations used =            8  plain     mixing
     energy convergence thresh.=      1.0E-04
     force convergence thresh. =      1.0E-03
     press convergence thresh. =      1.0E-01
     Exchange-correlation= PBE
                           (   1   4   3   4   0   0   0)
     nstep                     =           50


     celldm(1)=   5.582423  celldm(2)=   0.000000  celldm(3)=   0.000000
     celldm(4)=   0.000000  celldm(5)=   0.000000  celldm(6)=   0.000000

     crystal axes: (cart. coord. in units of alat)
               a(1) = (   1.000000   0.000000   0.000000 )  
               a(2) = (   0.000000   1.000000   0.000000 )  
               a(3) = (   0.000000   0.000000   1.000000 )  

     reciprocal axes: (cart. coord. in units 2 pi/alat)
               b(1) = (  1.000000  0.000000  0.000000 )  
               b(2) = (  0.000000  1.000000  0.000000 )  
               b(3) = (  0.000000  0.000000  1.000000 )  


     PseudoPot. # 1 for Fe read from file:
     ../../pseudos/Fe.pbe-spn-kjpaw_psl.0.2.1.UPF
     MD5 check sum: e86618425769142926afa95317d90200
     Pseudo is Projector augmented-wave + core cor, Zval = 16.0
     Generated using "atomic" code by A. Dal Corso  v.5.0.99 svn rev. 10869
     Shape of augmentation charge: PSQ
     Using radial grid of 1191 points,  6 beta functions with: 
                l(1) =   0
                l(2) =   0
                l(3) =   1
                l(4) =   1
                l(5) =   2
                l(6) =   2
     Q(r) pseudized with 0 coefficients 


     PseudoPot. # 2 for Ti read from file:
     ../../pseudos/ti_pbe_v1.4.uspp.F.UPF
     MD5 check sum: 88a00a6731bd790ddea75d31a80cb452
     Pseudo is Ultrasoft + core correction, Zval = 12.0
     Generated by new atomic code, or converted to UPF format
     Using radial grid of  851 points,  6 beta functions with: 
                l(1) =   0
                l(2) =   0
                l(3) =   1
                l(4) =   1
                l(5) =   2
                l(6) =   2
     Q(r) pseudized with  6 coefficients,  rinner =    1.000   1.000   1.000
                                                       1.000   1.000

     PseudoPot. # 3 for H  read from file:
     ../../pseudos/H.pbe-rrkjus_psl.1.0.0.UPF
     MD5 check sum: f52b6d4d1c606e5624b1dc7b2218f220
     Pseudo is Ultrasoft, Zval =  1.0
     Generated using "atomic" code by A. Dal Corso  v.5.1
     Using radial grid of  929 points,  2 beta functions with: 
                l(1) =   0
                l(2) =   0
     Q(r) pseudized with 0 coefficients 


     atomic species   valence    mass     pseudopotential
     Fe               16.00    55.84500     Fe( 1.00)
     Ti               12.00    47.86700     Ti( 1.00)
     H                 1.00     1.00750     H ( 1.00)

     16 Sym. Ops., with inversion, found



   Cartesian axes

     site n.     atom                  positions (alat units)
         1        Fe     tau(   1) = (   0.5000000   0.5000000   0.5000000  )
         2        Ti     tau(   2) = (   0.0000000   0.0000000   0.0000000  )
         3        H      tau(   3) = (   0.5000000   0.0000000   0.5000000  )
         4        H      tau(   4) = (   0.0000000   0.5000000   0.5000000  )

     number of k points=   288  Marzari-Vanderbilt smearing, width (Ry)=  0.0050

     Number of k-points >= 100: set verbosity='high' to print them.

     Dense  grid:   212623 G-vectors     FFT dimensions: (  75,  75,  75)

     Smooth grid:    32423 G-vectors     FFT dimensions: (  40,  40,  40)

     Estimated max dynamical RAM per process >      90.34 MB

     Estimated total dynamical RAM >       1.41 GB

     Check: negative core charge=   -0.000001

     Initial potential from superposition of free atoms

     starting charge      28.9995, renormalised to      30.0000

     negative rho (up, down):  1.329E-03 0.000E+00
     Starting wfcs are   25 randomized atomic wfcs
     Checking if some PAW data can be deallocated... 

     total cpu time spent up to now is        2.4 secs

     per-process dynamical memory:   160.1 Mb

     Self-consistent Calculation

     iteration #  1     ecut=   124.00 Ry     beta= 0.70
     Davidson diagonalization with overlap
     ethr =  1.00E-02,  avg # of iterations =  2.1

     negative rho (up, down):  1.040E-05 0.000E+00

     total cpu time spent up to now is        5.4 secs

     total energy              =    -441.39381510 Ry
     estimated scf accuracy    <      12.05158591 Ry

     iteration #  2     ecut=   124.00 Ry     beta= 0.70
     Davidson diagonalization with overlap
     ethr =  1.00E-02,  avg # of iterations =  5.8

     negative rho (up, down):  1.170E-04 0.000E+00

     total cpu time spent up to now is       10.5 secs

     total energy              =    -450.68303633 Ry
     estimated scf accuracy    <      50.27589345 Ry

     iteration #  3     ecut=   124.00 Ry     beta= 0.70
     Davidson diagonalization with overlap
     ethr =  1.00E-02,  avg # of iterations =  2.6

     negative rho (up, down):  3.613E-04 0.000E+00

     total cpu time spent up to now is       14.0 secs

     total energy              =    -450.89234533 Ry
     estimated scf accuracy    <      12.34894348 Ry

     iteration #  4     ecut=   124.00 Ry     beta= 0.70
     Davidson diagonalization with overlap
     ethr =  1.00E-02,  avg # of iterations =  2.3

     negative rho (up, down):  3.497E-04 0.000E+00

     total cpu time spent up to now is       16.8 secs

     total energy              =    -451.28270638 Ry
     estimated scf accuracy    <       3.92054560 Ry

     iteration #  5     ecut=   124.00 Ry     beta= 0.70
     Davidson diagonalization with overlap
     ethr =  1.00E-02,  avg # of iterations =  1.1

     negative rho (up, down):  5.166E-04 0.000E+00

     total cpu time spent up to now is       19.2 secs

     total energy              =    -450.68480690 Ry
     estimated scf accuracy    <       3.73572638 Ry

     iteration #  6     ecut=   124.00 Ry     beta= 0.70
     Davidson diagonalization with overlap
     ethr =  1.00E-02,  avg # of iterations =  1.7

     negative rho (up, down):  6.548E-04 0.000E+00

     total cpu time spent up to now is       21.8 secs

     total energy              =    -450.82898989 Ry
     estimated scf accuracy    <       0.42925552 Ry

     iteration #  7     ecut=   124.00 Ry     beta= 0.70
     Davidson diagonalization with overlap
     ethr =  1.43E-03,  avg # of iterations =  3.9

     negative rho (up, down):  7.423E-04 0.000E+00

     total cpu time spent up to now is       25.0 secs

     total energy              =    -450.82633729 Ry
     estimated scf accuracy    <       0.25628737 Ry

     iteration #  8     ecut=   124.00 Ry     beta= 0.70
     Davidson diagonalization with overlap
     ethr =  8.54E-04,  avg # of iterations =  2.1

     negative rho (up, down):  9.591E-04 0.000E+00

     total cpu time spent up to now is       27.8 secs

     total energy              =    -450.79815830 Ry
     estimated scf accuracy    <       0.27748323 Ry

     iteration #  9     ecut=   124.00 Ry     beta= 0.70
     Davidson diagonalization with overlap
     ethr =  8.54E-04,  avg # of iterations =  2.2

     negative rho (up, down):  9.744E-04 0.000E+00

     total cpu time spent up to now is       30.5 secs

     total energy              =    -450.88656904 Ry
     estimated scf accuracy    <       0.61381205 Ry

     iteration # 10     ecut=   124.00 Ry     beta= 0.70
     Davidson diagonalization with overlap
     ethr =  8.54E-04,  avg # of iterations =  1.1

     negative rho (up, down):  9.411E-04 0.000E+00

     total cpu time spent up to now is       32.9 secs

     total energy              =    -450.87549676 Ry
     estimated scf accuracy    <       0.82952867 Ry

     iteration # 11     ecut=   124.00 Ry     beta= 0.70
     Davidson diagonalization with overlap
     ethr =  8.54E-04,  avg # of iterations =  1.0

     negative rho (up, down):  9.044E-04 0.000E+00

     total cpu time spent up to now is       35.4 secs

     total energy              =    -450.87774390 Ry
     estimated scf accuracy    <       0.80164340 Ry

     iteration # 12     ecut=   124.00 Ry     beta= 0.70
     Davidson diagonalization with overlap
     ethr =  8.54E-04,  avg # of iterations =  1.0

     negative rho (up, down):  7.054E-04 0.000E+00

     total cpu time spent up to now is       37.8 secs

     total energy              =    -450.70679812 Ry
     estimated scf accuracy    <       0.87678675 Ry

     iteration # 13     ecut=   124.00 Ry     beta= 0.70
     Davidson diagonalization with overlap
     ethr =  8.54E-04,  avg # of iterations =  2.7

     negative rho (up, down):  7.939E-04 0.000E+00

     total cpu time spent up to now is       40.6 secs

     total energy              =    -450.82591124 Ry
     estimated scf accuracy    <       0.43586120 Ry

     iteration # 14     ecut=   124.00 Ry     beta= 0.70
     Davidson diagonalization with overlap
     ethr =  8.54E-04,  avg # of iterations =  1.0

     negative rho (up, down):  8.605E-04 0.000E+00

     total cpu time spent up to now is       43.1 secs

     total energy              =    -450.82456257 Ry
     estimated scf accuracy    <       0.08569118 Ry

     iteration # 15     ecut=   124.00 Ry     beta= 0.70
     Davidson diagonalization with overlap
     ethr =  2.86E-04,  avg # of iterations =  1.4

     negative rho (up, down):  8.586E-04 0.000E+00

     total cpu time spent up to now is       45.5 secs

     total energy              =    -450.83036119 Ry
     estimated scf accuracy    <       0.00104217 Ry

     iteration # 16     ecut=   124.00 Ry     beta= 0.70
     Davidson diagonalization with overlap
     ethr =  3.47E-06,  avg # of iterations =  4.9

     negative rho (up, down):  8.549E-04 0.000E+00

     total cpu time spent up to now is       49.1 secs

     total energy              =    -450.83069739 Ry
     estimated scf accuracy    <       0.00018856 Ry

     iteration # 17     ecut=   124.00 Ry     beta= 0.70
     Davidson diagonalization with overlap
     ethr =  6.29E-07,  avg # of iterations =  2.6

     negative rho (up, down):  8.600E-04 0.000E+00

     total cpu time spent up to now is       51.9 secs

     total energy              =    -450.83069412 Ry
     estimated scf accuracy    <       0.00146439 Ry

     iteration # 18     ecut=   124.00 Ry     beta= 0.70
     Davidson diagonalization with overlap
     ethr =  6.29E-07,  avg # of iterations =  1.0

     negative rho (up, down):  8.619E-04 0.000E+00

     total cpu time spent up to now is       54.4 secs

     total energy              =    -450.83068755 Ry
     estimated scf accuracy    <       0.00082231 Ry

     iteration # 19     ecut=   124.00 Ry     beta= 0.70
     Davidson diagonalization with overlap
     ethr =  6.29E-07,  avg # of iterations =  1.0

     negative rho (up, down):  8.679E-04 0.000E+00

     total cpu time spent up to now is       56.8 secs

     total energy              =    -450.83062059 Ry
     estimated scf accuracy    <       0.00065419 Ry

     iteration # 20     ecut=   124.00 Ry     beta= 0.70
     Davidson diagonalization with overlap
     ethr =  6.29E-07,  avg # of iterations =  1.8

     negative rho (up, down):  8.693E-04 0.000E+00

     total cpu time spent up to now is       59.4 secs

     total energy              =    -450.83064124 Ry
     estimated scf accuracy    <       0.00003908 Ry

     iteration # 21     ecut=   124.00 Ry     beta= 0.70
     Davidson diagonalization with overlap
     ethr =  1.30E-07,  avg # of iterations =  2.5

     negative rho (up, down):  8.691E-04 0.000E+00

     total cpu time spent up to now is       62.1 secs

     total energy              =    -450.83064568 Ry
     estimated scf accuracy    <       0.00000281 Ry

     iteration # 22     ecut=   124.00 Ry     beta= 0.70
     Davidson diagonalization with overlap
     ethr =  9.38E-09,  avg # of iterations =  4.2

     negative rho (up, down):  8.689E-04 0.000E+00

     total cpu time spent up to now is       65.5 secs

     total energy              =    -450.83064640 Ry
     estimated scf accuracy    <       0.00000028 Ry

     iteration # 23     ecut=   124.00 Ry     beta= 0.70
     Davidson diagonalization with overlap
     ethr =  9.33E-10,  avg # of iterations =  3.3

     negative rho (up, down):  8.689E-04 0.000E+00

     total cpu time spent up to now is       68.7 secs

     total energy              =    -450.83064646 Ry
     estimated scf accuracy    <       0.00000002 Ry

     iteration # 24     ecut=   124.00 Ry     beta= 0.70
     Davidson diagonalization with overlap
     ethr =  7.30E-11,  avg # of iterations =  3.8

     negative rho (up, down):  8.689E-04 0.000E+00

     total cpu time spent up to now is       72.0 secs

     End of self-consistent calculation

     Number of k-points >= 100: set verbosity='high' to print the bands.

     the Fermi energy is    19.2581 ev

!    total energy              =    -450.83064646 Ry
     estimated scf accuracy    <          4.3E-09 Ry
     smearing contrib. (-TS)   =      -0.00007960 Ry
     internal energy E=F+TS    =    -450.83056686 Ry

     The total energy is F=E-TS. E is the sum of the following terms:
     one-electron contribution =    -146.10388049 Ry
     hartree contribution      =      92.11447414 Ry
     xc contribution           =     -54.88683409 Ry
     ewald contribution        =    -265.79907102 Ry
     one-center paw contrib.   =     -76.15525539 Ry

     convergence has been achieved in  24 iterations

     negative rho (up, down):  8.689E-04 0.000E+00

     Forces acting on atoms (cartesian axes, Ry/au):

     atom    1 type  1   force =     0.00000000    0.00000000    0.00000000
     atom    2 type  2   force =     0.00000000    0.00000000    0.00000000
     atom    3 type  3   force =     0.00000000    0.00000000    0.00000000
     atom    4 type  3   force =     0.00000000    0.00000000    0.00000000

     Total force =     0.000000     Total SCF correction =     0.000000


     Computing stress (Cartesian axis) and pressure


     negative rho (up, down):  8.689E-04 0.000E+00
          total   stress  (Ry/bohr**3)                   (kbar)     P=      568.69
   0.00510016   0.00000000   0.00000000          750.26        0.00        0.00
   0.00000000   0.00510016   0.00000000            0.00      750.26        0.00
   0.00000000   0.00000000   0.00139741            0.00        0.00      205.57


     BFGS Geometry Optimization
     Energy error            =      1.9E-01 Ry
     Gradient error          =      0.0E+00 Ry/Bohr
     Cell gradient error     =      7.5E+02 kbar

     number of scf cycles    =   1
     number of bfgs steps    =   0

     enthalpy           new  =    -450.8306464639 Ry

     new trust radius        =       0.3363471075 bohr
     new conv_thr            =       0.0000000100 Ry

     new unit-cell volume =    228.88505 a.u.^3 (    33.91726 Ang^3 )
     density =      5.17624 g/cm^3

CELL_PARAMETERS (alat=  5.58242261)
   1.127503949   0.000000000   0.000000000
   0.000000000   1.127503949   0.000000000
   0.000000000   0.000000000   1.034935167

ATOMIC_POSITIONS (crystal)
Fe               0.5000000000        0.5000000000        0.5000000000
Ti               0.0000000000        0.0000000000        0.0000000000
H                0.5000000000        0.0000000000        0.5000000000
H                0.0000000000        0.5000000000        0.5000000000



     Writing config-only to output data dir ./TiFe_H_faces_xy.save/ :
     XML data file     NEW-OLD atomic charge density approx. for the potential
     New effective cutoffs (rho, wfc): 1620.16  115.66

     Check: negative core charge=   -0.000002

     negative rho (up, down):  1.023E-03 0.000E+00

     total cpu time spent up to now is       74.0 secs

     per-process dynamical memory:   164.3 Mb

     Self-consistent Calculation

     iteration #  1     ecut=   124.00 Ry     beta= 0.70
     Davidson diagonalization with overlap
     c_bands:  1 eigenvalues not converged
     c_bands:  1 eigenvalues not converged
     c_bands:  1 eigenvalues not converged
     c_bands:  1 eigenvalues not converged
     c_bands:  1 eigenvalues not converged
     c_bands:  1 eigenvalues not converged
     c_bands:  1 eigenvalues not converged
     c_bands:  1 eigenvalues not converged
     c_bands:  1 eigenvalues not converged
     c_bands:  1 eigenvalues not converged
     ethr =  1.00E-06,  avg # of iterations = 15.3

     negative rho (up, down):  7.227E-04 0.000E+00

     total cpu time spent up to now is       86.6 secs

     total energy              =    -450.88424555 Ry
     estimated scf accuracy    <       0.03516415 Ry

     iteration #  2     ecut=   124.00 Ry     beta= 0.70
     Davidson diagonalization with overlap
     ethr =  1.17E-04,  avg # of iterations =  5.6

     negative rho (up, down):  7.946E-04 0.000E+00

     total cpu time spent up to now is       91.0 secs

     total energy              =    -450.80472731 Ry
     estimated scf accuracy    <       1.94310100 Ry

     iteration #  3     ecut=   124.00 Ry     beta= 0.70
     Davidson diagonalization with overlap
     ethr =  1.17E-04,  avg # of iterations =  4.6

     negative rho (up, down):  8.483E-04 0.000E+00

     total cpu time spent up to now is       94.9 secs

     total energy              =    -450.90301684 Ry
     estimated scf accuracy    <       0.02949373 Ry

     iteration #  4     ecut=   124.00 Ry     beta= 0.70
     Davidson diagonalization with overlap
     ethr =  9.83E-05,  avg # of iterations =  2.1

     negative rho (up, down):  8.681E-04 0.000E+00

     total cpu time spent up to now is       97.7 secs

     total energy              =    -450.90728196 Ry
     estimated scf accuracy    <       0.00372697 Ry

     iteration #  5     ecut=   124.00 Ry     beta= 0.70
     Davidson diagonalization with overlap
     ethr =  1.24E-05,  avg # of iterations =  4.6

     negative rho (up, down):  8.446E-04 0.000E+00

     total cpu time spent up to now is      101.4 secs

     total energy              =    -450.90798050 Ry
     estimated scf accuracy    <       0.00292234 Ry

     iteration #  6     ecut=   124.00 Ry     beta= 0.70
     Davidson diagonalization with overlap
     ethr =  9.74E-06,  avg # of iterations =  1.8

     negative rho (up, down):  8.401E-04 0.000E+00

     total cpu time spent up to now is      104.0 secs

     total energy              =    -450.90823188 Ry
     estimated scf accuracy    <       0.00010976 Ry

     iteration #  7     ecut=   124.00 Ry     beta= 0.70
     Davidson diagonalization with overlap
     ethr =  3.66E-07,  avg # of iterations =  4.5

     negative rho (up, down):  8.396E-04 0.000E+00

     total cpu time spent up to now is      107.6 secs

     total energy              =    -450.90828016 Ry
     estimated scf accuracy    <       0.00000512 Ry

     iteration #  8     ecut=   124.00 Ry     beta= 0.70
     Davidson diagonalization with overlap
     ethr =  1.71E-08,  avg # of iterations =  4.1

     negative rho (up, down):  8.392E-04 0.000E+00

     total cpu time spent up to now is      111.0 secs

     total energy              =    -450.90828125 Ry
     estimated scf accuracy    <       0.00000138 Ry

     iteration #  9     ecut=   124.00 Ry     beta= 0.70
     Davidson diagonalization with overlap
     ethr =  4.60E-09,  avg # of iterations =  2.3

     negative rho (up, down):  8.394E-04 0.000E+00

     total cpu time spent up to now is      113.9 secs

     total energy              =    -450.90828118 Ry
     estimated scf accuracy    <       0.00000164 Ry

     iteration # 10     ecut=   124.00 Ry     beta= 0.70
     Davidson diagonalization with overlap
     ethr =  4.60E-09,  avg # of iterations =  1.9

     negative rho (up, down):  8.394E-04 0.000E+00

     total cpu time spent up to now is      116.5 secs

     total energy              =    -450.90828133 Ry
     estimated scf accuracy    <       0.00000002 Ry

     iteration # 11     ecut=   124.00 Ry     beta= 0.70
     Davidson diagonalization with overlap
     ethr =  7.98E-11,  avg # of iterations =  5.1

     negative rho (up, down):  8.394E-04 0.000E+00

     total cpu time spent up to now is      120.8 secs

     End of self-consistent calculation

     Number of k-points >= 100: set verbosity='high' to print the bands.

     the Fermi energy is    13.8532 ev

!    total energy              =    -450.90828135 Ry
     estimated scf accuracy    <          6.1E-10 Ry
     smearing contrib. (-TS)   =       0.00008620 Ry
     internal energy E=F+TS    =    -450.90836756 Ry

     The total energy is F=E-TS. E is the sum of the following terms:
     one-electron contribution =    -181.26641431 Ry
     hartree contribution      =     103.86909556 Ry
     xc contribution           =     -54.25200117 Ry
     ewald contribution        =    -243.11028374 Ry
     one-center paw contrib.   =     -76.14876390 Ry

     convergence has been achieved in  11 iterations

     negative rho (up, down):  8.394E-04 0.000E+00

     Forces acting on atoms (cartesian axes, Ry/au):

     atom    1 type  1   force =     0.00000000    0.00000000    0.00000000
     atom    2 type  2   force =     0.00000000    0.00000000    0.00000000
     atom    3 type  3   force =     0.00000000    0.00000000    0.00000000
     atom    4 type  3   force =     0.00000000    0.00000000    0.00000000

     Total force =     0.000000     Total SCF correction =     0.000000


     Computing stress (Cartesian axis) and pressure


     negative rho (up, down):  8.394E-04 0.000E+00
          total   stress  (Ry/bohr**3)                   (kbar)     P=     -127.37
  -0.00062711   0.00000000   0.00000000          -92.25        0.00        0.00
   0.00000000  -0.00062711   0.00000000            0.00      -92.25        0.00
   0.00000000   0.00000000  -0.00134322            0.00        0.00     -197.60

     Energy error            =      7.8E-02 Ry
     Gradient error          =      0.0E+00 Ry/Bohr
     Cell gradient error     =      2.0E+02 kbar

     number of scf cycles    =   2
     number of bfgs steps    =   1

     enthalpy           old  =    -450.8306464639 Ry
     enthalpy           new  =    -450.9082813550 Ry

     CASE: enthalpy          _new < enthalpy          _old

     new trust radius        =       0.1025853863 bohr
     new conv_thr            =            1.0E-10 Ry

     new unit-cell volume =    216.53143 a.u.^3 (    32.08665 Ang^3 )
     density =      5.47155 g/cm^3

CELL_PARAMETERS (alat=  5.58242261)
   1.115731301   0.000000000   0.000000000
   0.000000000   1.115731301   0.000000000
   0.000000000   0.000000000   0.999847060

ATOMIC_POSITIONS (crystal)
Fe               0.5000000000        0.5000000000        0.5000000000
Ti               0.0000000000        0.0000000000        0.0000000000
H                0.5000000000        0.0000000000        0.5000000000
H                0.0000000000        0.5000000000        0.5000000000



     Writing config-only to output data dir ./TiFe_H_faces_xy.save/ :
     XML data file     NEW-OLD atomic charge density approx. for the potential
     New effective cutoffs (rho, wfc): 1735.82  123.89

     Check: negative core charge=   -0.000002

     negative rho (up, down):  7.981E-04 0.000E+00

     total cpu time spent up to now is      122.8 secs

     per-process dynamical memory:   164.3 Mb

     Self-consistent Calculation

     iteration #  1     ecut=   124.00 Ry     beta= 0.70
     Davidson diagonalization with overlap
     ethr =  1.00E-06,  avg # of iterations =  9.0

     negative rho (up, down):  8.348E-04 0.000E+00

     total cpu time spent up to now is      130.5 secs

     total energy              =    -450.91760410 Ry
     estimated scf accuracy    <       0.00132221 Ry

     iteration #  2     ecut=   124.00 Ry     beta= 0.70
     Davidson diagonalization with overlap
     ethr =  4.41E-06,  avg # of iterations =  5.0

     negative rho (up, down):  8.523E-04 0.000E+00

     total cpu time spent up to now is      134.7 secs

     total energy              =    -450.91280969 Ry
     estimated scf accuracy    <       0.09328659 Ry

     iteration #  3     ecut=   124.00 Ry     beta= 0.70
     Davidson diagonalization with overlap
     ethr =  4.41E-06,  avg # of iterations =  4.8

     negative rho (up, down):  8.395E-04 0.000E+00

     total cpu time spent up to now is      138.6 secs

     total energy              =    -450.91829248 Ry
     estimated scf accuracy    <       0.00317962 Ry

     iteration #  4     ecut=   124.00 Ry     beta= 0.70
     Davidson diagonalization with overlap
     ethr =  4.41E-06,  avg # of iterations =  1.9

     negative rho (up, down):  8.445E-04 0.000E+00

     total cpu time spent up to now is      141.2 secs

     total energy              =    -450.91848952 Ry
     estimated scf accuracy    <       0.00008742 Ry

     iteration #  5     ecut=   124.00 Ry     beta= 0.70
     Davidson diagonalization with overlap
     ethr =  2.91E-07,  avg # of iterations =  3.0

     negative rho (up, down):  8.479E-04 0.000E+00

     total cpu time spent up to now is      144.3 secs

     total energy              =    -450.91850321 Ry
     estimated scf accuracy    <       0.00000776 Ry

     iteration #  6     ecut=   124.00 Ry     beta= 0.70
     Davidson diagonalization with overlap
     ethr =  2.59E-08,  avg # of iterations =  4.1

     negative rho (up, down):  8.483E-04 0.000E+00

     total cpu time spent up to now is      147.7 secs

     total energy              =    -450.91850542 Ry
     estimated scf accuracy    <       0.00000043 Ry

     iteration #  7     ecut=   124.00 Ry     beta= 0.70
     Davidson diagonalization with overlap
     ethr =  1.44E-09,  avg # of iterations =  4.4

     negative rho (up, down):  8.486E-04 0.000E+00

     total cpu time spent up to now is      151.4 secs

     total energy              =    -450.91850563 Ry
     estimated scf accuracy    <       0.00000004 Ry

     iteration #  8     ecut=   124.00 Ry     beta= 0.70
     Davidson diagonalization with overlap
     ethr =  1.38E-10,  avg # of iterations =  4.0

     negative rho (up, down):  8.485E-04 0.000E+00

     total cpu time spent up to now is      154.9 secs

     total energy              =    -450.91850564 Ry
     estimated scf accuracy    <          6.0E-09 Ry

     iteration #  9     ecut=   124.00 Ry     beta= 0.70
     Davidson diagonalization with overlap
     ethr =  2.01E-11,  avg # of iterations =  3.0

     negative rho (up, down):  8.486E-04 0.000E+00

     total cpu time spent up to now is      157.9 secs

     total energy              =    -450.91850564 Ry
     estimated scf accuracy    <          1.8E-10 Ry

     iteration # 10     ecut=   124.00 Ry     beta= 0.70
     Davidson diagonalization with overlap
     ethr =  6.15E-13,  avg # of iterations =  5.2

     negative rho (up, down):  8.486E-04 0.000E+00

     total cpu time spent up to now is      162.2 secs

     End of self-consistent calculation

     Number of k-points >= 100: set verbosity='high' to print the bands.

     the Fermi energy is    14.7690 ev

!    total energy              =    -450.91850564 Ry
     estimated scf accuracy    <          4.2E-11 Ry
     smearing contrib. (-TS)   =       0.00007959 Ry
     internal energy E=F+TS    =    -450.91858524 Ry

     The total energy is F=E-TS. E is the sum of the following terms:
     one-electron contribution =    -173.91020381 Ry
     hartree contribution      =     101.25457831 Ry
     xc contribution           =     -54.34857076 Ry
     ewald contribution        =    -247.76433683 Ry
     one-center paw contrib.   =     -76.15005215 Ry

     convergence has been achieved in  10 iterations

     negative rho (up, down):  8.486E-04 0.000E+00

     Forces acting on atoms (cartesian axes, Ry/au):

     atom    1 type  1   force =     0.00000000    0.00000000    0.00000000
     atom    2 type  2   force =     0.00000000    0.00000000    0.00000000
     atom    3 type  3   force =     0.00000000    0.00000000    0.00000000
     atom    4 type  3   force =     0.00000000    0.00000000    0.00000000

     Total force =     0.000000     Total SCF correction =     0.000000


     Computing stress (Cartesian axis) and pressure


     negative rho (up, down):  8.486E-04 0.000E+00
          total   stress  (Ry/bohr**3)                   (kbar)     P=      -56.59
  -0.00018810   0.00000000   0.00000000          -27.67        0.00        0.00
   0.00000000  -0.00018810   0.00000000            0.00      -27.67        0.00
   0.00000000   0.00000000  -0.00077789            0.00        0.00     -114.43

     Energy error            =      1.0E-02 Ry
     Gradient error          =      0.0E+00 Ry/Bohr
     Cell gradient error     =      1.1E+02 kbar

     number of scf cycles    =   3
     number of bfgs steps    =   2

     enthalpy           old  =    -450.9082813550 Ry
     enthalpy           new  =    -450.9185056415 Ry

     CASE: enthalpy          _new < enthalpy          _old

     new trust radius        =       0.1136081568 bohr
     new conv_thr            =            1.0E-10 Ry

     new unit-cell volume =    206.68252 a.u.^3 (    30.62719 Ang^3 )
     density =      5.73229 g/cm^3

CELL_PARAMETERS (alat=  5.58242261)
   1.111730713   0.000000000   0.000000000
   0.000000000   1.111730713   0.000000000
   0.000000000   0.000000000   0.961250143

ATOMIC_POSITIONS (crystal)
Fe               0.5000000000        0.5000000000        0.5000000000
Ti               0.0000000000        0.0000000000        0.0000000000
H                0.5000000000        0.0000000000        0.5000000000
H                0.0000000000        0.5000000000        0.5000000000



     Writing config-only to output data dir ./TiFe_H_faces_xy.save/ :
     XML data file     NEW-OLD atomic charge density approx. for the potential
     New effective cutoffs (rho, wfc): 1877.94  134.00

     Check: negative core charge=   -0.000002

     negative rho (up, down):  8.184E-04 0.000E+00

     total cpu time spent up to now is      164.1 secs

     per-process dynamical memory:   164.4 Mb

     Self-consistent Calculation

     iteration #  1     ecut=   124.00 Ry     beta= 0.70
     Davidson diagonalization with overlap
     ethr =  1.00E-06,  avg # of iterations =  9.4

     negative rho (up, down):  8.172E-04 0.000E+00

     total cpu time spent up to now is      172.4 secs

     total energy              =    -450.91944266 Ry
     estimated scf accuracy    <       0.00358741 Ry

     iteration #  2     ecut=   124.00 Ry     beta= 0.70
     Davidson diagonalization with overlap
     ethr =  1.20E-05,  avg # of iterations =  5.4

     negative rho (up, down):  8.507E-04 0.000E+00

     total cpu time spent up to now is      176.7 secs

     total energy              =    -450.90248523 Ry
     estimated scf accuracy    <       0.36127139 Ry

     iteration #  3     ecut=   124.00 Ry     beta= 0.70
     Davidson diagonalization with overlap
     ethr =  1.20E-05,  avg # of iterations =  4.9

     negative rho (up, down):  8.485E-04 0.000E+00

     total cpu time spent up to now is      180.8 secs

     total energy              =    -450.92194602 Ry
     estimated scf accuracy    <       0.00053007 Ry

     iteration #  4     ecut=   124.00 Ry     beta= 0.70
     Davidson diagonalization with overlap
     ethr =  1.77E-06,  avg # of iterations =  2.4

     negative rho (up, down):  8.531E-04 0.000E+00

     total cpu time spent up to now is      183.6 secs

     total energy              =    -450.92200371 Ry
     estimated scf accuracy    <       0.00003221 Ry

     iteration #  5     ecut=   124.00 Ry     beta= 0.70
     Davidson diagonalization with overlap
     ethr =  1.07E-07,  avg # of iterations =  4.3

     negative rho (up, down):  8.540E-04 0.000E+00

     total cpu time spent up to now is      187.4 secs

     total energy              =    -450.92201662 Ry
     estimated scf accuracy    <       0.00001152 Ry

     iteration #  6     ecut=   124.00 Ry     beta= 0.70
     Davidson diagonalization with overlap
     ethr =  3.84E-08,  avg # of iterations =  1.4

     negative rho (up, down):  8.548E-04 0.000E+00

     total cpu time spent up to now is      189.9 secs

     total energy              =    -450.92201743 Ry
     estimated scf accuracy    <       0.00000044 Ry

     iteration #  7     ecut=   124.00 Ry     beta= 0.70
     Davidson diagonalization with overlap
     ethr =  1.46E-09,  avg # of iterations =  4.5

     negative rho (up, down):  8.548E-04 0.000E+00

     total cpu time spent up to now is      193.6 secs

     total energy              =    -450.92201762 Ry
     estimated scf accuracy    <       0.00000003 Ry

     iteration #  8     ecut=   124.00 Ry     beta= 0.70
     Davidson diagonalization with overlap
     ethr =  9.37E-11,  avg # of iterations =  4.4

     negative rho (up, down):  8.548E-04 0.000E+00

     total cpu time spent up to now is      197.3 secs

     total energy              =    -450.92201763 Ry
     estimated scf accuracy    <          4.3E-10 Ry

     iteration #  9     ecut=   124.00 Ry     beta= 0.70
     Davidson diagonalization with overlap
     ethr =  1.44E-12,  avg # of iterations =  5.1

     negative rho (up, down):  8.548E-04 0.000E+00

     total cpu time spent up to now is      201.5 secs

     total energy              =    -450.92201763 Ry
     estimated scf accuracy    <          3.5E-10 Ry

     iteration # 10     ecut=   124.00 Ry     beta= 0.70
     Davidson diagonalization with overlap
     ethr =  1.15E-12,  avg # of iterations =  2.0

     negative rho (up, down):  8.548E-04 0.000E+00

     total cpu time spent up to now is      204.3 secs

     End of self-consistent calculation

     Number of k-points >= 100: set verbosity='high' to print the bands.

     the Fermi energy is    15.5542 ev

!    total energy              =    -450.92201763 Ry
     estimated scf accuracy    <          4.4E-12 Ry
     smearing contrib. (-TS)   =       0.00005742 Ry
     internal energy E=F+TS    =    -450.92207505 Ry

     The total energy is F=E-TS. E is the sum of the following terms:
     one-electron contribution =    -167.61715465 Ry
     hartree contribution      =      99.05359125 Ry
     xc contribution           =     -54.43300921 Ry
     ewald contribution        =    -251.77443907 Ry
     one-center paw contrib.   =     -76.15106336 Ry

     convergence has been achieved in  10 iterations

     negative rho (up, down):  8.548E-04 0.000E+00

     Forces acting on atoms (cartesian axes, Ry/au):

     atom    1 type  1   force =     0.00000000    0.00000000    0.00000000
     atom    2 type  2   force =     0.00000000    0.00000000    0.00000000
     atom    3 type  3   force =     0.00000000    0.00000000    0.00000000
     atom    4 type  3   force =     0.00000000    0.00000000    0.00000000

     Total force =     0.000000     Total SCF correction =     0.000000


     Computing stress (Cartesian axis) and pressure


     negative rho (up, down):  8.548E-04 0.000E+00
          total   stress  (Ry/bohr**3)                   (kbar)     P=       13.37
   0.00014599   0.00000000   0.00000000           21.48        0.00        0.00
   0.00000000   0.00014599   0.00000000            0.00       21.48        0.00
   0.00000000   0.00000000  -0.00001929            0.00        0.00       -2.84

     Energy error            =      3.5E-03 Ry
     Gradient error          =      0.0E+00 Ry/Bohr
     Cell gradient error     =      2.1E+01 kbar

     number of scf cycles    =   4
     number of bfgs steps    =   3

     enthalpy           old  =    -450.9185056415 Ry
     enthalpy           new  =    -450.9220176345 Ry

     CASE: enthalpy          _new < enthalpy          _old

     new trust radius        =       0.0086926149 bohr
     new conv_thr            =            1.0E-10 Ry

     new unit-cell volume =    207.44599 a.u.^3 (    30.74032 Ang^3 )
     density =      5.71119 g/cm^3

CELL_PARAMETERS (alat=  5.58242261)
   1.115091710   0.000000000   0.000000000
   0.000000000   1.115091710   0.000000000
   0.000000000   0.000000000   0.958993665

ATOMIC_POSITIONS (crystal)
Fe               0.5000000000        0.5000000000        0.5000000000
Ti               0.0000000000        0.0000000000        0.0000000000
H                0.5000000000        0.0000000000        0.5000000000
H                0.0000000000        0.5000000000        0.5000000000



     Writing config-only to output data dir ./TiFe_H_faces_xy.save/ :
     XML data file     NEW-OLD atomic charge density approx. for the potential
     New effective cutoffs (rho, wfc): 1886.78  134.63

     Check: negative core charge=   -0.000002

     negative rho (up, down):  8.560E-04 0.000E+00

     total cpu time spent up to now is      206.2 secs

     per-process dynamical memory:   164.5 Mb

     Self-consistent Calculation

     iteration #  1     ecut=   124.00 Ry     beta= 0.70
     Davidson diagonalization with overlap
     ethr =  1.00E-06,  avg # of iterations =  3.7

     negative rho (up, down):  8.447E-04 0.000E+00

     total cpu time spent up to now is      210.4 secs

     total energy              =    -450.92204779 Ry
     estimated scf accuracy    <       0.00011732 Ry

     iteration #  2     ecut=   124.00 Ry     beta= 0.70
     Davidson diagonalization with overlap
     ethr =  3.91E-07,  avg # of iterations =  5.3

     negative rho (up, down):  8.513E-04 0.000E+00

     total cpu time spent up to now is      214.8 secs

     total energy              =    -450.92144624 Ry
     estimated scf accuracy    <       0.01466154 Ry

     iteration #  3     ecut=   124.00 Ry     beta= 0.70
     Davidson diagonalization with overlap
     ethr =  3.91E-07,  avg # of iterations =  4.6

     negative rho (up, down):  8.532E-04 0.000E+00

     total cpu time spent up to now is      218.7 secs

     total energy              =    -450.92214519 Ry
     estimated scf accuracy    <       0.00000769 Ry

     iteration #  4     ecut=   124.00 Ry     beta= 0.70
     Davidson diagonalization with overlap
     ethr =  2.56E-08,  avg # of iterations =  4.0

     negative rho (up, down):  8.525E-04 0.000E+00

     total cpu time spent up to now is      222.3 secs

     total energy              =    -450.92214827 Ry
     estimated scf accuracy    <       0.00000076 Ry

     iteration #  5     ecut=   124.00 Ry     beta= 0.70
     Davidson diagonalization with overlap
     ethr =  2.52E-09,  avg # of iterations =  3.9

     negative rho (up, down):  8.524E-04 0.000E+00

     total cpu time spent up to now is      225.7 secs

     total energy              =    -450.92214852 Ry
     estimated scf accuracy    <       0.00000004 Ry

     iteration #  6     ecut=   124.00 Ry     beta= 0.70
     Davidson diagonalization with overlap
     ethr =  1.48E-10,  avg # of iterations =  4.5

     negative rho (up, down):  8.524E-04 0.000E+00

     total cpu time spent up to now is      229.4 secs

     total energy              =    -450.92214854 Ry
     estimated scf accuracy    <          4.6E-09 Ry

     iteration #  7     ecut=   124.00 Ry     beta= 0.70
     Davidson diagonalization with overlap
     ethr =  1.55E-11,  avg # of iterations =  2.6

     negative rho (up, down):  8.524E-04 0.000E+00

     total cpu time spent up to now is      232.4 secs

     total energy              =    -450.92214854 Ry
     estimated scf accuracy    <          7.3E-10 Ry

     iteration #  8     ecut=   124.00 Ry     beta= 0.70
     Davidson diagonalization with overlap
     ethr =  2.44E-12,  avg # of iterations =  4.2

     negative rho (up, down):  8.524E-04 0.000E+00

     total cpu time spent up to now is      235.9 secs

     End of self-consistent calculation

     Number of k-points >= 100: set verbosity='high' to print the bands.

     the Fermi energy is    15.4768 ev

!    total energy              =    -450.92214854 Ry
     estimated scf accuracy    <          9.2E-11 Ry
     smearing contrib. (-TS)   =       0.00005727 Ry
     internal energy E=F+TS    =    -450.92220581 Ry

     The total energy is F=E-TS. E is the sum of the following terms:
     one-electron contribution =    -168.07516623 Ry
     hartree contribution      =      99.20905447 Ry
     xc contribution           =     -54.42421857 Ry
     ewald contribution        =    -251.48091758 Ry
     one-center paw contrib.   =     -76.15095789 Ry

     convergence has been achieved in   8 iterations

     negative rho (up, down):  8.524E-04 0.000E+00

     Forces acting on atoms (cartesian axes, Ry/au):

     atom    1 type  1   force =     0.00000000    0.00000000    0.00000000
     atom    2 type  2   force =     0.00000000    0.00000000    0.00000000
     atom    3 type  3   force =     0.00000000    0.00000000    0.00000000
     atom    4 type  3   force =     0.00000000    0.00000000    0.00000000

     Total force =     0.000000     Total SCF correction =     0.000000


     Computing stress (Cartesian axis) and pressure


     negative rho (up, down):  8.524E-04 0.000E+00
          total   stress  (Ry/bohr**3)                   (kbar)     P=        5.03
   0.00005415   0.00000000   0.00000000            7.97        0.00        0.00
   0.00000000   0.00005415   0.00000000            0.00        7.97        0.00
   0.00000000   0.00000000  -0.00000576            0.00        0.00       -0.85

     Energy error            =      1.3E-04 Ry
     Gradient error          =      0.0E+00 Ry/Bohr
     Cell gradient error     =      8.0E+00 kbar

     number of scf cycles    =   5
     number of bfgs steps    =   4

     enthalpy           old  =    -450.9220176345 Ry
     enthalpy           new  =    -450.9221485366 Ry

     CASE: enthalpy          _new < enthalpy          _old

     new trust radius        =       0.0050725782 bohr
     new conv_thr            =            1.0E-10 Ry

     new unit-cell volume =    207.91506 a.u.^3 (    30.80983 Ang^3 )
     density =      5.69830 g/cm^3

CELL_PARAMETERS (alat=  5.58242261)
   1.117055327   0.000000000   0.000000000
   0.000000000   1.117055327   0.000000000
   0.000000000   0.000000000   0.957785895

ATOMIC_POSITIONS (crystal)
Fe               0.5000000000        0.5000000000        0.5000000000
Ti               0.0000000000        0.0000000000        0.0000000000
H                0.5000000000        0.0000000000        0.5000000000
H                0.0000000000        0.5000000000        0.5000000000



     Writing config-only to output data dir ./TiFe_H_faces_xy.save/ :
     XML data file     NEW-OLD atomic charge density approx. for the potential
     New effective cutoffs (rho, wfc): 1891.53  134.96

     Check: negative core charge=   -0.000002

     negative rho (up, down):  8.533E-04 0.000E+00

     total cpu time spent up to now is      237.9 secs

     per-process dynamical memory:   164.5 Mb

     Self-consistent Calculation

     iteration #  1     ecut=   124.00 Ry     beta= 0.70
     Davidson diagonalization with overlap
     ethr =  1.00E-06,  avg # of iterations =  3.1

     negative rho (up, down):  8.467E-04 0.000E+00

     total cpu time spent up to now is      241.7 secs

     total energy              =    -450.92213152 Ry
     estimated scf accuracy    <       0.00004212 Ry

     iteration #  2     ecut=   124.00 Ry     beta= 0.70
     Davidson diagonalization with overlap
     ethr =  1.40E-07,  avg # of iterations =  5.2

     negative rho (up, down):  8.506E-04 0.000E+00

     total cpu time spent up to now is      246.0 secs

     total energy              =    -450.92190417 Ry
     estimated scf accuracy    <       0.00564810 Ry

     iteration #  3     ecut=   124.00 Ry     beta= 0.70
     Davidson diagonalization with overlap
     ethr =  1.40E-07,  avg # of iterations =  4.7

     negative rho (up, down):  8.514E-04 0.000E+00

     total cpu time spent up to now is      249.8 secs

     total energy              =    -450.92216820 Ry
     estimated scf accuracy    <       0.00000176 Ry

     iteration #  4     ecut=   124.00 Ry     beta= 0.70
     Davidson diagonalization with overlap
     ethr =  5.86E-09,  avg # of iterations =  4.1

     negative rho (up, down):  8.510E-04 0.000E+00

     total cpu time spent up to now is      253.4 secs

     total energy              =    -450.92216894 Ry
     estimated scf accuracy    <       0.00000021 Ry

     iteration #  5     ecut=   124.00 Ry     beta= 0.70
     Davidson diagonalization with overlap
     ethr =  7.01E-10,  avg # of iterations =  4.4

     negative rho (up, down):  8.510E-04 0.000E+00

     total cpu time spent up to now is      257.1 secs

     total energy              =    -450.92216902 Ry
     estimated scf accuracy    <       0.00000001 Ry

     iteration #  6     ecut=   124.00 Ry     beta= 0.70
     Davidson diagonalization with overlap
     ethr =  4.84E-11,  avg # of iterations =  4.4

     negative rho (up, down):  8.510E-04 0.000E+00

     total cpu time spent up to now is      260.6 secs

     total energy              =    -450.92216902 Ry
     estimated scf accuracy    <          1.6E-09 Ry

     iteration #  7     ecut=   124.00 Ry     beta= 0.70
     Davidson diagonalization with overlap
     ethr =  5.24E-12,  avg # of iterations =  3.2

     negative rho (up, down):  8.509E-04 0.000E+00

     total cpu time spent up to now is      263.8 secs

     total energy              =    -450.92216902 Ry
     estimated scf accuracy    <          1.9E-10 Ry

     iteration #  8     ecut=   124.00 Ry     beta= 0.70
     Davidson diagonalization with overlap
     ethr =  6.20E-13,  avg # of iterations =  4.6

     negative rho (up, down):  8.509E-04 0.000E+00

     total cpu time spent up to now is      267.3 secs

     End of self-consistent calculation

     Number of k-points >= 100: set verbosity='high' to print the bands.

     the Fermi energy is    15.4296 ev

!    total energy              =    -450.92216902 Ry
     estimated scf accuracy    <          1.4E-11 Ry
     smearing contrib. (-TS)   =       0.00005817 Ry
     internal energy E=F+TS    =    -450.92222719 Ry

     The total energy is F=E-TS. E is the sum of the following terms:
     one-electron contribution =    -168.35746202 Ry
     hartree contribution      =      99.30493452 Ry
     xc contribution           =     -54.41886722 Ry
     ewald contribution        =    -251.29993636 Ry
     one-center paw contrib.   =     -76.15089610 Ry

     convergence has been achieved in   8 iterations

     negative rho (up, down):  8.509E-04 0.000E+00

     Forces acting on atoms (cartesian axes, Ry/au):

     atom    1 type  1   force =     0.00000000    0.00000000    0.00000000
     atom    2 type  2   force =     0.00000000    0.00000000    0.00000000
     atom    3 type  3   force =     0.00000000    0.00000000    0.00000000
     atom    4 type  3   force =     0.00000000    0.00000000    0.00000000

     Total force =     0.000000     Total SCF correction =     0.000000


     Computing stress (Cartesian axis) and pressure


     negative rho (up, down):  8.509E-04 0.000E+00
          total   stress  (Ry/bohr**3)                   (kbar)     P=        0.01
   0.00000023   0.00000000   0.00000000            0.03        0.00        0.00
   0.00000000   0.00000023   0.00000000            0.00        0.03        0.00
   0.00000000   0.00000000  -0.00000019            0.00        0.00       -0.03

     Energy error            =      2.0E-05 Ry
     Gradient error          =      0.0E+00 Ry/Bohr
     Cell gradient error     =      3.4E-02 kbar

     bfgs converged in   6 scf cycles and   5 bfgs steps
     (criteria: energy <  1.0E-04 Ry, force <  1.0E-03 Ry/Bohr, cell <  1.0E-01 kbar)

     End of BFGS Geometry Optimization

     Final enthalpy           =    -450.9221690166 Ry

     File ./TiFe_H_faces_xy.bfgs deleted, as requested
Begin final coordinates
     new unit-cell volume =    207.91506 a.u.^3 (    30.80983 Ang^3 )
     density =      5.69830 g/cm^3

CELL_PARAMETERS (alat=  5.58242261)
   1.117055327   0.000000000   0.000000000
   0.000000000   1.117055327   0.000000000
   0.000000000   0.000000000   0.957785895

ATOMIC_POSITIONS (crystal)
Fe               0.5000000000        0.5000000000        0.5000000000
Ti               0.0000000000        0.0000000000        0.0000000000
H                0.5000000000        0.0000000000        0.5000000000
H                0.0000000000        0.5000000000        0.5000000000
End final coordinates



     Writing config-only to output data dir ./TiFe_H_faces_xy.save/ :
     XML data file
     Final scf calculation at the relaxed structure.
     The G-vectors are recalculated for the final unit cell
     Results may differ from those at the preceding step.

     Parallelization info
     --------------------
     sticks:   dense  smooth     PW     G-vecs:    dense   smooth      PW
     Min         336      96     27                15879     2418     377
     Max         338      98     28                15881     2419     380
     Sum        5385    1541    437               254079    38689    6065

     Using Slab Decomposition



     bravais-lattice index     =            0
     lattice parameter (alat)  =       5.5824  a.u.
     unit-cell volume          =     207.9151 (a.u.)^3
     number of atoms/cell      =            4
     number of atomic types    =            3
     number of electrons       =        30.00
     number of Kohn-Sham states=           19
     kinetic-energy cutoff     =     124.0000  Ry
     charge density cutoff     =    1736.0000  Ry
     scf convergence threshold =      1.0E-10
     mixing beta               =       0.7000
     number of iterations used =            8  plain     mixing
     press convergence thresh. =      1.0E-01
     Exchange-correlation= PBE
                           (   1   4   3   4   0   0   0)

     celldm(1)=   5.582423  celldm(2)=   0.000000  celldm(3)=   0.000000
     celldm(4)=   0.000000  celldm(5)=   0.000000  celldm(6)=   0.000000

     crystal axes: (cart. coord. in units of alat)
               a(1) = (   1.117055   0.000000   0.000000 )  
               a(2) = (   0.000000   1.117055   0.000000 )  
               a(3) = (   0.000000   0.000000   0.957786 )  

     reciprocal axes: (cart. coord. in units 2 pi/alat)
               b(1) = (  0.895211  0.000000  0.000000 )  
               b(2) = (  0.000000  0.895211  0.000000 )  
               b(3) = (  0.000000  0.000000  1.044075 )  


     PseudoPot. # 1 for Fe read from file:
     ../../pseudos/Fe.pbe-spn-kjpaw_psl.0.2.1.UPF
     MD5 check sum: e86618425769142926afa95317d90200
     Pseudo is Projector augmented-wave + core cor, Zval = 16.0
     Generated using "atomic" code by A. Dal Corso  v.5.0.99 svn rev. 10869
     Shape of augmentation charge: PSQ
     Using radial grid of 1191 points,  6 beta functions with: 
                l(1) =   0
                l(2) =   0
                l(3) =   1
                l(4) =   1
                l(5) =   2
                l(6) =   2
     Q(r) pseudized with 0 coefficients 


     PseudoPot. # 2 for Ti read from file:
     ../../pseudos/ti_pbe_v1.4.uspp.F.UPF
     MD5 check sum: 88a00a6731bd790ddea75d31a80cb452
     Pseudo is Ultrasoft + core correction, Zval = 12.0
     Generated by new atomic code, or converted to UPF format
     Using radial grid of  851 points,  6 beta functions with: 
                l(1) =   0
                l(2) =   0
                l(3) =   1
                l(4) =   1
                l(5) =   2
                l(6) =   2
     Q(r) pseudized with  6 coefficients,  rinner =    1.000   1.000   1.000
                                                       1.000   1.000

     PseudoPot. # 3 for H  read from file:
     ../../pseudos/H.pbe-rrkjus_psl.1.0.0.UPF
     MD5 check sum: f52b6d4d1c606e5624b1dc7b2218f220
     Pseudo is Ultrasoft, Zval =  1.0
     Generated using "atomic" code by A. Dal Corso  v.5.1
     Using radial grid of  929 points,  2 beta functions with: 
                l(1) =   0
                l(2) =   0
     Q(r) pseudized with 0 coefficients 


     atomic species   valence    mass     pseudopotential
     Fe               16.00    55.84500     Fe( 1.00)
     Ti               12.00    47.86700     Ti( 1.00)
     H                 1.00     1.00750     H ( 1.00)

     16 Sym. Ops., with inversion, found



   Cartesian axes

     site n.     atom                  positions (alat units)
         1        Fe     tau(   1) = (   0.5585277   0.5585277   0.4788929  )
         2        Ti     tau(   2) = (   0.0000000   0.0000000   0.0000000  )
         3        H      tau(   3) = (   0.5585277   0.0000000   0.4788929  )
         4        H      tau(   4) = (   0.0000000   0.5585277   0.4788929  )

     number of k points=   288  Marzari-Vanderbilt smearing, width (Ry)=  0.0050

     Number of k-points >= 100: set verbosity='high' to print them.

     Dense  grid:   254079 G-vectors     FFT dimensions: (  90,  90,  72)

     Smooth grid:    38689 G-vectors     FFT dimensions: (  45,  45,  40)

     Estimated max dynamical RAM per process >     104.88 MB

     Estimated total dynamical RAM >       1.64 GB

     Check: negative core charge=   -0.000001

     Initial potential from superposition of free atoms

     starting charge      28.9995, renormalised to      30.0000

     negative rho (up, down):  1.311E-03 0.000E+00
     Starting wfcs are   25 randomized atomic wfcs
     Checking if some PAW data can be deallocated... 

     total cpu time spent up to now is      271.4 secs

     per-process dynamical memory:   166.8 Mb

     Self-consistent Calculation

     iteration #  1     ecut=   124.00 Ry     beta= 0.70
     Davidson diagonalization with overlap
     c_bands:  2 eigenvalues not converged
     c_bands:  2 eigenvalues not converged
     c_bands:  2 eigenvalues not converged
     c_bands:  2 eigenvalues not converged
     c_bands:  1 eigenvalues not converged
     c_bands:  1 eigenvalues not converged
     c_bands:  1 eigenvalues not converged
     c_bands:  1 eigenvalues not converged
     c_bands:  1 eigenvalues not converged
     c_bands:  1 eigenvalues not converged
     c_bands:  1 eigenvalues not converged
     c_bands:  2 eigenvalues not converged
     c_bands:  1 eigenvalues not converged
     c_bands:  1 eigenvalues not converged
     c_bands:  1 eigenvalues not converged
     c_bands:  1 eigenvalues not converged
     c_bands:  1 eigenvalues not converged
     c_bands:  1 eigenvalues not converged
     c_bands:  1 eigenvalues not converged
     c_bands:  1 eigenvalues not converged
     c_bands:  1 eigenvalues not converged
     c_bands:  1 eigenvalues not converged
     c_bands:  1 eigenvalues not converged
     c_bands:  1 eigenvalues not converged
     c_bands:  1 eigenvalues not converged
     c_bands:  1 eigenvalues not converged
     c_bands:  1 eigenvalues not converged
     c_bands:  2 eigenvalues not converged
     c_bands:  1 eigenvalues not converged
     c_bands:  2 eigenvalues not converged
     c_bands:  2 eigenvalues not converged
     c_bands:  1 eigenvalues not converged
     c_bands:  1 eigenvalues not converged
     c_bands:  1 eigenvalues not converged
     c_bands:  2 eigenvalues not converged
     c_bands:  1 eigenvalues not converged
     c_bands:  1 eigenvalues not converged
     c_bands:  1 eigenvalues not converged
     c_bands:  1 eigenvalues not converged
     c_bands:  1 eigenvalues not converged
     c_bands:  1 eigenvalues not converged
     c_bands:  1 eigenvalues not converged
     c_bands:  1 eigenvalues not converged
     c_bands:  1 eigenvalues not converged
     c_bands:  1 eigenvalues not converged
     c_bands:  1 eigenvalues not converged
     c_bands:  1 eigenvalues not converged
     c_bands:  1 eigenvalues not converged
     c_bands:  1 eigenvalues not converged
     c_bands:  1 eigenvalues not converged
     c_bands:  2 eigenvalues not converged
     c_bands:  2 eigenvalues not converged
     c_bands:  1 eigenvalues not converged
     c_bands:  1 eigenvalues not converged
     c_bands:  1 eigenvalues not converged
     c_bands:  2 eigenvalues not converged
     c_bands:  1 eigenvalues not converged
     c_bands:  2 eigenvalues not converged
     c_bands:  1 eigenvalues not converged
     c_bands:  1 eigenvalues not converged
     c_bands:  1 eigenvalues not converged
     c_bands:  1 eigenvalues not converged
     c_bands:  2 eigenvalues not converged
     c_bands:  1 eigenvalues not converged
     c_bands:  1 eigenvalues not converged
     c_bands:  1 eigenvalues not converged
     c_bands:  1 eigenvalues not converged
     c_bands:  1 eigenvalues not converged
     c_bands:  1 eigenvalues not converged
     c_bands:  1 eigenvalues not converged
     c_bands:  1 eigenvalues not converged
     c_bands:  1 eigenvalues not converged
     c_bands:  1 eigenvalues not converged
     c_bands:  1 eigenvalues not converged
     c_bands:  1 eigenvalues not converged
     c_bands:  1 eigenvalues not converged
     c_bands:  1 eigenvalues not converged
     c_bands:  1 eigenvalues not converged
     c_bands:  1 eigenvalues not converged
     c_bands:  1 eigenvalues not converged
     c_bands:  1 eigenvalues not converged
     c_bands:  1 eigenvalues not converged
     c_bands:  1 eigenvalues not converged
     c_bands:  2 eigenvalues not converged
     c_bands:  2 eigenvalues not converged
     c_bands:  3 eigenvalues not converged
     ethr =  1.00E-06,  avg # of iterations = 17.6

     negative rho (up, down):  8.187E-05 0.000E+00

     total cpu time spent up to now is      290.4 secs

     total energy              =    -436.14257007 Ry
     estimated scf accuracy    <      18.51346843 Ry

     iteration #  2     ecut=   124.00 Ry     beta= 0.70
     Davidson diagonalization with overlap
     ethr =  1.00E-02,  avg # of iterations =  6.5

     negative rho (up, down):  1.486E-05 0.000E+00

     total cpu time spent up to now is      297.9 secs

     total energy              =    -449.75412732 Ry
     estimated scf accuracy    <      75.36733434 Ry

     iteration #  3     ecut=   124.00 Ry     beta= 0.70
     Davidson diagonalization with overlap
     ethr =  1.00E-02,  avg # of iterations =  3.1

     negative rho (up, down):  1.657E-04 0.000E+00

     total cpu time spent up to now is      302.7 secs

     total energy              =    -451.53481798 Ry
     estimated scf accuracy    <      17.67091003 Ry

     iteration #  4     ecut=   124.00 Ry     beta= 0.70
     Davidson diagonalization with overlap
     ethr =  1.00E-02,  avg # of iterations =  2.3

     negative rho (up, down):  2.642E-04 0.000E+00

     total cpu time spent up to now is      306.4 secs

     total energy              =    -451.63303855 Ry
     estimated scf accuracy    <       7.16845784 Ry

     iteration #  5     ecut=   124.00 Ry     beta= 0.70
     Davidson diagonalization with overlap
     ethr =  1.00E-02,  avg # of iterations =  1.1

     negative rho (up, down):  8.745E-04 0.000E+00

     total cpu time spent up to now is      309.7 secs

     total energy              =    -450.53845121 Ry
     estimated scf accuracy    <       5.76553642 Ry

     iteration #  6     ecut=   124.00 Ry     beta= 0.70
     Davidson diagonalization with overlap
     ethr =  1.00E-02,  avg # of iterations =  2.8

     negative rho (up, down):  8.856E-04 0.000E+00

     total cpu time spent up to now is      313.4 secs

     total energy              =    -450.88294328 Ry
     estimated scf accuracy    <       0.06819494 Ry

     iteration #  7     ecut=   124.00 Ry     beta= 0.70
     Davidson diagonalization with overlap
     ethr =  2.27E-04,  avg # of iterations =  6.2

     negative rho (up, down):  6.942E-04 0.000E+00

     total cpu time spent up to now is      319.4 secs

     total energy              =    -450.89070860 Ry
     estimated scf accuracy    <       0.09276628 Ry

     iteration #  8     ecut=   124.00 Ry     beta= 0.70
     Davidson diagonalization with overlap
     ethr =  2.27E-04,  avg # of iterations =  4.1

     negative rho (up, down):  7.287E-04 0.000E+00

     total cpu time spent up to now is      323.8 secs

     total energy              =    -450.94757760 Ry
     estimated scf accuracy    <       0.85137525 Ry

     iteration #  9     ecut=   124.00 Ry     beta= 0.70
     Davidson diagonalization with overlap
     ethr =  2.27E-04,  avg # of iterations =  1.0

     negative rho (up, down):  7.493E-04 0.000E+00

     total cpu time spent up to now is      327.0 secs

     total energy              =    -450.93618848 Ry
     estimated scf accuracy    <       0.49479582 Ry

     iteration # 10     ecut=   124.00 Ry     beta= 0.70
     Davidson diagonalization with overlap
     ethr =  2.27E-04,  avg # of iterations =  1.1

     negative rho (up, down):  7.592E-04 0.000E+00

     total cpu time spent up to now is      330.2 secs

     total energy              =    -450.93016376 Ry
     estimated scf accuracy    <       0.27760194 Ry

     iteration # 11     ecut=   124.00 Ry     beta= 0.70
     Davidson diagonalization with overlap
     ethr =  2.27E-04,  avg # of iterations =  1.0

     negative rho (up, down):  7.515E-04 0.000E+00

     total cpu time spent up to now is      333.4 secs

     total energy              =    -450.93783832 Ry
     estimated scf accuracy    <       0.15033664 Ry

     iteration # 12     ecut=   124.00 Ry     beta= 0.70
     Davidson diagonalization with overlap
     ethr =  2.27E-04,  avg # of iterations =  1.0

     negative rho (up, down):  8.235E-04 0.000E+00

     total cpu time spent up to now is      336.6 secs

     total energy              =    -450.91215974 Ry
     estimated scf accuracy    <       0.27605713 Ry

     iteration # 13     ecut=   124.00 Ry     beta= 0.70
     Davidson diagonalization with overlap
     ethr =  2.27E-04,  avg # of iterations =  1.5

     negative rho (up, down):  8.424E-04 0.000E+00

     total cpu time spent up to now is      339.9 secs

     total energy              =    -450.92128473 Ry
     estimated scf accuracy    <       0.00983411 Ry

     iteration # 14     ecut=   124.00 Ry     beta= 0.70
     Davidson diagonalization with overlap
     ethr =  3.28E-05,  avg # of iterations =  3.6

     negative rho (up, down):  8.239E-04 0.000E+00

     total cpu time spent up to now is      343.8 secs

     total energy              =    -450.92235646 Ry
     estimated scf accuracy    <       0.00017931 Ry

     iteration # 15     ecut=   124.00 Ry     beta= 0.70
     Davidson diagonalization with overlap
     ethr =  5.98E-07,  avg # of iterations =  5.6

     negative rho (up, down):  8.371E-04 0.000E+00

     total cpu time spent up to now is      349.5 secs

     total energy              =    -450.92238228 Ry
     estimated scf accuracy    <       0.00465009 Ry

     iteration # 16     ecut=   124.00 Ry     beta= 0.70
     Davidson diagonalization with overlap
     ethr =  5.98E-07,  avg # of iterations =  3.6

     negative rho (up, down):  8.383E-04 0.000E+00

     total cpu time spent up to now is      353.8 secs

     total energy              =    -450.92251993 Ry
     estimated scf accuracy    <       0.00024761 Ry

     iteration # 17     ecut=   124.00 Ry     beta= 0.70
     Davidson diagonalization with overlap
     ethr =  5.98E-07,  avg # of iterations =  1.0

     negative rho (up, down):  8.397E-04 0.000E+00

     total cpu time spent up to now is      357.0 secs

     total energy              =    -450.92251572 Ry
     estimated scf accuracy    <       0.00007883 Ry

     iteration # 18     ecut=   124.00 Ry     beta= 0.70
     Davidson diagonalization with overlap
     ethr =  2.63E-07,  avg # of iterations =  1.7

     negative rho (up, down):  8.400E-04 0.000E+00

     total cpu time spent up to now is      360.3 secs

     total energy              =    -450.92252157 Ry
     estimated scf accuracy    <       0.00000008 Ry

     iteration # 19     ecut=   124.00 Ry     beta= 0.70
     Davidson diagonalization with overlap
     c_bands:  1 eigenvalues not converged
     c_bands:  1 eigenvalues not converged
     ethr =  2.69E-10,  avg # of iterations = 10.0

     negative rho (up, down):  8.399E-04 0.000E+00

     total cpu time spent up to now is      370.2 secs

     total energy              =    -450.92252312 Ry
     estimated scf accuracy    <       0.00000159 Ry

     iteration # 20     ecut=   124.00 Ry     beta= 0.70
     Davidson diagonalization with overlap
     ethr =  2.69E-10,  avg # of iterations =  3.0

     negative rho (up, down):  8.398E-04 0.000E+00

     total cpu time spent up to now is      374.1 secs

     total energy              =    -450.92252309 Ry
     estimated scf accuracy    <       0.00000021 Ry

     iteration # 21     ecut=   124.00 Ry     beta= 0.70
     Davidson diagonalization with overlap
     ethr =  2.69E-10,  avg # of iterations =  3.5

     negative rho (up, down):  8.399E-04 0.000E+00

     total cpu time spent up to now is      378.5 secs

     total energy              =    -450.92252312 Ry
     estimated scf accuracy    <       0.00000019 Ry

     iteration # 22     ecut=   124.00 Ry     beta= 0.70
     Davidson diagonalization with overlap
     ethr =  2.69E-10,  avg # of iterations =  1.3

     negative rho (up, down):  8.399E-04 0.000E+00

     total cpu time spent up to now is      381.8 secs

     total energy              =    -450.92252313 Ry
     estimated scf accuracy    <       0.00000001 Ry

     iteration # 23     ecut=   124.00 Ry     beta= 0.70
     Davidson diagonalization with overlap
     ethr =  4.42E-11,  avg # of iterations =  3.1

     negative rho (up, down):  8.399E-04 0.000E+00

     total cpu time spent up to now is      385.5 secs

     total energy              =    -450.92252313 Ry
     estimated scf accuracy    <          4.9E-09 Ry

     iteration # 24     ecut=   124.00 Ry     beta= 0.70
     Davidson diagonalization with overlap
     ethr =  1.63E-11,  avg # of iterations =  1.2

     negative rho (up, down):  8.399E-04 0.000E+00

     total cpu time spent up to now is      388.8 secs

     total energy              =    -450.92252313 Ry
     estimated scf accuracy    <          4.6E-10 Ry

     iteration # 25     ecut=   124.00 Ry     beta= 0.70
     Davidson diagonalization with overlap
     ethr =  1.54E-12,  avg # of iterations =  2.9

     negative rho (up, down):  8.399E-04 0.000E+00

     total cpu time spent up to now is      392.5 secs

     End of self-consistent calculation

     Number of k-points >= 100: set verbosity='high' to print the bands.

     the Fermi energy is    15.4296 ev

!    total energy              =    -450.92252313 Ry
     estimated scf accuracy    <          5.4E-11 Ry
     smearing contrib. (-TS)   =       0.00005816 Ry
     internal energy E=F+TS    =    -450.92258129 Ry

     The total energy is F=E-TS. E is the sum of the following terms:
     one-electron contribution =    -168.35688570 Ry
     hartree contribution      =      99.30439238 Ry
     xc contribution           =     -54.41919289 Ry
     ewald contribution        =    -251.29993636 Ry
     one-center paw contrib.   =     -76.15095872 Ry

     convergence has been achieved in  25 iterations

     negative rho (up, down):  8.399E-04 0.000E+00

     Forces acting on atoms (cartesian axes, Ry/au):

     atom    1 type  1   force =     0.00000000    0.00000000    0.00000000
     atom    2 type  2   force =     0.00000000    0.00000000    0.00000000
     atom    3 type  3   force =     0.00000000    0.00000000    0.00000000
     atom    4 type  3   force =     0.00000000    0.00000000    0.00000000

     Total force =     0.000000     Total SCF correction =     0.000000


     Computing stress (Cartesian axis) and pressure


     negative rho (up, down):  8.399E-04 0.000E+00
          total   stress  (Ry/bohr**3)                   (kbar)     P=       -0.43
  -0.00000319   0.00000000   0.00000000           -0.47        0.00        0.00
   0.00000000  -0.00000319   0.00000000            0.00       -0.47        0.00
   0.00000000   0.00000000  -0.00000242            0.00        0.00       -0.36


     Writing all to output data dir ./TiFe_H_faces_xy.save/ :
     XML data file
     init_run     :      4.41s CPU      4.59s WALL (       2 calls)
     electrons    :    362.41s CPU    376.16s WALL (       7 calls)
     update_pot   :      0.40s CPU      0.47s WALL (       5 calls)
     forces       :      1.93s CPU      2.04s WALL (       7 calls)
     stress       :      8.99s CPU      9.29s WALL (       7 calls)

     Called by init_run:
     wfcinit      :      2.69s CPU      2.80s WALL (       2 calls)
     potinit      :      0.53s CPU      0.54s WALL (       2 calls)
     hinit0       :      0.69s CPU      0.71s WALL (       2 calls)

     Called by electrons:
     c_bands      :    305.26s CPU    314.58s WALL (      96 calls)
     sum_band     :     43.48s CPU     45.77s WALL (      96 calls)
     v_of_rho     :      1.37s CPU      1.56s WALL (     103 calls)
     newd         :      7.43s CPU      8.76s WALL (     103 calls)
     PAW_pot      :      5.78s CPU      6.49s WALL (     108 calls)
     mix_rho      :      0.15s CPU      0.17s WALL (      96 calls)

     Called by c_bands:
     init_us_2    :      6.16s CPU      6.43s WALL (   61344 calls)
     cegterg      :    295.14s CPU    303.90s WALL (   27648 calls)

     Called by *egterg:
     cdiaghg      :     49.61s CPU     50.90s WALL (  128061 calls)
     h_psi        :    208.29s CPU    214.95s WALL (  130077 calls)
     s_psi        :      4.94s CPU      5.11s WALL (  130077 calls)
     g_psi        :      1.12s CPU      1.15s WALL (  101853 calls)

     Called by h_psi:
     h_psi:calbec :      9.34s CPU      9.63s WALL (  130077 calls)
     vloc_psi     :    192.63s CPU    198.80s WALL (  130077 calls)
     add_vuspsi   :      5.18s CPU      5.36s WALL (  130077 calls)

     General routines
     calbec       :     14.32s CPU     14.75s WALL (  193437 calls)
     fft          :      1.40s CPU      1.63s WALL (    1505 calls)
     ffts         :      0.39s CPU      0.40s WALL (     199 calls)
     fftw         :    185.01s CPU    190.77s WALL ( 3687626 calls)
     interpolate  :      0.45s CPU      0.49s WALL (     103 calls)

     Parallel routines

     PWSCF        :    379.49s CPU    394.47s WALL


   This run was terminated on:  23: 5:24  12Nov2025            

=------------------------------------------------------------------------------=
   JOB DONE.
=------------------------------------------------------------------------------=
