
     Program PWSCF v.7.4 starts on 12Nov2025 at 23:28:54 

     This program is part of the open-source Quantum ESPRESSO suite
     for quantum simulation of materials; please cite
         "P. Giannozzi et al., J. Phys.:Condens. Matter 21 395502 (2009);
         "P. Giannozzi et al., J. Phys.:Condens. Matter 29 465901 (2017);
         "P. Giannozzi et al., J. Chem. Phys. 152 154105 (2020);
          URL http://www.quantum-espresso.org", 
     in publications or presentations arising from this work. More details at
     http://www.quantum-espresso.org/quote

     Parallel version (MPI & OpenMP), running on      16 processor cores
     Number of MPI processes:                16
     Threads/MPI process:                     1

     MPI processes distributed on     1 nodes
     201317 MiB available memory on the printing compute node when the environment starts

     Reading input from TiFe_H_faces_z.in

     Current dimensions of program PWSCF are:
     Max number of different atomic species (ntypx) = 10
     Max number of k-points (npk) =  40000
     Max angular momentum in pseudopotentials (lmaxx) =  4
     file Fe.pbe-spn-kjpaw_psl.0.2.1.UPF: wavefunction(s)  3D renormalized

     IMPORTANT: XC functional enforced from input :
     Exchange-correlation= PBE
                           (   1   4   3   4   0   0   0)
     Any further DFT definition will be discarded
     Please, verify this is what you really want

     Message from routine setup:
     using ibrav=0 with symmetry is DISCOURAGED, use correct ibrav instead

     R & G space division:  proc/nbgrp/npool/nimage =      16
     Subspace diagonalization in iterative solution of the eigenvalue problem:
     a serial algorithm will be used


     Parallelization info
     --------------------
     sticks:   dense  smooth     PW     G-vecs:    dense   smooth      PW
     Min         269      76     22                13288     2024     320
     Max         271      77     23                13289     2027     323
     Sum        4309    1225    357               212623    32423    5137

     Using Slab Decomposition



     bravais-lattice index     =            0
     lattice parameter (alat)  =       5.5824  a.u.
     unit-cell volume          =     173.9675 (a.u.)^3
     number of atoms/cell      =            3
     number of atomic types    =            3
     number of electrons       =        29.00
     number of Kohn-Sham states=           19
     kinetic-energy cutoff     =     124.0000  Ry
     charge density cutoff     =    1736.0000  Ry
     scf convergence threshold =      1.0E-08
     mixing beta               =       0.7000
     number of iterations used =            8  plain     mixing
     energy convergence thresh.=      1.0E-04
     force convergence thresh. =      1.0E-03
     press convergence thresh. =      1.0E-01
     Exchange-correlation= PBE
                           (   1   4   3   4   0   0   0)
     nstep                     =           50


     celldm(1)=   5.582423  celldm(2)=   0.000000  celldm(3)=   0.000000
     celldm(4)=   0.000000  celldm(5)=   0.000000  celldm(6)=   0.000000

     crystal axes: (cart. coord. in units of alat)
               a(1) = (   1.000000   0.000000   0.000000 )  
               a(2) = (   0.000000   1.000000   0.000000 )  
               a(3) = (   0.000000   0.000000   1.000000 )  

     reciprocal axes: (cart. coord. in units 2 pi/alat)
               b(1) = (  1.000000  0.000000  0.000000 )  
               b(2) = (  0.000000  1.000000  0.000000 )  
               b(3) = (  0.000000  0.000000  1.000000 )  


     PseudoPot. # 1 for Fe read from file:
     ../../pseudos/Fe.pbe-spn-kjpaw_psl.0.2.1.UPF
     MD5 check sum: e86618425769142926afa95317d90200
     Pseudo is Projector augmented-wave + core cor, Zval = 16.0
     Generated using "atomic" code by A. Dal Corso  v.5.0.99 svn rev. 10869
     Shape of augmentation charge: PSQ
     Using radial grid of 1191 points,  6 beta functions with: 
                l(1) =   0
                l(2) =   0
                l(3) =   1
                l(4) =   1
                l(5) =   2
                l(6) =   2
     Q(r) pseudized with 0 coefficients 


     PseudoPot. # 2 for Ti read from file:
     ../../pseudos/ti_pbe_v1.4.uspp.F.UPF
     MD5 check sum: 88a00a6731bd790ddea75d31a80cb452
     Pseudo is Ultrasoft + core correction, Zval = 12.0
     Generated by new atomic code, or converted to UPF format
     Using radial grid of  851 points,  6 beta functions with: 
                l(1) =   0
                l(2) =   0
                l(3) =   1
                l(4) =   1
                l(5) =   2
                l(6) =   2
     Q(r) pseudized with  6 coefficients,  rinner =    1.000   1.000   1.000
                                                       1.000   1.000

     PseudoPot. # 3 for H  read from file:
     ../../pseudos/H.pbe-rrkjus_psl.1.0.0.UPF
     MD5 check sum: f52b6d4d1c606e5624b1dc7b2218f220
     Pseudo is Ultrasoft, Zval =  1.0
     Generated using "atomic" code by A. Dal Corso  v.5.1
     Using radial grid of  929 points,  2 beta functions with: 
                l(1) =   0
                l(2) =   0
     Q(r) pseudized with 0 coefficients 


     atomic species   valence    mass     pseudopotential
     Fe               16.00    55.84500     Fe( 1.00)
     Ti               12.00    47.86700     Ti( 1.00)
     H                 1.00     1.00750     H ( 1.00)

     16 Sym. Ops., with inversion, found



   Cartesian axes

     site n.     atom                  positions (alat units)
         1        Fe     tau(   1) = (   0.5000000   0.5000000   0.5000000  )
         2        Ti     tau(   2) = (   0.0000000   0.0000000   0.0000000  )
         3        H      tau(   3) = (   0.5000000   0.5000000   0.0000000  )

     number of k points=   288  Marzari-Vanderbilt smearing, width (Ry)=  0.0050

     Number of k-points >= 100: set verbosity='high' to print them.

     Dense  grid:   212623 G-vectors     FFT dimensions: (  75,  75,  75)

     Smooth grid:    32423 G-vectors     FFT dimensions: (  40,  40,  40)

     Estimated max dynamical RAM per process >      90.33 MB

     Estimated total dynamical RAM >       1.41 GB

     Check: negative core charge=   -0.000001

     Initial potential from superposition of free atoms

     starting charge      27.9995, renormalised to      29.0000

     negative rho (up, down):  1.342E-03 0.000E+00
     Starting wfcs are   24 randomized atomic wfcs
     Checking if some PAW data can be deallocated... 

     total cpu time spent up to now is        2.3 secs

     per-process dynamical memory:   160.1 Mb

     Self-consistent Calculation

     iteration #  1     ecut=   124.00 Ry     beta= 0.70
     Davidson diagonalization with overlap
     ethr =  1.00E-02,  avg # of iterations =  2.1

     negative rho (up, down):  1.677E-05 0.000E+00

     total cpu time spent up to now is        5.3 secs

     total energy              =    -438.28478083 Ry
     estimated scf accuracy    <      14.59071492 Ry

     iteration #  2     ecut=   124.00 Ry     beta= 0.70
     Davidson diagonalization with overlap
     ethr =  1.00E-02,  avg # of iterations =  6.0

     negative rho (up, down):  7.774E-05 0.000E+00

     total cpu time spent up to now is       10.5 secs

     total energy              =    -449.73902010 Ry
     estimated scf accuracy    <      57.31391770 Ry

     iteration #  3     ecut=   124.00 Ry     beta= 0.70
     Davidson diagonalization with overlap
     ethr =  1.00E-02,  avg # of iterations =  2.9

     negative rho (up, down):  3.163E-04 0.000E+00

     total cpu time spent up to now is       14.0 secs

     total energy              =    -449.69513158 Ry
     estimated scf accuracy    <      14.56944298 Ry

     iteration #  4     ecut=   124.00 Ry     beta= 0.70
     Davidson diagonalization with overlap
     ethr =  1.00E-02,  avg # of iterations =  2.6

     negative rho (up, down):  3.055E-04 0.000E+00

     total cpu time spent up to now is       17.0 secs

     total energy              =    -450.20871255 Ry
     estimated scf accuracy    <       3.99190543 Ry

     iteration #  5     ecut=   124.00 Ry     beta= 0.70
     Davidson diagonalization with overlap
     ethr =  1.00E-02,  avg # of iterations =  1.0

     negative rho (up, down):  4.827E-04 0.000E+00

     total cpu time spent up to now is       19.3 secs

     total energy              =    -449.65729503 Ry
     estimated scf accuracy    <       3.77612757 Ry

     iteration #  6     ecut=   124.00 Ry     beta= 0.70
     Davidson diagonalization with overlap
     ethr =  1.00E-02,  avg # of iterations =  1.6

     negative rho (up, down):  5.674E-04 0.000E+00

     total cpu time spent up to now is       21.8 secs

     total energy              =    -449.77566731 Ry
     estimated scf accuracy    <       0.63318109 Ry

     iteration #  7     ecut=   124.00 Ry     beta= 0.70
     Davidson diagonalization with overlap
     ethr =  2.18E-03,  avg # of iterations =  2.3

     negative rho (up, down):  8.759E-04 0.000E+00

     total cpu time spent up to now is       24.4 secs

     total energy              =    -449.72420961 Ry
     estimated scf accuracy    <       0.31487823 Ry

     iteration #  8     ecut=   124.00 Ry     beta= 0.70
     Davidson diagonalization with overlap
     ethr =  1.09E-03,  avg # of iterations =  2.4

     negative rho (up, down):  1.120E-03 0.000E+00

     total cpu time spent up to now is       27.3 secs

     total energy              =    -449.66698206 Ry
     estimated scf accuracy    <       0.24136705 Ry

     iteration #  9     ecut=   124.00 Ry     beta= 0.70
     Davidson diagonalization with overlap
     ethr =  8.32E-04,  avg # of iterations =  3.8

     negative rho (up, down):  1.112E-03 0.000E+00

     total cpu time spent up to now is       30.5 secs

     total energy              =    -449.78156727 Ry
     estimated scf accuracy    <       1.19121087 Ry

     iteration # 10     ecut=   124.00 Ry     beta= 0.70
     Davidson diagonalization with overlap
     ethr =  8.32E-04,  avg # of iterations =  1.1

     negative rho (up, down):  1.388E-03 0.000E+00

     total cpu time spent up to now is       32.9 secs

     total energy              =    -449.91768768 Ry
     estimated scf accuracy    <       1.14899073 Ry

     iteration # 11     ecut=   124.00 Ry     beta= 0.70
     Davidson diagonalization with overlap
     ethr =  8.32E-04,  avg # of iterations =  2.5

     negative rho (up, down):  1.316E-03 0.000E+00

     total cpu time spent up to now is       35.6 secs

     total energy              =    -449.85213397 Ry
     estimated scf accuracy    <       6.35886118 Ry

     iteration # 12     ecut=   124.00 Ry     beta= 0.70
     Davidson diagonalization with overlap
     ethr =  8.32E-04,  avg # of iterations =  1.1

     negative rho (up, down):  1.279E-03 0.000E+00

     total cpu time spent up to now is       38.0 secs

     total energy              =    -449.90756612 Ry
     estimated scf accuracy    <       3.06670149 Ry

     iteration # 13     ecut=   124.00 Ry     beta= 0.70
     Davidson diagonalization with overlap
     ethr =  8.32E-04,  avg # of iterations =  1.0

     negative rho (up, down):  6.156E-04 0.000E+00

     total cpu time spent up to now is       40.4 secs

     total energy              =    -449.39166463 Ry
     estimated scf accuracy    <       4.15596891 Ry

     iteration # 14     ecut=   124.00 Ry     beta= 0.70
     Davidson diagonalization with overlap
     ethr =  8.32E-04,  avg # of iterations =  3.7

     negative rho (up, down):  6.572E-04 0.000E+00

     total cpu time spent up to now is       43.8 secs

     total energy              =    -449.72127247 Ry
     estimated scf accuracy    <       0.18313587 Ry

     iteration # 15     ecut=   124.00 Ry     beta= 0.70
     Davidson diagonalization with overlap
     ethr =  6.32E-04,  avg # of iterations =  1.0

     negative rho (up, down):  7.286E-04 0.000E+00

     total cpu time spent up to now is       46.2 secs

     total energy              =    -449.72009966 Ry
     estimated scf accuracy    <       0.11659897 Ry

     iteration # 16     ecut=   124.00 Ry     beta= 0.70
     Davidson diagonalization with overlap
     ethr =  4.02E-04,  avg # of iterations =  1.0

     negative rho (up, down):  7.309E-04 0.000E+00

     total cpu time spent up to now is       48.5 secs

     total energy              =    -449.71984463 Ry
     estimated scf accuracy    <       0.09569966 Ry

     iteration # 17     ecut=   124.00 Ry     beta= 0.70
     Davidson diagonalization with overlap
     ethr =  3.30E-04,  avg # of iterations =  1.0

     negative rho (up, down):  7.816E-04 0.000E+00

     total cpu time spent up to now is       50.9 secs

     total energy              =    -449.71475689 Ry
     estimated scf accuracy    <       0.08455308 Ry

     iteration # 18     ecut=   124.00 Ry     beta= 0.70
     Davidson diagonalization with overlap
     ethr =  2.92E-04,  avg # of iterations =  1.0

     negative rho (up, down):  8.411E-04 0.000E+00

     total cpu time spent up to now is       53.3 secs

     total energy              =    -449.71283652 Ry
     estimated scf accuracy    <       0.03853386 Ry

     iteration # 19     ecut=   124.00 Ry     beta= 0.70
     Davidson diagonalization with overlap
     ethr =  1.33E-04,  avg # of iterations =  1.0

     negative rho (up, down):  9.101E-04 0.000E+00

     total cpu time spent up to now is       55.7 secs

     total energy              =    -449.71059750 Ry
     estimated scf accuracy    <       0.01672658 Ry

     iteration # 20     ecut=   124.00 Ry     beta= 0.70
     Davidson diagonalization with overlap
     ethr =  5.77E-05,  avg # of iterations =  1.3

     negative rho (up, down):  9.540E-04 0.000E+00

     total cpu time spent up to now is       58.1 secs

     total energy              =    -449.71166916 Ry
     estimated scf accuracy    <       0.00017803 Ry

     iteration # 21     ecut=   124.00 Ry     beta= 0.70
     Davidson diagonalization with overlap
     ethr =  6.14E-07,  avg # of iterations =  6.3

     negative rho (up, down):  9.306E-04 0.000E+00

     total cpu time spent up to now is       63.2 secs

     total energy              =    -449.71179235 Ry
     estimated scf accuracy    <       0.00357594 Ry

     iteration # 22     ecut=   124.00 Ry     beta= 0.70
     Davidson diagonalization with overlap
     ethr =  6.14E-07,  avg # of iterations =  3.2

     negative rho (up, down):  9.273E-04 0.000E+00

     total cpu time spent up to now is       66.4 secs

     total energy              =    -449.71186691 Ry
     estimated scf accuracy    <       0.00035843 Ry

     iteration # 23     ecut=   124.00 Ry     beta= 0.70
     Davidson diagonalization with overlap
     ethr =  6.14E-07,  avg # of iterations =  1.9

     negative rho (up, down):  9.286E-04 0.000E+00

     total cpu time spent up to now is       69.0 secs

     total energy              =    -449.71189071 Ry
     estimated scf accuracy    <       0.00000255 Ry

     iteration # 24     ecut=   124.00 Ry     beta= 0.70
     Davidson diagonalization with overlap
     ethr =  8.79E-09,  avg # of iterations =  4.7

     negative rho (up, down):  9.293E-04 0.000E+00

     total cpu time spent up to now is       72.9 secs

     total energy              =    -449.71189239 Ry
     estimated scf accuracy    <       0.00001572 Ry

     iteration # 25     ecut=   124.00 Ry     beta= 0.70
     Davidson diagonalization with overlap
     ethr =  8.79E-09,  avg # of iterations =  1.8

     negative rho (up, down):  9.297E-04 0.000E+00

     total cpu time spent up to now is       75.5 secs

     total energy              =    -449.71189326 Ry
     estimated scf accuracy    <       0.00000003 Ry

     iteration # 26     ecut=   124.00 Ry     beta= 0.70
     Davidson diagonalization with overlap
     ethr =  9.14E-11,  avg # of iterations =  6.0

     negative rho (up, down):  9.295E-04 0.000E+00

     total cpu time spent up to now is       80.3 secs

     total energy              =    -449.71189327 Ry
     estimated scf accuracy    <       0.00000033 Ry

     iteration # 27     ecut=   124.00 Ry     beta= 0.70
     Davidson diagonalization with overlap
     ethr =  9.14E-11,  avg # of iterations =  3.1

     negative rho (up, down):  9.296E-04 0.000E+00

     total cpu time spent up to now is       83.4 secs

     End of self-consistent calculation

     Number of k-points >= 100: set verbosity='high' to print the bands.

     the Fermi energy is    18.4340 ev

!    total energy              =    -449.71189329 Ry
     estimated scf accuracy    <          7.4E-09 Ry
     smearing contrib. (-TS)   =      -0.00012956 Ry
     internal energy E=F+TS    =    -449.71176372 Ry

     The total energy is F=E-TS. E is the sum of the following terms:
     one-electron contribution =    -149.89077325 Ry
     hartree contribution      =      92.22570185 Ry
     xc contribution           =     -53.86442347 Ry
     ewald contribution        =    -262.02782464 Ry
     one-center paw contrib.   =     -76.15444422 Ry

     convergence has been achieved in  27 iterations

     negative rho (up, down):  9.296E-04 0.000E+00

     Forces acting on atoms (cartesian axes, Ry/au):

     atom    1 type  1   force =     0.00000000    0.00000000    0.00000000
     atom    2 type  2   force =     0.00000000    0.00000000    0.00000000
     atom    3 type  3   force =     0.00000000    0.00000000    0.00000000

     Total force =     0.000000     Total SCF correction =     0.000000


     Computing stress (Cartesian axis) and pressure


     negative rho (up, down):  9.296E-04 0.000E+00
          total   stress  (Ry/bohr**3)                   (kbar)     P=      282.01
   0.00079808   0.00000000   0.00000000          117.40        0.00        0.00
   0.00000000   0.00079808   0.00000000            0.00      117.40        0.00
   0.00000000   0.00000000   0.00415501            0.00        0.00      611.22


     BFGS Geometry Optimization
     Energy error            =      7.3E-02 Ry
     Gradient error          =      0.0E+00 Ry/Bohr
     Cell gradient error     =      6.1E+02 kbar

     number of scf cycles    =   1
     number of bfgs steps    =   0

     enthalpy           new  =    -449.7118932868 Ry

     new trust radius        =       0.2740162291 bohr
     new conv_thr            =       0.0000000100 Ry

     new unit-cell volume =    199.77800 a.u.^3 (    29.60405 Ang^3 )
     density =      5.87389 g/cm^3

CELL_PARAMETERS (alat=  5.58242261)
   1.019952059   0.000000000   0.000000000
   0.000000000   1.019952059   0.000000000
   0.000000000   0.000000000   1.103875284

ATOMIC_POSITIONS (crystal)
Fe               0.5000000000        0.5000000000        0.5000000000
Ti               0.0000000000        0.0000000000        0.0000000000
H                0.5000000000        0.5000000000        0.0000000000



     Writing config-only to output data dir ./TiFe_H_faces_z.save/ :
     XML data file     NEW-OLD atomic charge density approx. for the potential
     New effective cutoffs (rho, wfc): 1668.30  119.19

     Check: negative core charge=   -0.000001

     negative rho (up, down):  1.018E-03 0.000E+00

     total cpu time spent up to now is       85.4 secs

     per-process dynamical memory:   163.8 Mb

     Self-consistent Calculation

     iteration #  1     ecut=   124.00 Ry     beta= 0.70
     Davidson diagonalization with overlap
     c_bands:  1 eigenvalues not converged
     c_bands:  1 eigenvalues not converged
     ethr =  1.00E-06,  avg # of iterations = 12.6

     negative rho (up, down):  8.737E-04 0.000E+00

     total cpu time spent up to now is       95.8 secs

     total energy              =    -449.74329630 Ry
     estimated scf accuracy    <       0.00742201 Ry

     iteration #  2     ecut=   124.00 Ry     beta= 0.70
     Davidson diagonalization with overlap
     ethr =  2.56E-05,  avg # of iterations =  5.0

     negative rho (up, down):  9.134E-04 0.000E+00

     total cpu time spent up to now is       99.9 secs

     total energy              =    -449.72355237 Ry
     estimated scf accuracy    <       0.41790827 Ry

     iteration #  3     ecut=   124.00 Ry     beta= 0.70
     Davidson diagonalization with overlap
     ethr =  2.56E-05,  avg # of iterations =  4.2

     negative rho (up, down):  9.425E-04 0.000E+00

     total cpu time spent up to now is      103.5 secs

     total energy              =    -449.74703088 Ry
     estimated scf accuracy    <       0.00779971 Ry

     iteration #  4     ecut=   124.00 Ry     beta= 0.70
     Davidson diagonalization with overlap
     ethr =  2.56E-05,  avg # of iterations =  2.0

     negative rho (up, down):  9.433E-04 0.000E+00

     total cpu time spent up to now is      106.3 secs

     total energy              =    -449.74804204 Ry
     estimated scf accuracy    <       0.00013665 Ry

     iteration #  5     ecut=   124.00 Ry     beta= 0.70
     Davidson diagonalization with overlap
     ethr =  4.71E-07,  avg # of iterations =  4.6

     negative rho (up, down):  9.338E-04 0.000E+00

     total cpu time spent up to now is      109.9 secs

     total energy              =    -449.74809073 Ry
     estimated scf accuracy    <       0.00006830 Ry

     iteration #  6     ecut=   124.00 Ry     beta= 0.70
     Davidson diagonalization with overlap
     ethr =  2.36E-07,  avg # of iterations =  2.7

     negative rho (up, down):  9.325E-04 0.000E+00

     total cpu time spent up to now is      112.9 secs

     total energy              =    -449.74810653 Ry
     estimated scf accuracy    <       0.00000086 Ry

     iteration #  7     ecut=   124.00 Ry     beta= 0.70
     Davidson diagonalization with overlap
     ethr =  2.98E-09,  avg # of iterations =  5.4

     negative rho (up, down):  9.331E-04 0.000E+00

     total cpu time spent up to now is      117.2 secs

     total energy              =    -449.74810717 Ry
     estimated scf accuracy    <       0.00000094 Ry

     iteration #  8     ecut=   124.00 Ry     beta= 0.70
     Davidson diagonalization with overlap
     ethr =  2.98E-09,  avg # of iterations =  2.0

     negative rho (up, down):  9.333E-04 0.000E+00

     total cpu time spent up to now is      120.0 secs

     total energy              =    -449.74810728 Ry
     estimated scf accuracy    <       0.00000004 Ry

     iteration #  9     ecut=   124.00 Ry     beta= 0.70
     Davidson diagonalization with overlap
     ethr =  1.40E-10,  avg # of iterations =  4.3

     negative rho (up, down):  9.331E-04 0.000E+00

     total cpu time spent up to now is      123.7 secs

     total energy              =    -449.74810730 Ry
     estimated scf accuracy    <       0.00000001 Ry

     iteration # 10     ecut=   124.00 Ry     beta= 0.70
     Davidson diagonalization with overlap
     ethr =  5.01E-11,  avg # of iterations =  2.4

     negative rho (up, down):  9.331E-04 0.000E+00

     total cpu time spent up to now is      126.6 secs

     End of self-consistent calculation

     Number of k-points >= 100: set verbosity='high' to print the bands.

     the Fermi energy is    15.5715 ev

!    total energy              =    -449.74810730 Ry
     estimated scf accuracy    <          2.3E-11 Ry
     smearing contrib. (-TS)   =      -0.00007078 Ry
     internal energy E=F+TS    =    -449.74803653 Ry

     The total energy is F=E-TS. E is the sum of the following terms:
     one-electron contribution =    -167.29556475 Ry
     hartree contribution      =      97.97472776 Ry
     xc contribution           =     -53.56346031 Ry
     ewald contribution        =    -250.71240994 Ry
     one-center paw contrib.   =     -76.15132928 Ry

     convergence has been achieved in  10 iterations

     negative rho (up, down):  9.331E-04 0.000E+00

     Forces acting on atoms (cartesian axes, Ry/au):

     atom    1 type  1   force =     0.00000000    0.00000000    0.00000000
     atom    2 type  2   force =     0.00000000    0.00000000    0.00000000
     atom    3 type  3   force =     0.00000000    0.00000000    0.00000000

     Total force =     0.000000     Total SCF correction =     0.000000


     Computing stress (Cartesian axis) and pressure


     negative rho (up, down):  9.331E-04 0.000E+00
          total   stress  (Ry/bohr**3)                   (kbar)     P=      -61.08
  -0.00071436   0.00000000   0.00000000         -105.09        0.00        0.00
   0.00000000  -0.00071436   0.00000000            0.00     -105.09        0.00
   0.00000000   0.00000000   0.00018312            0.00        0.00       26.94

     Energy error            =      3.6E-02 Ry
     Gradient error          =      0.0E+00 Ry/Bohr
     Cell gradient error     =      1.1E+02 kbar

     number of scf cycles    =   2
     number of bfgs steps    =   1

     enthalpy           old  =    -449.7118932868 Ry
     enthalpy           new  =    -449.7481073020 Ry

     CASE: enthalpy          _new < enthalpy          _old

     new trust radius        =       0.0505591307 bohr
     new conv_thr            =            1.0E-10 Ry

     new unit-cell volume =    194.72799 a.u.^3 (    28.85571 Ang^3 )
     density =      6.02622 g/cm^3

CELL_PARAMETERS (alat=  5.58242261)
   1.001709930   0.000000000   0.000000000
   0.000000000   1.001709930   0.000000000
   0.000000000   0.000000000   1.115517272

ATOMIC_POSITIONS (crystal)
Fe               0.5000000000        0.5000000000        0.5000000000
Ti               0.0000000000        0.0000000000        0.0000000000
H                0.5000000000        0.5000000000        0.0000000000



     Writing config-only to output data dir ./TiFe_H_faces_z.save/ :
     XML data file     NEW-OLD atomic charge density approx. for the potential
     New effective cutoffs (rho, wfc): 1729.62  123.57

     Check: negative core charge=   -0.000002

     negative rho (up, down):  9.147E-04 0.000E+00

     total cpu time spent up to now is      128.6 secs

     per-process dynamical memory:   163.8 Mb

     Self-consistent Calculation

     iteration #  1     ecut=   124.00 Ry     beta= 0.70
     Davidson diagonalization with overlap
     ethr =  1.00E-06,  avg # of iterations =  8.3

     negative rho (up, down):  9.039E-04 0.000E+00

     total cpu time spent up to now is      135.8 secs

     total energy              =    -449.75073501 Ry
     estimated scf accuracy    <       0.00143989 Ry

     iteration #  2     ecut=   124.00 Ry     beta= 0.70
     Davidson diagonalization with overlap
     ethr =  4.97E-06,  avg # of iterations =  5.0

     negative rho (up, down):  9.245E-04 0.000E+00

     total cpu time spent up to now is      139.9 secs

     total energy              =    -449.74349219 Ry
     estimated scf accuracy    <       0.15869564 Ry

     iteration #  3     ecut=   124.00 Ry     beta= 0.70
     Davidson diagonalization with overlap
     ethr =  4.97E-06,  avg # of iterations =  4.7

     negative rho (up, down):  9.288E-04 0.000E+00

     total cpu time spent up to now is      143.8 secs

     total energy              =    -449.75207394 Ry
     estimated scf accuracy    <       0.00022862 Ry

     iteration #  4     ecut=   124.00 Ry     beta= 0.70
     Davidson diagonalization with overlap
     ethr =  7.88E-07,  avg # of iterations =  1.6

     negative rho (up, down):  9.291E-04 0.000E+00

     total cpu time spent up to now is      146.3 secs

     total energy              =    -449.75209118 Ry
     estimated scf accuracy    <       0.00001804 Ry

     iteration #  5     ecut=   124.00 Ry     beta= 0.70
     Davidson diagonalization with overlap
     ethr =  6.22E-08,  avg # of iterations =  4.5

     negative rho (up, down):  9.296E-04 0.000E+00

     total cpu time spent up to now is      149.8 secs

     total energy              =    -449.75209669 Ry
     estimated scf accuracy    <       0.00000221 Ry

     iteration #  6     ecut=   124.00 Ry     beta= 0.70
     Davidson diagonalization with overlap
     ethr =  7.61E-09,  avg # of iterations =  2.7

     negative rho (up, down):  9.297E-04 0.000E+00

     total cpu time spent up to now is      152.8 secs

     total energy              =    -449.75209691 Ry
     estimated scf accuracy    <       0.00000048 Ry

     iteration #  7     ecut=   124.00 Ry     beta= 0.70
     Davidson diagonalization with overlap
     ethr =  1.66E-09,  avg # of iterations =  2.1

     negative rho (up, down):  9.299E-04 0.000E+00

     total cpu time spent up to now is      155.5 secs

     total energy              =    -449.75209697 Ry
     estimated scf accuracy    <       0.00000005 Ry

     iteration #  8     ecut=   124.00 Ry     beta= 0.70
     Davidson diagonalization with overlap
     ethr =  1.85E-10,  avg # of iterations =  4.8

     negative rho (up, down):  9.299E-04 0.000E+00

     total cpu time spent up to now is      159.3 secs

     total energy              =    -449.75209699 Ry
     estimated scf accuracy    <       0.00000001 Ry

     iteration #  9     ecut=   124.00 Ry     beta= 0.70
     Davidson diagonalization with overlap
     ethr =  3.83E-11,  avg # of iterations =  2.2

     negative rho (up, down):  9.299E-04 0.000E+00

     total cpu time spent up to now is      162.2 secs

     total energy              =    -449.75209700 Ry
     estimated scf accuracy    <          1.1E-10 Ry

     iteration # 10     ecut=   124.00 Ry     beta= 0.70
     Davidson diagonalization with overlap
     ethr =  3.80E-13,  avg # of iterations =  6.3

     negative rho (up, down):  9.299E-04 0.000E+00

     total cpu time spent up to now is      166.8 secs

     total energy              =    -449.75209700 Ry
     estimated scf accuracy    <          1.3E-10 Ry

     iteration # 11     ecut=   124.00 Ry     beta= 0.70
     Davidson diagonalization with overlap
     ethr =  3.80E-13,  avg # of iterations =  2.0

     negative rho (up, down):  9.299E-04 0.000E+00

     total cpu time spent up to now is      169.6 secs

     End of self-consistent calculation

     Number of k-points >= 100: set verbosity='high' to print the bands.

     the Fermi energy is    15.9653 ev

!    total energy              =    -449.75209700 Ry
     estimated scf accuracy    <          1.4E-12 Ry
     smearing contrib. (-TS)   =      -0.00001839 Ry
     internal energy E=F+TS    =    -449.75207861 Ry

     The total energy is F=E-TS. E is the sum of the following terms:
     one-electron contribution =    -163.68369084 Ry
     hartree contribution      =      96.69091925 Ry
     xc contribution           =     -53.60314939 Ry
     ewald contribution        =    -253.00424498 Ry
     one-center paw contrib.   =     -76.15191265 Ry

     convergence has been achieved in  11 iterations

     negative rho (up, down):  9.299E-04 0.000E+00

     Forces acting on atoms (cartesian axes, Ry/au):

     atom    1 type  1   force =     0.00000000    0.00000000    0.00000000
     atom    2 type  2   force =     0.00000000    0.00000000    0.00000000
     atom    3 type  3   force =     0.00000000    0.00000000    0.00000000

     Total force =     0.000000     Total SCF correction =     0.000000


     Computing stress (Cartesian axis) and pressure


     negative rho (up, down):  9.299E-04 0.000E+00
          total   stress  (Ry/bohr**3)                   (kbar)     P=      -26.17
  -0.00032442   0.00000000   0.00000000          -47.72        0.00        0.00
   0.00000000  -0.00032442   0.00000000            0.00      -47.72        0.00
   0.00000000   0.00000000   0.00011509            0.00        0.00       16.93

     Energy error            =      4.0E-03 Ry
     Gradient error          =      0.0E+00 Ry/Bohr
     Cell gradient error     =      4.8E+01 kbar

     number of scf cycles    =   3
     number of bfgs steps    =   2

     enthalpy           old  =    -449.7481073020 Ry
     enthalpy           new  =    -449.7520969958 Ry

     CASE: enthalpy          _new < enthalpy          _old

     new trust radius        =       0.0432519816 bohr
     new conv_thr            =            1.0E-10 Ry

     new unit-cell volume =    190.66534 a.u.^3 (    28.25369 Ang^3 )
     density =      6.15462 g/cm^3

CELL_PARAMETERS (alat=  5.58242261)
   0.986185924   0.000000000   0.000000000
   0.000000000   0.986185924   0.000000000
   0.000000000   0.000000000   1.126901694

ATOMIC_POSITIONS (crystal)
Fe               0.5000000000        0.5000000000        0.5000000000
Ti               0.0000000000        0.0000000000        0.0000000000
H                0.5000000000        0.5000000000        0.0000000000



     Writing config-only to output data dir ./TiFe_H_faces_z.save/ :
     XML data file     NEW-OLD atomic charge density approx. for the potential
     New effective cutoffs (rho, wfc): 1784.50  127.49

     Check: negative core charge=   -0.000002

     negative rho (up, down):  9.132E-04 0.000E+00

     total cpu time spent up to now is      171.5 secs

     per-process dynamical memory:   163.8 Mb

     Self-consistent Calculation

     iteration #  1     ecut=   124.00 Ry     beta= 0.70
     Davidson diagonalization with overlap
     ethr =  1.00E-06,  avg # of iterations =  7.5

     negative rho (up, down):  8.973E-04 0.000E+00

     total cpu time spent up to now is      178.3 secs

     total energy              =    -449.75166874 Ry
     estimated scf accuracy    <       0.00147400 Ry

     iteration #  2     ecut=   124.00 Ry     beta= 0.70
     Davidson diagonalization with overlap
     ethr =  5.08E-06,  avg # of iterations =  5.0

     negative rho (up, down):  9.182E-04 0.000E+00

     total cpu time spent up to now is      182.5 secs

     total energy              =    -449.74426715 Ry
     estimated scf accuracy    <       0.16051452 Ry

     iteration #  3     ecut=   124.00 Ry     beta= 0.70
     Davidson diagonalization with overlap
     ethr =  5.08E-06,  avg # of iterations =  4.7

     negative rho (up, down):  9.233E-04 0.000E+00

     total cpu time spent up to now is      186.4 secs

     total energy              =    -449.75308702 Ry
     estimated scf accuracy    <       0.00016960 Ry

     iteration #  4     ecut=   124.00 Ry     beta= 0.70
     Davidson diagonalization with overlap
     ethr =  5.85E-07,  avg # of iterations =  2.2

     negative rho (up, down):  9.232E-04 0.000E+00

     total cpu time spent up to now is      189.1 secs

     total energy              =    -449.75310438 Ry
     estimated scf accuracy    <       0.00002336 Ry

     iteration #  5     ecut=   124.00 Ry     beta= 0.70
     Davidson diagonalization with overlap
     ethr =  8.06E-08,  avg # of iterations =  4.0

     negative rho (up, down):  9.237E-04 0.000E+00

     total cpu time spent up to now is      192.3 secs

     total energy              =    -449.75310917 Ry
     estimated scf accuracy    <       0.00000218 Ry

     iteration #  6     ecut=   124.00 Ry     beta= 0.70
     Davidson diagonalization with overlap
     ethr =  7.51E-09,  avg # of iterations =  3.8

     negative rho (up, down):  9.237E-04 0.000E+00

     total cpu time spent up to now is      195.6 secs

     total energy              =    -449.75310972 Ry
     estimated scf accuracy    <       0.00000031 Ry

     iteration #  7     ecut=   124.00 Ry     beta= 0.70
     Davidson diagonalization with overlap
     ethr =  1.07E-09,  avg # of iterations =  2.8

     negative rho (up, down):  9.238E-04 0.000E+00

     total cpu time spent up to now is      198.6 secs

     total energy              =    -449.75310978 Ry
     estimated scf accuracy    <       0.00000002 Ry

     iteration #  8     ecut=   124.00 Ry     beta= 0.70
     Davidson diagonalization with overlap
     ethr =  5.77E-11,  avg # of iterations =  4.8

     negative rho (up, down):  9.238E-04 0.000E+00

     total cpu time spent up to now is      202.4 secs

     total energy              =    -449.75310979 Ry
     estimated scf accuracy    <          7.5E-09 Ry

     iteration #  9     ecut=   124.00 Ry     beta= 0.70
     Davidson diagonalization with overlap
     ethr =  2.57E-11,  avg # of iterations =  2.1

     negative rho (up, down):  9.238E-04 0.000E+00

     total cpu time spent up to now is      205.2 secs

     total energy              =    -449.75310979 Ry
     estimated scf accuracy    <          1.4E-10 Ry

     iteration # 10     ecut=   124.00 Ry     beta= 0.70
     Davidson diagonalization with overlap
     ethr =  4.86E-13,  avg # of iterations =  5.3

     negative rho (up, down):  9.238E-04 0.000E+00

     total cpu time spent up to now is      209.3 secs

     End of self-consistent calculation

     Number of k-points >= 100: set verbosity='high' to print the bands.

     the Fermi energy is    16.2850 ev

!    total energy              =    -449.75310979 Ry
     estimated scf accuracy    <          8.2E-11 Ry
     smearing contrib. (-TS)   =       0.00004967 Ry
     internal energy E=F+TS    =    -449.75315945 Ry

     The total energy is F=E-TS. E is the sum of the following terms:
     one-electron contribution =    -160.69817294 Ry
     hartree contribution      =      95.63991001 Ry
     xc contribution           =     -53.63779473 Ry
     ewald contribution        =    -254.90474713 Ry
     one-center paw contrib.   =     -76.15235467 Ry

     convergence has been achieved in  10 iterations

     negative rho (up, down):  9.238E-04 0.000E+00

     Forces acting on atoms (cartesian axes, Ry/au):

     atom    1 type  1   force =     0.00000000    0.00000000    0.00000000
     atom    2 type  2   force =     0.00000000    0.00000000    0.00000000
     atom    3 type  3   force =     0.00000000    0.00000000    0.00000000

     Total force =     0.000000     Total SCF correction =     0.000000


     Computing stress (Cartesian axis) and pressure


     negative rho (up, down):  9.238E-04 0.000E+00
          total   stress  (Ry/bohr**3)                   (kbar)     P=        6.37
   0.00005657   0.00000000   0.00000000            8.32        0.00        0.00
   0.00000000   0.00005657   0.00000000            0.00        8.32        0.00
   0.00000000   0.00000000   0.00001669            0.00        0.00        2.45

     Energy error            =      1.0E-03 Ry
     Gradient error          =      0.0E+00 Ry/Bohr
     Cell gradient error     =      8.3E+00 kbar

     number of scf cycles    =   4
     number of bfgs steps    =   3

     enthalpy           old  =    -449.7520969958 Ry
     enthalpy           new  =    -449.7531097866 Ry

     CASE: enthalpy          _new < enthalpy          _old

     new trust radius        =       0.0056112071 bohr
     new conv_thr            =            1.0E-10 Ry

     new unit-cell volume =    191.33392 a.u.^3 (    28.35276 Ang^3 )
     density =      6.13312 g/cm^3

CELL_PARAMETERS (alat=  5.58242261)
   0.988189700   0.000000000   0.000000000
   0.000000000   0.988189700   0.000000000
   0.000000000   0.000000000   1.126271761

ATOMIC_POSITIONS (crystal)
Fe               0.5000000000        0.5000000000        0.5000000000
Ti               0.0000000000        0.0000000000        0.0000000000
H                0.5000000000        0.5000000000        0.0000000000



     Writing config-only to output data dir ./TiFe_H_faces_z.save/ :
     XML data file     NEW-OLD atomic charge density approx. for the potential
     New effective cutoffs (rho, wfc): 1777.27  126.97

     Check: negative core charge=   -0.000002

     negative rho (up, down):  9.252E-04 0.000E+00

     total cpu time spent up to now is      211.2 secs

     per-process dynamical memory:   163.8 Mb

     Self-consistent Calculation

     iteration #  1     ecut=   124.00 Ry     beta= 0.70
     Davidson diagonalization with overlap
     ethr =  1.00E-06,  avg # of iterations =  3.0

     Threshold (ethr) on eigenvalues was too large:
     Diagonalizing with lowered threshold

     Davidson diagonalization with overlap
     ethr =  8.90E-08,  avg # of iterations =  4.0

     negative rho (up, down):  9.267E-04 0.000E+00

     total cpu time spent up to now is      218.0 secs

     total energy              =    -449.75309364 Ry
     estimated scf accuracy    <       0.00002992 Ry

     iteration #  2     ecut=   124.00 Ry     beta= 0.70
     Davidson diagonalization with overlap
     ethr =  1.03E-07,  avg # of iterations =  4.1

     negative rho (up, down):  9.240E-04 0.000E+00

     total cpu time spent up to now is      221.6 secs

     total energy              =    -449.75293989 Ry
     estimated scf accuracy    <       0.00356821 Ry

     iteration #  3     ecut=   124.00 Ry     beta= 0.70
     Davidson diagonalization with overlap
     ethr =  1.03E-07,  avg # of iterations =  4.2

     negative rho (up, down):  9.246E-04 0.000E+00

     total cpu time spent up to now is      225.1 secs

     total energy              =    -449.75312847 Ry
     estimated scf accuracy    <       0.00000216 Ry

     iteration #  4     ecut=   124.00 Ry     beta= 0.70
     Davidson diagonalization with overlap
     ethr =  7.44E-09,  avg # of iterations =  3.9

     negative rho (up, down):  9.244E-04 0.000E+00

     total cpu time spent up to now is      228.5 secs

     total energy              =    -449.75312910 Ry
     estimated scf accuracy    <       0.00000044 Ry

     iteration #  5     ecut=   124.00 Ry     beta= 0.70
     Davidson diagonalization with overlap
     ethr =  1.51E-09,  avg # of iterations =  2.2

     negative rho (up, down):  9.242E-04 0.000E+00

     total cpu time spent up to now is      231.2 secs

     total energy              =    -449.75312913 Ry
     estimated scf accuracy    <       0.00000008 Ry

     iteration #  6     ecut=   124.00 Ry     beta= 0.70
     Davidson diagonalization with overlap
     ethr =  2.75E-10,  avg # of iterations =  2.7

     negative rho (up, down):  9.242E-04 0.000E+00

     total cpu time spent up to now is      234.2 secs

     total energy              =    -449.75312914 Ry
     estimated scf accuracy    <          9.4E-10 Ry

     iteration #  7     ecut=   124.00 Ry     beta= 0.70
     Davidson diagonalization with overlap
     ethr =  3.23E-12,  avg # of iterations =  6.1

     negative rho (up, down):  9.242E-04 0.000E+00

     total cpu time spent up to now is      238.9 secs

     total energy              =    -449.75312915 Ry
     estimated scf accuracy    <          3.1E-10 Ry

     iteration #  8     ecut=   124.00 Ry     beta= 0.70
     Davidson diagonalization with overlap
     ethr =  1.09E-12,  avg # of iterations =  2.1

     negative rho (up, down):  9.242E-04 0.000E+00

     total cpu time spent up to now is      241.6 secs

     End of self-consistent calculation

     Number of k-points >= 100: set verbosity='high' to print the bands.

     the Fermi energy is    16.2281 ev

!    total energy              =    -449.75312915 Ry
     estimated scf accuracy    <          1.9E-12 Ry
     smearing contrib. (-TS)   =       0.00004347 Ry
     internal energy E=F+TS    =    -449.75317262 Ry

     The total energy is F=E-TS. E is the sum of the following terms:
     one-electron contribution =    -161.18176415 Ry
     hartree contribution      =      95.80912502 Ry
     xc contribution           =     -53.63185986 Ry
     ewald contribution        =    -254.59640768 Ry
     one-center paw contrib.   =     -76.15226595 Ry

     convergence has been achieved in   8 iterations

     negative rho (up, down):  9.242E-04 0.000E+00

     Forces acting on atoms (cartesian axes, Ry/au):

     atom    1 type  1   force =     0.00000000    0.00000000    0.00000000
     atom    2 type  2   force =     0.00000000    0.00000000    0.00000000
     atom    3 type  3   force =     0.00000000    0.00000000    0.00000000

     Total force =     0.000000     Total SCF correction =     0.000000


     Computing stress (Cartesian axis) and pressure


     negative rho (up, down):  9.242E-04 0.000E+00
          total   stress  (Ry/bohr**3)                   (kbar)     P=        0.21
  -0.00000286   0.00000000   0.00000000           -0.42        0.00        0.00
   0.00000000  -0.00000286   0.00000000            0.00       -0.42        0.00
   0.00000000   0.00000000   0.00000996            0.00        0.00        1.47

     Energy error            =      1.9E-05 Ry
     Gradient error          =      0.0E+00 Ry/Bohr
     Cell gradient error     =      1.5E+00 kbar

     number of scf cycles    =   5
     number of bfgs steps    =   4

     enthalpy           old  =    -449.7531097866 Ry
     enthalpy           new  =    -449.7531291468 Ry

     CASE: enthalpy          _new < enthalpy          _old

     new trust radius        =       0.0008718257 bohr
     new conv_thr            =            1.0E-10 Ry

     new unit-cell volume =    191.33205 a.u.^3 (    28.35248 Ang^3 )
     density =      6.13318 g/cm^3

CELL_PARAMETERS (alat=  5.58242261)
   0.988029195   0.000000000   0.000000000
   0.000000000   0.988029195   0.000000000
   0.000000000   0.000000000   1.126626694

ATOMIC_POSITIONS (crystal)
Fe               0.5000000000        0.5000000000        0.5000000000
Ti               0.0000000000        0.0000000000        0.0000000000
H                0.5000000000        0.5000000000        0.0000000000



     Writing config-only to output data dir ./TiFe_H_faces_z.save/ :
     XML data file     NEW-OLD atomic charge density approx. for the potential
     New effective cutoffs (rho, wfc): 1777.85  127.01

     Check: negative core charge=   -0.000002

     negative rho (up, down):  9.242E-04 0.000E+00

     total cpu time spent up to now is      243.6 secs

     per-process dynamical memory:   163.8 Mb

     Self-consistent Calculation

     iteration #  1     ecut=   124.00 Ry     beta= 0.70
     Davidson diagonalization with overlap
     ethr =  1.00E-06,  avg # of iterations =  2.0

     Threshold (ethr) on eigenvalues was too large:
     Diagonalizing with lowered threshold

     Davidson diagonalization with overlap
     ethr =  2.27E-09,  avg # of iterations =  3.2

     negative rho (up, down):  9.237E-04 0.000E+00

     total cpu time spent up to now is      249.6 secs

     total energy              =    -449.75312902 Ry
     estimated scf accuracy    <       0.00000064 Ry

     iteration #  2     ecut=   124.00 Ry     beta= 0.70
     Davidson diagonalization with overlap
     ethr =  2.22E-09,  avg # of iterations =  4.4

     negative rho (up, down):  9.241E-04 0.000E+00

     total cpu time spent up to now is      253.3 secs

     total energy              =    -449.75312566 Ry
     estimated scf accuracy    <       0.00007614 Ry

     iteration #  3     ecut=   124.00 Ry     beta= 0.70
     Davidson diagonalization with overlap
     ethr =  2.22E-09,  avg # of iterations =  4.1

     negative rho (up, down):  9.241E-04 0.000E+00

     total cpu time spent up to now is      256.8 secs

     total energy              =    -449.75312959 Ry
     estimated scf accuracy    <          4.8E-09 Ry

     iteration #  4     ecut=   124.00 Ry     beta= 0.70
     Davidson diagonalization with overlap
     ethr =  1.66E-11,  avg # of iterations =  5.8

     negative rho (up, down):  9.241E-04 0.000E+00

     total cpu time spent up to now is      261.4 secs

     total energy              =    -449.75312960 Ry
     estimated scf accuracy    <          2.2E-09 Ry

     iteration #  5     ecut=   124.00 Ry     beta= 0.70
     Davidson diagonalization with overlap
     ethr =  7.73E-12,  avg # of iterations =  1.4

     negative rho (up, down):  9.241E-04 0.000E+00

     total cpu time spent up to now is      263.8 secs

     total energy              =    -449.75312960 Ry
     estimated scf accuracy    <          1.0E-10 Ry

     iteration #  6     ecut=   124.00 Ry     beta= 0.70
     Davidson diagonalization with overlap
     ethr =  3.58E-13,  avg # of iterations =  3.2

     negative rho (up, down):  9.241E-04 0.000E+00

     total cpu time spent up to now is      267.1 secs

     End of self-consistent calculation

     Number of k-points >= 100: set verbosity='high' to print the bands.

     the Fermi energy is    16.2265 ev

!    total energy              =    -449.75312960 Ry
     estimated scf accuracy    <          1.6E-11 Ry
     smearing contrib. (-TS)   =       0.00004449 Ry
     internal energy E=F+TS    =    -449.75317409 Ry

     The total energy is F=E-TS. E is the sum of the following terms:
     one-electron contribution =    -161.17659170 Ry
     hartree contribution      =      95.80674801 Ry
     xc contribution           =     -53.63177200 Ry
     ewald contribution        =    -254.59929247 Ry
     one-center paw contrib.   =     -76.15226593 Ry

     convergence has been achieved in   6 iterations

     negative rho (up, down):  9.241E-04 0.000E+00

     Forces acting on atoms (cartesian axes, Ry/au):

     atom    1 type  1   force =     0.00000000    0.00000000    0.00000000
     atom    2 type  2   force =     0.00000000    0.00000000    0.00000000
     atom    3 type  3   force =     0.00000000    0.00000000    0.00000000

     Total force =     0.000000     Total SCF correction =     0.000000


     Computing stress (Cartesian axis) and pressure


     negative rho (up, down):  9.241E-04 0.000E+00
          total   stress  (Ry/bohr**3)                   (kbar)     P=        0.11
   0.00000009   0.00000000   0.00000000            0.01        0.00        0.00
   0.00000000   0.00000009   0.00000000            0.00        0.01        0.00
   0.00000000   0.00000000   0.00000209            0.00        0.00        0.31

     Energy error            =      4.5E-07 Ry
     Gradient error          =      0.0E+00 Ry/Bohr
     Cell gradient error     =      3.1E-01 kbar

     number of scf cycles    =   6
     number of bfgs steps    =   5

     enthalpy           old  =    -449.7531291468 Ry
     enthalpy           new  =    -449.7531295967 Ry

     CASE: enthalpy          _new < enthalpy          _old

     new trust radius        =       0.0001948035 bohr
     new conv_thr            =            1.0E-10 Ry

     new unit-cell volume =    191.34046 a.u.^3 (    28.35373 Ang^3 )
     density =      6.13291 g/cm^3

CELL_PARAMETERS (alat=  5.58242261)
   0.988016134   0.000000000   0.000000000
   0.000000000   0.988016134   0.000000000
   0.000000000   0.000000000   1.126706027

ATOMIC_POSITIONS (crystal)
Fe               0.5000000000        0.5000000000        0.5000000000
Ti               0.0000000000        0.0000000000        0.0000000000
H                0.5000000000        0.5000000000        0.0000000000



     Writing config-only to output data dir ./TiFe_H_faces_z.save/ :
     XML data file     NEW-OLD atomic charge density approx. for the potential
     New effective cutoffs (rho, wfc): 1777.90  127.02

     Check: negative core charge=   -0.000002

     negative rho (up, down):  9.242E-04 0.000E+00

     total cpu time spent up to now is      269.0 secs

     per-process dynamical memory:   163.8 Mb

     Self-consistent Calculation

     iteration #  1     ecut=   124.00 Ry     beta= 0.70
     Davidson diagonalization with overlap
     ethr =  1.00E-06,  avg # of iterations =  2.0

     Threshold (ethr) on eigenvalues was too large:
     Diagonalizing with lowered threshold

     Davidson diagonalization with overlap
     ethr =  6.60E-11,  avg # of iterations =  3.6

     negative rho (up, down):  9.240E-04 0.000E+00

     total cpu time spent up to now is      275.2 secs

     total energy              =    -449.75312960 Ry
     estimated scf accuracy    <       0.00000002 Ry

     iteration #  2     ecut=   124.00 Ry     beta= 0.70
     Davidson diagonalization with overlap
     ethr =  5.82E-11,  avg # of iterations =  4.5

     negative rho (up, down):  9.241E-04 0.000E+00

     total cpu time spent up to now is      279.0 secs

     total energy              =    -449.75312952 Ry
     estimated scf accuracy    <       0.00000189 Ry

     iteration #  3     ecut=   124.00 Ry     beta= 0.70
     Davidson diagonalization with overlap
     ethr =  5.82E-11,  avg # of iterations =  4.2

     negative rho (up, down):  9.241E-04 0.000E+00

     total cpu time spent up to now is      282.5 secs

     total energy              =    -449.75312961 Ry
     estimated scf accuracy    <          6.1E-10 Ry

     iteration #  4     ecut=   124.00 Ry     beta= 0.70
     Davidson diagonalization with overlap
     ethr =  2.10E-12,  avg # of iterations =  4.0

     negative rho (up, down):  9.241E-04 0.000E+00

     total cpu time spent up to now is      286.2 secs

     End of self-consistent calculation

     Number of k-points >= 100: set verbosity='high' to print the bands.

     the Fermi energy is    16.2254 ev

!    total energy              =    -449.75312961 Ry
     estimated scf accuracy    <          4.1E-11 Ry
     smearing contrib. (-TS)   =       0.00004466 Ry
     internal energy E=F+TS    =    -449.75317428 Ry

     The total energy is F=E-TS. E is the sum of the following terms:
     one-electron contribution =    -161.18180347 Ry
     hartree contribution      =      95.80850425 Ry
     xc contribution           =     -53.63168963 Ry
     ewald contribution        =    -254.59591985 Ry
     one-center paw contrib.   =     -76.15226557 Ry

     convergence has been achieved in   4 iterations

     negative rho (up, down):  9.241E-04 0.000E+00

     Forces acting on atoms (cartesian axes, Ry/au):

     atom    1 type  1   force =     0.00000000    0.00000000    0.00000000
     atom    2 type  2   force =     0.00000000    0.00000000    0.00000000
     atom    3 type  3   force =     0.00000000    0.00000000    0.00000000

     Total force =     0.000000     Total SCF correction =     0.000000


     Computing stress (Cartesian axis) and pressure


     negative rho (up, down):  9.241E-04 0.000E+00
          total   stress  (Ry/bohr**3)                   (kbar)     P=        0.08
   0.00000057   0.00000000   0.00000000            0.08        0.00        0.00
   0.00000000   0.00000057   0.00000000            0.00        0.08        0.00
   0.00000000   0.00000000   0.00000054            0.00        0.00        0.08

     Energy error            =      1.5E-08 Ry
     Gradient error          =      0.0E+00 Ry/Bohr
     Cell gradient error     =      8.4E-02 kbar

     bfgs converged in   7 scf cycles and   6 bfgs steps
     (criteria: energy <  1.0E-04 Ry, force <  1.0E-03 Ry/Bohr, cell <  1.0E-01 kbar)

     End of BFGS Geometry Optimization

     Final enthalpy           =    -449.7531296120 Ry

     File ./TiFe_H_faces_z.bfgs deleted, as requested
Begin final coordinates
     new unit-cell volume =    191.34046 a.u.^3 (    28.35373 Ang^3 )
     density =      6.13291 g/cm^3

CELL_PARAMETERS (alat=  5.58242261)
   0.988016134   0.000000000   0.000000000
   0.000000000   0.988016134   0.000000000
   0.000000000   0.000000000   1.126706027

ATOMIC_POSITIONS (crystal)
Fe               0.5000000000        0.5000000000        0.5000000000
Ti               0.0000000000        0.0000000000        0.0000000000
H                0.5000000000        0.5000000000        0.0000000000
End final coordinates



     Writing config-only to output data dir ./TiFe_H_faces_z.save/ :
     XML data file
     Final scf calculation at the relaxed structure.
     The G-vectors are recalculated for the final unit cell
     Results may differ from those at the preceding step.

     Parallelization info
     --------------------
     sticks:   dense  smooth     PW     G-vecs:    dense   smooth      PW
     Min         262      75     21                14614     2233     347
     Max         263      76     22                14619     2238     352
     Sum        4197    1201    349               233847    35757    5605

     Using Slab Decomposition



     bravais-lattice index     =            0
     lattice parameter (alat)  =       5.5824  a.u.
     unit-cell volume          =     191.3405 (a.u.)^3
     number of atoms/cell      =            3
     number of atomic types    =            3
     number of electrons       =        29.00
     number of Kohn-Sham states=           19
     kinetic-energy cutoff     =     124.0000  Ry
     charge density cutoff     =    1736.0000  Ry
     scf convergence threshold =      1.0E-10
     mixing beta               =       0.7000
     number of iterations used =            8  plain     mixing
     press convergence thresh. =      1.0E-01
     Exchange-correlation= PBE
                           (   1   4   3   4   0   0   0)

     celldm(1)=   5.582423  celldm(2)=   0.000000  celldm(3)=   0.000000
     celldm(4)=   0.000000  celldm(5)=   0.000000  celldm(6)=   0.000000

     crystal axes: (cart. coord. in units of alat)
               a(1) = (   0.988016   0.000000   0.000000 )  
               a(2) = (   0.000000   0.988016   0.000000 )  
               a(3) = (   0.000000   0.000000   1.126706 )  

     reciprocal axes: (cart. coord. in units 2 pi/alat)
               b(1) = (  1.012129  0.000000  0.000000 )  
               b(2) = (  0.000000  1.012129  0.000000 )  
               b(3) = (  0.000000  0.000000  0.887543 )  


     PseudoPot. # 1 for Fe read from file:
     ../../pseudos/Fe.pbe-spn-kjpaw_psl.0.2.1.UPF
     MD5 check sum: e86618425769142926afa95317d90200
     Pseudo is Projector augmented-wave + core cor, Zval = 16.0
     Generated using "atomic" code by A. Dal Corso  v.5.0.99 svn rev. 10869
     Shape of augmentation charge: PSQ
     Using radial grid of 1191 points,  6 beta functions with: 
                l(1) =   0
                l(2) =   0
                l(3) =   1
                l(4) =   1
                l(5) =   2
                l(6) =   2
     Q(r) pseudized with 0 coefficients 


     PseudoPot. # 2 for Ti read from file:
     ../../pseudos/ti_pbe_v1.4.uspp.F.UPF
     MD5 check sum: 88a00a6731bd790ddea75d31a80cb452
     Pseudo is Ultrasoft + core correction, Zval = 12.0
     Generated by new atomic code, or converted to UPF format
     Using radial grid of  851 points,  6 beta functions with: 
                l(1) =   0
                l(2) =   0
                l(3) =   1
                l(4) =   1
                l(5) =   2
                l(6) =   2
     Q(r) pseudized with  6 coefficients,  rinner =    1.000   1.000   1.000
                                                       1.000   1.000

     PseudoPot. # 3 for H  read from file:
     ../../pseudos/H.pbe-rrkjus_psl.1.0.0.UPF
     MD5 check sum: f52b6d4d1c606e5624b1dc7b2218f220
     Pseudo is Ultrasoft, Zval =  1.0
     Generated using "atomic" code by A. Dal Corso  v.5.1
     Using radial grid of  929 points,  2 beta functions with: 
                l(1) =   0
                l(2) =   0
     Q(r) pseudized with 0 coefficients 


     atomic species   valence    mass     pseudopotential
     Fe               16.00    55.84500     Fe( 1.00)
     Ti               12.00    47.86700     Ti( 1.00)
     H                 1.00     1.00750     H ( 1.00)

     16 Sym. Ops., with inversion, found



   Cartesian axes

     site n.     atom                  positions (alat units)
         1        Fe     tau(   1) = (   0.4940081   0.4940081   0.5633530  )
         2        Ti     tau(   2) = (   0.0000000   0.0000000   0.0000000  )
         3        H      tau(   3) = (   0.4940081   0.4940081   0.0000000  )

     number of k points=   288  Marzari-Vanderbilt smearing, width (Ry)=  0.0050

     Number of k-points >= 100: set verbosity='high' to print them.

     Dense  grid:   233847 G-vectors     FFT dimensions: (  75,  75,  90)

     Smooth grid:    35757 G-vectors     FFT dimensions: (  40,  40,  45)

     Estimated max dynamical RAM per process >      97.82 MB

     Estimated total dynamical RAM >       1.53 GB

     Check: negative core charge=   -0.000001

     Initial potential from superposition of free atoms

     starting charge      27.9995, renormalised to      29.0000

     negative rho (up, down):  1.330E-03 0.000E+00
     Starting wfcs are   24 randomized atomic wfcs
     Checking if some PAW data can be deallocated... 

     total cpu time spent up to now is      289.5 secs

     per-process dynamical memory:   163.5 Mb

     Self-consistent Calculation

     iteration #  1     ecut=   124.00 Ry     beta= 0.70
     Davidson diagonalization with overlap
     c_bands:  2 eigenvalues not converged
     c_bands:  1 eigenvalues not converged
     c_bands:  1 eigenvalues not converged
     c_bands:  1 eigenvalues not converged
     c_bands:  1 eigenvalues not converged
     c_bands:  2 eigenvalues not converged
     c_bands:  1 eigenvalues not converged
     c_bands:  1 eigenvalues not converged
     c_bands:  1 eigenvalues not converged
     c_bands:  1 eigenvalues not converged
     c_bands:  1 eigenvalues not converged
     c_bands:  1 eigenvalues not converged
     c_bands:  1 eigenvalues not converged
     c_bands:  1 eigenvalues not converged
     c_bands:  1 eigenvalues not converged
     c_bands:  1 eigenvalues not converged
     c_bands:  1 eigenvalues not converged
     c_bands:  1 eigenvalues not converged
     c_bands:  1 eigenvalues not converged
     c_bands:  1 eigenvalues not converged
     c_bands:  1 eigenvalues not converged
     c_bands:  1 eigenvalues not converged
     c_bands:  1 eigenvalues not converged
     c_bands:  2 eigenvalues not converged
     c_bands:  1 eigenvalues not converged
     c_bands:  1 eigenvalues not converged
     c_bands:  1 eigenvalues not converged
     c_bands:  1 eigenvalues not converged
     c_bands:  1 eigenvalues not converged
     c_bands:  1 eigenvalues not converged
     c_bands:  1 eigenvalues not converged
     c_bands:  1 eigenvalues not converged
     c_bands:  1 eigenvalues not converged
     c_bands:  1 eigenvalues not converged
     c_bands:  1 eigenvalues not converged
     c_bands:  1 eigenvalues not converged
     c_bands:  1 eigenvalues not converged
     c_bands:  1 eigenvalues not converged
     c_bands:  1 eigenvalues not converged
     ethr =  1.00E-06,  avg # of iterations = 16.7

     negative rho (up, down):  1.243E-04 0.000E+00

     total cpu time spent up to now is      304.6 secs

     total energy              =    -435.02831527 Ry
     estimated scf accuracy    <      18.61559159 Ry

     iteration #  2     ecut=   124.00 Ry     beta= 0.70
     Davidson diagonalization with overlap
     ethr =  1.00E-02,  avg # of iterations =  6.4

     negative rho (up, down):  2.377E-05 0.000E+00

     total cpu time spent up to now is      310.5 secs

     total energy              =    -449.01606619 Ry
     estimated scf accuracy    <      73.17900891 Ry

     iteration #  3     ecut=   124.00 Ry     beta= 0.70
     Davidson diagonalization with overlap
     ethr =  1.00E-02,  avg # of iterations =  3.2

     negative rho (up, down):  2.063E-04 0.000E+00

     total cpu time spent up to now is      314.4 secs

     total energy              =    -450.24394578 Ry
     estimated scf accuracy    <      17.66043735 Ry

     iteration #  4     ecut=   124.00 Ry     beta= 0.70
     Davidson diagonalization with overlap
     ethr =  1.00E-02,  avg # of iterations =  2.2

     negative rho (up, down):  2.953E-04 0.000E+00

     total cpu time spent up to now is      317.5 secs

     total energy              =    -450.42578078 Ry
     estimated scf accuracy    <       6.75549450 Ry

     iteration #  5     ecut=   124.00 Ry     beta= 0.70
     Davidson diagonalization with overlap
     ethr =  1.00E-02,  avg # of iterations =  1.1

     negative rho (up, down):  8.758E-04 0.000E+00

     total cpu time spent up to now is      320.1 secs

     total energy              =    -449.47252424 Ry
     estimated scf accuracy    <       5.53401133 Ry

     iteration #  6     ecut=   124.00 Ry     beta= 0.70
     Davidson diagonalization with overlap
     ethr =  1.00E-02,  avg # of iterations =  2.6

     negative rho (up, down):  8.888E-04 0.000E+00

     total cpu time spent up to now is      323.0 secs

     total energy              =    -449.72770912 Ry
     estimated scf accuracy    <       0.29518313 Ry

     iteration #  7     ecut=   124.00 Ry     beta= 0.70
     Davidson diagonalization with overlap
     ethr =  1.02E-03,  avg # of iterations =  4.0

     negative rho (up, down):  7.334E-04 0.000E+00

     total cpu time spent up to now is      326.4 secs

     total energy              =    -449.78800290 Ry
     estimated scf accuracy    <       0.10129512 Ry

     iteration #  8     ecut=   124.00 Ry     beta= 0.70
     Davidson diagonalization with overlap
     ethr =  3.49E-04,  avg # of iterations =  2.4

     negative rho (up, down):  1.066E-03 0.000E+00

     total cpu time spent up to now is      329.3 secs

     total energy              =    -449.54427476 Ry
     estimated scf accuracy    <       1.20243062 Ry

     iteration #  9     ecut=   124.00 Ry     beta= 0.70
     Davidson diagonalization with overlap
     ethr =  3.49E-04,  avg # of iterations =  4.7

     negative rho (up, down):  7.564E-04 0.000E+00

     total cpu time spent up to now is      333.4 secs

     total energy              =    -449.53318207 Ry
     estimated scf accuracy    <       3.62133638 Ry

     iteration # 10     ecut=   124.00 Ry     beta= 0.70
     Davidson diagonalization with overlap
     ethr =  3.49E-04,  avg # of iterations =  3.6

     negative rho (up, down):  6.690E-04 0.000E+00

     total cpu time spent up to now is      337.0 secs

     total energy              =    -449.78766225 Ry
     estimated scf accuracy    <       0.08357023 Ry

     iteration # 11     ecut=   124.00 Ry     beta= 0.70
     Davidson diagonalization with overlap
     ethr =  2.88E-04,  avg # of iterations =  1.9

     negative rho (up, down):  6.875E-04 0.000E+00

     total cpu time spent up to now is      339.8 secs

     total energy              =    -449.80663241 Ry
     estimated scf accuracy    <       0.70058684 Ry

     iteration # 12     ecut=   124.00 Ry     beta= 0.70
     Davidson diagonalization with overlap
     ethr =  2.88E-04,  avg # of iterations =  1.0

     negative rho (up, down):  7.572E-04 0.000E+00

     total cpu time spent up to now is      342.3 secs

     total energy              =    -449.76724015 Ry
     estimated scf accuracy    <       0.69549933 Ry

     iteration # 13     ecut=   124.00 Ry     beta= 0.70
     Davidson diagonalization with overlap
     ethr =  2.88E-04,  avg # of iterations =  1.0

     negative rho (up, down):  7.733E-04 0.000E+00

     total cpu time spent up to now is      344.9 secs

     total energy              =    -449.76963044 Ry
     estimated scf accuracy    <       0.27149719 Ry

     iteration # 14     ecut=   124.00 Ry     beta= 0.70
     Davidson diagonalization with overlap
     ethr =  2.88E-04,  avg # of iterations =  1.0

     negative rho (up, down):  7.779E-04 0.000E+00

     total cpu time spent up to now is      347.4 secs

     total energy              =    -449.76950560 Ry
     estimated scf accuracy    <       0.22385389 Ry

     iteration # 15     ecut=   124.00 Ry     beta= 0.70
     Davidson diagonalization with overlap
     ethr =  2.88E-04,  avg # of iterations =  1.0

     negative rho (up, down):  1.281E-03 0.000E+00

     total cpu time spent up to now is      350.0 secs

     total energy              =    -449.70283570 Ry
     estimated scf accuracy    <       0.21809092 Ry

     iteration # 16     ecut=   124.00 Ry     beta= 0.70
     Davidson diagonalization with overlap
     ethr =  2.88E-04,  avg # of iterations =  4.3

     negative rho (up, down):  1.048E-03 0.000E+00

     total cpu time spent up to now is      354.1 secs

     total energy              =    -449.73710274 Ry
     estimated scf accuracy    <       1.34519254 Ry

     iteration # 17     ecut=   124.00 Ry     beta= 0.70
     Davidson diagonalization with overlap
     ethr =  2.88E-04,  avg # of iterations =  1.8

     negative rho (up, down):  9.947E-04 0.000E+00

     total cpu time spent up to now is      356.8 secs

     total energy              =    -449.75625219 Ry
     estimated scf accuracy    <       0.17783792 Ry

     iteration # 18     ecut=   124.00 Ry     beta= 0.70
     Davidson diagonalization with overlap
     ethr =  2.88E-04,  avg # of iterations =  1.0

     negative rho (up, down):  8.640E-04 0.000E+00

     total cpu time spent up to now is      359.4 secs

     total energy              =    -449.74421302 Ry
     estimated scf accuracy    <       0.08690586 Ry

     iteration # 19     ecut=   124.00 Ry     beta= 0.70
     Davidson diagonalization with overlap
     ethr =  2.88E-04,  avg # of iterations =  1.8

     negative rho (up, down):  8.777E-04 0.000E+00

     total cpu time spent up to now is      362.1 secs

     total energy              =    -449.75309717 Ry
     estimated scf accuracy    <       0.00448113 Ry

     iteration # 20     ecut=   124.00 Ry     beta= 0.70
     Davidson diagonalization with overlap
     ethr =  1.55E-05,  avg # of iterations =  3.6

     negative rho (up, down):  8.805E-04 0.000E+00

     total cpu time spent up to now is      365.3 secs

     total energy              =    -449.75348990 Ry
     estimated scf accuracy    <       0.00220035 Ry

     iteration # 21     ecut=   124.00 Ry     beta= 0.70
     Davidson diagonalization with overlap
     ethr =  7.59E-06,  avg # of iterations =  1.1

     negative rho (up, down):  8.939E-04 0.000E+00

     total cpu time spent up to now is      367.9 secs

     total energy              =    -449.75333055 Ry
     estimated scf accuracy    <       0.00222310 Ry

     iteration # 22     ecut=   124.00 Ry     beta= 0.70
     Davidson diagonalization with overlap
     ethr =  7.59E-06,  avg # of iterations =  1.0

     negative rho (up, down):  9.001E-04 0.000E+00

     total cpu time spent up to now is      370.5 secs

     total energy              =    -449.75332488 Ry
     estimated scf accuracy    <       0.00076355 Ry

     iteration # 23     ecut=   124.00 Ry     beta= 0.70
     Davidson diagonalization with overlap
     ethr =  2.63E-06,  avg # of iterations =  1.1

     negative rho (up, down):  9.016E-04 0.000E+00

     total cpu time spent up to now is      373.0 secs

     total energy              =    -449.75333539 Ry
     estimated scf accuracy    <       0.00022933 Ry

     iteration # 24     ecut=   124.00 Ry     beta= 0.70
     Davidson diagonalization with overlap
     ethr =  7.91E-07,  avg # of iterations =  1.1

     negative rho (up, down):  9.034E-04 0.000E+00

     total cpu time spent up to now is      375.6 secs

     total energy              =    -449.75333244 Ry
     estimated scf accuracy    <       0.00014836 Ry

     iteration # 25     ecut=   124.00 Ry     beta= 0.70
     Davidson diagonalization with overlap
     ethr =  5.12E-07,  avg # of iterations =  1.0

     negative rho (up, down):  9.070E-04 0.000E+00

     total cpu time spent up to now is      378.2 secs

     total energy              =    -449.75332633 Ry
     estimated scf accuracy    <       0.00007152 Ry

     iteration # 26     ecut=   124.00 Ry     beta= 0.70
     Davidson diagonalization with overlap
     ethr =  2.47E-07,  avg # of iterations =  1.4

     negative rho (up, down):  9.073E-04 0.000E+00

     total cpu time spent up to now is      380.8 secs

     total energy              =    -449.75332980 Ry
     estimated scf accuracy    <       0.00000167 Ry

     iteration # 27     ecut=   124.00 Ry     beta= 0.70
     Davidson diagonalization with overlap
     ethr =  5.76E-09,  avg # of iterations =  4.6

     negative rho (up, down):  9.072E-04 0.000E+00

     total cpu time spent up to now is      384.5 secs

     total energy              =    -449.75333068 Ry
     estimated scf accuracy    <       0.00000001 Ry

     iteration # 28     ecut=   124.00 Ry     beta= 0.70
     Davidson diagonalization with overlap
     ethr =  3.47E-11,  avg # of iterations =  6.1

     negative rho (up, down):  9.073E-04 0.000E+00

     total cpu time spent up to now is      389.6 secs

     total energy              =    -449.75333068 Ry
     estimated scf accuracy    <       0.00000005 Ry

     iteration # 29     ecut=   124.00 Ry     beta= 0.70
     Davidson diagonalization with overlap
     ethr =  3.47E-11,  avg # of iterations =  4.8

     negative rho (up, down):  9.072E-04 0.000E+00

     total cpu time spent up to now is      393.9 secs

     total energy              =    -449.75333069 Ry
     estimated scf accuracy    <       0.00000002 Ry

     iteration # 30     ecut=   124.00 Ry     beta= 0.70
     Davidson diagonalization with overlap
     ethr =  3.47E-11,  avg # of iterations =  3.1

     negative rho (up, down):  9.072E-04 0.000E+00

     total cpu time spent up to now is      397.2 secs

     total energy              =    -449.75333069 Ry
     estimated scf accuracy    <          4.2E-10 Ry

     iteration # 31     ecut=   124.00 Ry     beta= 0.70
     Davidson diagonalization with overlap
     ethr =  1.44E-12,  avg # of iterations =  4.4

     negative rho (up, down):  9.072E-04 0.000E+00

     total cpu time spent up to now is      401.1 secs

     total energy              =    -449.75333069 Ry
     estimated scf accuracy    <          1.4E-10 Ry

     iteration # 32     ecut=   124.00 Ry     beta= 0.70
     Davidson diagonalization with overlap
     ethr =  4.85E-13,  avg # of iterations =  1.8

     negative rho (up, down):  9.072E-04 0.000E+00

     total cpu time spent up to now is      403.8 secs

     End of self-consistent calculation

     Number of k-points >= 100: set verbosity='high' to print the bands.

     the Fermi energy is    16.2253 ev

!    total energy              =    -449.75333069 Ry
     estimated scf accuracy    <          8.5E-12 Ry
     smearing contrib. (-TS)   =       0.00004465 Ry
     internal energy E=F+TS    =    -449.75337534 Ry

     The total energy is F=E-TS. E is the sum of the following terms:
     one-electron contribution =    -161.18151064 Ry
     hartree contribution      =      95.80822598 Ry
     xc contribution           =     -53.63187046 Ry
     ewald contribution        =    -254.59591985 Ry
     one-center paw contrib.   =     -76.15230036 Ry

     convergence has been achieved in  32 iterations

     negative rho (up, down):  9.072E-04 0.000E+00

     Forces acting on atoms (cartesian axes, Ry/au):

     atom    1 type  1   force =     0.00000000    0.00000000    0.00000000
     atom    2 type  2   force =     0.00000000    0.00000000    0.00000000
     atom    3 type  3   force =     0.00000000    0.00000000    0.00000000

     Total force =     0.000000     Total SCF correction =     0.000000


     Computing stress (Cartesian axis) and pressure


     negative rho (up, down):  9.072E-04 0.000E+00
          total   stress  (Ry/bohr**3)                   (kbar)     P=       -0.10
  -0.00000041   0.00000000   0.00000000           -0.06        0.00        0.00
   0.00000000  -0.00000041   0.00000000            0.00       -0.06        0.00
   0.00000000   0.00000000  -0.00000120            0.00        0.00       -0.18


     Writing all to output data dir ./TiFe_H_faces_z.save/ :
     XML data file
     init_run     :      3.60s CPU      3.74s WALL (       2 calls)
     electrons    :    371.93s CPU    386.62s WALL (       8 calls)
     update_pot   :      0.40s CPU      0.49s WALL (       6 calls)
     forces       :      2.13s CPU      2.27s WALL (       8 calls)
     stress       :     10.05s CPU     10.43s WALL (       8 calls)

     Called by init_run:
     wfcinit      :      2.26s CPU      2.34s WALL (       2 calls)
     potinit      :      0.44s CPU      0.45s WALL (       2 calls)
     hinit0       :      0.42s CPU      0.44s WALL (       2 calls)

     Called by electrons:
     c_bands      :    310.61s CPU    320.60s WALL (     111 calls)
     sum_band     :     47.23s CPU     49.72s WALL (     111 calls)
     v_of_rho     :      1.45s CPU      1.69s WALL (     116 calls)
     newd         :      8.30s CPU      9.63s WALL (     116 calls)
     PAW_pot      :      5.22s CPU      5.98s WALL (     122 calls)
     mix_rho      :      0.17s CPU      0.19s WALL (     111 calls)

     Called by c_bands:
     init_us_2    :      6.74s CPU      7.05s WALL (   70848 calls)
     cegterg      :    299.24s CPU    308.60s WALL (   31968 calls)

     Called by *egterg:
     cdiaghg      :     52.34s CPU     53.72s WALL (  136039 calls)
     h_psi        :    207.01s CPU    214.07s WALL (  139207 calls)
     s_psi        :      4.94s CPU      5.11s WALL (  139207 calls)
     g_psi        :      1.17s CPU      1.20s WALL (  106663 calls)

     Called by h_psi:
     h_psi:calbec :      9.99s CPU     10.33s WALL (  139207 calls)
     vloc_psi     :    190.55s CPU    197.07s WALL (  139207 calls)
     add_vuspsi   :      5.18s CPU      5.37s WALL (  139207 calls)

     General routines
     calbec       :     15.41s CPU     15.92s WALL (  212071 calls)
     fft          :      1.23s CPU      1.49s WALL (    1701 calls)
     ffts         :      0.33s CPU      0.33s WALL (     227 calls)
     fftw         :    184.00s CPU    190.16s WALL ( 4095378 calls)
     interpolate  :      0.40s CPU      0.43s WALL (     116 calls)

     Parallel routines

     PWSCF        :    389.57s CPU    405.68s WALL


   This run was terminated on:  23:35:40  12Nov2025            

=------------------------------------------------------------------------------=
   JOB DONE.
=------------------------------------------------------------------------------=
