
     Program PWSCF v.7.4 starts on 12Nov2025 at 23: 8:59 

     This program is part of the open-source Quantum ESPRESSO suite
     for quantum simulation of materials; please cite
         "P. Giannozzi et al., J. Phys.:Condens. Matter 21 395502 (2009);
         "P. Giannozzi et al., J. Phys.:Condens. Matter 29 465901 (2017);
         "P. Giannozzi et al., J. Chem. Phys. 152 154105 (2020);
          URL http://www.quantum-espresso.org", 
     in publications or presentations arising from this work. More details at
     http://www.quantum-espresso.org/quote

     Parallel version (MPI & OpenMP), running on      16 processor cores
     Number of MPI processes:                16
     Threads/MPI process:                     1

     MPI processes distributed on     1 nodes
     199955 MiB available memory on the printing compute node when the environment starts

     Reading input from TiFe_H_faces_xz.in

     Current dimensions of program PWSCF are:
     Max number of different atomic species (ntypx) = 10
     Max number of k-points (npk) =  40000
     Max angular momentum in pseudopotentials (lmaxx) =  4
     file Fe.pbe-spn-kjpaw_psl.0.2.1.UPF: wavefunction(s)  3D renormalized

     IMPORTANT: XC functional enforced from input :
     Exchange-correlation= PBE
                           (   1   4   3   4   0   0   0)
     Any further DFT definition will be discarded
     Please, verify this is what you really want

     Message from routine setup:
     using ibrav=0 with symmetry is DISCOURAGED, use correct ibrav instead

     R & G space division:  proc/nbgrp/npool/nimage =      16
     Subspace diagonalization in iterative solution of the eigenvalue problem:
     a serial algorithm will be used


     Parallelization info
     --------------------
     sticks:   dense  smooth     PW     G-vecs:    dense   smooth      PW
     Min         269      76     22                13288     2024     320
     Max         271      77     23                13289     2027     323
     Sum        4309    1225    357               212623    32423    5137

     Using Slab Decomposition



     bravais-lattice index     =            0
     lattice parameter (alat)  =       5.5824  a.u.
     unit-cell volume          =     173.9675 (a.u.)^3
     number of atoms/cell      =            4
     number of atomic types    =            3
     number of electrons       =        30.00
     number of Kohn-Sham states=           19
     kinetic-energy cutoff     =     124.0000  Ry
     charge density cutoff     =    1736.0000  Ry
     scf convergence threshold =      1.0E-08
     mixing beta               =       0.7000
     number of iterations used =            8  plain     mixing
     energy convergence thresh.=      1.0E-04
     force convergence thresh. =      1.0E-03
     press convergence thresh. =      1.0E-01
     Exchange-correlation= PBE
                           (   1   4   3   4   0   0   0)
     nstep                     =           50


     celldm(1)=   5.582423  celldm(2)=   0.000000  celldm(3)=   0.000000
     celldm(4)=   0.000000  celldm(5)=   0.000000  celldm(6)=   0.000000

     crystal axes: (cart. coord. in units of alat)
               a(1) = (   1.000000   0.000000   0.000000 )  
               a(2) = (   0.000000   1.000000   0.000000 )  
               a(3) = (   0.000000   0.000000   1.000000 )  

     reciprocal axes: (cart. coord. in units 2 pi/alat)
               b(1) = (  1.000000  0.000000  0.000000 )  
               b(2) = (  0.000000  1.000000  0.000000 )  
               b(3) = (  0.000000  0.000000  1.000000 )  


     PseudoPot. # 1 for Fe read from file:
     ../../pseudos/Fe.pbe-spn-kjpaw_psl.0.2.1.UPF
     MD5 check sum: e86618425769142926afa95317d90200
     Pseudo is Projector augmented-wave + core cor, Zval = 16.0
     Generated using "atomic" code by A. Dal Corso  v.5.0.99 svn rev. 10869
     Shape of augmentation charge: PSQ
     Using radial grid of 1191 points,  6 beta functions with: 
                l(1) =   0
                l(2) =   0
                l(3) =   1
                l(4) =   1
                l(5) =   2
                l(6) =   2
     Q(r) pseudized with 0 coefficients 


     PseudoPot. # 2 for Ti read from file:
     ../../pseudos/ti_pbe_v1.4.uspp.F.UPF
     MD5 check sum: 88a00a6731bd790ddea75d31a80cb452
     Pseudo is Ultrasoft + core correction, Zval = 12.0
     Generated by new atomic code, or converted to UPF format
     Using radial grid of  851 points,  6 beta functions with: 
                l(1) =   0
                l(2) =   0
                l(3) =   1
                l(4) =   1
                l(5) =   2
                l(6) =   2
     Q(r) pseudized with  6 coefficients,  rinner =    1.000   1.000   1.000
                                                       1.000   1.000

     PseudoPot. # 3 for H  read from file:
     ../../pseudos/H.pbe-rrkjus_psl.1.0.0.UPF
     MD5 check sum: f52b6d4d1c606e5624b1dc7b2218f220
     Pseudo is Ultrasoft, Zval =  1.0
     Generated using "atomic" code by A. Dal Corso  v.5.1
     Using radial grid of  929 points,  2 beta functions with: 
                l(1) =   0
                l(2) =   0
     Q(r) pseudized with 0 coefficients 


     atomic species   valence    mass     pseudopotential
     Fe               16.00    55.84500     Fe( 1.00)
     Ti               12.00    47.86700     Ti( 1.00)
     H                 1.00     1.00750     H ( 1.00)

     16 Sym. Ops., with inversion, found



   Cartesian axes

     site n.     atom                  positions (alat units)
         1        Fe     tau(   1) = (   0.5000000   0.5000000   0.5000000  )
         2        Ti     tau(   2) = (   0.0000000   0.0000000   0.0000000  )
         3        H      tau(   3) = (   0.5000000   0.5000000   0.0000000  )
         4        H      tau(   4) = (   0.0000000   0.5000000   0.5000000  )

     number of k points=   288  Marzari-Vanderbilt smearing, width (Ry)=  0.0050

     Number of k-points >= 100: set verbosity='high' to print them.

     Dense  grid:   212623 G-vectors     FFT dimensions: (  75,  75,  75)

     Smooth grid:    32423 G-vectors     FFT dimensions: (  40,  40,  40)

     Estimated max dynamical RAM per process >      90.34 MB

     Estimated total dynamical RAM >       1.41 GB

     Check: negative core charge=   -0.000001

     Initial potential from superposition of free atoms

     starting charge      28.9995, renormalised to      30.0000

     negative rho (up, down):  1.329E-03 0.000E+00
     Starting wfcs are   25 randomized atomic wfcs
     Checking if some PAW data can be deallocated... 

     total cpu time spent up to now is        2.4 secs

     per-process dynamical memory:   160.2 Mb

     Self-consistent Calculation

     iteration #  1     ecut=   124.00 Ry     beta= 0.70
     Davidson diagonalization with overlap
     ethr =  1.00E-02,  avg # of iterations =  2.2

     negative rho (up, down):  1.040E-05 0.000E+00

     total cpu time spent up to now is        5.4 secs

     total energy              =    -441.39559785 Ry
     estimated scf accuracy    <      12.04946380 Ry

     iteration #  2     ecut=   124.00 Ry     beta= 0.70
     Davidson diagonalization with overlap
     ethr =  1.00E-02,  avg # of iterations =  5.8

     negative rho (up, down):  1.169E-04 0.000E+00

     total cpu time spent up to now is       10.5 secs

     total energy              =    -450.67996559 Ry
     estimated scf accuracy    <      50.28441742 Ry

     iteration #  3     ecut=   124.00 Ry     beta= 0.70
     Davidson diagonalization with overlap
     ethr =  1.00E-02,  avg # of iterations =  2.6

     negative rho (up, down):  3.612E-04 0.000E+00

     total cpu time spent up to now is       14.0 secs

     total energy              =    -450.89222562 Ry
     estimated scf accuracy    <      12.34744776 Ry

     iteration #  4     ecut=   124.00 Ry     beta= 0.70
     Davidson diagonalization with overlap
     ethr =  1.00E-02,  avg # of iterations =  2.3

     negative rho (up, down):  3.499E-04 0.000E+00

     total cpu time spent up to now is       16.8 secs

     total energy              =    -451.28238960 Ry
     estimated scf accuracy    <       3.92048413 Ry

     iteration #  5     ecut=   124.00 Ry     beta= 0.70
     Davidson diagonalization with overlap
     ethr =  1.00E-02,  avg # of iterations =  1.0

     negative rho (up, down):  5.089E-04 0.000E+00

     total cpu time spent up to now is       19.2 secs

     total energy              =    -450.69929742 Ry
     estimated scf accuracy    <       3.73665537 Ry

     iteration #  6     ecut=   124.00 Ry     beta= 0.70
     Davidson diagonalization with overlap
     ethr =  1.00E-02,  avg # of iterations =  1.7

     negative rho (up, down):  6.313E-04 0.000E+00

     total cpu time spent up to now is       21.7 secs

     total energy              =    -450.83195306 Ry
     estimated scf accuracy    <       0.47609104 Ry

     iteration #  7     ecut=   124.00 Ry     beta= 0.70
     Davidson diagonalization with overlap
     ethr =  1.59E-03,  avg # of iterations =  3.7

     negative rho (up, down):  7.451E-04 0.000E+00

     total cpu time spent up to now is       24.8 secs

     total energy              =    -450.83797127 Ry
     estimated scf accuracy    <       0.21335134 Ry

     iteration #  8     ecut=   124.00 Ry     beta= 0.70
     Davidson diagonalization with overlap
     ethr =  7.11E-04,  avg # of iterations =  2.1

     negative rho (up, down):  9.592E-04 0.000E+00

     total cpu time spent up to now is       27.6 secs

     total energy              =    -450.80646785 Ry
     estimated scf accuracy    <       0.22195955 Ry

     iteration #  9     ecut=   124.00 Ry     beta= 0.70
     Davidson diagonalization with overlap
     ethr =  7.11E-04,  avg # of iterations =  2.9

     negative rho (up, down):  9.680E-04 0.000E+00

     total cpu time spent up to now is       30.5 secs

     total energy              =    -450.89245686 Ry
     estimated scf accuracy    <       0.73114392 Ry

     iteration # 10     ecut=   124.00 Ry     beta= 0.70
     Davidson diagonalization with overlap
     ethr =  7.11E-04,  avg # of iterations =  1.1

     negative rho (up, down):  1.051E-03 0.000E+00

     total cpu time spent up to now is       32.9 secs

     total energy              =    -450.93950870 Ry
     estimated scf accuracy    <       0.85986106 Ry

     iteration # 11     ecut=   124.00 Ry     beta= 0.70
     Davidson diagonalization with overlap
     ethr =  7.11E-04,  avg # of iterations =  1.8

     negative rho (up, down):  9.832E-04 0.000E+00

     total cpu time spent up to now is       35.5 secs

     total energy              =    -450.94374952 Ry
     estimated scf accuracy    <       2.29105554 Ry

     iteration # 12     ecut=   124.00 Ry     beta= 0.70
     Davidson diagonalization with overlap
     ethr =  7.11E-04,  avg # of iterations =  1.1

     negative rho (up, down):  9.397E-04 0.000E+00

     total cpu time spent up to now is       37.9 secs

     total energy              =    -450.90955535 Ry
     estimated scf accuracy    <       1.81521287 Ry

     iteration # 13     ecut=   124.00 Ry     beta= 0.70
     Davidson diagonalization with overlap
     ethr =  7.11E-04,  avg # of iterations =  1.0

     negative rho (up, down):  6.417E-04 0.000E+00

     total cpu time spent up to now is       40.3 secs

     total energy              =    -450.68830352 Ry
     estimated scf accuracy    <       1.26903489 Ry

     iteration # 14     ecut=   124.00 Ry     beta= 0.70
     Davidson diagonalization with overlap
     ethr =  7.11E-04,  avg # of iterations =  3.4

     negative rho (up, down):  6.459E-04 0.000E+00

     total cpu time spent up to now is       43.5 secs

     total energy              =    -450.83962519 Ry
     estimated scf accuracy    <       0.30468569 Ry

     iteration # 15     ecut=   124.00 Ry     beta= 0.70
     Davidson diagonalization with overlap
     ethr =  7.11E-04,  avg # of iterations =  1.0

     negative rho (up, down):  6.881E-04 0.000E+00

     total cpu time spent up to now is       45.9 secs

     total energy              =    -450.84540338 Ry
     estimated scf accuracy    <       0.11787383 Ry

     iteration # 16     ecut=   124.00 Ry     beta= 0.70
     Davidson diagonalization with overlap
     ethr =  3.93E-04,  avg # of iterations =  1.0

     negative rho (up, down):  7.472E-04 0.000E+00

     total cpu time spent up to now is       48.3 secs

     total energy              =    -450.84005819 Ry
     estimated scf accuracy    <       0.09551129 Ry

     iteration # 17     ecut=   124.00 Ry     beta= 0.70
     Davidson diagonalization with overlap
     ethr =  3.18E-04,  avg # of iterations =  1.0

     negative rho (up, down):  7.844E-04 0.000E+00

     total cpu time spent up to now is       50.7 secs

     total energy              =    -450.83755351 Ry
     estimated scf accuracy    <       0.09186172 Ry

     iteration # 18     ecut=   124.00 Ry     beta= 0.70
     Davidson diagonalization with overlap
     ethr =  3.06E-04,  avg # of iterations =  1.0

     negative rho (up, down):  8.234E-04 0.000E+00

     total cpu time spent up to now is       53.1 secs

     total energy              =    -450.83004945 Ry
     estimated scf accuracy    <       0.06131711 Ry

     iteration # 19     ecut=   124.00 Ry     beta= 0.70
     Davidson diagonalization with overlap
     ethr =  2.04E-04,  avg # of iterations =  1.0

     negative rho (up, down):  8.956E-04 0.000E+00

     total cpu time spent up to now is       55.5 secs

     total energy              =    -450.82787780 Ry
     estimated scf accuracy    <       0.03516543 Ry

     iteration # 20     ecut=   124.00 Ry     beta= 0.70
     Davidson diagonalization with overlap
     ethr =  1.17E-04,  avg # of iterations =  1.8

     negative rho (up, down):  8.870E-04 0.000E+00

     total cpu time spent up to now is       58.1 secs

     total energy              =    -450.83061639 Ry
     estimated scf accuracy    <       0.00065414 Ry

     iteration # 21     ecut=   124.00 Ry     beta= 0.70
     Davidson diagonalization with overlap
     ethr =  2.18E-06,  avg # of iterations =  5.4

     negative rho (up, down):  8.649E-04 0.000E+00

     total cpu time spent up to now is       62.1 secs

     total energy              =    -450.83050488 Ry
     estimated scf accuracy    <       0.00048604 Ry

     iteration # 22     ecut=   124.00 Ry     beta= 0.70
     Davidson diagonalization with overlap
     ethr =  1.62E-06,  avg # of iterations =  2.6

     negative rho (up, down):  8.665E-04 0.000E+00

     total cpu time spent up to now is       65.2 secs

     total energy              =    -450.83065254 Ry
     estimated scf accuracy    <       0.00014686 Ry

     iteration # 23     ecut=   124.00 Ry     beta= 0.70
     Davidson diagonalization with overlap
     ethr =  4.90E-07,  avg # of iterations =  1.8

     negative rho (up, down):  8.692E-04 0.000E+00

     total cpu time spent up to now is       67.8 secs

     total energy              =    -450.83064234 Ry
     estimated scf accuracy    <       0.00006017 Ry

     iteration # 24     ecut=   124.00 Ry     beta= 0.70
     Davidson diagonalization with overlap
     ethr =  2.01E-07,  avg # of iterations =  1.8

     negative rho (up, down):  8.688E-04 0.000E+00

     total cpu time spent up to now is       70.4 secs

     total energy              =    -450.83064627 Ry
     estimated scf accuracy    <       0.00000357 Ry

     iteration # 25     ecut=   124.00 Ry     beta= 0.70
     Davidson diagonalization with overlap
     ethr =  1.19E-08,  avg # of iterations =  2.8

     negative rho (up, down):  8.686E-04 0.000E+00

     total cpu time spent up to now is       73.4 secs

     total energy              =    -450.83064642 Ry
     estimated scf accuracy    <       0.00000151 Ry

     iteration # 26     ecut=   124.00 Ry     beta= 0.70
     Davidson diagonalization with overlap
     ethr =  5.03E-09,  avg # of iterations =  1.7

     negative rho (up, down):  8.689E-04 0.000E+00

     total cpu time spent up to now is       76.0 secs

     total energy              =    -450.83064642 Ry
     estimated scf accuracy    <       0.00000041 Ry

     iteration # 27     ecut=   124.00 Ry     beta= 0.70
     Davidson diagonalization with overlap
     ethr =  1.37E-09,  avg # of iterations =  2.9

     negative rho (up, down):  8.689E-04 0.000E+00

     total cpu time spent up to now is       78.8 secs

     total energy              =    -450.83064647 Ry
     estimated scf accuracy    <       0.00000003 Ry

     iteration # 28     ecut=   124.00 Ry     beta= 0.70
     Davidson diagonalization with overlap
     ethr =  1.02E-10,  avg # of iterations =  4.8

     negative rho (up, down):  8.689E-04 0.000E+00

     total cpu time spent up to now is       82.6 secs

     total energy              =    -450.83064647 Ry
     estimated scf accuracy    <       0.00000001 Ry

     iteration # 29     ecut=   124.00 Ry     beta= 0.70
     Davidson diagonalization with overlap
     ethr =  3.86E-11,  avg # of iterations =  1.6

     negative rho (up, down):  8.690E-04 0.000E+00

     total cpu time spent up to now is       85.1 secs

     End of self-consistent calculation

     Number of k-points >= 100: set verbosity='high' to print the bands.

     the Fermi energy is    19.2581 ev

!    total energy              =    -450.83064647 Ry
     estimated scf accuracy    <          5.0E-09 Ry
     smearing contrib. (-TS)   =      -0.00007964 Ry
     internal energy E=F+TS    =    -450.83056683 Ry

     The total energy is F=E-TS. E is the sum of the following terms:
     one-electron contribution =    -146.10433959 Ry
     hartree contribution      =      92.11492611 Ry
     xc contribution           =     -54.88683165 Ry
     ewald contribution        =    -265.79907102 Ry
     one-center paw contrib.   =     -76.15525068 Ry

     convergence has been achieved in  29 iterations

     negative rho (up, down):  8.690E-04 0.000E+00

     Forces acting on atoms (cartesian axes, Ry/au):

     atom    1 type  1   force =     0.00000000    0.00000000    0.00000000
     atom    2 type  2   force =     0.00000000    0.00000000    0.00000000
     atom    3 type  3   force =     0.00000000    0.00000000    0.00000000
     atom    4 type  3   force =     0.00000000    0.00000000    0.00000000

     Total force =     0.000000     Total SCF correction =     0.000000


     Computing stress (Cartesian axis) and pressure


     negative rho (up, down):  8.690E-04 0.000E+00
          total   stress  (Ry/bohr**3)                   (kbar)     P=      568.12
   0.00509595   0.00000000   0.00000000          749.64        0.00        0.00
   0.00000000   0.00139400   0.00000000            0.00      205.06        0.00
   0.00000000   0.00000000   0.00509595            0.00        0.00      749.64


     BFGS Geometry Optimization
     Energy error            =      1.9E-01 Ry
     Gradient error          =      0.0E+00 Ry/Bohr
     Cell gradient error     =      7.5E+02 kbar

     number of scf cycles    =   1
     number of bfgs steps    =   0

     enthalpy           new  =    -450.8306464681 Ry

     new trust radius        =       0.3360697301 bohr
     new conv_thr            =       0.0000000100 Ry

     new unit-cell volume =    228.82354 a.u.^3 (    33.90815 Ang^3 )
     density =      5.17763 g/cm^3

CELL_PARAMETERS (alat=  5.58242261)
   1.127398799   0.000000000   0.000000000
   0.000000000   1.034850060   0.000000000
   0.000000000   0.000000000   1.127398799

ATOMIC_POSITIONS (crystal)
Fe               0.5000000000        0.5000000000        0.5000000000
Ti               0.0000000000        0.0000000000        0.0000000000
H                0.5000000000        0.5000000000        0.0000000000
H                0.0000000000        0.5000000000        0.5000000000



     Writing config-only to output data dir ./TiFe_H_faces_xz.save/ :
     XML data file     NEW-OLD atomic charge density approx. for the potential
     New effective cutoffs (rho, wfc): 1620.43  115.68

     Check: negative core charge=   -0.000002

     negative rho (up, down):  1.023E-03 0.000E+00

     total cpu time spent up to now is       87.0 secs

     per-process dynamical memory:   164.2 Mb

     Self-consistent Calculation

     iteration #  1     ecut=   124.00 Ry     beta= 0.70
     Davidson diagonalization with overlap
     c_bands:  1 eigenvalues not converged
     c_bands:  1 eigenvalues not converged
     c_bands:  1 eigenvalues not converged
     c_bands:  1 eigenvalues not converged
     c_bands:  1 eigenvalues not converged
     c_bands:  1 eigenvalues not converged
     c_bands:  1 eigenvalues not converged
     c_bands:  1 eigenvalues not converged
     ethr =  1.00E-06,  avg # of iterations = 15.3

     negative rho (up, down):  7.216E-04 0.000E+00

     total cpu time spent up to now is       99.6 secs

     total energy              =    -450.88386736 Ry
     estimated scf accuracy    <       0.03566831 Ry

     iteration #  2     ecut=   124.00 Ry     beta= 0.70
     Davidson diagonalization with overlap
     ethr =  1.19E-04,  avg # of iterations =  5.6

     negative rho (up, down):  7.941E-04 0.000E+00

     total cpu time spent up to now is      103.9 secs

     total energy              =    -450.80322697 Ry
     estimated scf accuracy    <       1.98071791 Ry

     iteration #  3     ecut=   124.00 Ry     beta= 0.70
     Davidson diagonalization with overlap
     ethr =  1.19E-04,  avg # of iterations =  4.6

     negative rho (up, down):  8.482E-04 0.000E+00

     total cpu time spent up to now is      107.8 secs

     total energy              =    -450.90310377 Ry
     estimated scf accuracy    <       0.02867647 Ry

     iteration #  4     ecut=   124.00 Ry     beta= 0.70
     Davidson diagonalization with overlap
     ethr =  9.56E-05,  avg # of iterations =  2.1

     negative rho (up, down):  8.681E-04 0.000E+00

     total cpu time spent up to now is      110.7 secs

     total energy              =    -450.90732554 Ry
     estimated scf accuracy    <       0.00376999 Ry

     iteration #  5     ecut=   124.00 Ry     beta= 0.70
     Davidson diagonalization with overlap
     ethr =  1.26E-05,  avg # of iterations =  4.6

     negative rho (up, down):  8.445E-04 0.000E+00

     total cpu time spent up to now is      114.4 secs

     total energy              =    -450.90802695 Ry
     estimated scf accuracy    <       0.00298731 Ry

     iteration #  6     ecut=   124.00 Ry     beta= 0.70
     Davidson diagonalization with overlap
     ethr =  9.96E-06,  avg # of iterations =  1.8

     negative rho (up, down):  8.402E-04 0.000E+00

     total cpu time spent up to now is      117.0 secs

     total energy              =    -450.90828413 Ry
     estimated scf accuracy    <       0.00011015 Ry

     iteration #  7     ecut=   124.00 Ry     beta= 0.70
     Davidson diagonalization with overlap
     ethr =  3.67E-07,  avg # of iterations =  4.5

     negative rho (up, down):  8.396E-04 0.000E+00

     total cpu time spent up to now is      120.5 secs

     total energy              =    -450.90833214 Ry
     estimated scf accuracy    <       0.00000497 Ry

     iteration #  8     ecut=   124.00 Ry     beta= 0.70
     Davidson diagonalization with overlap
     ethr =  1.66E-08,  avg # of iterations =  4.2

     negative rho (up, down):  8.392E-04 0.000E+00

     total cpu time spent up to now is      124.0 secs

     total energy              =    -450.90833325 Ry
     estimated scf accuracy    <       0.00000132 Ry

     iteration #  9     ecut=   124.00 Ry     beta= 0.70
     Davidson diagonalization with overlap
     ethr =  4.41E-09,  avg # of iterations =  2.3

     negative rho (up, down):  8.394E-04 0.000E+00

     total cpu time spent up to now is      126.9 secs

     total energy              =    -450.90833319 Ry
     estimated scf accuracy    <       0.00000166 Ry

     iteration # 10     ecut=   124.00 Ry     beta= 0.70
     Davidson diagonalization with overlap
     ethr =  4.41E-09,  avg # of iterations =  1.8

     negative rho (up, down):  8.394E-04 0.000E+00

     total cpu time spent up to now is      129.5 secs

     total energy              =    -450.90833334 Ry
     estimated scf accuracy    <       0.00000003 Ry

     iteration # 11     ecut=   124.00 Ry     beta= 0.70
     Davidson diagonalization with overlap
     ethr =  8.53E-11,  avg # of iterations =  5.0

     negative rho (up, down):  8.394E-04 0.000E+00

     total cpu time spent up to now is      133.7 secs

     End of self-consistent calculation

     Number of k-points >= 100: set verbosity='high' to print the bands.

     the Fermi energy is    13.8578 ev

!    total energy              =    -450.90833336 Ry
     estimated scf accuracy    <          4.9E-10 Ry
     smearing contrib. (-TS)   =       0.00008625 Ry
     internal energy E=F+TS    =    -450.90841961 Ry

     The total energy is F=E-TS. E is the sum of the following terms:
     one-electron contribution =    -181.23208119 Ry
     hartree contribution      =     103.85692546 Ry
     xc contribution           =     -54.25248590 Ry
     ewald contribution        =    -243.13200777 Ry
     one-center paw contrib.   =     -76.14877021 Ry

     convergence has been achieved in  11 iterations

     negative rho (up, down):  8.394E-04 0.000E+00

     Forces acting on atoms (cartesian axes, Ry/au):

     atom    1 type  1   force =     0.00000000    0.00000000    0.00000000
     atom    2 type  2   force =     0.00000000    0.00000000    0.00000000
     atom    3 type  3   force =     0.00000000    0.00000000    0.00000000
     atom    4 type  3   force =     0.00000000    0.00000000    0.00000000

     Total force =     0.000000     Total SCF correction =     0.000000


     Computing stress (Cartesian axis) and pressure


     negative rho (up, down):  8.394E-04 0.000E+00
          total   stress  (Ry/bohr**3)                   (kbar)     P=     -127.05
  -0.00062458   0.00000000   0.00000000          -91.88        0.00        0.00
   0.00000000  -0.00134192   0.00000000            0.00     -197.40        0.00
   0.00000000   0.00000000  -0.00062458            0.00        0.00      -91.88

     Energy error            =      7.8E-02 Ry
     Gradient error          =      0.0E+00 Ry/Bohr
     Cell gradient error     =      2.0E+02 kbar

     number of scf cycles    =   2
     number of bfgs steps    =   1

     enthalpy           old  =    -450.8306464681 Ry
     enthalpy           new  =    -450.9083333591 Ry

     CASE: enthalpy          _new < enthalpy          _old

     new trust radius        =       0.1025077537 bohr
     new conv_thr            =            1.0E-10 Ry

     new unit-cell volume =    216.50146 a.u.^3 (    32.08221 Ang^3 )
     density =      5.47231 g/cm^3

CELL_PARAMETERS (alat=  5.58242261)
   1.115687765   0.000000000   0.000000000
   0.000000000   0.999786678   0.000000000
   0.000000000   0.000000000   1.115687765

ATOMIC_POSITIONS (crystal)
Fe               0.5000000000        0.5000000000        0.5000000000
Ti               0.0000000000        0.0000000000        0.0000000000
H                0.5000000000        0.5000000000        0.0000000000
H                0.0000000000        0.5000000000        0.5000000000



     Writing config-only to output data dir ./TiFe_H_faces_xz.save/ :
     XML data file     NEW-OLD atomic charge density approx. for the potential
     New effective cutoffs (rho, wfc): 1736.03  123.91

     Check: negative core charge=   -0.000002

     negative rho (up, down):  7.982E-04 0.000E+00

     total cpu time spent up to now is      135.6 secs

     per-process dynamical memory:   164.4 Mb

     Self-consistent Calculation

     iteration #  1     ecut=   124.00 Ry     beta= 0.70
     Davidson diagonalization with overlap
     ethr =  1.00E-06,  avg # of iterations =  9.0

     negative rho (up, down):  8.347E-04 0.000E+00

     total cpu time spent up to now is      143.3 secs

     total energy              =    -450.91761578 Ry
     estimated scf accuracy    <       0.00132350 Ry

     iteration #  2     ecut=   124.00 Ry     beta= 0.70
     Davidson diagonalization with overlap
     ethr =  4.41E-06,  avg # of iterations =  5.0

     negative rho (up, down):  8.523E-04 0.000E+00

     total cpu time spent up to now is      147.5 secs

     total energy              =    -450.91280076 Ry
     estimated scf accuracy    <       0.09382605 Ry

     iteration #  3     ecut=   124.00 Ry     beta= 0.70
     Davidson diagonalization with overlap
     ethr =  4.41E-06,  avg # of iterations =  4.8

     negative rho (up, down):  8.395E-04 0.000E+00

     total cpu time spent up to now is      151.4 secs

     total energy              =    -450.91830772 Ry
     estimated scf accuracy    <       0.00314181 Ry

     iteration #  4     ecut=   124.00 Ry     beta= 0.70
     Davidson diagonalization with overlap
     ethr =  4.41E-06,  avg # of iterations =  1.9

     negative rho (up, down):  8.446E-04 0.000E+00

     total cpu time spent up to now is      154.1 secs

     total energy              =    -450.91850287 Ry
     estimated scf accuracy    <       0.00008699 Ry

     iteration #  5     ecut=   124.00 Ry     beta= 0.70
     Davidson diagonalization with overlap
     ethr =  2.90E-07,  avg # of iterations =  3.0

     negative rho (up, down):  8.479E-04 0.000E+00

     total cpu time spent up to now is      157.1 secs

     total energy              =    -450.91851656 Ry
     estimated scf accuracy    <       0.00000773 Ry

     iteration #  6     ecut=   124.00 Ry     beta= 0.70
     Davidson diagonalization with overlap
     ethr =  2.58E-08,  avg # of iterations =  4.1

     negative rho (up, down):  8.483E-04 0.000E+00

     total cpu time spent up to now is      160.6 secs

     total energy              =    -450.91851876 Ry
     estimated scf accuracy    <       0.00000043 Ry

     iteration #  7     ecut=   124.00 Ry     beta= 0.70
     Davidson diagonalization with overlap
     ethr =  1.43E-09,  avg # of iterations =  4.4

     negative rho (up, down):  8.486E-04 0.000E+00

     total cpu time spent up to now is      164.2 secs

     total energy              =    -450.91851896 Ry
     estimated scf accuracy    <       0.00000004 Ry

     iteration #  8     ecut=   124.00 Ry     beta= 0.70
     Davidson diagonalization with overlap
     ethr =  1.34E-10,  avg # of iterations =  4.0

     negative rho (up, down):  8.486E-04 0.000E+00

     total cpu time spent up to now is      167.7 secs

     total energy              =    -450.91851898 Ry
     estimated scf accuracy    <          5.7E-09 Ry

     iteration #  9     ecut=   124.00 Ry     beta= 0.70
     Davidson diagonalization with overlap
     ethr =  1.89E-11,  avg # of iterations =  3.0

     negative rho (up, down):  8.486E-04 0.000E+00

     total cpu time spent up to now is      170.8 secs

     total energy              =    -450.91851898 Ry
     estimated scf accuracy    <          1.8E-10 Ry

     iteration # 10     ecut=   124.00 Ry     beta= 0.70
     Davidson diagonalization with overlap
     ethr =  5.92E-13,  avg # of iterations =  5.2

     negative rho (up, down):  8.486E-04 0.000E+00

     total cpu time spent up to now is      175.0 secs

     End of self-consistent calculation

     Number of k-points >= 100: set verbosity='high' to print the bands.

     the Fermi energy is    14.7714 ev

!    total energy              =    -450.91851898 Ry
     estimated scf accuracy    <          3.8E-11 Ry
     smearing contrib. (-TS)   =       0.00007960 Ry
     internal energy E=F+TS    =    -450.91859857 Ry

     The total energy is F=E-TS. E is the sum of the following terms:
     one-electron contribution =    -173.89208728 Ry
     hartree contribution      =     101.24824290 Ry
     xc contribution           =     -54.34883427 Ry
     ewald contribution        =    -247.77586447 Ry
     one-center paw contrib.   =     -76.15005546 Ry

     convergence has been achieved in  10 iterations

     negative rho (up, down):  8.486E-04 0.000E+00

     Forces acting on atoms (cartesian axes, Ry/au):

     atom    1 type  1   force =     0.00000000    0.00000000    0.00000000
     atom    2 type  2   force =     0.00000000    0.00000000    0.00000000
     atom    3 type  3   force =     0.00000000    0.00000000    0.00000000
     atom    4 type  3   force =     0.00000000    0.00000000    0.00000000

     Total force =     0.000000     Total SCF correction =     0.000000


     Computing stress (Cartesian axis) and pressure


     negative rho (up, down):  8.486E-04 0.000E+00
          total   stress  (Ry/bohr**3)                   (kbar)     P=      -56.38
  -0.00018658   0.00000000   0.00000000          -27.45        0.00        0.00
   0.00000000  -0.00077657   0.00000000            0.00     -114.24        0.00
   0.00000000   0.00000000  -0.00018658            0.00        0.00      -27.45

     Energy error            =      1.0E-02 Ry
     Gradient error          =      0.0E+00 Ry/Bohr
     Cell gradient error     =      1.1E+02 kbar

     number of scf cycles    =   3
     number of bfgs steps    =   2

     enthalpy           old  =    -450.9083333591 Ry
     enthalpy           new  =    -450.9185189782 Ry

     CASE: enthalpy          _new < enthalpy          _old

     new trust radius        =       0.1135271006 bohr
     new conv_thr            =            1.0E-10 Ry

     new unit-cell volume =    206.68121 a.u.^3 (    30.62700 Ang^3 )
     density =      5.73232 g/cm^3

CELL_PARAMETERS (alat=  5.58242261)
   1.111746361   0.000000000   0.000000000
   0.000000000   0.961216958   0.000000000
   0.000000000   0.000000000   1.111746361

ATOMIC_POSITIONS (crystal)
Fe               0.5000000000        0.5000000000        0.5000000000
Ti               0.0000000000        0.0000000000        0.0000000000
H                0.5000000000        0.5000000000        0.0000000000
H                0.0000000000        0.5000000000        0.5000000000



     Writing config-only to output data dir ./TiFe_H_faces_xz.save/ :
     XML data file     NEW-OLD atomic charge density approx. for the potential
     New effective cutoffs (rho, wfc): 1878.07  134.01

     Check: negative core charge=   -0.000002

     negative rho (up, down):  8.185E-04 0.000E+00

     total cpu time spent up to now is      177.0 secs

     per-process dynamical memory:   164.4 Mb

     Self-consistent Calculation

     iteration #  1     ecut=   124.00 Ry     beta= 0.70
     Davidson diagonalization with overlap
     ethr =  1.00E-06,  avg # of iterations =  9.4

     negative rho (up, down):  8.171E-04 0.000E+00

     total cpu time spent up to now is      185.3 secs

     total energy              =    -450.91944002 Ry
     estimated scf accuracy    <       0.00359211 Ry

     iteration #  2     ecut=   124.00 Ry     beta= 0.70
     Davidson diagonalization with overlap
     ethr =  1.20E-05,  avg # of iterations =  5.4

     negative rho (up, down):  8.507E-04 0.000E+00

     total cpu time spent up to now is      189.6 secs

     total energy              =    -450.90245996 Ry
     estimated scf accuracy    <       0.36182703 Ry

     iteration #  3     ecut=   124.00 Ry     beta= 0.70
     Davidson diagonalization with overlap
     ethr =  1.20E-05,  avg # of iterations =  4.9

     negative rho (up, down):  8.486E-04 0.000E+00

     total cpu time spent up to now is      193.7 secs

     total energy              =    -450.92194741 Ry
     estimated scf accuracy    <       0.00052569 Ry

     iteration #  4     ecut=   124.00 Ry     beta= 0.70
     Davidson diagonalization with overlap
     ethr =  1.75E-06,  avg # of iterations =  2.4

     negative rho (up, down):  8.531E-04 0.000E+00

     total cpu time spent up to now is      196.4 secs

     total energy              =    -450.92200473 Ry
     estimated scf accuracy    <       0.00003193 Ry

     iteration #  5     ecut=   124.00 Ry     beta= 0.70
     Davidson diagonalization with overlap
     ethr =  1.06E-07,  avg # of iterations =  4.3

     negative rho (up, down):  8.540E-04 0.000E+00

     total cpu time spent up to now is      200.2 secs

     total energy              =    -450.92201764 Ry
     estimated scf accuracy    <       0.00001152 Ry

     iteration #  6     ecut=   124.00 Ry     beta= 0.70
     Davidson diagonalization with overlap
     ethr =  3.84E-08,  avg # of iterations =  1.4

     negative rho (up, down):  8.548E-04 0.000E+00

     total cpu time spent up to now is      202.7 secs

     total energy              =    -450.92201843 Ry
     estimated scf accuracy    <       0.00000044 Ry

     iteration #  7     ecut=   124.00 Ry     beta= 0.70
     Davidson diagonalization with overlap
     ethr =  1.48E-09,  avg # of iterations =  4.4

     negative rho (up, down):  8.547E-04 0.000E+00

     total cpu time spent up to now is      206.5 secs

     total energy              =    -450.92201862 Ry
     estimated scf accuracy    <       0.00000003 Ry

     iteration #  8     ecut=   124.00 Ry     beta= 0.70
     Davidson diagonalization with overlap
     ethr =  9.53E-11,  avg # of iterations =  4.3

     negative rho (up, down):  8.548E-04 0.000E+00

     total cpu time spent up to now is      210.1 secs

     total energy              =    -450.92201863 Ry
     estimated scf accuracy    <          3.9E-10 Ry

     iteration #  9     ecut=   124.00 Ry     beta= 0.70
     Davidson diagonalization with overlap
     ethr =  1.30E-12,  avg # of iterations =  5.2

     negative rho (up, down):  8.548E-04 0.000E+00

     total cpu time spent up to now is      214.4 secs

     total energy              =    -450.92201863 Ry
     estimated scf accuracy    <          3.5E-10 Ry

     iteration # 10     ecut=   124.00 Ry     beta= 0.70
     Davidson diagonalization with overlap
     ethr =  1.17E-12,  avg # of iterations =  2.0

     negative rho (up, down):  8.548E-04 0.000E+00

     total cpu time spent up to now is      217.2 secs

     End of self-consistent calculation

     Number of k-points >= 100: set verbosity='high' to print the bands.

     the Fermi energy is    15.5542 ev

!    total energy              =    -450.92201863 Ry
     estimated scf accuracy    <          2.2E-12 Ry
     smearing contrib. (-TS)   =       0.00005740 Ry
     internal energy E=F+TS    =    -450.92207603 Ry

     The total energy is F=E-TS. E is the sum of the following terms:
     one-electron contribution =    -167.61609521 Ry
     hartree contribution      =      99.05321782 Ry
     xc contribution           =     -54.43301318 Ry
     ewald contribution        =    -251.77512209 Ry
     one-center paw contrib.   =     -76.15106337 Ry

     convergence has been achieved in  10 iterations

     negative rho (up, down):  8.548E-04 0.000E+00

     Forces acting on atoms (cartesian axes, Ry/au):

     atom    1 type  1   force =     0.00000000    0.00000000    0.00000000
     atom    2 type  2   force =     0.00000000    0.00000000    0.00000000
     atom    3 type  3   force =     0.00000000    0.00000000    0.00000000
     atom    4 type  3   force =     0.00000000    0.00000000    0.00000000

     Total force =     0.000000     Total SCF correction =     0.000000


     Computing stress (Cartesian axis) and pressure


     negative rho (up, down):  8.548E-04 0.000E+00
          total   stress  (Ry/bohr**3)                   (kbar)     P=       13.37
   0.00014573   0.00000000   0.00000000           21.44        0.00        0.00
   0.00000000  -0.00001872   0.00000000            0.00       -2.75        0.00
   0.00000000   0.00000000   0.00014573            0.00        0.00       21.44

     Energy error            =      3.5E-03 Ry
     Gradient error          =      0.0E+00 Ry/Bohr
     Cell gradient error     =      2.1E+01 kbar

     number of scf cycles    =   4
     number of bfgs steps    =   3

     enthalpy           old  =    -450.9185189782 Ry
     enthalpy           new  =    -450.9220186291 Ry

     CASE: enthalpy          _new < enthalpy          _old

     new trust radius        =       0.0086763474 bohr
     new conv_thr            =            1.0E-10 Ry

     new unit-cell volume =    207.44756 a.u.^3 (    30.74056 Ang^3 )
     density =      5.71115 g/cm^3

CELL_PARAMETERS (alat=  5.58242261)
   1.115101126   0.000000000   0.000000000
   0.000000000   0.958984744   0.000000000
   0.000000000   0.000000000   1.115101126

ATOMIC_POSITIONS (crystal)
Fe               0.5000000000        0.5000000000        0.5000000000
Ti               0.0000000000        0.0000000000        0.0000000000
H                0.5000000000        0.5000000000        0.0000000000
H                0.0000000000        0.5000000000        0.5000000000



     Writing config-only to output data dir ./TiFe_H_faces_xz.save/ :
     XML data file     NEW-OLD atomic charge density approx. for the potential
     New effective cutoffs (rho, wfc): 1886.81  134.63

     Check: negative core charge=   -0.000002

     negative rho (up, down):  8.560E-04 0.000E+00

     total cpu time spent up to now is      219.2 secs

     per-process dynamical memory:   164.5 Mb

     Self-consistent Calculation

     iteration #  1     ecut=   124.00 Ry     beta= 0.70
     Davidson diagonalization with overlap
     ethr =  1.00E-06,  avg # of iterations =  3.7

     negative rho (up, down):  8.447E-04 0.000E+00

     total cpu time spent up to now is      223.4 secs

     total energy              =    -450.92204889 Ry
     estimated scf accuracy    <       0.00011625 Ry

     iteration #  2     ecut=   124.00 Ry     beta= 0.70
     Davidson diagonalization with overlap
     ethr =  3.88E-07,  avg # of iterations =  5.3

     negative rho (up, down):  8.513E-04 0.000E+00

     total cpu time spent up to now is      227.8 secs

     total energy              =    -450.92145279 Ry
     estimated scf accuracy    <       0.01453045 Ry

     iteration #  3     ecut=   124.00 Ry     beta= 0.70
     Davidson diagonalization with overlap
     ethr =  3.88E-07,  avg # of iterations =  4.7

     negative rho (up, down):  8.531E-04 0.000E+00

     total cpu time spent up to now is      231.6 secs

     total energy              =    -450.92214542 Ry
     estimated scf accuracy    <       0.00000764 Ry

     iteration #  4     ecut=   124.00 Ry     beta= 0.70
     Davidson diagonalization with overlap
     ethr =  2.55E-08,  avg # of iterations =  4.1

     negative rho (up, down):  8.525E-04 0.000E+00

     total cpu time spent up to now is      235.2 secs

     total energy              =    -450.92214848 Ry
     estimated scf accuracy    <       0.00000075 Ry

     iteration #  5     ecut=   124.00 Ry     beta= 0.70
     Davidson diagonalization with overlap
     ethr =  2.50E-09,  avg # of iterations =  3.9

     negative rho (up, down):  8.524E-04 0.000E+00

     total cpu time spent up to now is      238.6 secs

     total energy              =    -450.92214873 Ry
     estimated scf accuracy    <       0.00000004 Ry

     iteration #  6     ecut=   124.00 Ry     beta= 0.70
     Davidson diagonalization with overlap
     ethr =  1.47E-10,  avg # of iterations =  4.5

     negative rho (up, down):  8.524E-04 0.000E+00

     total cpu time spent up to now is      242.4 secs

     total energy              =    -450.92214875 Ry
     estimated scf accuracy    <          4.5E-09 Ry

     iteration #  7     ecut=   124.00 Ry     beta= 0.70
     Davidson diagonalization with overlap
     ethr =  1.50E-11,  avg # of iterations =  2.6

     negative rho (up, down):  8.524E-04 0.000E+00

     total cpu time spent up to now is      245.4 secs

     total energy              =    -450.92214875 Ry
     estimated scf accuracy    <          7.1E-10 Ry

     iteration #  8     ecut=   124.00 Ry     beta= 0.70
     Davidson diagonalization with overlap
     ethr =  2.35E-12,  avg # of iterations =  4.2

     negative rho (up, down):  8.524E-04 0.000E+00

     total cpu time spent up to now is      248.9 secs

     End of self-consistent calculation

     Number of k-points >= 100: set verbosity='high' to print the bands.

     the Fermi energy is    15.4767 ev

!    total energy              =    -450.92214875 Ry
     estimated scf accuracy    <          9.0E-11 Ry
     smearing contrib. (-TS)   =       0.00005728 Ry
     internal energy E=F+TS    =    -450.92220602 Ry

     The total energy is F=E-TS. E is the sum of the following terms:
     one-electron contribution =    -168.07607946 Ry
     hartree contribution      =      99.20936132 Ry
     xc contribution           =     -54.42419873 Ry
     ewald contribution        =    -251.48033150 Ry
     one-center paw contrib.   =     -76.15095765 Ry

     convergence has been achieved in   8 iterations

     negative rho (up, down):  8.524E-04 0.000E+00

     Forces acting on atoms (cartesian axes, Ry/au):

     atom    1 type  1   force =     0.00000000    0.00000000    0.00000000
     atom    2 type  2   force =     0.00000000    0.00000000    0.00000000
     atom    3 type  3   force =     0.00000000    0.00000000    0.00000000
     atom    4 type  3   force =     0.00000000    0.00000000    0.00000000

     Total force =     0.000000     Total SCF correction =     0.000000


     Computing stress (Cartesian axis) and pressure


     negative rho (up, down):  8.524E-04 0.000E+00
          total   stress  (Ry/bohr**3)                   (kbar)     P=        5.01
   0.00005391   0.00000000   0.00000000            7.93        0.00        0.00
   0.00000000  -0.00000567   0.00000000            0.00       -0.83        0.00
   0.00000000   0.00000000   0.00005391            0.00        0.00        7.93

     Energy error            =      1.3E-04 Ry
     Gradient error          =      0.0E+00 Ry/Bohr
     Cell gradient error     =      7.9E+00 kbar

     number of scf cycles    =   5
     number of bfgs steps    =   4

     enthalpy           old  =    -450.9220186291 Ry
     enthalpy           new  =    -450.9221487468 Ry

     CASE: enthalpy          _new < enthalpy          _old

     new trust radius        =       0.0050460710 bohr
     new conv_thr            =            1.0E-10 Ry

     new unit-cell volume =    207.91433 a.u.^3 (    30.80973 Ang^3 )
     density =      5.69832 g/cm^3

CELL_PARAMETERS (alat=  5.58242261)
   1.117054491   0.000000000   0.000000000
   0.000000000   0.957783991   0.000000000
   0.000000000   0.000000000   1.117054491

ATOMIC_POSITIONS (crystal)
Fe               0.5000000000        0.5000000000        0.5000000000
Ti               0.0000000000        0.0000000000        0.0000000000
H                0.5000000000        0.5000000000        0.0000000000
H                0.0000000000        0.5000000000        0.5000000000



     Writing config-only to output data dir ./TiFe_H_faces_xz.save/ :
     XML data file     NEW-OLD atomic charge density approx. for the potential
     New effective cutoffs (rho, wfc): 1891.54  134.97

     Check: negative core charge=   -0.000002

     negative rho (up, down):  8.532E-04 0.000E+00

     total cpu time spent up to now is      250.9 secs

     per-process dynamical memory:   164.9 Mb

     Self-consistent Calculation

     iteration #  1     ecut=   124.00 Ry     beta= 0.70
     Davidson diagonalization with overlap
     ethr =  1.00E-06,  avg # of iterations =  3.1

     negative rho (up, down):  8.467E-04 0.000E+00

     total cpu time spent up to now is      254.7 secs

     total energy              =    -450.92213188 Ry
     estimated scf accuracy    <       0.00004172 Ry

     iteration #  2     ecut=   124.00 Ry     beta= 0.70
     Davidson diagonalization with overlap
     ethr =  1.39E-07,  avg # of iterations =  5.2

     negative rho (up, down):  8.506E-04 0.000E+00

     total cpu time spent up to now is      259.0 secs

     total energy              =    -450.92190661 Ry
     estimated scf accuracy    <       0.00559727 Ry

     iteration #  3     ecut=   124.00 Ry     beta= 0.70
     Davidson diagonalization with overlap
     ethr =  1.39E-07,  avg # of iterations =  4.7

     negative rho (up, down):  8.514E-04 0.000E+00

     total cpu time spent up to now is      262.8 secs

     total energy              =    -450.92216821 Ry
     estimated scf accuracy    <       0.00000174 Ry

     iteration #  4     ecut=   124.00 Ry     beta= 0.70
     Davidson diagonalization with overlap
     ethr =  5.80E-09,  avg # of iterations =  4.1

     negative rho (up, down):  8.510E-04 0.000E+00

     total cpu time spent up to now is      266.4 secs

     total energy              =    -450.92216895 Ry
     estimated scf accuracy    <       0.00000021 Ry

     iteration #  5     ecut=   124.00 Ry     beta= 0.70
     Davidson diagonalization with overlap
     ethr =  6.95E-10,  avg # of iterations =  4.4

     negative rho (up, down):  8.510E-04 0.000E+00

     total cpu time spent up to now is      270.0 secs

     total energy              =    -450.92216903 Ry
     estimated scf accuracy    <       0.00000001 Ry

     iteration #  6     ecut=   124.00 Ry     beta= 0.70
     Davidson diagonalization with overlap
     ethr =  4.88E-11,  avg # of iterations =  4.4

     negative rho (up, down):  8.510E-04 0.000E+00

     total cpu time spent up to now is      273.6 secs

     total energy              =    -450.92216903 Ry
     estimated scf accuracy    <          1.6E-09 Ry

     iteration #  7     ecut=   124.00 Ry     beta= 0.70
     Davidson diagonalization with overlap
     ethr =  5.20E-12,  avg # of iterations =  3.3

     negative rho (up, down):  8.510E-04 0.000E+00

     total cpu time spent up to now is      276.8 secs

     total energy              =    -450.92216903 Ry
     estimated scf accuracy    <          1.8E-10 Ry

     iteration #  8     ecut=   124.00 Ry     beta= 0.70
     Davidson diagonalization with overlap
     ethr =  6.14E-13,  avg # of iterations =  4.6

     negative rho (up, down):  8.509E-04 0.000E+00

     total cpu time spent up to now is      280.3 secs

     End of self-consistent calculation

     Number of k-points >= 100: set verbosity='high' to print the bands.

     the Fermi energy is    15.4297 ev

!    total energy              =    -450.92216903 Ry
     estimated scf accuracy    <          1.4E-11 Ry
     smearing contrib. (-TS)   =       0.00005817 Ry
     internal energy E=F+TS    =    -450.92222720 Ry

     The total energy is F=E-TS. E is the sum of the following terms:
     one-electron contribution =    -168.35700034 Ry
     hartree contribution      =      99.30477488 Ry
     xc contribution           =     -54.41887400 Ry
     ewald contribution        =    -251.30023154 Ry
     one-center paw contrib.   =     -76.15089619 Ry

     convergence has been achieved in   8 iterations

     negative rho (up, down):  8.509E-04 0.000E+00

     Forces acting on atoms (cartesian axes, Ry/au):

     atom    1 type  1   force =     0.00000000    0.00000000    0.00000000
     atom    2 type  2   force =     0.00000000    0.00000000    0.00000000
     atom    3 type  3   force =     0.00000000    0.00000000    0.00000000
     atom    4 type  3   force =     0.00000000    0.00000000    0.00000000

     Total force =     0.000000     Total SCF correction =     0.000000


     Computing stress (Cartesian axis) and pressure


     negative rho (up, down):  8.509E-04 0.000E+00
          total   stress  (Ry/bohr**3)                   (kbar)     P=        0.02
   0.00000027   0.00000000   0.00000000            0.04        0.00        0.00
   0.00000000  -0.00000015   0.00000000            0.00       -0.02        0.00
   0.00000000   0.00000000   0.00000027            0.00        0.00        0.04

     Energy error            =      2.0E-05 Ry
     Gradient error          =      0.0E+00 Ry/Bohr
     Cell gradient error     =      3.9E-02 kbar

     bfgs converged in   6 scf cycles and   5 bfgs steps
     (criteria: energy <  1.0E-04 Ry, force <  1.0E-03 Ry/Bohr, cell <  1.0E-01 kbar)

     End of BFGS Geometry Optimization

     Final enthalpy           =    -450.9221690273 Ry

     File ./TiFe_H_faces_xz.bfgs deleted, as requested
Begin final coordinates
     new unit-cell volume =    207.91433 a.u.^3 (    30.80973 Ang^3 )
     density =      5.69832 g/cm^3

CELL_PARAMETERS (alat=  5.58242261)
   1.117054491   0.000000000   0.000000000
   0.000000000   0.957783991   0.000000000
   0.000000000   0.000000000   1.117054491

ATOMIC_POSITIONS (crystal)
Fe               0.5000000000        0.5000000000        0.5000000000
Ti               0.0000000000        0.0000000000        0.0000000000
H                0.5000000000        0.5000000000        0.0000000000
H                0.0000000000        0.5000000000        0.5000000000
End final coordinates



     Writing config-only to output data dir ./TiFe_H_faces_xz.save/ :
     XML data file
     Final scf calculation at the relaxed structure.
     The G-vectors are recalculated for the final unit cell
     Results may differ from those at the preceding step.

     Parallelization info
     --------------------
     sticks:   dense  smooth     PW     G-vecs:    dense   smooth      PW
     Min         288      81     23                15878     2417     377
     Max         289      82     24                15881     2420     380
     Sum        4609    1305    379               254079    38689    6065

     Using Slab Decomposition



     bravais-lattice index     =            0
     lattice parameter (alat)  =       5.5824  a.u.
     unit-cell volume          =     207.9143 (a.u.)^3
     number of atoms/cell      =            4
     number of atomic types    =            3
     number of electrons       =        30.00
     number of Kohn-Sham states=           19
     kinetic-energy cutoff     =     124.0000  Ry
     charge density cutoff     =    1736.0000  Ry
     scf convergence threshold =      1.0E-10
     mixing beta               =       0.7000
     number of iterations used =            8  plain     mixing
     press convergence thresh. =      1.0E-01
     Exchange-correlation= PBE
                           (   1   4   3   4   0   0   0)

     celldm(1)=   5.582423  celldm(2)=   0.000000  celldm(3)=   0.000000
     celldm(4)=   0.000000  celldm(5)=   0.000000  celldm(6)=   0.000000

     crystal axes: (cart. coord. in units of alat)
               a(1) = (   1.117054   0.000000   0.000000 )  
               a(2) = (   0.000000   0.957784   0.000000 )  
               a(3) = (   0.000000   0.000000   1.117054 )  

     reciprocal axes: (cart. coord. in units 2 pi/alat)
               b(1) = (  0.895211  0.000000  0.000000 )  
               b(2) = (  0.000000  1.044077  0.000000 )  
               b(3) = (  0.000000  0.000000  0.895211 )  


     PseudoPot. # 1 for Fe read from file:
     ../../pseudos/Fe.pbe-spn-kjpaw_psl.0.2.1.UPF
     MD5 check sum: e86618425769142926afa95317d90200
     Pseudo is Projector augmented-wave + core cor, Zval = 16.0
     Generated using "atomic" code by A. Dal Corso  v.5.0.99 svn rev. 10869
     Shape of augmentation charge: PSQ
     Using radial grid of 1191 points,  6 beta functions with: 
                l(1) =   0
                l(2) =   0
                l(3) =   1
                l(4) =   1
                l(5) =   2
                l(6) =   2
     Q(r) pseudized with 0 coefficients 


     PseudoPot. # 2 for Ti read from file:
     ../../pseudos/ti_pbe_v1.4.uspp.F.UPF
     MD5 check sum: 88a00a6731bd790ddea75d31a80cb452
     Pseudo is Ultrasoft + core correction, Zval = 12.0
     Generated by new atomic code, or converted to UPF format
     Using radial grid of  851 points,  6 beta functions with: 
                l(1) =   0
                l(2) =   0
                l(3) =   1
                l(4) =   1
                l(5) =   2
                l(6) =   2
     Q(r) pseudized with  6 coefficients,  rinner =    1.000   1.000   1.000
                                                       1.000   1.000

     PseudoPot. # 3 for H  read from file:
     ../../pseudos/H.pbe-rrkjus_psl.1.0.0.UPF
     MD5 check sum: f52b6d4d1c606e5624b1dc7b2218f220
     Pseudo is Ultrasoft, Zval =  1.0
     Generated using "atomic" code by A. Dal Corso  v.5.1
     Using radial grid of  929 points,  2 beta functions with: 
                l(1) =   0
                l(2) =   0
     Q(r) pseudized with 0 coefficients 


     atomic species   valence    mass     pseudopotential
     Fe               16.00    55.84500     Fe( 1.00)
     Ti               12.00    47.86700     Ti( 1.00)
     H                 1.00     1.00750     H ( 1.00)

     16 Sym. Ops., with inversion, found



   Cartesian axes

     site n.     atom                  positions (alat units)
         1        Fe     tau(   1) = (   0.5585272   0.4788920   0.5585272  )
         2        Ti     tau(   2) = (   0.0000000   0.0000000   0.0000000  )
         3        H      tau(   3) = (   0.5585272   0.4788920   0.0000000  )
         4        H      tau(   4) = (   0.0000000   0.4788920   0.5585272  )

     number of k points=   288  Marzari-Vanderbilt smearing, width (Ry)=  0.0050

     Number of k-points >= 100: set verbosity='high' to print them.

     Dense  grid:   254079 G-vectors     FFT dimensions: (  90,  72,  90)

     Smooth grid:    38689 G-vectors     FFT dimensions: (  45,  40,  45)

     Estimated max dynamical RAM per process >     104.77 MB

     Estimated total dynamical RAM >       1.64 GB

     Check: negative core charge=   -0.000001

     Initial potential from superposition of free atoms

     starting charge      28.9995, renormalised to      30.0000

     negative rho (up, down):  1.311E-03 0.000E+00
     Starting wfcs are   25 randomized atomic wfcs
     Checking if some PAW data can be deallocated... 

     total cpu time spent up to now is      284.5 secs

     per-process dynamical memory:   166.2 Mb

     Self-consistent Calculation

     iteration #  1     ecut=   124.00 Ry     beta= 0.70
     Davidson diagonalization with overlap
     c_bands:  1 eigenvalues not converged
     c_bands:  1 eigenvalues not converged
     c_bands:  3 eigenvalues not converged
     c_bands:  1 eigenvalues not converged
     c_bands:  1 eigenvalues not converged
     c_bands:  2 eigenvalues not converged
     c_bands:  1 eigenvalues not converged
     c_bands:  1 eigenvalues not converged
     c_bands:  1 eigenvalues not converged
     c_bands:  1 eigenvalues not converged
     c_bands:  1 eigenvalues not converged
     c_bands:  1 eigenvalues not converged
     c_bands:  1 eigenvalues not converged
     c_bands:  2 eigenvalues not converged
     c_bands:  2 eigenvalues not converged
     c_bands:  2 eigenvalues not converged
     c_bands:  1 eigenvalues not converged
     c_bands:  1 eigenvalues not converged
     c_bands:  1 eigenvalues not converged
     c_bands:  1 eigenvalues not converged
     c_bands:  1 eigenvalues not converged
     c_bands:  1 eigenvalues not converged
     c_bands:  1 eigenvalues not converged
     c_bands:  1 eigenvalues not converged
     c_bands:  1 eigenvalues not converged
     c_bands:  1 eigenvalues not converged
     c_bands:  1 eigenvalues not converged
     c_bands:  1 eigenvalues not converged
     c_bands:  1 eigenvalues not converged
     c_bands:  1 eigenvalues not converged
     c_bands:  1 eigenvalues not converged
     c_bands:  1 eigenvalues not converged
     c_bands:  1 eigenvalues not converged
     c_bands:  1 eigenvalues not converged
     c_bands:  1 eigenvalues not converged
     c_bands:  1 eigenvalues not converged
     c_bands:  1 eigenvalues not converged
     c_bands:  1 eigenvalues not converged
     c_bands:  1 eigenvalues not converged
     c_bands:  1 eigenvalues not converged
     c_bands:  1 eigenvalues not converged
     c_bands:  1 eigenvalues not converged
     c_bands:  2 eigenvalues not converged
     c_bands:  3 eigenvalues not converged
     c_bands:  2 eigenvalues not converged
     c_bands:  1 eigenvalues not converged
     c_bands:  1 eigenvalues not converged
     c_bands:  1 eigenvalues not converged
     c_bands:  1 eigenvalues not converged
     c_bands:  1 eigenvalues not converged
     c_bands:  1 eigenvalues not converged
     c_bands:  1 eigenvalues not converged
     c_bands:  1 eigenvalues not converged
     c_bands:  1 eigenvalues not converged
     c_bands:  2 eigenvalues not converged
     c_bands:  1 eigenvalues not converged
     c_bands:  1 eigenvalues not converged
     c_bands:  1 eigenvalues not converged
     c_bands:  2 eigenvalues not converged
     c_bands:  2 eigenvalues not converged
     c_bands:  1 eigenvalues not converged
     c_bands:  1 eigenvalues not converged
     c_bands:  1 eigenvalues not converged
     c_bands:  2 eigenvalues not converged
     c_bands:  1 eigenvalues not converged
     c_bands:  1 eigenvalues not converged
     c_bands:  1 eigenvalues not converged
     c_bands:  1 eigenvalues not converged
     c_bands:  1 eigenvalues not converged
     c_bands:  1 eigenvalues not converged
     c_bands:  1 eigenvalues not converged
     c_bands:  1 eigenvalues not converged
     c_bands:  1 eigenvalues not converged
     c_bands:  1 eigenvalues not converged
     c_bands:  1 eigenvalues not converged
     c_bands:  1 eigenvalues not converged
     c_bands:  1 eigenvalues not converged
     c_bands:  1 eigenvalues not converged
     c_bands:  1 eigenvalues not converged
     c_bands:  1 eigenvalues not converged
     c_bands:  1 eigenvalues not converged
     c_bands:  1 eigenvalues not converged
     c_bands:  1 eigenvalues not converged
     c_bands:  1 eigenvalues not converged
     c_bands:  1 eigenvalues not converged
     c_bands:  1 eigenvalues not converged
     c_bands:  1 eigenvalues not converged
     c_bands:  1 eigenvalues not converged
     c_bands:  2 eigenvalues not converged
     c_bands:  3 eigenvalues not converged
     c_bands:  3 eigenvalues not converged
     ethr =  1.00E-06,  avg # of iterations = 17.7

     negative rho (up, down):  8.193E-05 0.000E+00

     total cpu time spent up to now is      301.9 secs

     total energy              =    -436.13930200 Ry
     estimated scf accuracy    <      18.51724327 Ry

     iteration #  2     ecut=   124.00 Ry     beta= 0.70
     Davidson diagonalization with overlap
     ethr =  1.00E-02,  avg # of iterations =  6.5

     negative rho (up, down):  1.485E-05 0.000E+00

     total cpu time spent up to now is      308.8 secs

     total energy              =    -449.75764555 Ry
     estimated scf accuracy    <      75.36336802 Ry

     iteration #  3     ecut=   124.00 Ry     beta= 0.70
     Davidson diagonalization with overlap
     ethr =  1.00E-02,  avg # of iterations =  3.1

     negative rho (up, down):  1.655E-04 0.000E+00

     total cpu time spent up to now is      313.2 secs

     total energy              =    -451.53434170 Ry
     estimated scf accuracy    <      17.67901016 Ry

     iteration #  4     ecut=   124.00 Ry     beta= 0.70
     Davidson diagonalization with overlap
     ethr =  1.00E-02,  avg # of iterations =  2.3

     negative rho (up, down):  2.642E-04 0.000E+00

     total cpu time spent up to now is      316.6 secs

     total energy              =    -451.63245560 Ry
     estimated scf accuracy    <       7.16963442 Ry

     iteration #  5     ecut=   124.00 Ry     beta= 0.70
     Davidson diagonalization with overlap
     ethr =  1.00E-02,  avg # of iterations =  1.1

     negative rho (up, down):  8.753E-04 0.000E+00

     total cpu time spent up to now is      319.6 secs

     total energy              =    -450.53812308 Ry
     estimated scf accuracy    <       5.76272712 Ry

     iteration #  6     ecut=   124.00 Ry     beta= 0.70
     Davidson diagonalization with overlap
     ethr =  1.00E-02,  avg # of iterations =  2.8

     negative rho (up, down):  8.858E-04 0.000E+00

     total cpu time spent up to now is      323.0 secs

     total energy              =    -450.88303500 Ry
     estimated scf accuracy    <       0.06724345 Ry

     iteration #  7     ecut=   124.00 Ry     beta= 0.70
     Davidson diagonalization with overlap
     ethr =  2.24E-04,  avg # of iterations =  6.3

     negative rho (up, down):  6.944E-04 0.000E+00

     total cpu time spent up to now is      328.5 secs

     total energy              =    -450.89072902 Ry
     estimated scf accuracy    <       0.09250430 Ry

     iteration #  8     ecut=   124.00 Ry     beta= 0.70
     Davidson diagonalization with overlap
     ethr =  2.24E-04,  avg # of iterations =  4.2

     negative rho (up, down):  7.307E-04 0.000E+00

     total cpu time spent up to now is      332.6 secs

     total energy              =    -450.94616648 Ry
     estimated scf accuracy    <       0.85427560 Ry

     iteration #  9     ecut=   124.00 Ry     beta= 0.70
     Davidson diagonalization with overlap
     ethr =  2.24E-04,  avg # of iterations =  1.0

     negative rho (up, down):  7.485E-04 0.000E+00

     total cpu time spent up to now is      335.5 secs

     total energy              =    -450.93736213 Ry
     estimated scf accuracy    <       0.47850990 Ry

     iteration # 10     ecut=   124.00 Ry     beta= 0.70
     Davidson diagonalization with overlap
     ethr =  2.24E-04,  avg # of iterations =  1.0

     negative rho (up, down):  7.618E-04 0.000E+00

     total cpu time spent up to now is      338.4 secs

     total energy              =    -450.92873777 Ry
     estimated scf accuracy    <       0.29098409 Ry

     iteration # 11     ecut=   124.00 Ry     beta= 0.70
     Davidson diagonalization with overlap
     ethr =  2.24E-04,  avg # of iterations =  1.0

     negative rho (up, down):  7.509E-04 0.000E+00

     total cpu time spent up to now is      341.4 secs

     total energy              =    -450.93755591 Ry
     estimated scf accuracy    <       0.13665716 Ry

     iteration # 12     ecut=   124.00 Ry     beta= 0.70
     Davidson diagonalization with overlap
     ethr =  2.24E-04,  avg # of iterations =  1.0

     negative rho (up, down):  8.180E-04 0.000E+00

     total cpu time spent up to now is      344.3 secs

     total energy              =    -450.91351480 Ry
     estimated scf accuracy    <       0.27611588 Ry

     iteration # 13     ecut=   124.00 Ry     beta= 0.70
     Davidson diagonalization with overlap
     ethr =  2.24E-04,  avg # of iterations =  1.4

     negative rho (up, down):  8.414E-04 0.000E+00

     total cpu time spent up to now is      347.2 secs

     total energy              =    -450.92102607 Ry
     estimated scf accuracy    <       0.01525434 Ry

     iteration # 14     ecut=   124.00 Ry     beta= 0.70
     Davidson diagonalization with overlap
     ethr =  5.08E-05,  avg # of iterations =  2.9

     negative rho (up, down):  8.235E-04 0.000E+00

     total cpu time spent up to now is      350.6 secs

     total energy              =    -450.92238898 Ry
     estimated scf accuracy    <       0.00005542 Ry

     iteration # 15     ecut=   124.00 Ry     beta= 0.70
     Davidson diagonalization with overlap
     ethr =  1.85E-07,  avg # of iterations =  6.9

     negative rho (up, down):  8.374E-04 0.000E+00

     total cpu time spent up to now is      357.2 secs

     total energy              =    -450.92236488 Ry
     estimated scf accuracy    <       0.00496214 Ry

     iteration # 16     ecut=   124.00 Ry     beta= 0.70
     Davidson diagonalization with overlap
     ethr =  1.85E-07,  avg # of iterations =  4.8

     negative rho (up, down):  8.383E-04 0.000E+00

     total cpu time spent up to now is      361.8 secs

     total energy              =    -450.92252258 Ry
     estimated scf accuracy    <       0.00020783 Ry

     iteration # 17     ecut=   124.00 Ry     beta= 0.70
     Davidson diagonalization with overlap
     ethr =  1.85E-07,  avg # of iterations =  1.2

     negative rho (up, down):  8.400E-04 0.000E+00

     total cpu time spent up to now is      364.7 secs

     total energy              =    -450.92251833 Ry
     estimated scf accuracy    <       0.00006027 Ry

     iteration # 18     ecut=   124.00 Ry     beta= 0.70
     Davidson diagonalization with overlap
     ethr =  1.85E-07,  avg # of iterations =  1.7

     negative rho (up, down):  8.400E-04 0.000E+00

     total cpu time spent up to now is      367.7 secs

     total energy              =    -450.92252262 Ry
     estimated scf accuracy    <       0.00000062 Ry

     iteration # 19     ecut=   124.00 Ry     beta= 0.70
     Davidson diagonalization with overlap
     ethr =  2.08E-09,  avg # of iterations =  5.0

     negative rho (up, down):  8.399E-04 0.000E+00

     total cpu time spent up to now is      372.5 secs

     total energy              =    -450.92252311 Ry
     estimated scf accuracy    <       0.00000058 Ry

     iteration # 20     ecut=   124.00 Ry     beta= 0.70
     Davidson diagonalization with overlap
     ethr =  1.93E-09,  avg # of iterations =  1.0

     negative rho (up, down):  8.399E-04 0.000E+00

     total cpu time spent up to now is      375.4 secs

     total energy              =    -450.92252313 Ry
     estimated scf accuracy    <          3.5E-09 Ry

     iteration # 21     ecut=   124.00 Ry     beta= 0.70
     Davidson diagonalization with overlap
     ethr =  1.17E-11,  avg # of iterations =  5.1

     negative rho (up, down):  8.399E-04 0.000E+00

     total cpu time spent up to now is      380.5 secs

     total energy              =    -450.92252314 Ry
     estimated scf accuracy    <          8.8E-10 Ry

     iteration # 22     ecut=   124.00 Ry     beta= 0.70
     Davidson diagonalization with overlap
     ethr =  2.94E-12,  avg # of iterations =  1.6

     negative rho (up, down):  8.399E-04 0.000E+00

     total cpu time spent up to now is      383.5 secs

     total energy              =    -450.92252314 Ry
     estimated scf accuracy    <          8.5E-10 Ry

     iteration # 23     ecut=   124.00 Ry     beta= 0.70
     Davidson diagonalization with overlap
     ethr =  2.82E-12,  avg # of iterations =  1.3

     negative rho (up, down):  8.399E-04 0.000E+00

     total cpu time spent up to now is      386.5 secs

     End of self-consistent calculation

     Number of k-points >= 100: set verbosity='high' to print the bands.

     the Fermi energy is    15.4296 ev

!    total energy              =    -450.92252314 Ry
     estimated scf accuracy    <          5.7E-11 Ry
     smearing contrib. (-TS)   =       0.00005816 Ry
     internal energy E=F+TS    =    -450.92258130 Ry

     The total energy is F=E-TS. E is the sum of the following terms:
     one-electron contribution =    -168.35648698 Ry
     hartree contribution      =      99.30429777 Ry
     xc contribution           =     -54.41920186 Ry
     ewald contribution        =    -251.30023154 Ry
     one-center paw contrib.   =     -76.15095869 Ry

     convergence has been achieved in  23 iterations

     negative rho (up, down):  8.399E-04 0.000E+00

     Forces acting on atoms (cartesian axes, Ry/au):

     atom    1 type  1   force =     0.00000000    0.00000000    0.00000000
     atom    2 type  2   force =     0.00000000    0.00000000    0.00000000
     atom    3 type  3   force =     0.00000000    0.00000000    0.00000000
     atom    4 type  3   force =     0.00000000    0.00000000    0.00000000

     Total force =     0.000000     Total SCF correction =     0.000000


     Computing stress (Cartesian axis) and pressure


     negative rho (up, down):  8.399E-04 0.000E+00
          total   stress  (Ry/bohr**3)                   (kbar)     P=       -0.47
  -0.00000350   0.00000000   0.00000000           -0.52        0.00        0.00
   0.00000000  -0.00000266   0.00000000            0.00       -0.39        0.00
   0.00000000   0.00000000  -0.00000350            0.00        0.00       -0.52


     Writing all to output data dir ./TiFe_H_faces_xz.save/ :
     XML data file
     init_run     :      4.55s CPU      4.72s WALL (       2 calls)
     electrons    :    356.16s CPU    370.02s WALL (       7 calls)
     update_pot   :      0.40s CPU      0.47s WALL (       5 calls)
     forces       :      1.92s CPU      2.04s WALL (       7 calls)
     stress       :      8.94s CPU      9.31s WALL (       7 calls)

     Called by init_run:
     wfcinit      :      2.54s CPU      2.64s WALL (       2 calls)
     potinit      :      0.63s CPU      0.65s WALL (       2 calls)
     hinit0       :      0.87s CPU      0.89s WALL (       2 calls)

     Called by electrons:
     c_bands      :    298.86s CPU    308.15s WALL (      99 calls)
     sum_band     :     43.20s CPU     45.56s WALL (      99 calls)
     v_of_rho     :      1.40s CPU      1.58s WALL (     106 calls)
     newd         :      7.65s CPU      9.04s WALL (     106 calls)
     PAW_pot      :      5.97s CPU      6.68s WALL (     111 calls)
     mix_rho      :      0.15s CPU      0.18s WALL (      99 calls)

     Called by c_bands:
     init_us_2    :      6.28s CPU      6.56s WALL (   63072 calls)
     cegterg      :    288.48s CPU    297.16s WALL (   28512 calls)

     Called by *egterg:
     cdiaghg      :     50.03s CPU     51.34s WALL (  128628 calls)
     h_psi        :    200.80s CPU    207.29s WALL (  130644 calls)
     s_psi        :      4.94s CPU      5.12s WALL (  130644 calls)
     g_psi        :      1.12s CPU      1.15s WALL (  101556 calls)

     Called by h_psi:
     h_psi:calbec :      9.65s CPU      9.97s WALL (  130644 calls)
     vloc_psi     :    184.76s CPU    190.73s WALL (  130644 calls)
     add_vuspsi   :      5.19s CPU      5.38s WALL (  130644 calls)

     General routines
     calbec       :     14.72s CPU     15.19s WALL (  194868 calls)
     fft          :      1.61s CPU      1.84s WALL (    1544 calls)
     ffts         :      0.50s CPU      0.50s WALL (     205 calls)
     fftw         :    177.71s CPU    183.32s WALL ( 3759188 calls)
     interpolate  :      0.57s CPU      0.60s WALL (     106 calls)

     Parallel routines

     PWSCF        :    373.31s CPU    388.49s WALL


   This run was terminated on:  23:15:28  12Nov2025            

=------------------------------------------------------------------------------=
   JOB DONE.
=------------------------------------------------------------------------------=
