
     Program PWSCF v.7.4 starts on 16Nov2025 at 15: 6:47 

     This program is part of the open-source Quantum ESPRESSO suite
     for quantum simulation of materials; please cite
         "P. Giannozzi et al., J. Phys.:Condens. Matter 21 395502 (2009);
         "P. Giannozzi et al., J. Phys.:Condens. Matter 29 465901 (2017);
         "P. Giannozzi et al., J. Chem. Phys. 152 154105 (2020);
          URL http://www.quantum-espresso.org", 
     in publications or presentations arising from this work. More details at
     http://www.quantum-espresso.org/quote

     Parallel version (MPI & OpenMP), running on      16 processor cores
     Number of MPI processes:                16
     Threads/MPI process:                     1

     MPI processes distributed on     1 nodes
     166494 MiB available memory on the printing compute node when the environment starts

     Reading input from TiFe_H_faces_x_0.41667_relax.in

     Current dimensions of program PWSCF are:
     Max number of different atomic species (ntypx) = 10
     Max number of k-points (npk) =  40000
     Max angular momentum in pseudopotentials (lmaxx) =  4
     file Fe.pbe-spn-kjpaw_psl.0.2.1.UPF: wavefunction(s)  3D renormalized

     IMPORTANT: XC functional enforced from input :
     Exchange-correlation= PBE
                           (   1   4   3   4   0   0   0)
     Any further DFT definition will be discarded
     Please, verify this is what you really want

     Message from routine setup:
     using ibrav=0 with symmetry is DISCOURAGED, use correct ibrav instead

     R & G space division:  proc/nbgrp/npool/nimage =      16
     Subspace diagonalization in iterative solution of the eigenvalue problem:
     a serial algorithm will be used


     Parallelization info
     --------------------
     sticks:   dense  smooth     PW     G-vecs:    dense   smooth      PW
     Min         269      76     22                13288     2024     320
     Max         271      77     23                13289     2027     323
     Sum        4309    1225    357               212623    32423    5137

     Using Slab Decomposition



     bravais-lattice index     =            0
     lattice parameter (alat)  =       5.5824  a.u.
     unit-cell volume          =     173.9675 (a.u.)^3
     number of atoms/cell      =            3
     number of atomic types    =            3
     number of electrons       =        29.00
     number of Kohn-Sham states=           19
     kinetic-energy cutoff     =     124.0000  Ry
     charge density cutoff     =    1736.0000  Ry
     scf convergence threshold =      1.0E-08
     mixing beta               =       0.7000
     number of iterations used =            8  plain     mixing
     energy convergence thresh.=      1.0E-04
     force convergence thresh. =      1.0E-03
     Exchange-correlation= PBE
                           (   1   4   3   4   0   0   0)
     nstep                     =           50


     celldm(1)=   5.582423  celldm(2)=   0.000000  celldm(3)=   0.000000
     celldm(4)=   0.000000  celldm(5)=   0.000000  celldm(6)=   0.000000

     crystal axes: (cart. coord. in units of alat)
               a(1) = (   1.000000   0.000000   0.000000 )  
               a(2) = (   0.000000   1.000000   0.000000 )  
               a(3) = (   0.000000   0.000000   1.000000 )  

     reciprocal axes: (cart. coord. in units 2 pi/alat)
               b(1) = (  1.000000  0.000000  0.000000 )  
               b(2) = (  0.000000  1.000000  0.000000 )  
               b(3) = (  0.000000  0.000000  1.000000 )  


     PseudoPot. # 1 for Fe read from file:
     ../../pseudos/Fe.pbe-spn-kjpaw_psl.0.2.1.UPF
     MD5 check sum: e86618425769142926afa95317d90200
     Pseudo is Projector augmented-wave + core cor, Zval = 16.0
     Generated using "atomic" code by A. Dal Corso  v.5.0.99 svn rev. 10869
     Shape of augmentation charge: PSQ
     Using radial grid of 1191 points,  6 beta functions with: 
                l(1) =   0
                l(2) =   0
                l(3) =   1
                l(4) =   1
                l(5) =   2
                l(6) =   2
     Q(r) pseudized with 0 coefficients 


     PseudoPot. # 2 for Ti read from file:
     ../../pseudos/ti_pbe_v1.4.uspp.F.UPF
     MD5 check sum: 88a00a6731bd790ddea75d31a80cb452
     Pseudo is Ultrasoft + core correction, Zval = 12.0
     Generated by new atomic code, or converted to UPF format
     Using radial grid of  851 points,  6 beta functions with: 
                l(1) =   0
                l(2) =   0
                l(3) =   1
                l(4) =   1
                l(5) =   2
                l(6) =   2
     Q(r) pseudized with  6 coefficients,  rinner =    1.000   1.000   1.000
                                                       1.000   1.000

     PseudoPot. # 3 for H  read from file:
     ../../pseudos/H.pbe-rrkjus_psl.1.0.0.UPF
     MD5 check sum: f52b6d4d1c606e5624b1dc7b2218f220
     Pseudo is Ultrasoft, Zval =  1.0
     Generated using "atomic" code by A. Dal Corso  v.5.1
     Using radial grid of  929 points,  2 beta functions with: 
                l(1) =   0
                l(2) =   0
     Q(r) pseudized with 0 coefficients 


     atomic species   valence    mass     pseudopotential
     Fe               16.00    55.84500     Fe( 1.00)
     Ti               12.00    47.86700     Ti( 1.00)
     H                 1.00     1.00750     H ( 1.00)

      4 Sym. Ops. (no inversion) found



   Cartesian axes

     site n.     atom                  positions (alat units)
         1        Fe     tau(   1) = (   0.5000000   0.5000000   0.5000000  )
         2        Ti     tau(   2) = (   0.0000000   0.0000000   0.0000000  )
         3        H      tau(   3) = (   0.0000000   0.4166667   0.5000000  )

     number of k points=   512  Marzari-Vanderbilt smearing, width (Ry)=  0.0050

     Number of k-points >= 100: set verbosity='high' to print them.

     Dense  grid:   212623 G-vectors     FFT dimensions: (  75,  75,  75)

     Smooth grid:    32423 G-vectors     FFT dimensions: (  40,  40,  40)

     Estimated max dynamical RAM per process >      96.74 MB

     Estimated total dynamical RAM >       1.51 GB

     Check: negative core charge=   -0.000001

     Initial potential from superposition of free atoms

     starting charge      27.9995, renormalised to      29.0000

     negative rho (up, down):  1.341E-03 0.000E+00
     Starting wfcs are   24 randomized atomic wfcs
     Checking if some PAW data can be deallocated... 

     total cpu time spent up to now is        3.5 secs

     per-process dynamical memory:   167.1 Mb

     Self-consistent Calculation

     iteration #  1     ecut=   124.00 Ry     beta= 0.70
     Davidson diagonalization with overlap
     ethr =  1.00E-02,  avg # of iterations =  2.1

     negative rho (up, down):  2.154E-05 0.000E+00

     total cpu time spent up to now is        8.9 secs

     total energy              =    -438.18957570 Ry
     estimated scf accuracy    <      14.73011063 Ry

     iteration #  2     ecut=   124.00 Ry     beta= 0.70
     Davidson diagonalization with overlap
     ethr =  1.00E-02,  avg # of iterations =  6.0

     negative rho (up, down):  7.645E-05 0.000E+00

     total cpu time spent up to now is       18.4 secs

     total energy              =    -449.72146238 Ry
     estimated scf accuracy    <      57.72283014 Ry

     iteration #  3     ecut=   124.00 Ry     beta= 0.70
     Davidson diagonalization with overlap
     ethr =  1.00E-02,  avg # of iterations =  2.9

     negative rho (up, down):  3.155E-04 0.000E+00

     total cpu time spent up to now is       24.7 secs

     total energy              =    -449.67563748 Ry
     estimated scf accuracy    <      14.66967702 Ry

     iteration #  4     ecut=   124.00 Ry     beta= 0.70
     Davidson diagonalization with overlap
     ethr =  1.00E-02,  avg # of iterations =  2.6

     negative rho (up, down):  3.094E-04 0.000E+00

     total cpu time spent up to now is       30.0 secs

     total energy              =    -450.19915965 Ry
     estimated scf accuracy    <       3.93012032 Ry

     iteration #  5     ecut=   124.00 Ry     beta= 0.70
     Davidson diagonalization with overlap
     ethr =  1.00E-02,  avg # of iterations =  1.0

     negative rho (up, down):  4.133E-04 0.000E+00

     total cpu time spent up to now is       34.3 secs

     total energy              =    -449.84102750 Ry
     estimated scf accuracy    <       3.73071037 Ry

     iteration #  6     ecut=   124.00 Ry     beta= 0.70
     Davidson diagonalization with overlap
     ethr =  1.00E-02,  avg # of iterations =  1.3

     negative rho (up, down):  4.614E-04 0.000E+00

     total cpu time spent up to now is       38.5 secs

     total energy              =    -449.88892130 Ry
     estimated scf accuracy    <       1.40300334 Ry

     iteration #  7     ecut=   124.00 Ry     beta= 0.70
     Davidson diagonalization with overlap
     ethr =  4.84E-03,  avg # of iterations =  1.2

     negative rho (up, down):  1.181E-03 0.000E+00

     total cpu time spent up to now is       42.9 secs

     total energy              =    -449.74403594 Ry
     estimated scf accuracy    <       1.12306700 Ry

     iteration #  8     ecut=   124.00 Ry     beta= 0.70
     Davidson diagonalization with overlap
     ethr =  3.87E-03,  avg # of iterations =  2.3

     negative rho (up, down):  1.119E-03 0.000E+00

     total cpu time spent up to now is       47.8 secs

     total energy              =    -449.80414965 Ry
     estimated scf accuracy    <       0.38356548 Ry

     iteration #  9     ecut=   124.00 Ry     beta= 0.70
     Davidson diagonalization with overlap
     ethr =  1.32E-03,  avg # of iterations =  2.8

     negative rho (up, down):  1.169E-03 0.000E+00

     total cpu time spent up to now is       52.7 secs

     total energy              =    -449.87781258 Ry
     estimated scf accuracy    <       1.14601149 Ry

     iteration # 10     ecut=   124.00 Ry     beta= 0.70
     Davidson diagonalization with overlap
     ethr =  1.32E-03,  avg # of iterations =  1.1

     negative rho (up, down):  1.268E-03 0.000E+00

     total cpu time spent up to now is       57.0 secs

     total energy              =    -449.97119077 Ry
     estimated scf accuracy    <       1.72227564 Ry

     iteration # 11     ecut=   124.00 Ry     beta= 0.70
     Davidson diagonalization with overlap
     ethr =  1.32E-03,  avg # of iterations =  2.1

     negative rho (up, down):  7.432E-04 0.000E+00

     total cpu time spent up to now is       61.7 secs

     total energy              =    -449.44285003 Ry
     estimated scf accuracy    <       6.18825908 Ry

     iteration # 12     ecut=   124.00 Ry     beta= 0.70
     Davidson diagonalization with overlap
     ethr =  1.32E-03,  avg # of iterations =  2.3

     negative rho (up, down):  7.369E-04 0.000E+00

     total cpu time spent up to now is       66.6 secs

     total energy              =    -449.71580735 Ry
     estimated scf accuracy    <       0.08364093 Ry

     iteration # 13     ecut=   124.00 Ry     beta= 0.70
     Davidson diagonalization with overlap
     ethr =  2.88E-04,  avg # of iterations =  2.4

     negative rho (up, down):  6.390E-04 0.000E+00

     total cpu time spent up to now is       71.4 secs

     total energy              =    -449.73623778 Ry
     estimated scf accuracy    <       0.06953740 Ry

     iteration # 14     ecut=   124.00 Ry     beta= 0.70
     Davidson diagonalization with overlap
     ethr =  2.40E-04,  avg # of iterations =  2.2

     negative rho (up, down):  6.992E-04 0.000E+00

     total cpu time spent up to now is       76.2 secs

     total energy              =    -449.72126517 Ry
     estimated scf accuracy    <       0.40749303 Ry

     iteration # 15     ecut=   124.00 Ry     beta= 0.70
     Davidson diagonalization with overlap
     ethr =  2.40E-04,  avg # of iterations =  1.0

     negative rho (up, down):  7.656E-04 0.000E+00

     total cpu time spent up to now is       80.4 secs

     total energy              =    -449.71701500 Ry
     estimated scf accuracy    <       0.14298606 Ry

     iteration # 16     ecut=   124.00 Ry     beta= 0.70
     Davidson diagonalization with overlap
     ethr =  2.40E-04,  avg # of iterations =  1.0

     negative rho (up, down):  8.108E-04 0.000E+00

     total cpu time spent up to now is       84.6 secs

     total energy              =    -449.71529292 Ry
     estimated scf accuracy    <       0.06771063 Ry

     iteration # 17     ecut=   124.00 Ry     beta= 0.70
     Davidson diagonalization with overlap
     ethr =  2.33E-04,  avg # of iterations =  1.0

     negative rho (up, down):  8.411E-04 0.000E+00

     total cpu time spent up to now is       88.9 secs

     total energy              =    -449.71434262 Ry
     estimated scf accuracy    <       0.03796239 Ry

     iteration # 18     ecut=   124.00 Ry     beta= 0.70
     Davidson diagonalization with overlap
     ethr =  1.31E-04,  avg # of iterations =  1.1

     negative rho (up, down):  9.054E-04 0.000E+00

     total cpu time spent up to now is       93.1 secs

     total energy              =    -449.71186507 Ry
     estimated scf accuracy    <       0.02398092 Ry

     iteration # 19     ecut=   124.00 Ry     beta= 0.70
     Davidson diagonalization with overlap
     ethr =  8.27E-05,  avg # of iterations =  1.1

     negative rho (up, down):  9.067E-04 0.000E+00

     total cpu time spent up to now is       97.4 secs

     total energy              =    -449.71271715 Ry
     estimated scf accuracy    <       0.00249448 Ry

     iteration # 20     ecut=   124.00 Ry     beta= 0.70
     Davidson diagonalization with overlap
     ethr =  8.60E-06,  avg # of iterations =  2.3

     negative rho (up, down):  9.334E-04 0.000E+00

     total cpu time spent up to now is      102.1 secs

     total energy              =    -449.71249043 Ry
     estimated scf accuracy    <       0.00203935 Ry

     iteration # 21     ecut=   124.00 Ry     beta= 0.70
     Davidson diagonalization with overlap
     ethr =  7.03E-06,  avg # of iterations =  2.0

     negative rho (up, down):  9.324E-04 0.000E+00

     total cpu time spent up to now is      106.8 secs

     total energy              =    -449.71271798 Ry
     estimated scf accuracy    <       0.00000619 Ry

     iteration # 22     ecut=   124.00 Ry     beta= 0.70
     Davidson diagonalization with overlap
     ethr =  2.13E-08,  avg # of iterations =  7.7

     negative rho (up, down):  9.310E-04 0.000E+00

     total cpu time spent up to now is      117.7 secs

     total energy              =    -449.71277734 Ry
     estimated scf accuracy    <       0.00000823 Ry

     iteration # 23     ecut=   124.00 Ry     beta= 0.70
     Davidson diagonalization with overlap
     ethr =  2.13E-08,  avg # of iterations =  1.0

     negative rho (up, down):  9.300E-04 0.000E+00

     total cpu time spent up to now is      121.9 secs

     total energy              =    -449.71277514 Ry
     estimated scf accuracy    <       0.00000717 Ry

     iteration # 24     ecut=   124.00 Ry     beta= 0.70
     Davidson diagonalization with overlap
     ethr =  2.13E-08,  avg # of iterations =  2.0

     negative rho (up, down):  9.301E-04 0.000E+00

     total cpu time spent up to now is      126.8 secs

     total energy              =    -449.71277538 Ry
     estimated scf accuracy    <       0.00000068 Ry

     iteration # 25     ecut=   124.00 Ry     beta= 0.70
     Davidson diagonalization with overlap
     ethr =  2.33E-09,  avg # of iterations =  4.1

     negative rho (up, down):  9.305E-04 0.000E+00

     total cpu time spent up to now is      133.2 secs

     total energy              =    -449.71277555 Ry
     estimated scf accuracy    <       0.00000004 Ry

     iteration # 26     ecut=   124.00 Ry     beta= 0.70
     Davidson diagonalization with overlap
     ethr =  1.43E-10,  avg # of iterations =  4.4

     negative rho (up, down):  9.307E-04 0.000E+00

     total cpu time spent up to now is      139.7 secs

     total energy              =    -449.71277556 Ry
     estimated scf accuracy    <       0.00000002 Ry

     iteration # 27     ecut=   124.00 Ry     beta= 0.70
     Davidson diagonalization with overlap
     ethr =  6.16E-11,  avg # of iterations =  1.2

     negative rho (up, down):  9.306E-04 0.000E+00

     total cpu time spent up to now is      144.0 secs

     End of self-consistent calculation

     Number of k-points >= 100: set verbosity='high' to print the bands.

     the Fermi energy is    18.4215 ev

!    total energy              =    -449.71277556 Ry
     estimated scf accuracy    <          9.0E-09 Ry
     smearing contrib. (-TS)   =      -0.00011460 Ry
     internal energy E=F+TS    =    -449.71266096 Ry

     The total energy is F=E-TS. E is the sum of the following terms:
     one-electron contribution =    -149.71885301 Ry
     hartree contribution      =      92.13284062 Ry
     xc contribution           =     -53.86048352 Ry
     ewald contribution        =    -262.11180716 Ry
     one-center paw contrib.   =     -76.15435789 Ry

     convergence has been achieved in  27 iterations

     negative rho (up, down):  9.306E-04 0.000E+00

     Forces acting on atoms (cartesian axes, Ry/au):

     atom    1 type  1   force =     0.00000000    0.01699204    0.00000000
     atom    2 type  2   force =     0.00000000   -0.01655578    0.00000000
     atom    3 type  3   force =     0.00000000   -0.00043626    0.00000000

     Total force =     0.023728     Total SCF correction =     0.000043


     Computing stress (Cartesian axis) and pressure


     negative rho (up, down):  9.306E-04 0.000E+00
          total   stress  (Ry/bohr**3)                   (kbar)     P=      281.04
   0.00368230   0.00000000   0.00000000          541.69        0.00        0.00
   0.00000000   0.00101036   0.00000000            0.00      148.63        0.00
   0.00000000   0.00000000   0.00103883            0.00        0.00      152.82


     BFGS Geometry Optimization
     Energy error            =      5.6E-04 Ry
     Gradient error          =      1.7E-02 Ry/Bohr

     number of scf cycles    =   1
     number of bfgs steps    =   0

     energy             new  =    -449.7127755557 Ry

     new trust radius        =       0.0169920422 bohr
     new conv_thr            =       0.0000000100 Ry


ATOMIC_POSITIONS (crystal)
Fe               0.5000000000        0.5030438473        0.5000000000
Ti               0.0000000000       -0.0029656984        0.0000000000
H                0.0000000000        0.4165885177        0.5000000000



     Writing config-only to output data dir ./TiFe_H_faces_x_0.41667.save/ :
     XML data file     NEW-OLD atomic charge density approx. for the potential

     Check: negative core charge=   -0.000001

     negative rho (up, down):  9.141E-04 0.000E+00

     total cpu time spent up to now is      146.6 secs

     per-process dynamical memory:   175.5 Mb

     Self-consistent Calculation

     iteration #  1     ecut=   124.00 Ry     beta= 0.70
     Davidson diagonalization with overlap
     ethr =  1.00E-06,  avg # of iterations =  7.8

     negative rho (up, down):  9.146E-04 0.000E+00

     total cpu time spent up to now is      158.4 secs

     total energy              =    -449.71321753 Ry
     estimated scf accuracy    <       0.00014180 Ry

     iteration #  2     ecut=   124.00 Ry     beta= 0.70
     Davidson diagonalization with overlap
     ethr =  4.89E-07,  avg # of iterations =  2.1

     negative rho (up, down):  9.112E-04 0.000E+00

     total cpu time spent up to now is      163.4 secs

     total energy              =    -449.71316395 Ry
     estimated scf accuracy    <       0.00029544 Ry

     iteration #  3     ecut=   124.00 Ry     beta= 0.70
     Davidson diagonalization with overlap
     ethr =  4.89E-07,  avg # of iterations =  2.9

     negative rho (up, down):  9.142E-04 0.000E+00

     total cpu time spent up to now is      168.7 secs

     total energy              =    -449.71310493 Ry
     estimated scf accuracy    <       0.00307401 Ry

     iteration #  4     ecut=   124.00 Ry     beta= 0.70
     Davidson diagonalization with overlap
     ethr =  4.89E-07,  avg # of iterations =  2.6

     negative rho (up, down):  9.140E-04 0.000E+00

     total cpu time spent up to now is      173.8 secs

     total energy              =    -449.71326272 Ry
     estimated scf accuracy    <       0.00000064 Ry

     iteration #  5     ecut=   124.00 Ry     beta= 0.70
     Davidson diagonalization with overlap
     ethr =  2.21E-09,  avg # of iterations =  5.1

     negative rho (up, down):  9.142E-04 0.000E+00

     total cpu time spent up to now is      181.4 secs

     total energy              =    -449.71326341 Ry
     estimated scf accuracy    <       0.00000065 Ry

     iteration #  6     ecut=   124.00 Ry     beta= 0.70
     Davidson diagonalization with overlap
     ethr =  2.21E-09,  avg # of iterations =  2.0

     negative rho (up, down):  9.141E-04 0.000E+00

     total cpu time spent up to now is      186.3 secs

     total energy              =    -449.71326346 Ry
     estimated scf accuracy    <       0.00000005 Ry

     iteration #  7     ecut=   124.00 Ry     beta= 0.70
     Davidson diagonalization with overlap
     ethr =  1.74E-10,  avg # of iterations =  2.5

     negative rho (up, down):  9.141E-04 0.000E+00

     total cpu time spent up to now is      191.2 secs

     End of self-consistent calculation

     Number of k-points >= 100: set verbosity='high' to print the bands.

     the Fermi energy is    18.4248 ev

!    total energy              =    -449.71326346 Ry
     estimated scf accuracy    <          1.8E-09 Ry
     smearing contrib. (-TS)   =      -0.00011269 Ry
     internal energy E=F+TS    =    -449.71315077 Ry

     The total energy is F=E-TS. E is the sum of the following terms:
     one-electron contribution =    -149.68797678 Ry
     hartree contribution      =      92.11903466 Ry
     xc contribution           =     -53.85945017 Ry
     ewald contribution        =    -262.13044285 Ry
     one-center paw contrib.   =     -76.15431564 Ry

     convergence has been achieved in   7 iterations

     negative rho (up, down):  9.141E-04 0.000E+00

     Forces acting on atoms (cartesian axes, Ry/au):

     atom    1 type  1   force =     0.00000000    0.01299037    0.00000000
     atom    2 type  2   force =     0.00000000   -0.01156739    0.00000000
     atom    3 type  3   force =     0.00000000   -0.00142298    0.00000000

     Total force =     0.017452     Total SCF correction =     0.000047


     Computing stress (Cartesian axis) and pressure


     negative rho (up, down):  9.141E-04 0.000E+00
          total   stress  (Ry/bohr**3)                   (kbar)     P=      278.63
   0.00365236   0.00000000   0.00000000          537.28        0.00        0.00
   0.00000000   0.00100791   0.00000000            0.00      148.27        0.00
   0.00000000   0.00000000   0.00102207            0.00        0.00      150.35

     Energy error            =      4.9E-04 Ry
     Gradient error          =      1.3E-02 Ry/Bohr

     number of scf cycles    =   2
     number of bfgs steps    =   1

     energy             old  =    -449.7127755557 Ry
     energy             new  =    -449.7132634629 Ry

     CASE: energy            _new < energy            _old

     new trust radius        =       0.0186912464 bohr
     new conv_thr            =       0.0000000005 Ry


ATOMIC_POSITIONS (crystal)
Fe               0.5000000000        0.5063920794        0.5000000000
Ti               0.0000000000       -0.0059515586        0.0000000000
H                0.0000000000        0.4162261458        0.5000000000



     Writing config-only to output data dir ./TiFe_H_faces_x_0.41667.save/ :
     XML data file     NEW-OLD atomic charge density approx. for the potential

     Check: negative core charge=   -0.000002

     negative rho (up, down):  9.023E-04 0.000E+00

     total cpu time spent up to now is      193.8 secs

     per-process dynamical memory:   171.8 Mb

     Self-consistent Calculation

     iteration #  1     ecut=   124.00 Ry     beta= 0.70
     Davidson diagonalization with overlap
     ethr =  1.00E-06,  avg # of iterations =  7.9

     negative rho (up, down):  9.016E-04 0.000E+00

     total cpu time spent up to now is      205.7 secs

     total energy              =    -449.71357559 Ry
     estimated scf accuracy    <       0.00015413 Ry

     iteration #  2     ecut=   124.00 Ry     beta= 0.70
     Davidson diagonalization with overlap
     ethr =  5.31E-07,  avg # of iterations =  2.1

     negative rho (up, down):  8.999E-04 0.000E+00

     total cpu time spent up to now is      210.7 secs

     total energy              =    -449.71359559 Ry
     estimated scf accuracy    <       0.00004637 Ry

     iteration #  3     ecut=   124.00 Ry     beta= 0.70
     Davidson diagonalization with overlap
     ethr =  1.60E-07,  avg # of iterations =  3.6

     negative rho (up, down):  9.023E-04 0.000E+00

     total cpu time spent up to now is      216.5 secs

     total energy              =    -449.71350592 Ry
     estimated scf accuracy    <       0.00213672 Ry

     iteration #  4     ecut=   124.00 Ry     beta= 0.70
     Davidson diagonalization with overlap
     ethr =  1.60E-07,  avg # of iterations =  3.3

     negative rho (up, down):  9.016E-04 0.000E+00

     total cpu time spent up to now is      222.1 secs

     total energy              =    -449.71362039 Ry
     estimated scf accuracy    <       0.00000277 Ry

     iteration #  5     ecut=   124.00 Ry     beta= 0.70
     Davidson diagonalization with overlap
     ethr =  9.56E-09,  avg # of iterations =  2.6

     negative rho (up, down):  9.019E-04 0.000E+00

     total cpu time spent up to now is      227.4 secs

     total energy              =    -449.71362087 Ry
     estimated scf accuracy    <       0.00000030 Ry

     iteration #  6     ecut=   124.00 Ry     beta= 0.70
     Davidson diagonalization with overlap
     ethr =  1.04E-09,  avg # of iterations =  4.3

     negative rho (up, down):  9.019E-04 0.000E+00

     total cpu time spent up to now is      234.0 secs

     total energy              =    -449.71362098 Ry
     estimated scf accuracy    <       0.00000004 Ry

     iteration #  7     ecut=   124.00 Ry     beta= 0.70
     Davidson diagonalization with overlap
     ethr =  1.23E-10,  avg # of iterations =  2.9

     negative rho (up, down):  9.019E-04 0.000E+00

     total cpu time spent up to now is      239.3 secs

     total energy              =    -449.71362098 Ry
     estimated scf accuracy    <          7.7E-10 Ry

     iteration #  8     ecut=   124.00 Ry     beta= 0.70
     Davidson diagonalization with overlap
     ethr =  2.64E-12,  avg # of iterations =  5.1

     negative rho (up, down):  9.019E-04 0.000E+00

     total cpu time spent up to now is      247.2 secs

     End of self-consistent calculation

     Number of k-points >= 100: set verbosity='high' to print the bands.

     the Fermi energy is    18.4283 ev

!    total energy              =    -449.71362098 Ry
     estimated scf accuracy    <          2.8E-11 Ry
     smearing contrib. (-TS)   =      -0.00011002 Ry
     internal energy E=F+TS    =    -449.71351096 Ry

     The total energy is F=E-TS. E is the sum of the following terms:
     one-electron contribution =    -149.67496002 Ry
     hartree contribution      =      92.11454284 Ry
     xc contribution           =     -53.85874183 Ry
     ewald contribution        =    -262.14007565 Ry
     one-center paw contrib.   =     -76.15427631 Ry

     convergence has been achieved in   8 iterations

     negative rho (up, down):  9.019E-04 0.000E+00

     Forces acting on atoms (cartesian axes, Ry/au):

     atom    1 type  1   force =     0.00000000    0.00878230    0.00000000
     atom    2 type  2   force =     0.00000000   -0.00643992    0.00000000
     atom    3 type  3   force =     0.00000000   -0.00234238    0.00000000

     Total force =     0.011139     Total SCF correction =     0.000007


     Computing stress (Cartesian axis) and pressure


     negative rho (up, down):  9.019E-04 0.000E+00
          total   stress  (Ry/bohr**3)                   (kbar)     P=      277.00
   0.00362387   0.00000000   0.00000000          533.09        0.00        0.00
   0.00000000   0.00101116   0.00000000            0.00      148.75        0.00
   0.00000000   0.00000000   0.00101408            0.00        0.00      149.18

     Energy error            =      3.6E-04 Ry
     Gradient error          =      8.8E-03 Ry/Bohr

     number of scf cycles    =   3
     number of bfgs steps    =   2

     energy             old  =    -449.7132634629 Ry
     energy             new  =    -449.7136209827 Ry

     CASE: energy            _new < energy            _old

     new trust radius        =       0.0280368697 bohr
     new conv_thr            =       0.0000000004 Ry


ATOMIC_POSITIONS (crystal)
Fe               0.5000000000        0.5114144275        0.5000000000
Ti               0.0000000000       -0.0098939132        0.0000000000
H                0.0000000000        0.4151461523        0.5000000000



     Writing config-only to output data dir ./TiFe_H_faces_x_0.41667.save/ :
     XML data file     NEW-OLD atomic charge density approx. for the potential

     Check: negative core charge=   -0.000001

     negative rho (up, down):  9.074E-04 0.000E+00

     total cpu time spent up to now is      249.9 secs

     per-process dynamical memory:   171.8 Mb

     Self-consistent Calculation

     iteration #  1     ecut=   124.00 Ry     beta= 0.70
     Davidson diagonalization with overlap
     ethr =  1.00E-06,  avg # of iterations =  8.7

     negative rho (up, down):  9.052E-04 0.000E+00

     total cpu time spent up to now is      262.9 secs

     total energy              =    -449.71378387 Ry
     estimated scf accuracy    <       0.00030721 Ry

     iteration #  2     ecut=   124.00 Ry     beta= 0.70
     Davidson diagonalization with overlap
     ethr =  1.06E-06,  avg # of iterations =  2.0

     negative rho (up, down):  9.042E-04 0.000E+00

     total cpu time spent up to now is      268.0 secs

     total energy              =    -449.71383140 Ry
     estimated scf accuracy    <       0.00006584 Ry

     iteration #  3     ecut=   124.00 Ry     beta= 0.70
     Davidson diagonalization with overlap
     ethr =  2.27E-07,  avg # of iterations =  3.6

     negative rho (up, down):  9.070E-04 0.000E+00

     total cpu time spent up to now is      273.9 secs

     total energy              =    -449.71370543 Ry
     estimated scf accuracy    <       0.00279709 Ry

     iteration #  4     ecut=   124.00 Ry     beta= 0.70
     Davidson diagonalization with overlap
     ethr =  2.27E-07,  avg # of iterations =  3.3

     negative rho (up, down):  9.057E-04 0.000E+00

     total cpu time spent up to now is      279.5 secs

     total energy              =    -449.71386307 Ry
     estimated scf accuracy    <       0.00001317 Ry

     iteration #  5     ecut=   124.00 Ry     beta= 0.70
     Davidson diagonalization with overlap
     ethr =  4.54E-08,  avg # of iterations =  2.0

     negative rho (up, down):  9.062E-04 0.000E+00

     total cpu time spent up to now is      284.2 secs

     total energy              =    -449.71386433 Ry
     estimated scf accuracy    <       0.00000065 Ry

     iteration #  6     ecut=   124.00 Ry     beta= 0.70
     Davidson diagonalization with overlap
     ethr =  2.25E-09,  avg # of iterations =  4.5

     negative rho (up, down):  9.062E-04 0.000E+00

     total cpu time spent up to now is      290.9 secs

     total energy              =    -449.71386461 Ry
     estimated scf accuracy    <       0.00000004 Ry

     iteration #  7     ecut=   124.00 Ry     beta= 0.70
     Davidson diagonalization with overlap
     ethr =  1.49E-10,  avg # of iterations =  3.6

     negative rho (up, down):  9.062E-04 0.000E+00

     total cpu time spent up to now is      296.7 secs

     total energy              =    -449.71386462 Ry
     estimated scf accuracy    <          1.3E-09 Ry

     iteration #  8     ecut=   124.00 Ry     beta= 0.70
     Davidson diagonalization with overlap
     ethr =  4.58E-12,  avg # of iterations =  4.6

     negative rho (up, down):  9.062E-04 0.000E+00

     total cpu time spent up to now is      303.7 secs

     End of self-consistent calculation

     Number of k-points >= 100: set verbosity='high' to print the bands.

     the Fermi energy is    18.4330 ev

!    total energy              =    -449.71386462 Ry
     estimated scf accuracy    <          5.1E-11 Ry
     smearing contrib. (-TS)   =      -0.00010524 Ry
     internal energy E=F+TS    =    -449.71375938 Ry

     The total energy is F=E-TS. E is the sum of the following terms:
     one-electron contribution =    -149.68975082 Ry
     hartree contribution      =      92.12570941 Ry
     xc contribution           =     -53.85834497 Ry
     ewald contribution        =    -262.13716714 Ry
     one-center paw contrib.   =     -76.15420586 Ry

     convergence has been achieved in   8 iterations

     negative rho (up, down):  9.062E-04 0.000E+00

     Forces acting on atoms (cartesian axes, Ry/au):

     atom    1 type  1   force =     0.00000000    0.00278625    0.00000000
     atom    2 type  2   force =     0.00000000    0.00062444    0.00000000
     atom    3 type  3   force =     0.00000000   -0.00341069    0.00000000

     Total force =     0.004448     Total SCF correction =     0.000007


     Computing stress (Cartesian axis) and pressure


     negative rho (up, down):  9.062E-04 0.000E+00
          total   stress  (Ry/bohr**3)                   (kbar)     P=      275.30
   0.00358055   0.00000000   0.00000000          526.72        0.00        0.00
   0.00000000   0.00102016   0.00000000            0.00      150.07        0.00
   0.00000000   0.00000000   0.00101360            0.00        0.00      149.11

     Energy error            =      2.4E-04 Ry
     Gradient error          =      3.4E-03 Ry/Bohr

     number of scf cycles    =   4
     number of bfgs steps    =   3

     energy             old  =    -449.7136209827 Ry
     energy             new  =    -449.7138646237 Ry

     CASE: energy            _new < energy            _old

     new trust radius        =       0.0098864587 bohr
     new conv_thr            =       0.0000000002 Ry


ATOMIC_POSITIONS (crystal)
Fe               0.5000000000        0.5131854254        0.5000000000
Ti               0.0000000000       -0.0106917109        0.0000000000
H                0.0000000000        0.4141729522        0.5000000000



     Writing config-only to output data dir ./TiFe_H_faces_x_0.41667.save/ :
     XML data file     NEW-OLD atomic charge density approx. for the potential

     Check: negative core charge=   -0.000001

     negative rho (up, down):  9.167E-04 0.000E+00

     total cpu time spent up to now is      306.4 secs

     per-process dynamical memory:   171.8 Mb

     Self-consistent Calculation

     iteration #  1     ecut=   124.00 Ry     beta= 0.70
     Davidson diagonalization with overlap
     ethr =  1.00E-06,  avg # of iterations =  6.9

     Threshold (ethr) on eigenvalues was too large:
     Diagonalizing with lowered threshold

     Davidson diagonalization with overlap
     ethr =  1.00E-07,  avg # of iterations =  1.8

     negative rho (up, down):  9.150E-04 0.000E+00

     total cpu time spent up to now is      320.9 secs

     total energy              =    -449.71388904 Ry
     estimated scf accuracy    <       0.00002899 Ry

     iteration #  2     ecut=   124.00 Ry     beta= 0.70
     Davidson diagonalization with overlap
     ethr =  1.00E-07,  avg # of iterations =  2.7

     negative rho (up, down):  9.167E-04 0.000E+00

     total cpu time spent up to now is      326.3 secs

     total energy              =    -449.71385262 Ry
     estimated scf accuracy    <       0.00042777 Ry

     iteration #  3     ecut=   124.00 Ry     beta= 0.70
     Davidson diagonalization with overlap
     ethr =  1.00E-07,  avg # of iterations =  2.8

     negative rho (up, down):  9.167E-04 0.000E+00

     total cpu time spent up to now is      331.7 secs

     total energy              =    -449.71388935 Ry
     estimated scf accuracy    <       0.00012514 Ry

     iteration #  4     ecut=   124.00 Ry     beta= 0.70
     Davidson diagonalization with overlap
     ethr =  1.00E-07,  avg # of iterations =  1.4

     negative rho (up, down):  9.163E-04 0.000E+00

     total cpu time spent up to now is      336.2 secs

     total energy              =    -449.71389565 Ry
     estimated scf accuracy    <       0.00000034 Ry

     iteration #  5     ecut=   124.00 Ry     beta= 0.70
     Davidson diagonalization with overlap
     ethr =  1.16E-09,  avg # of iterations =  4.7

     negative rho (up, down):  9.164E-04 0.000E+00

     total cpu time spent up to now is      343.1 secs

     total energy              =    -449.71389582 Ry
     estimated scf accuracy    <       0.00000007 Ry

     iteration #  6     ecut=   124.00 Ry     beta= 0.70
     Davidson diagonalization with overlap
     ethr =  2.42E-10,  avg # of iterations =  2.4

     negative rho (up, down):  9.164E-04 0.000E+00

     total cpu time spent up to now is      348.2 secs

     total energy              =    -449.71389583 Ry
     estimated scf accuracy    <          4.0E-09 Ry

     iteration #  7     ecut=   124.00 Ry     beta= 0.70
     Davidson diagonalization with overlap
     ethr =  1.40E-11,  avg # of iterations =  4.4

     negative rho (up, down):  9.164E-04 0.000E+00

     total cpu time spent up to now is      354.6 secs

     End of self-consistent calculation

     Number of k-points >= 100: set verbosity='high' to print the bands.

     the Fermi energy is    18.4340 ev

!    total energy              =    -449.71389583 Ry
     estimated scf accuracy    <          1.7E-10 Ry
     smearing contrib. (-TS)   =      -0.00010319 Ry
     internal energy E=F+TS    =    -449.71379264 Ry

     The total energy is F=E-TS. E is the sum of the following terms:
     one-electron contribution =    -149.69607922 Ry
     hartree contribution      =      92.12999580 Ry
     xc contribution           =     -53.85823267 Ry
     ewald contribution        =    -262.13529687 Ry
     one-center paw contrib.   =     -76.15417967 Ry

     convergence has been achieved in   7 iterations

     negative rho (up, down):  9.164E-04 0.000E+00

     Forces acting on atoms (cartesian axes, Ry/au):

     atom    1 type  1   force =     0.00000000    0.00111713    0.00000000
     atom    2 type  2   force =     0.00000000    0.00240264    0.00000000
     atom    3 type  3   force =     0.00000000   -0.00351977    0.00000000

     Total force =     0.004406     Total SCF correction =     0.000028


     Computing stress (Cartesian axis) and pressure


     negative rho (up, down):  9.164E-04 0.000E+00
          total   stress  (Ry/bohr**3)                   (kbar)     P=      274.88
   0.00355825   0.00000000   0.00000000          523.44        0.00        0.00
   0.00000000   0.00102757   0.00000000            0.00      151.16        0.00
   0.00000000   0.00000000   0.00102005            0.00        0.00      150.05

     Energy error            =      3.1E-05 Ry
     Gradient error          =      3.5E-03 Ry/Bohr

     number of scf cycles    =   5
     number of bfgs steps    =   4

     energy             old  =    -449.7138646237 Ry
     energy             new  =    -449.7138958335 Ry

     CASE: energy            _new < energy            _old

     new trust radius        =       0.0114917543 bohr
     new conv_thr            =            1.0E-10 Ry


ATOMIC_POSITIONS (crystal)
Fe               0.5000000000        0.5152439859        0.5000000000
Ti               0.0000000000       -0.0108377546        0.0000000000
H                0.0000000000        0.4122604354        0.5000000000



     Writing config-only to output data dir ./TiFe_H_faces_x_0.41667.save/ :
     XML data file     NEW-OLD atomic charge density approx. for the potential

     Check: negative core charge=   -0.000001

     negative rho (up, down):  9.178E-04 0.000E+00

     total cpu time spent up to now is      357.2 secs

     per-process dynamical memory:   171.8 Mb

     Self-consistent Calculation

     iteration #  1     ecut=   124.00 Ry     beta= 0.70
     Davidson diagonalization with overlap
     ethr =  1.00E-06,  avg # of iterations =  6.9

     negative rho (up, down):  9.148E-04 0.000E+00

     total cpu time spent up to now is      367.1 secs

     total energy              =    -449.71391814 Ry
     estimated scf accuracy    <       0.00004195 Ry

     iteration #  2     ecut=   124.00 Ry     beta= 0.70
     Davidson diagonalization with overlap
     ethr =  1.45E-07,  avg # of iterations =  3.8

     negative rho (up, down):  9.174E-04 0.000E+00

     total cpu time spent up to now is      373.1 secs

     total energy              =    -449.71380016 Ry
     estimated scf accuracy    <       0.00229041 Ry

     iteration #  3     ecut=   124.00 Ry     beta= 0.70
     Davidson diagonalization with overlap
     ethr =  1.45E-07,  avg # of iterations =  3.6

     negative rho (up, down):  9.180E-04 0.000E+00

     total cpu time spent up to now is      378.9 secs

     total energy              =    -449.71393290 Ry
     estimated scf accuracy    <       0.00001823 Ry

     iteration #  4     ecut=   124.00 Ry     beta= 0.70
     Davidson diagonalization with overlap
     ethr =  6.29E-08,  avg # of iterations =  1.1

     negative rho (up, down):  9.176E-04 0.000E+00

     total cpu time spent up to now is      383.3 secs

     total energy              =    -449.71393385 Ry
     estimated scf accuracy    <       0.00000049 Ry

     iteration #  5     ecut=   124.00 Ry     beta= 0.70
     Davidson diagonalization with overlap
     ethr =  1.67E-09,  avg # of iterations =  4.6

     negative rho (up, down):  9.177E-04 0.000E+00

     total cpu time spent up to now is      390.3 secs

     total energy              =    -449.71393408 Ry
     estimated scf accuracy    <       0.00000003 Ry

     iteration #  6     ecut=   124.00 Ry     beta= 0.70
     Davidson diagonalization with overlap
     ethr =  1.13E-10,  avg # of iterations =  3.8

     negative rho (up, down):  9.176E-04 0.000E+00

     total cpu time spent up to now is      396.6 secs

     total energy              =    -449.71393409 Ry
     estimated scf accuracy    <          2.7E-09 Ry

     iteration #  7     ecut=   124.00 Ry     beta= 0.70
     Davidson diagonalization with overlap
     ethr =  9.31E-12,  avg # of iterations =  4.2

     negative rho (up, down):  9.176E-04 0.000E+00

     total cpu time spent up to now is      403.0 secs

     total energy              =    -449.71393409 Ry
     estimated scf accuracy    <          4.5E-10 Ry

     iteration #  8     ecut=   124.00 Ry     beta= 0.70
     Davidson diagonalization with overlap
     ethr =  1.54E-12,  avg # of iterations =  2.9

     negative rho (up, down):  9.176E-04 0.000E+00

     total cpu time spent up to now is      408.2 secs

     End of self-consistent calculation

     Number of k-points >= 100: set verbosity='high' to print the bands.

     the Fermi energy is    18.4344 ev

!    total energy              =    -449.71393409 Ry
     estimated scf accuracy    <          1.6E-11 Ry
     smearing contrib. (-TS)   =      -0.00010029 Ry
     internal energy E=F+TS    =    -449.71383380 Ry

     The total energy is F=E-TS. E is the sum of the following terms:
     one-electron contribution =    -149.69447132 Ry
     hartree contribution      =      92.13016575 Ry
     xc contribution           =     -53.85796546 Ry
     ewald contribution        =    -262.13741312 Ry
     one-center paw contrib.   =     -76.15414966 Ry

     convergence has been achieved in   8 iterations

     negative rho (up, down):  9.176E-04 0.000E+00

     Forces acting on atoms (cartesian axes, Ry/au):

     atom    1 type  1   force =     0.00000000   -0.00031483    0.00000000
     atom    2 type  2   force =     0.00000000    0.00357076    0.00000000
     atom    3 type  3   force =     0.00000000   -0.00325593    0.00000000

     Total force =     0.004843     Total SCF correction =     0.000005


     Computing stress (Cartesian axis) and pressure


     negative rho (up, down):  9.176E-04 0.000E+00
          total   stress  (Ry/bohr**3)                   (kbar)     P=      274.29
   0.00351921   0.00000000   0.00000000          517.69        0.00        0.00
   0.00000000   0.00104085   0.00000000            0.00      153.11        0.00
   0.00000000   0.00000000   0.00103363            0.00        0.00      152.05

     Energy error            =      3.8E-05 Ry
     Gradient error          =      3.6E-03 Ry/Bohr

     number of scf cycles    =   6
     number of bfgs steps    =   5

     energy             old  =    -449.7138958335 Ry
     energy             new  =    -449.7139340942 Ry

     CASE: energy            _new < energy            _old

     new trust radius        =       0.0126409297 bohr
     new conv_thr            =            1.0E-10 Ry


ATOMIC_POSITIONS (crystal)
Fe               0.5000000000        0.5169990299        0.5000000000
Ti               0.0000000000       -0.0103283822        0.0000000000
H                0.0000000000        0.4099960190        0.5000000000



     Writing config-only to output data dir ./TiFe_H_faces_x_0.41667.save/ :
     XML data file     NEW-OLD atomic charge density approx. for the potential

     Check: negative core charge=   -0.000002

     negative rho (up, down):  9.117E-04 0.000E+00

     total cpu time spent up to now is      410.9 secs

     per-process dynamical memory:   172.0 Mb

     Self-consistent Calculation

     iteration #  1     ecut=   124.00 Ry     beta= 0.70
     Davidson diagonalization with overlap
     ethr =  1.00E-06,  avg # of iterations =  6.9

     negative rho (up, down):  9.082E-04 0.000E+00

     total cpu time spent up to now is      421.0 secs

     total energy              =    -449.71394743 Ry
     estimated scf accuracy    <       0.00004947 Ry

     iteration #  2     ecut=   124.00 Ry     beta= 0.70
     Davidson diagonalization with overlap
     ethr =  1.71E-07,  avg # of iterations =  4.1

     negative rho (up, down):  9.114E-04 0.000E+00

     total cpu time spent up to now is      427.5 secs

     total energy              =    -449.71375158 Ry
     estimated scf accuracy    <       0.00421991 Ry

     iteration #  3     ecut=   124.00 Ry     beta= 0.70
     Davidson diagonalization with overlap
     ethr =  1.71E-07,  avg # of iterations =  3.9

     negative rho (up, down):  9.120E-04 0.000E+00

     total cpu time spent up to now is      433.6 secs

     total energy              =    -449.71397501 Ry
     estimated scf accuracy    <       0.00000428 Ry

     iteration #  4     ecut=   124.00 Ry     beta= 0.70
     Davidson diagonalization with overlap
     ethr =  1.48E-08,  avg # of iterations =  2.3

     negative rho (up, down):  9.118E-04 0.000E+00

     total cpu time spent up to now is      438.6 secs

     total energy              =    -449.71397546 Ry
     estimated scf accuracy    <       0.00000042 Ry

     iteration #  5     ecut=   124.00 Ry     beta= 0.70
     Davidson diagonalization with overlap
     ethr =  1.46E-09,  avg # of iterations =  4.5

     negative rho (up, down):  9.118E-04 0.000E+00

     total cpu time spent up to now is      445.5 secs

     total energy              =    -449.71397563 Ry
     estimated scf accuracy    <       0.00000004 Ry

     iteration #  6     ecut=   124.00 Ry     beta= 0.70
     Davidson diagonalization with overlap
     ethr =  1.41E-10,  avg # of iterations =  2.8

     negative rho (up, down):  9.118E-04 0.000E+00

     total cpu time spent up to now is      451.0 secs

     total energy              =    -449.71397563 Ry
     estimated scf accuracy    <          4.6E-09 Ry

     iteration #  7     ecut=   124.00 Ry     beta= 0.70
     Davidson diagonalization with overlap
     ethr =  1.57E-11,  avg # of iterations =  4.1

     negative rho (up, down):  9.118E-04 0.000E+00

     total cpu time spent up to now is      457.4 secs

     total energy              =    -449.71397563 Ry
     estimated scf accuracy    <          6.5E-10 Ry

     iteration #  8     ecut=   124.00 Ry     beta= 0.70
     Davidson diagonalization with overlap
     ethr =  2.26E-12,  avg # of iterations =  3.8

     negative rho (up, down):  9.118E-04 0.000E+00

     total cpu time spent up to now is      463.2 secs

     End of self-consistent calculation

     Number of k-points >= 100: set verbosity='high' to print the bands.

     the Fermi energy is    18.4341 ev

!    total energy              =    -449.71397563 Ry
     estimated scf accuracy    <          2.2E-11 Ry
     smearing contrib. (-TS)   =      -0.00009724 Ry
     internal energy E=F+TS    =    -449.71387839 Ry

     The total energy is F=E-TS. E is the sum of the following terms:
     one-electron contribution =    -149.68339370 Ry
     hartree contribution      =      92.12507849 Ry
     xc contribution           =     -53.85758480 Ry
     ewald contribution        =    -262.14385435 Ry
     one-center paw contrib.   =     -76.15412403 Ry

     convergence has been achieved in   8 iterations

     negative rho (up, down):  9.118E-04 0.000E+00

     Forces acting on atoms (cartesian axes, Ry/au):

     atom    1 type  1   force =     0.00000000   -0.00108474    0.00000000
     atom    2 type  2   force =     0.00000000    0.00380537    0.00000000
     atom    3 type  3   force =     0.00000000   -0.00272063    0.00000000

     Total force =     0.004802     Total SCF correction =     0.000001


     Computing stress (Cartesian axis) and pressure


     negative rho (up, down):  9.118E-04 0.000E+00
          total   stress  (Ry/bohr**3)                   (kbar)     P=      273.79
   0.00347575   0.00000000   0.00000000          511.30        0.00        0.00
   0.00000000   0.00105694   0.00000000            0.00      155.48        0.00
   0.00000000   0.00000000   0.00105084            0.00        0.00      154.58

     Energy error            =      4.2E-05 Ry
     Gradient error          =      3.8E-03 Ry/Bohr

     number of scf cycles    =   7
     number of bfgs steps    =   6

     energy             old  =    -449.7139340942 Ry
     energy             new  =    -449.7139756329 Ry

     CASE: energy            _new < energy            _old

     new trust radius        =       0.0189613946 bohr
     new conv_thr            =            1.0E-10 Ry


ATOMIC_POSITIONS (crystal)
Fe               0.5000000000        0.5190587264        0.5000000000
Ti               0.0000000000       -0.0089914540        0.0000000000
H                0.0000000000        0.4065993942        0.5000000000



     Writing config-only to output data dir ./TiFe_H_faces_x_0.41667.save/ :
     XML data file     NEW-OLD atomic charge density approx. for the potential

     Check: negative core charge=   -0.000002

     negative rho (up, down):  8.948E-04 0.000E+00

     total cpu time spent up to now is      465.9 secs

     per-process dynamical memory:   172.0 Mb

     Self-consistent Calculation

     iteration #  1     ecut=   124.00 Ry     beta= 0.70
     Davidson diagonalization with overlap
     ethr =  1.00E-06,  avg # of iterations =  7.0

     negative rho (up, down):  8.901E-04 0.000E+00

     total cpu time spent up to now is      476.6 secs

     total energy              =    -449.71395337 Ry
     estimated scf accuracy    <       0.00011494 Ry

     iteration #  2     ecut=   124.00 Ry     beta= 0.70
     Davidson diagonalization with overlap
     ethr =  3.96E-07,  avg # of iterations =  4.1

     negative rho (up, down):  8.945E-04 0.000E+00

     total cpu time spent up to now is      483.4 secs

     total energy              =    -449.71346576 Ry
     estimated scf accuracy    <       0.01068632 Ry

     iteration #  3     ecut=   124.00 Ry     beta= 0.70
     Davidson diagonalization with overlap
     ethr =  3.96E-07,  avg # of iterations =  3.9

     negative rho (up, down):  8.952E-04 0.000E+00

     total cpu time spent up to now is      489.6 secs

     total energy              =    -449.71402719 Ry
     estimated scf accuracy    <       0.00000600 Ry

     iteration #  4     ecut=   124.00 Ry     beta= 0.70
     Davidson diagonalization with overlap
     ethr =  2.07E-08,  avg # of iterations =  3.4

     negative rho (up, down):  8.950E-04 0.000E+00

     total cpu time spent up to now is      495.5 secs

     total energy              =    -449.71402841 Ry
     estimated scf accuracy    <       0.00000073 Ry

     iteration #  5     ecut=   124.00 Ry     beta= 0.70
     Davidson diagonalization with overlap
     ethr =  2.51E-09,  avg # of iterations =  4.2

     negative rho (up, down):  8.951E-04 0.000E+00

     total cpu time spent up to now is      501.8 secs

     total energy              =    -449.71402863 Ry
     estimated scf accuracy    <       0.00000005 Ry

     iteration #  6     ecut=   124.00 Ry     beta= 0.70
     Davidson diagonalization with overlap
     ethr =  1.63E-10,  avg # of iterations =  3.2

     negative rho (up, down):  8.950E-04 0.000E+00

     total cpu time spent up to now is      507.7 secs

     total energy              =    -449.71402864 Ry
     estimated scf accuracy    <          6.3E-09 Ry

     iteration #  7     ecut=   124.00 Ry     beta= 0.70
     Davidson diagonalization with overlap
     ethr =  2.18E-11,  avg # of iterations =  4.3

     negative rho (up, down):  8.950E-04 0.000E+00

     total cpu time spent up to now is      514.4 secs

     total energy              =    -449.71402864 Ry
     estimated scf accuracy    <          1.6E-09 Ry

     iteration #  8     ecut=   124.00 Ry     beta= 0.70
     Davidson diagonalization with overlap
     ethr =  5.36E-12,  avg # of iterations =  2.2

     negative rho (up, down):  8.950E-04 0.000E+00

     total cpu time spent up to now is      519.3 secs

     End of self-consistent calculation

     Number of k-points >= 100: set verbosity='high' to print the bands.

     the Fermi energy is    18.4327 ev

!    total energy              =    -449.71402864 Ry
     estimated scf accuracy    <          3.2E-11 Ry
     smearing contrib. (-TS)   =      -0.00009268 Ry
     internal energy E=F+TS    =    -449.71393596 Ry

     The total energy is F=E-TS. E is the sum of the following terms:
     one-electron contribution =    -149.65738122 Ry
     hartree contribution      =      92.11213489 Ry
     xc contribution           =     -53.85693861 Ry
     ewald contribution        =    -262.15765752 Ry
     one-center paw contrib.   =     -76.15409351 Ry

     convergence has been achieved in   8 iterations

     negative rho (up, down):  8.950E-04 0.000E+00

     Forces acting on atoms (cartesian axes, Ry/au):

     atom    1 type  1   force =     0.00000000   -0.00153137    0.00000000
     atom    2 type  2   force =     0.00000000    0.00319900    0.00000000
     atom    3 type  3   force =     0.00000000   -0.00166763    0.00000000

     Total force =     0.003919     Total SCF correction =     0.000004


     Computing stress (Cartesian axis) and pressure


     negative rho (up, down):  8.950E-04 0.000E+00
          total   stress  (Ry/bohr**3)                   (kbar)     P=      273.12
   0.00341108   0.00000000   0.00000000          501.79        0.00        0.00
   0.00000000   0.00108127   0.00000000            0.00      159.06        0.00
   0.00000000   0.00000000   0.00107764            0.00        0.00      158.53

     Energy error            =      5.3E-05 Ry
     Gradient error          =      3.2E-03 Ry/Bohr

     number of scf cycles    =   8
     number of bfgs steps    =   7

     energy             old  =    -449.7139756329 Ry
     energy             new  =    -449.7140286390 Ry

     CASE: energy            _new < energy            _old

     new trust radius        =       0.0238106618 bohr
     new conv_thr            =            1.0E-10 Ry


ATOMIC_POSITIONS (crystal)
Fe               0.5000000000        0.5208783018        0.5000000000
Ti               0.0000000000       -0.0065457375        0.0000000000
H                0.0000000000        0.4023341024        0.5000000000



     Writing config-only to output data dir ./TiFe_H_faces_x_0.41667.save/ :
     XML data file     NEW-OLD atomic charge density approx. for the potential

     Check: negative core charge=   -0.000002

     negative rho (up, down):  9.014E-04 0.000E+00

     total cpu time spent up to now is      522.0 secs

     per-process dynamical memory:   172.0 Mb

     Self-consistent Calculation

     iteration #  1     ecut=   124.00 Ry     beta= 0.70
     Davidson diagonalization with overlap
     ethr =  1.00E-06,  avg # of iterations =  7.0

     negative rho (up, down):  8.943E-04 0.000E+00

     total cpu time spent up to now is      533.0 secs

     total energy              =    -449.71391621 Ry
     estimated scf accuracy    <       0.00020984 Ry

     iteration #  2     ecut=   124.00 Ry     beta= 0.70
     Davidson diagonalization with overlap
     ethr =  7.24E-07,  avg # of iterations =  4.2

     negative rho (up, down):  9.013E-04 0.000E+00

     total cpu time spent up to now is      540.0 secs

     total energy              =    -449.71303107 Ry
     estimated scf accuracy    <       0.01942529 Ry

     iteration #  3     ecut=   124.00 Ry     beta= 0.70
     Davidson diagonalization with overlap
     ethr =  7.24E-07,  avg # of iterations =  3.9

     negative rho (up, down):  9.019E-04 0.000E+00

     total cpu time spent up to now is      546.4 secs

     total energy              =    -449.71406239 Ry
     estimated scf accuracy    <       0.00001229 Ry

     iteration #  4     ecut=   124.00 Ry     beta= 0.70
     Davidson diagonalization with overlap
     ethr =  4.24E-08,  avg # of iterations =  2.9

     negative rho (up, down):  9.020E-04 0.000E+00

     total cpu time spent up to now is      551.9 secs

     total energy              =    -449.71406483 Ry
     estimated scf accuracy    <       0.00000069 Ry

     iteration #  5     ecut=   124.00 Ry     beta= 0.70
     Davidson diagonalization with overlap
     ethr =  2.40E-09,  avg # of iterations =  4.8

     negative rho (up, down):  9.019E-04 0.000E+00

     total cpu time spent up to now is      559.2 secs

     total energy              =    -449.71406524 Ry
     estimated scf accuracy    <       0.00000007 Ry

     iteration #  6     ecut=   124.00 Ry     beta= 0.70
     Davidson diagonalization with overlap
     ethr =  2.38E-10,  avg # of iterations =  2.2

     negative rho (up, down):  9.019E-04 0.000E+00

     total cpu time spent up to now is      564.4 secs

     total energy              =    -449.71406524 Ry
     estimated scf accuracy    <          8.7E-09 Ry

     iteration #  7     ecut=   124.00 Ry     beta= 0.70
     Davidson diagonalization with overlap
     ethr =  3.01E-11,  avg # of iterations =  3.8

     negative rho (up, down):  9.019E-04 0.000E+00

     total cpu time spent up to now is      570.9 secs

     total energy              =    -449.71406524 Ry
     estimated scf accuracy    <          2.5E-09 Ry

     iteration #  8     ecut=   124.00 Ry     beta= 0.70
     Davidson diagonalization with overlap
     ethr =  8.74E-12,  avg # of iterations =  2.4

     negative rho (up, down):  9.019E-04 0.000E+00

     total cpu time spent up to now is      576.0 secs

     End of self-consistent calculation

     Number of k-points >= 100: set verbosity='high' to print the bands.

     the Fermi energy is    18.4297 ev

!    total energy              =    -449.71406524 Ry
     estimated scf accuracy    <          7.4E-11 Ry
     smearing contrib. (-TS)   =      -0.00008627 Ry
     internal energy E=F+TS    =    -449.71397897 Ry

     The total energy is F=E-TS. E is the sum of the following terms:
     one-electron contribution =    -149.61202941 Ry
     hartree contribution      =      92.08865162 Ry
     xc contribution           =     -53.85605547 Ry
     ewald contribution        =    -262.18047766 Ry
     one-center paw contrib.   =     -76.15406805 Ry

     convergence has been achieved in   8 iterations

     negative rho (up, down):  9.019E-04 0.000E+00

     Forces acting on atoms (cartesian axes, Ry/au):

     atom    1 type  1   force =     0.00000000   -0.00111645    0.00000000
     atom    2 type  2   force =     0.00000000    0.00113115    0.00000000
     atom    3 type  3   force =     0.00000000   -0.00001470    0.00000000

     Total force =     0.001589     Total SCF correction =     0.000012


     Computing stress (Cartesian axis) and pressure


     negative rho (up, down):  9.019E-04 0.000E+00
          total   stress  (Ry/bohr**3)                   (kbar)     P=      272.52
   0.00333113   0.00000000   0.00000000          490.03        0.00        0.00
   0.00000000   0.00111295   0.00000000            0.00      163.72        0.00
   0.00000000   0.00000000   0.00111362            0.00        0.00      163.82

     Energy error            =      3.7E-05 Ry
     Gradient error          =      1.1E-03 Ry/Bohr

     number of scf cycles    =   9
     number of bfgs steps    =   8

     energy             old  =    -449.7140286390 Ry
     energy             new  =    -449.7140652388 Ry

     CASE: energy            _new < energy            _old

     new trust radius        =       0.0032660815 bohr
     new conv_thr            =            1.0E-10 Ry


ATOMIC_POSITIONS (crystal)
Fe               0.5000000000        0.5202932366        0.5000000000
Ti               0.0000000000       -0.0061366845        0.0000000000
H                0.0000000000        0.4025101146        0.5000000000



     Writing config-only to output data dir ./TiFe_H_faces_x_0.41667.save/ :
     XML data file     NEW-OLD atomic charge density approx. for the potential

     Check: negative core charge=   -0.000002

     negative rho (up, down):  9.011E-04 0.000E+00

     total cpu time spent up to now is      578.7 secs

     per-process dynamical memory:   172.0 Mb

     Self-consistent Calculation

     iteration #  1     ecut=   124.00 Ry     beta= 0.70
     Davidson diagonalization with overlap
     ethr =  1.00E-06,  avg # of iterations =  5.4

     Threshold (ethr) on eigenvalues was too large:
     Diagonalizing with lowered threshold

     Davidson diagonalization with overlap
     ethr =  1.77E-08,  avg # of iterations =  4.6

     negative rho (up, down):  9.016E-04 0.000E+00

     total cpu time spent up to now is      593.2 secs

     total energy              =    -449.71406848 Ry
     estimated scf accuracy    <       0.00000385 Ry

     iteration #  2     ecut=   124.00 Ry     beta= 0.70
     Davidson diagonalization with overlap
     ethr =  1.33E-08,  avg # of iterations =  2.0

     negative rho (up, down):  9.009E-04 0.000E+00

     total cpu time spent up to now is      598.4 secs

     total energy              =    -449.71406680 Ry
     estimated scf accuracy    <       0.00000815 Ry

     iteration #  3     ecut=   124.00 Ry     beta= 0.70
     Davidson diagonalization with overlap
     ethr =  1.33E-08,  avg # of iterations =  2.8

     negative rho (up, down):  9.012E-04 0.000E+00

     total cpu time spent up to now is      603.8 secs

     total energy              =    -449.71406517 Ry
     estimated scf accuracy    <       0.00008377 Ry

     iteration #  4     ecut=   124.00 Ry     beta= 0.70
     Davidson diagonalization with overlap
     ethr =  1.33E-08,  avg # of iterations =  2.5

     negative rho (up, down):  9.013E-04 0.000E+00

     total cpu time spent up to now is      609.0 secs

     total energy              =    -449.71406943 Ry
     estimated scf accuracy    <       0.00000003 Ry

     iteration #  5     ecut=   124.00 Ry     beta= 0.70
     Davidson diagonalization with overlap
     ethr =  1.03E-10,  avg # of iterations =  4.8

     negative rho (up, down):  9.013E-04 0.000E+00

     total cpu time spent up to now is      616.3 secs

     total energy              =    -449.71406945 Ry
     estimated scf accuracy    <       0.00000003 Ry

     iteration #  6     ecut=   124.00 Ry     beta= 0.70
     Davidson diagonalization with overlap
     ethr =  9.45E-11,  avg # of iterations =  1.2

     negative rho (up, down):  9.013E-04 0.000E+00

     total cpu time spent up to now is      620.7 secs

     total energy              =    -449.71406946 Ry
     estimated scf accuracy    <          9.1E-10 Ry

     iteration #  7     ecut=   124.00 Ry     beta= 0.70
     Davidson diagonalization with overlap
     ethr =  3.13E-12,  avg # of iterations =  4.1

     negative rho (up, down):  9.013E-04 0.000E+00

     total cpu time spent up to now is      627.0 secs

     End of self-consistent calculation

     Number of k-points >= 100: set verbosity='high' to print the bands.

     the Fermi energy is    18.4293 ev

!    total energy              =    -449.71406946 Ry
     estimated scf accuracy    <          7.2E-11 Ry
     smearing contrib. (-TS)   =      -0.00008722 Ry
     internal energy E=F+TS    =    -449.71398224 Ry

     The total energy is F=E-TS. E is the sum of the following terms:
     one-electron contribution =    -149.60691742 Ry
     hartree contribution      =      92.08555127 Ry
     xc contribution           =     -53.85605256 Ry
     ewald contribution        =    -262.18248525 Ry
     one-center paw contrib.   =     -76.15407827 Ry

     convergence has been achieved in   7 iterations

     negative rho (up, down):  9.013E-04 0.000E+00

     Forces acting on atoms (cartesian axes, Ry/au):

     atom    1 type  1   force =     0.00000000   -0.00041321    0.00000000
     atom    2 type  2   force =     0.00000000    0.00037339    0.00000000
     atom    3 type  3   force =     0.00000000    0.00003982    0.00000000

     Total force =     0.000558     Total SCF correction =     0.000009


     Computing stress (Cartesian axis) and pressure


     negative rho (up, down):  9.013E-04 0.000E+00
          total   stress  (Ry/bohr**3)                   (kbar)     P=      272.64
   0.00333636   0.00000000   0.00000000          490.80        0.00        0.00
   0.00000000   0.00111117   0.00000000            0.00      163.46        0.00
   0.00000000   0.00000000   0.00111254            0.00        0.00      163.66

     Energy error            =      4.2E-06 Ry
     Gradient error          =      4.1E-04 Ry/Bohr

     bfgs converged in  10 scf cycles and   9 bfgs steps
     (criteria: energy <  1.0E-04 Ry, force <  1.0E-03 Ry/Bohr)

     End of BFGS Geometry Optimization

     Final energy             =    -449.7140694555 Ry

     File ./TiFe_H_faces_x_0.41667.bfgs deleted, as requested
Begin final coordinates

ATOMIC_POSITIONS (crystal)
Fe               0.5000000000        0.5202932366        0.5000000000
Ti               0.0000000000       -0.0061366845        0.0000000000
H                0.0000000000        0.4025101146        0.5000000000
End final coordinates



     Writing all to output data dir ./TiFe_H_faces_x_0.41667.save/ :
     XML data file
     init_run     :      2.80s CPU      2.99s WALL (       1 calls)
     electrons    :    576.61s CPU    599.65s WALL (      10 calls)
     update_pot   :      0.54s CPU      0.65s WALL (       9 calls)
     forces       :      3.57s CPU      3.92s WALL (      10 calls)
     stress       :     17.30s CPU     18.33s WALL (      10 calls)

     Called by init_run:
     wfcinit      :      2.07s CPU      2.21s WALL (       1 calls)
     potinit      :      0.35s CPU      0.36s WALL (       1 calls)
     hinit0       :      0.22s CPU      0.23s WALL (       1 calls)

     Called by electrons:
     c_bands      :    498.04s CPU    512.64s WALL (      98 calls)
     sum_band     :     67.04s CPU     71.96s WALL (      98 calls)
     v_of_rho     :      1.30s CPU      1.46s WALL (     106 calls)
     newd         :      6.44s CPU      9.56s WALL (     106 calls)
     PAW_pot      :      5.11s CPU      5.69s WALL (     115 calls)
     mix_rho      :      0.14s CPU      0.16s WALL (      98 calls)

     Called by c_bands:
     init_us_2    :      9.81s CPU     10.14s WALL (  115712 calls)
     cegterg      :    481.10s CPU    495.18s WALL (   50176 calls)

     Called by *egterg:
     cdiaghg      :     80.88s CPU     83.03s WALL (  214612 calls)
     h_psi        :    338.48s CPU    349.01s WALL (  220756 calls)
     s_psi        :      7.30s CPU      7.56s WALL (  220756 calls)
     g_psi        :      1.69s CPU      1.73s WALL (  170068 calls)

     Called by h_psi:
     h_psi:calbec :     15.42s CPU     15.92s WALL (  220756 calls)
     vloc_psi     :    314.06s CPU    323.83s WALL (  220756 calls)
     add_vuspsi   :      7.52s CPU      7.79s WALL (  220756 calls)

     General routines
     calbec       :     26.45s CPU     27.29s WALL (  362580 calls)
     fft          :      1.07s CPU      1.29s WALL (    1619 calls)
     ffts         :      0.30s CPU      0.30s WALL (     204 calls)
     fftw         :    299.05s CPU    308.18s WALL ( 6267536 calls)
     interpolate  :      0.35s CPU      0.37s WALL (     106 calls)

     Parallel routines

     PWSCF        :    603.44s CPU    629.46s WALL


   This run was terminated on:  15:17:17  16Nov2025            

=------------------------------------------------------------------------------=
   JOB DONE.
=------------------------------------------------------------------------------=
