
     Program PWSCF v.7.4 starts on 12Nov2025 at 23:15:31 

     This program is part of the open-source Quantum ESPRESSO suite
     for quantum simulation of materials; please cite
         "P. Giannozzi et al., J. Phys.:Condens. Matter 21 395502 (2009);
         "P. Giannozzi et al., J. Phys.:Condens. Matter 29 465901 (2017);
         "P. Giannozzi et al., J. Chem. Phys. 152 154105 (2020);
          URL http://www.quantum-espresso.org", 
     in publications or presentations arising from this work. More details at
     http://www.quantum-espresso.org/quote

     Parallel version (MPI & OpenMP), running on      16 processor cores
     Number of MPI processes:                16
     Threads/MPI process:                     1

     MPI processes distributed on     1 nodes
     200059 MiB available memory on the printing compute node when the environment starts

     Reading input from TiFe_H_faces_y.in

     Current dimensions of program PWSCF are:
     Max number of different atomic species (ntypx) = 10
     Max number of k-points (npk) =  40000
     Max angular momentum in pseudopotentials (lmaxx) =  4
     file Fe.pbe-spn-kjpaw_psl.0.2.1.UPF: wavefunction(s)  3D renormalized

     IMPORTANT: XC functional enforced from input :
     Exchange-correlation= PBE
                           (   1   4   3   4   0   0   0)
     Any further DFT definition will be discarded
     Please, verify this is what you really want

     Message from routine setup:
     using ibrav=0 with symmetry is DISCOURAGED, use correct ibrav instead

     R & G space division:  proc/nbgrp/npool/nimage =      16
     Subspace diagonalization in iterative solution of the eigenvalue problem:
     a serial algorithm will be used


     Parallelization info
     --------------------
     sticks:   dense  smooth     PW     G-vecs:    dense   smooth      PW
     Min         269      76     22                13288     2024     320
     Max         271      77     23                13289     2027     323
     Sum        4309    1225    357               212623    32423    5137

     Using Slab Decomposition



     bravais-lattice index     =            0
     lattice parameter (alat)  =       5.5824  a.u.
     unit-cell volume          =     173.9675 (a.u.)^3
     number of atoms/cell      =            3
     number of atomic types    =            3
     number of electrons       =        29.00
     number of Kohn-Sham states=           19
     kinetic-energy cutoff     =     124.0000  Ry
     charge density cutoff     =    1736.0000  Ry
     scf convergence threshold =      1.0E-08
     mixing beta               =       0.7000
     number of iterations used =            8  plain     mixing
     energy convergence thresh.=      1.0E-04
     force convergence thresh. =      1.0E-03
     press convergence thresh. =      1.0E-01
     Exchange-correlation= PBE
                           (   1   4   3   4   0   0   0)
     nstep                     =           50


     celldm(1)=   5.582423  celldm(2)=   0.000000  celldm(3)=   0.000000
     celldm(4)=   0.000000  celldm(5)=   0.000000  celldm(6)=   0.000000

     crystal axes: (cart. coord. in units of alat)
               a(1) = (   1.000000   0.000000   0.000000 )  
               a(2) = (   0.000000   1.000000   0.000000 )  
               a(3) = (   0.000000   0.000000   1.000000 )  

     reciprocal axes: (cart. coord. in units 2 pi/alat)
               b(1) = (  1.000000  0.000000  0.000000 )  
               b(2) = (  0.000000  1.000000  0.000000 )  
               b(3) = (  0.000000  0.000000  1.000000 )  


     PseudoPot. # 1 for Fe read from file:
     ../../pseudos/Fe.pbe-spn-kjpaw_psl.0.2.1.UPF
     MD5 check sum: e86618425769142926afa95317d90200
     Pseudo is Projector augmented-wave + core cor, Zval = 16.0
     Generated using "atomic" code by A. Dal Corso  v.5.0.99 svn rev. 10869
     Shape of augmentation charge: PSQ
     Using radial grid of 1191 points,  6 beta functions with: 
                l(1) =   0
                l(2) =   0
                l(3) =   1
                l(4) =   1
                l(5) =   2
                l(6) =   2
     Q(r) pseudized with 0 coefficients 


     PseudoPot. # 2 for Ti read from file:
     ../../pseudos/ti_pbe_v1.4.uspp.F.UPF
     MD5 check sum: 88a00a6731bd790ddea75d31a80cb452
     Pseudo is Ultrasoft + core correction, Zval = 12.0
     Generated by new atomic code, or converted to UPF format
     Using radial grid of  851 points,  6 beta functions with: 
                l(1) =   0
                l(2) =   0
                l(3) =   1
                l(4) =   1
                l(5) =   2
                l(6) =   2
     Q(r) pseudized with  6 coefficients,  rinner =    1.000   1.000   1.000
                                                       1.000   1.000

     PseudoPot. # 3 for H  read from file:
     ../../pseudos/H.pbe-rrkjus_psl.1.0.0.UPF
     MD5 check sum: f52b6d4d1c606e5624b1dc7b2218f220
     Pseudo is Ultrasoft, Zval =  1.0
     Generated using "atomic" code by A. Dal Corso  v.5.1
     Using radial grid of  929 points,  2 beta functions with: 
                l(1) =   0
                l(2) =   0
     Q(r) pseudized with 0 coefficients 


     atomic species   valence    mass     pseudopotential
     Fe               16.00    55.84500     Fe( 1.00)
     Ti               12.00    47.86700     Ti( 1.00)
     H                 1.00     1.00750     H ( 1.00)

     16 Sym. Ops., with inversion, found



   Cartesian axes

     site n.     atom                  positions (alat units)
         1        Fe     tau(   1) = (   0.5000000   0.5000000   0.5000000  )
         2        Ti     tau(   2) = (   0.0000000   0.0000000   0.0000000  )
         3        H      tau(   3) = (   0.5000000   0.0000000   0.5000000  )

     number of k points=   288  Marzari-Vanderbilt smearing, width (Ry)=  0.0050

     Number of k-points >= 100: set verbosity='high' to print them.

     Dense  grid:   212623 G-vectors     FFT dimensions: (  75,  75,  75)

     Smooth grid:    32423 G-vectors     FFT dimensions: (  40,  40,  40)

     Estimated max dynamical RAM per process >      90.33 MB

     Estimated total dynamical RAM >       1.41 GB

     Check: negative core charge=   -0.000001

     Initial potential from superposition of free atoms

     starting charge      27.9995, renormalised to      29.0000

     negative rho (up, down):  1.342E-03 0.000E+00
     Starting wfcs are   24 randomized atomic wfcs
     Checking if some PAW data can be deallocated... 

     total cpu time spent up to now is        2.3 secs

     per-process dynamical memory:   160.1 Mb

     Self-consistent Calculation

     iteration #  1     ecut=   124.00 Ry     beta= 0.70
     Davidson diagonalization with overlap
     ethr =  1.00E-02,  avg # of iterations =  2.1

     negative rho (up, down):  1.675E-05 0.000E+00

     total cpu time spent up to now is        5.3 secs

     total energy              =    -438.28423779 Ry
     estimated scf accuracy    <      14.59146971 Ry

     iteration #  2     ecut=   124.00 Ry     beta= 0.70
     Davidson diagonalization with overlap
     ethr =  1.00E-02,  avg # of iterations =  5.9

     negative rho (up, down):  7.786E-05 0.000E+00

     total cpu time spent up to now is       10.5 secs

     total energy              =    -449.74003433 Ry
     estimated scf accuracy    <      57.31133539 Ry

     iteration #  3     ecut=   124.00 Ry     beta= 0.70
     Davidson diagonalization with overlap
     ethr =  1.00E-02,  avg # of iterations =  2.9

     negative rho (up, down):  3.166E-04 0.000E+00

     total cpu time spent up to now is       14.1 secs

     total energy              =    -449.69388714 Ry
     estimated scf accuracy    <      14.57232857 Ry

     iteration #  4     ecut=   124.00 Ry     beta= 0.70
     Davidson diagonalization with overlap
     ethr =  1.00E-02,  avg # of iterations =  2.6

     negative rho (up, down):  3.057E-04 0.000E+00

     total cpu time spent up to now is       17.1 secs

     total energy              =    -450.20834754 Ry
     estimated scf accuracy    <       3.98866381 Ry

     iteration #  5     ecut=   124.00 Ry     beta= 0.70
     Davidson diagonalization with overlap
     ethr =  1.00E-02,  avg # of iterations =  1.0

     negative rho (up, down):  4.829E-04 0.000E+00

     total cpu time spent up to now is       19.5 secs

     total energy              =    -449.65707685 Ry
     estimated scf accuracy    <       3.77181487 Ry

     iteration #  6     ecut=   124.00 Ry     beta= 0.70
     Davidson diagonalization with overlap
     ethr =  1.00E-02,  avg # of iterations =  1.6

     negative rho (up, down):  5.708E-04 0.000E+00

     total cpu time spent up to now is       22.0 secs

     total energy              =    -449.77330284 Ry
     estimated scf accuracy    <       0.63057652 Ry

     iteration #  7     ecut=   124.00 Ry     beta= 0.70
     Davidson diagonalization with overlap
     ethr =  2.17E-03,  avg # of iterations =  2.3

     negative rho (up, down):  8.688E-04 0.000E+00

     total cpu time spent up to now is       24.6 secs

     total energy              =    -449.72381808 Ry
     estimated scf accuracy    <       0.30540892 Ry

     iteration #  8     ecut=   124.00 Ry     beta= 0.70
     Davidson diagonalization with overlap
     ethr =  1.05E-03,  avg # of iterations =  2.4

     negative rho (up, down):  1.114E-03 0.000E+00

     total cpu time spent up to now is       27.5 secs

     total energy              =    -449.66473357 Ry
     estimated scf accuracy    <       0.25755871 Ry

     iteration #  9     ecut=   124.00 Ry     beta= 0.70
     Davidson diagonalization with overlap
     ethr =  8.88E-04,  avg # of iterations =  3.5

     negative rho (up, down):  1.102E-03 0.000E+00

     total cpu time spent up to now is       30.6 secs

     total energy              =    -449.77574028 Ry
     estimated scf accuracy    <       1.10620822 Ry

     iteration # 10     ecut=   124.00 Ry     beta= 0.70
     Davidson diagonalization with overlap
     ethr =  8.88E-04,  avg # of iterations =  1.1

     negative rho (up, down):  1.354E-03 0.000E+00

     total cpu time spent up to now is       33.1 secs

     total energy              =    -449.89450417 Ry
     estimated scf accuracy    <       1.03876000 Ry

     iteration # 11     ecut=   124.00 Ry     beta= 0.70
     Davidson diagonalization with overlap
     ethr =  8.88E-04,  avg # of iterations =  2.4

     negative rho (up, down):  1.350E-03 0.000E+00

     total cpu time spent up to now is       35.8 secs

     total energy              =    -449.91650377 Ry
     estimated scf accuracy    <       5.45175653 Ry

     iteration # 12     ecut=   124.00 Ry     beta= 0.70
     Davidson diagonalization with overlap
     ethr =  8.88E-04,  avg # of iterations =  1.0

     negative rho (up, down):  1.190E-03 0.000E+00

     total cpu time spent up to now is       38.2 secs

     total energy              =    -449.84240489 Ry
     estimated scf accuracy    <       4.11007145 Ry

     iteration # 13     ecut=   124.00 Ry     beta= 0.70
     Davidson diagonalization with overlap
     ethr =  8.88E-04,  avg # of iterations =  1.0

     negative rho (up, down):  6.604E-04 0.000E+00

     total cpu time spent up to now is       40.6 secs

     total energy              =    -449.47455816 Ry
     estimated scf accuracy    <       2.80016579 Ry

     iteration # 14     ecut=   124.00 Ry     beta= 0.70
     Davidson diagonalization with overlap
     ethr =  8.88E-04,  avg # of iterations =  3.3

     negative rho (up, down):  6.794E-04 0.000E+00

     total cpu time spent up to now is       43.7 secs

     total energy              =    -449.72078150 Ry
     estimated scf accuracy    <       0.19784914 Ry

     iteration # 15     ecut=   124.00 Ry     beta= 0.70
     Davidson diagonalization with overlap
     ethr =  6.82E-04,  avg # of iterations =  1.0

     negative rho (up, down):  7.175E-04 0.000E+00

     total cpu time spent up to now is       46.1 secs

     total energy              =    -449.72208253 Ry
     estimated scf accuracy    <       0.10789573 Ry

     iteration # 16     ecut=   124.00 Ry     beta= 0.70
     Davidson diagonalization with overlap
     ethr =  3.72E-04,  avg # of iterations =  1.0

     negative rho (up, down):  7.647E-04 0.000E+00

     total cpu time spent up to now is       48.5 secs

     total energy              =    -449.71778525 Ry
     estimated scf accuracy    <       0.10511697 Ry

     iteration # 17     ecut=   124.00 Ry     beta= 0.70
     Davidson diagonalization with overlap
     ethr =  3.62E-04,  avg # of iterations =  1.0

     negative rho (up, down):  8.227E-04 0.000E+00

     total cpu time spent up to now is       50.9 secs

     total energy              =    -449.71393452 Ry
     estimated scf accuracy    <       0.06647621 Ry

     iteration # 18     ecut=   124.00 Ry     beta= 0.70
     Davidson diagonalization with overlap
     ethr =  2.29E-04,  avg # of iterations =  1.0

     negative rho (up, down):  8.256E-04 0.000E+00

     total cpu time spent up to now is       53.3 secs

     total energy              =    -449.71405063 Ry
     estimated scf accuracy    <       0.03135134 Ry

     iteration # 19     ecut=   124.00 Ry     beta= 0.70
     Davidson diagonalization with overlap
     ethr =  1.08E-04,  avg # of iterations =  1.0

     negative rho (up, down):  9.187E-04 0.000E+00

     total cpu time spent up to now is       55.7 secs

     total energy              =    -449.71003085 Ry
     estimated scf accuracy    <       0.02514375 Ry

     iteration # 20     ecut=   124.00 Ry     beta= 0.70
     Davidson diagonalization with overlap
     ethr =  8.67E-05,  avg # of iterations =  1.3

     negative rho (up, down):  9.362E-04 0.000E+00

     total cpu time spent up to now is       58.1 secs

     total energy              =    -449.71164449 Ry
     estimated scf accuracy    <       0.00018009 Ry

     iteration # 21     ecut=   124.00 Ry     beta= 0.70
     Davidson diagonalization with overlap
     ethr =  6.21E-07,  avg # of iterations =  6.1

     negative rho (up, down):  9.363E-04 0.000E+00

     total cpu time spent up to now is       63.1 secs

     total energy              =    -449.71192311 Ry
     estimated scf accuracy    <       0.00056802 Ry

     iteration # 22     ecut=   124.00 Ry     beta= 0.70
     Davidson diagonalization with overlap
     ethr =  6.21E-07,  avg # of iterations =  1.0

     negative rho (up, down):  9.286E-04 0.000E+00

     total cpu time spent up to now is       65.5 secs

     total energy              =    -449.71187035 Ry
     estimated scf accuracy    <       0.00033469 Ry

     iteration # 23     ecut=   124.00 Ry     beta= 0.70
     Davidson diagonalization with overlap
     ethr =  6.21E-07,  avg # of iterations =  1.5

     negative rho (up, down):  9.297E-04 0.000E+00

     total cpu time spent up to now is       68.0 secs

     total energy              =    -449.71189311 Ry
     estimated scf accuracy    <       0.00000862 Ry

     iteration # 24     ecut=   124.00 Ry     beta= 0.70
     Davidson diagonalization with overlap
     ethr =  2.97E-08,  avg # of iterations =  2.8

     negative rho (up, down):  9.298E-04 0.000E+00

     total cpu time spent up to now is       70.8 secs

     total energy              =    -449.71189409 Ry
     estimated scf accuracy    <       0.00000586 Ry

     iteration # 25     ecut=   124.00 Ry     beta= 0.70
     Davidson diagonalization with overlap
     ethr =  2.02E-08,  avg # of iterations =  1.0

     negative rho (up, down):  9.298E-04 0.000E+00

     total cpu time spent up to now is       73.2 secs

     total energy              =    -449.71189358 Ry
     estimated scf accuracy    <       0.00000589 Ry

     iteration # 26     ecut=   124.00 Ry     beta= 0.70
     Davidson diagonalization with overlap
     ethr =  2.02E-08,  avg # of iterations =  1.0

     negative rho (up, down):  9.296E-04 0.000E+00

     total cpu time spent up to now is       75.6 secs

     total energy              =    -449.71189294 Ry
     estimated scf accuracy    <       0.00000254 Ry

     iteration # 27     ecut=   124.00 Ry     beta= 0.70
     Davidson diagonalization with overlap
     ethr =  8.77E-09,  avg # of iterations =  2.2

     negative rho (up, down):  9.295E-04 0.000E+00

     total cpu time spent up to now is       78.3 secs

     total energy              =    -449.71189322 Ry
     estimated scf accuracy    <       0.00000005 Ry

     iteration # 28     ecut=   124.00 Ry     beta= 0.70
     Davidson diagonalization with overlap
     ethr =  1.77E-10,  avg # of iterations =  5.1

     negative rho (up, down):  9.295E-04 0.000E+00

     total cpu time spent up to now is       82.6 secs

     total energy              =    -449.71189327 Ry
     estimated scf accuracy    <       0.00000002 Ry

     iteration # 29     ecut=   124.00 Ry     beta= 0.70
     Davidson diagonalization with overlap
     ethr =  5.94E-11,  avg # of iterations =  1.9

     negative rho (up, down):  9.296E-04 0.000E+00

     total cpu time spent up to now is       85.2 secs

     End of self-consistent calculation

     Number of k-points >= 100: set verbosity='high' to print the bands.

     the Fermi energy is    18.4341 ev

!    total energy              =    -449.71189327 Ry
     estimated scf accuracy    <          2.6E-09 Ry
     smearing contrib. (-TS)   =      -0.00012957 Ry
     internal energy E=F+TS    =    -449.71176370 Ry

     The total energy is F=E-TS. E is the sum of the following terms:
     one-electron contribution =    -149.88983514 Ry
     hartree contribution      =      92.22463309 Ry
     xc contribution           =     -53.86429128 Ry
     ewald contribution        =    -262.02782464 Ry
     one-center paw contrib.   =     -76.15444572 Ry

     convergence has been achieved in  29 iterations

     negative rho (up, down):  9.296E-04 0.000E+00

     Forces acting on atoms (cartesian axes, Ry/au):

     atom    1 type  1   force =     0.00000000    0.00000000    0.00000000
     atom    2 type  2   force =     0.00000000    0.00000000    0.00000000
     atom    3 type  3   force =     0.00000000    0.00000000    0.00000000

     Total force =     0.000000     Total SCF correction =     0.000000


     Computing stress (Cartesian axis) and pressure


     negative rho (up, down):  9.296E-04 0.000E+00
          total   stress  (Ry/bohr**3)                   (kbar)     P=      281.83
   0.00079673   0.00000000   0.00000000          117.20        0.00        0.00
   0.00000000   0.00415398   0.00000000            0.00      611.07        0.00
   0.00000000   0.00000000   0.00079673            0.00        0.00      117.20


     BFGS Geometry Optimization
     Energy error            =      7.3E-02 Ry
     Gradient error          =      0.0E+00 Ry/Bohr
     Cell gradient error     =      6.1E+02 kbar

     number of scf cycles    =   1
     number of bfgs steps    =   0

     enthalpy           new  =    -449.7118932696 Ry

     new trust radius        =       0.2739479329 bohr
     new conv_thr            =       0.0000000100 Ry

     new unit-cell volume =    199.76003 a.u.^3 (    29.60138 Ang^3 )
     density =      5.87442 g/cm^3

CELL_PARAMETERS (alat=  5.58242261)
   1.019918139   0.000000000   0.000000000
   0.000000000   1.103849394   0.000000000
   0.000000000   0.000000000   1.019918139

ATOMIC_POSITIONS (crystal)
Fe               0.5000000000        0.5000000000        0.5000000000
Ti               0.0000000000        0.0000000000        0.0000000000
H                0.5000000000        0.0000000000        0.5000000000



     Writing config-only to output data dir ./TiFe_H_faces_y.save/ :
     XML data file     NEW-OLD atomic charge density approx. for the potential
     New effective cutoffs (rho, wfc): 1668.42  119.19

     Check: negative core charge=   -0.000001

     negative rho (up, down):  1.018E-03 0.000E+00

     total cpu time spent up to now is       87.1 secs

     per-process dynamical memory:   168.6 Mb

     Self-consistent Calculation

     iteration #  1     ecut=   124.00 Ry     beta= 0.70
     Davidson diagonalization with overlap
     c_bands:  1 eigenvalues not converged
     c_bands:  1 eigenvalues not converged
     ethr =  1.00E-06,  avg # of iterations = 12.6

     negative rho (up, down):  8.744E-04 0.000E+00

     total cpu time spent up to now is       97.6 secs

     total energy              =    -449.74340863 Ry
     estimated scf accuracy    <       0.00730047 Ry

     iteration #  2     ecut=   124.00 Ry     beta= 0.70
     Davidson diagonalization with overlap
     ethr =  2.52E-05,  avg # of iterations =  5.0

     negative rho (up, down):  9.136E-04 0.000E+00

     total cpu time spent up to now is      101.6 secs

     total energy              =    -449.72429924 Ry
     estimated scf accuracy    <       0.40180741 Ry

     iteration #  3     ecut=   124.00 Ry     beta= 0.70
     Davidson diagonalization with overlap
     ethr =  2.52E-05,  avg # of iterations =  4.1

     negative rho (up, down):  9.425E-04 0.000E+00

     total cpu time spent up to now is      105.2 secs

     total energy              =    -449.74702365 Ry
     estimated scf accuracy    <       0.00815065 Ry

     iteration #  4     ecut=   124.00 Ry     beta= 0.70
     Davidson diagonalization with overlap
     ethr =  2.52E-05,  avg # of iterations =  2.0

     negative rho (up, down):  9.433E-04 0.000E+00

     total cpu time spent up to now is      108.0 secs

     total energy              =    -449.74805164 Ry
     estimated scf accuracy    <       0.00013493 Ry

     iteration #  5     ecut=   124.00 Ry     beta= 0.70
     Davidson diagonalization with overlap
     ethr =  4.65E-07,  avg # of iterations =  4.6

     negative rho (up, down):  9.338E-04 0.000E+00

     total cpu time spent up to now is      111.6 secs

     total energy              =    -449.74809948 Ry
     estimated scf accuracy    <       0.00006787 Ry

     iteration #  6     ecut=   124.00 Ry     beta= 0.70
     Davidson diagonalization with overlap
     ethr =  2.34E-07,  avg # of iterations =  2.7

     negative rho (up, down):  9.325E-04 0.000E+00

     total cpu time spent up to now is      114.6 secs

     total energy              =    -449.74811515 Ry
     estimated scf accuracy    <       0.00000084 Ry

     iteration #  7     ecut=   124.00 Ry     beta= 0.70
     Davidson diagonalization with overlap
     ethr =  2.90E-09,  avg # of iterations =  5.4

     negative rho (up, down):  9.331E-04 0.000E+00

     total cpu time spent up to now is      118.9 secs

     total energy              =    -449.74811577 Ry
     estimated scf accuracy    <       0.00000094 Ry

     iteration #  8     ecut=   124.00 Ry     beta= 0.70
     Davidson diagonalization with overlap
     ethr =  2.90E-09,  avg # of iterations =  2.0

     negative rho (up, down):  9.333E-04 0.000E+00

     total cpu time spent up to now is      121.7 secs

     total energy              =    -449.74811587 Ry
     estimated scf accuracy    <       0.00000005 Ry

     iteration #  9     ecut=   124.00 Ry     beta= 0.70
     Davidson diagonalization with overlap
     ethr =  1.57E-10,  avg # of iterations =  4.2

     negative rho (up, down):  9.332E-04 0.000E+00

     total cpu time spent up to now is      125.4 secs

     total energy              =    -449.74811589 Ry
     estimated scf accuracy    <       0.00000001 Ry

     iteration # 10     ecut=   124.00 Ry     beta= 0.70
     Davidson diagonalization with overlap
     ethr =  4.78E-11,  avg # of iterations =  2.5

     negative rho (up, down):  9.332E-04 0.000E+00

     total cpu time spent up to now is      128.3 secs

     End of self-consistent calculation

     Number of k-points >= 100: set verbosity='high' to print the bands.

     the Fermi energy is    15.5732 ev

!    total energy              =    -449.74811589 Ry
     estimated scf accuracy    <          1.8E-11 Ry
     smearing contrib. (-TS)   =      -0.00007076 Ry
     internal energy E=F+TS    =    -449.74804513 Ry

     The total energy is F=E-TS. E is the sum of the following terms:
     one-electron contribution =    -167.28370197 Ry
     hartree contribution      =      97.97058168 Ry
     xc contribution           =     -53.56361310 Ry
     ewald contribution        =    -250.71998044 Ry
     one-center paw contrib.   =     -76.15133131 Ry

     convergence has been achieved in  10 iterations

     negative rho (up, down):  9.332E-04 0.000E+00

     Forces acting on atoms (cartesian axes, Ry/au):

     atom    1 type  1   force =     0.00000000    0.00000000    0.00000000
     atom    2 type  2   force =     0.00000000    0.00000000    0.00000000
     atom    3 type  3   force =     0.00000000    0.00000000    0.00000000

     Total force =     0.000000     Total SCF correction =     0.000000


     Computing stress (Cartesian axis) and pressure


     negative rho (up, down):  9.332E-04 0.000E+00
          total   stress  (Ry/bohr**3)                   (kbar)     P=      -60.95
  -0.00071356   0.00000000   0.00000000         -104.97        0.00        0.00
   0.00000000   0.00018407   0.00000000            0.00       27.08        0.00
   0.00000000   0.00000000  -0.00071356            0.00        0.00     -104.97

     Energy error            =      3.6E-02 Ry
     Gradient error          =      0.0E+00 Ry/Bohr
     Cell gradient error     =      1.0E+02 kbar

     number of scf cycles    =   2
     number of bfgs steps    =   1

     enthalpy           old  =    -449.7118932696 Ry
     enthalpy           new  =    -449.7481158943 Ry

     CASE: enthalpy          _new < enthalpy          _old

     new trust radius        =       0.0505229119 bohr
     new conv_thr            =            1.0E-10 Ry

     new unit-cell volume =    194.71910 a.u.^3 (    28.85439 Ang^3 )
     density =      6.02649 g/cm^3

CELL_PARAMETERS (alat=  5.58242261)
   1.001688864   0.000000000   0.000000000
   0.000000000   1.115513260   0.000000000
   0.000000000   0.000000000   1.001688864

ATOMIC_POSITIONS (crystal)
Fe               0.5000000000        0.5000000000        0.5000000000
Ti               0.0000000000        0.0000000000        0.0000000000
H                0.5000000000        0.0000000000        0.5000000000



     Writing config-only to output data dir ./TiFe_H_faces_y.save/ :
     XML data file     NEW-OLD atomic charge density approx. for the potential
     New effective cutoffs (rho, wfc): 1729.69  123.57

     Check: negative core charge=   -0.000002

     negative rho (up, down):  9.147E-04 0.000E+00

     total cpu time spent up to now is      130.2 secs

     per-process dynamical memory:   168.3 Mb

     Self-consistent Calculation

     iteration #  1     ecut=   124.00 Ry     beta= 0.70
     Davidson diagonalization with overlap
     ethr =  1.00E-06,  avg # of iterations =  8.3

     negative rho (up, down):  9.039E-04 0.000E+00

     total cpu time spent up to now is      137.4 secs

     total energy              =    -449.75073598 Ry
     estimated scf accuracy    <       0.00144174 Ry

     iteration #  2     ecut=   124.00 Ry     beta= 0.70
     Davidson diagonalization with overlap
     ethr =  4.97E-06,  avg # of iterations =  5.0

     negative rho (up, down):  9.245E-04 0.000E+00

     total cpu time spent up to now is      141.5 secs

     total energy              =    -449.74348334 Ry
     estimated scf accuracy    <       0.15892102 Ry

     iteration #  3     ecut=   124.00 Ry     beta= 0.70
     Davidson diagonalization with overlap
     ethr =  4.97E-06,  avg # of iterations =  4.7

     negative rho (up, down):  9.289E-04 0.000E+00

     total cpu time spent up to now is      145.4 secs

     total energy              =    -449.75207648 Ry
     estimated scf accuracy    <       0.00022802 Ry

     iteration #  4     ecut=   124.00 Ry     beta= 0.70
     Davidson diagonalization with overlap
     ethr =  7.86E-07,  avg # of iterations =  1.6

     negative rho (up, down):  9.291E-04 0.000E+00

     total cpu time spent up to now is      147.9 secs

     total energy              =    -449.75209372 Ry
     estimated scf accuracy    <       0.00001814 Ry

     iteration #  5     ecut=   124.00 Ry     beta= 0.70
     Davidson diagonalization with overlap
     ethr =  6.26E-08,  avg # of iterations =  4.5

     negative rho (up, down):  9.296E-04 0.000E+00

     total cpu time spent up to now is      151.4 secs

     total energy              =    -449.75209922 Ry
     estimated scf accuracy    <       0.00000223 Ry

     iteration #  6     ecut=   124.00 Ry     beta= 0.70
     Davidson diagonalization with overlap
     ethr =  7.69E-09,  avg # of iterations =  2.7

     negative rho (up, down):  9.297E-04 0.000E+00

     total cpu time spent up to now is      154.4 secs

     total energy              =    -449.75209944 Ry
     estimated scf accuracy    <       0.00000048 Ry

     iteration #  7     ecut=   124.00 Ry     beta= 0.70
     Davidson diagonalization with overlap
     ethr =  1.64E-09,  avg # of iterations =  2.1

     negative rho (up, down):  9.299E-04 0.000E+00

     total cpu time spent up to now is      157.2 secs

     total energy              =    -449.75209951 Ry
     estimated scf accuracy    <       0.00000005 Ry

     iteration #  8     ecut=   124.00 Ry     beta= 0.70
     Davidson diagonalization with overlap
     ethr =  1.78E-10,  avg # of iterations =  4.8

     negative rho (up, down):  9.299E-04 0.000E+00

     total cpu time spent up to now is      160.9 secs

     total energy              =    -449.75209953 Ry
     estimated scf accuracy    <       0.00000001 Ry

     iteration #  9     ecut=   124.00 Ry     beta= 0.70
     Davidson diagonalization with overlap
     ethr =  3.79E-11,  avg # of iterations =  2.2

     negative rho (up, down):  9.299E-04 0.000E+00

     total cpu time spent up to now is      163.8 secs

     total energy              =    -449.75209953 Ry
     estimated scf accuracy    <          1.1E-10 Ry

     iteration # 10     ecut=   124.00 Ry     beta= 0.70
     Davidson diagonalization with overlap
     ethr =  3.65E-13,  avg # of iterations =  6.3

     negative rho (up, down):  9.299E-04 0.000E+00

     total cpu time spent up to now is      168.4 secs

     total energy              =    -449.75209953 Ry
     estimated scf accuracy    <          1.3E-10 Ry

     iteration # 11     ecut=   124.00 Ry     beta= 0.70
     Davidson diagonalization with overlap
     ethr =  3.65E-13,  avg # of iterations =  2.0

     negative rho (up, down):  9.299E-04 0.000E+00

     total cpu time spent up to now is      171.2 secs

     End of self-consistent calculation

     Number of k-points >= 100: set verbosity='high' to print the bands.

     the Fermi energy is    15.9662 ev

!    total energy              =    -449.75209953 Ry
     estimated scf accuracy    <          1.4E-12 Ry
     smearing contrib. (-TS)   =      -0.00001838 Ry
     internal energy E=F+TS    =    -449.75208116 Ry

     The total energy is F=E-TS. E is the sum of the following terms:
     one-electron contribution =    -163.67755548 Ry
     hartree contribution      =      96.68879738 Ry
     xc contribution           =     -53.60323167 Ry
     ewald contribution        =    -253.00817778 Ry
     one-center paw contrib.   =     -76.15191360 Ry

     convergence has been achieved in  11 iterations

     negative rho (up, down):  9.299E-04 0.000E+00

     Forces acting on atoms (cartesian axes, Ry/au):

     atom    1 type  1   force =     0.00000000    0.00000000    0.00000000
     atom    2 type  2   force =     0.00000000    0.00000000    0.00000000
     atom    3 type  3   force =     0.00000000    0.00000000    0.00000000

     Total force =     0.000000     Total SCF correction =     0.000000


     Computing stress (Cartesian axis) and pressure


     negative rho (up, down):  9.299E-04 0.000E+00
          total   stress  (Ry/bohr**3)                   (kbar)     P=      -26.10
  -0.00032386   0.00000000   0.00000000          -47.64        0.00        0.00
   0.00000000   0.00011552   0.00000000            0.00       16.99        0.00
   0.00000000   0.00000000  -0.00032386            0.00        0.00      -47.64

     Energy error            =      4.0E-03 Ry
     Gradient error          =      0.0E+00 Ry/Bohr
     Cell gradient error     =      4.8E+01 kbar

     number of scf cycles    =   3
     number of bfgs steps    =   2

     enthalpy           old  =    -449.7481158943 Ry
     enthalpy           new  =    -449.7520995347 Ry

     CASE: enthalpy          _new < enthalpy          _old

     new trust radius        =       0.0431815400 bohr
     new conv_thr            =            1.0E-10 Ry

     new unit-cell volume =    190.66804 a.u.^3 (    28.25409 Ang^3 )
     density =      6.15454 g/cm^3

CELL_PARAMETERS (alat=  5.58242261)
   0.986190113   0.000000000   0.000000000
   0.000000000   1.126908073   0.000000000
   0.000000000   0.000000000   0.986190113

ATOMIC_POSITIONS (crystal)
Fe               0.5000000000        0.5000000000        0.5000000000
Ti               0.0000000000        0.0000000000        0.0000000000
H                0.5000000000        0.0000000000        0.5000000000



     Writing config-only to output data dir ./TiFe_H_faces_y.save/ :
     XML data file     NEW-OLD atomic charge density approx. for the potential
     New effective cutoffs (rho, wfc): 1784.49  127.49

     Check: negative core charge=   -0.000002

     negative rho (up, down):  9.132E-04 0.000E+00

     total cpu time spent up to now is      173.1 secs

     per-process dynamical memory:   168.3 Mb

     Self-consistent Calculation

     iteration #  1     ecut=   124.00 Ry     beta= 0.70
     Davidson diagonalization with overlap
     ethr =  1.00E-06,  avg # of iterations =  7.5

     negative rho (up, down):  8.974E-04 0.000E+00

     total cpu time spent up to now is      179.9 secs

     total energy              =    -449.75167082 Ry
     estimated scf accuracy    <       0.00147181 Ry

     iteration #  2     ecut=   124.00 Ry     beta= 0.70
     Davidson diagonalization with overlap
     ethr =  5.08E-06,  avg # of iterations =  5.1

     negative rho (up, down):  9.182E-04 0.000E+00

     total cpu time spent up to now is      184.1 secs

     total energy              =    -449.74428011 Ry
     estimated scf accuracy    <       0.16029429 Ry

     iteration #  3     ecut=   124.00 Ry     beta= 0.70
     Davidson diagonalization with overlap
     ethr =  5.08E-06,  avg # of iterations =  4.7

     negative rho (up, down):  9.234E-04 0.000E+00

     total cpu time spent up to now is      188.0 secs

     total energy              =    -449.75308713 Ry
     estimated scf accuracy    <       0.00016901 Ry

     iteration #  4     ecut=   124.00 Ry     beta= 0.70
     Davidson diagonalization with overlap
     ethr =  5.83E-07,  avg # of iterations =  2.2

     negative rho (up, down):  9.232E-04 0.000E+00

     total cpu time spent up to now is      190.6 secs

     total energy              =    -449.75310447 Ry
     estimated scf accuracy    <       0.00002332 Ry

     iteration #  5     ecut=   124.00 Ry     beta= 0.70
     Davidson diagonalization with overlap
     ethr =  8.04E-08,  avg # of iterations =  4.0

     negative rho (up, down):  9.237E-04 0.000E+00

     total cpu time spent up to now is      193.8 secs

     total energy              =    -449.75310925 Ry
     estimated scf accuracy    <       0.00000217 Ry

     iteration #  6     ecut=   124.00 Ry     beta= 0.70
     Davidson diagonalization with overlap
     ethr =  7.47E-09,  avg # of iterations =  3.8

     negative rho (up, down):  9.237E-04 0.000E+00

     total cpu time spent up to now is      197.2 secs

     total energy              =    -449.75310980 Ry
     estimated scf accuracy    <       0.00000031 Ry

     iteration #  7     ecut=   124.00 Ry     beta= 0.70
     Davidson diagonalization with overlap
     ethr =  1.06E-09,  avg # of iterations =  2.8

     negative rho (up, down):  9.238E-04 0.000E+00

     total cpu time spent up to now is      200.1 secs

     total energy              =    -449.75310985 Ry
     estimated scf accuracy    <       0.00000002 Ry

     iteration #  8     ecut=   124.00 Ry     beta= 0.70
     Davidson diagonalization with overlap
     ethr =  5.75E-11,  avg # of iterations =  4.8

     negative rho (up, down):  9.238E-04 0.000E+00

     total cpu time spent up to now is      203.9 secs

     total energy              =    -449.75310986 Ry
     estimated scf accuracy    <          7.4E-09 Ry

     iteration #  9     ecut=   124.00 Ry     beta= 0.70
     Davidson diagonalization with overlap
     ethr =  2.54E-11,  avg # of iterations =  2.1

     negative rho (up, down):  9.238E-04 0.000E+00

     total cpu time spent up to now is      206.7 secs

     total energy              =    -449.75310986 Ry
     estimated scf accuracy    <          1.4E-10 Ry

     iteration # 10     ecut=   124.00 Ry     beta= 0.70
     Davidson diagonalization with overlap
     ethr =  4.83E-13,  avg # of iterations =  5.3

     negative rho (up, down):  9.238E-04 0.000E+00

     total cpu time spent up to now is      210.8 secs

     End of self-consistent calculation

     Number of k-points >= 100: set verbosity='high' to print the bands.

     the Fermi energy is    16.2847 ev

!    total energy              =    -449.75310986 Ry
     estimated scf accuracy    <          8.1E-11 Ry
     smearing contrib. (-TS)   =       0.00004967 Ry
     internal energy E=F+TS    =    -449.75315953 Ry

     The total energy is F=E-TS. E is the sum of the following terms:
     one-electron contribution =    -160.70003466 Ry
     hartree contribution      =      95.64054800 Ry
     xc contribution           =     -53.63776826 Ry
     ewald contribution        =    -254.90355035 Ry
     one-center paw contrib.   =     -76.15235427 Ry

     convergence has been achieved in  10 iterations

     negative rho (up, down):  9.238E-04 0.000E+00

     Forces acting on atoms (cartesian axes, Ry/au):

     atom    1 type  1   force =     0.00000000    0.00000000    0.00000000
     atom    2 type  2   force =     0.00000000    0.00000000    0.00000000
     atom    3 type  3   force =     0.00000000    0.00000000    0.00000000

     Total force =     0.000000     Total SCF correction =     0.000000


     Computing stress (Cartesian axis) and pressure


     negative rho (up, down):  9.238E-04 0.000E+00
          total   stress  (Ry/bohr**3)                   (kbar)     P=        6.34
   0.00005641   0.00000000   0.00000000            8.30        0.00        0.00
   0.00000000   0.00001646   0.00000000            0.00        2.42        0.00
   0.00000000   0.00000000   0.00005641            0.00        0.00        8.30

     Energy error            =      1.0E-03 Ry
     Gradient error          =      0.0E+00 Ry/Bohr
     Cell gradient error     =      8.3E+00 kbar

     number of scf cycles    =   4
     number of bfgs steps    =   3

     enthalpy           old  =    -449.7520995347 Ry
     enthalpy           new  =    -449.7531098623 Ry

     CASE: enthalpy          _new < enthalpy          _old

     new trust radius        =       0.0055977946 bohr
     new conv_thr            =            1.0E-10 Ry

     new unit-cell volume =    191.33408 a.u.^3 (    28.35278 Ang^3 )
     density =      6.13311 g/cm^3

CELL_PARAMETERS (alat=  5.58242261)
   0.988189094   0.000000000   0.000000000
   0.000000000   1.126274049   0.000000000
   0.000000000   0.000000000   0.988189094

ATOMIC_POSITIONS (crystal)
Fe               0.5000000000        0.5000000000        0.5000000000
Ti               0.0000000000        0.0000000000        0.0000000000
H                0.5000000000        0.0000000000        0.5000000000



     Writing config-only to output data dir ./TiFe_H_faces_y.save/ :
     XML data file     NEW-OLD atomic charge density approx. for the potential
     New effective cutoffs (rho, wfc): 1777.28  126.97

     Check: negative core charge=   -0.000002

     negative rho (up, down):  9.251E-04 0.000E+00

     total cpu time spent up to now is      212.7 secs

     per-process dynamical memory:   168.5 Mb

     Self-consistent Calculation

     iteration #  1     ecut=   124.00 Ry     beta= 0.70
     Davidson diagonalization with overlap
     ethr =  1.00E-06,  avg # of iterations =  3.0

     Threshold (ethr) on eigenvalues was too large:
     Diagonalizing with lowered threshold

     Davidson diagonalization with overlap
     ethr =  8.88E-08,  avg # of iterations =  4.0

     negative rho (up, down):  9.267E-04 0.000E+00

     total cpu time spent up to now is      219.5 secs

     total energy              =    -449.75309377 Ry
     estimated scf accuracy    <       0.00002980 Ry

     iteration #  2     ecut=   124.00 Ry     beta= 0.70
     Davidson diagonalization with overlap
     ethr =  1.03E-07,  avg # of iterations =  4.1

     negative rho (up, down):  9.240E-04 0.000E+00

     total cpu time spent up to now is      223.0 secs

     total energy              =    -449.75294063 Ry
     estimated scf accuracy    <       0.00355316 Ry

     iteration #  3     ecut=   124.00 Ry     beta= 0.70
     Davidson diagonalization with overlap
     ethr =  1.03E-07,  avg # of iterations =  4.2

     negative rho (up, down):  9.246E-04 0.000E+00

     total cpu time spent up to now is      226.6 secs

     total energy              =    -449.75312845 Ry
     estimated scf accuracy    <       0.00000215 Ry

     iteration #  4     ecut=   124.00 Ry     beta= 0.70
     Davidson diagonalization with overlap
     ethr =  7.41E-09,  avg # of iterations =  3.9

     negative rho (up, down):  9.244E-04 0.000E+00

     total cpu time spent up to now is      230.0 secs

     total energy              =    -449.75312907 Ry
     estimated scf accuracy    <       0.00000044 Ry

     iteration #  5     ecut=   124.00 Ry     beta= 0.70
     Davidson diagonalization with overlap
     ethr =  1.50E-09,  avg # of iterations =  2.2

     negative rho (up, down):  9.242E-04 0.000E+00

     total cpu time spent up to now is      232.6 secs

     total energy              =    -449.75312910 Ry
     estimated scf accuracy    <       0.00000008 Ry

     iteration #  6     ecut=   124.00 Ry     beta= 0.70
     Davidson diagonalization with overlap
     ethr =  2.77E-10,  avg # of iterations =  2.7

     negative rho (up, down):  9.242E-04 0.000E+00

     total cpu time spent up to now is      235.6 secs

     total energy              =    -449.75312911 Ry
     estimated scf accuracy    <          9.7E-10 Ry

     iteration #  7     ecut=   124.00 Ry     beta= 0.70
     Davidson diagonalization with overlap
     ethr =  3.36E-12,  avg # of iterations =  6.1

     negative rho (up, down):  9.242E-04 0.000E+00

     total cpu time spent up to now is      240.3 secs

     total energy              =    -449.75312912 Ry
     estimated scf accuracy    <          3.3E-10 Ry

     iteration #  8     ecut=   124.00 Ry     beta= 0.70
     Davidson diagonalization with overlap
     ethr =  1.15E-12,  avg # of iterations =  2.1

     negative rho (up, down):  9.242E-04 0.000E+00

     total cpu time spent up to now is      243.1 secs

     End of self-consistent calculation

     Number of k-points >= 100: set verbosity='high' to print the bands.

     the Fermi energy is    16.2281 ev

!    total energy              =    -449.75312912 Ry
     estimated scf accuracy    <          2.1E-12 Ry
     smearing contrib. (-TS)   =       0.00004348 Ry
     internal energy E=F+TS    =    -449.75317260 Ry

     The total energy is F=E-TS. E is the sum of the following terms:
     one-electron contribution =    -161.18185020 Ry
     hartree contribution      =      95.80915218 Ry
     xc contribution           =     -53.63185789 Ry
     ewald contribution        =    -254.59635081 Ry
     one-center paw contrib.   =     -76.15226588 Ry

     convergence has been achieved in   8 iterations

     negative rho (up, down):  9.242E-04 0.000E+00

     Forces acting on atoms (cartesian axes, Ry/au):

     atom    1 type  1   force =     0.00000000    0.00000000    0.00000000
     atom    2 type  2   force =     0.00000000    0.00000000    0.00000000
     atom    3 type  3   force =     0.00000000    0.00000000    0.00000000

     Total force =     0.000000     Total SCF correction =     0.000000


     Computing stress (Cartesian axis) and pressure


     negative rho (up, down):  9.242E-04 0.000E+00
          total   stress  (Ry/bohr**3)                   (kbar)     P=        0.21
  -0.00000286   0.00000000   0.00000000           -0.42        0.00        0.00
   0.00000000   0.00000991   0.00000000            0.00        1.46        0.00
   0.00000000   0.00000000  -0.00000286            0.00        0.00       -0.42

     Energy error            =      1.9E-05 Ry
     Gradient error          =      0.0E+00 Ry/Bohr
     Cell gradient error     =      1.5E+00 kbar

     number of scf cycles    =   5
     number of bfgs steps    =   4

     enthalpy           old  =    -449.7531098623 Ry
     enthalpy           new  =    -449.7531291171 Ry

     CASE: enthalpy          _new < enthalpy          _old

     new trust radius        =       0.0008674298 bohr
     new conv_thr            =            1.0E-10 Ry

     new unit-cell volume =    191.33207 a.u.^3 (    28.35249 Ang^3 )
     density =      6.13318 g/cm^3

CELL_PARAMETERS (alat=  5.58242261)
   0.988029025   0.000000000   0.000000000
   0.000000000   1.126627193   0.000000000
   0.000000000   0.000000000   0.988029025

ATOMIC_POSITIONS (crystal)
Fe               0.5000000000        0.5000000000        0.5000000000
Ti               0.0000000000        0.0000000000        0.0000000000
H                0.5000000000        0.0000000000        0.5000000000



     Writing config-only to output data dir ./TiFe_H_faces_y.save/ :
     XML data file     NEW-OLD atomic charge density approx. for the potential
     New effective cutoffs (rho, wfc): 1777.85  127.01

     Check: negative core charge=   -0.000002

     negative rho (up, down):  9.242E-04 0.000E+00

     total cpu time spent up to now is      245.0 secs

     per-process dynamical memory:   168.7 Mb

     Self-consistent Calculation

     iteration #  1     ecut=   124.00 Ry     beta= 0.70
     Davidson diagonalization with overlap
     ethr =  1.00E-06,  avg # of iterations =  2.0

     Threshold (ethr) on eigenvalues was too large:
     Diagonalizing with lowered threshold

     Davidson diagonalization with overlap
     ethr =  2.26E-09,  avg # of iterations =  3.1

     negative rho (up, down):  9.237E-04 0.000E+00

     total cpu time spent up to now is      251.0 secs

     total energy              =    -449.75312899 Ry
     estimated scf accuracy    <       0.00000064 Ry

     iteration #  2     ecut=   124.00 Ry     beta= 0.70
     Davidson diagonalization with overlap
     ethr =  2.21E-09,  avg # of iterations =  4.4

     negative rho (up, down):  9.241E-04 0.000E+00

     total cpu time spent up to now is      254.8 secs

     total energy              =    -449.75312565 Ry
     estimated scf accuracy    <       0.00007574 Ry

     iteration #  3     ecut=   124.00 Ry     beta= 0.70
     Davidson diagonalization with overlap
     ethr =  2.21E-09,  avg # of iterations =  4.1

     negative rho (up, down):  9.241E-04 0.000E+00

     total cpu time spent up to now is      258.3 secs

     total energy              =    -449.75312955 Ry
     estimated scf accuracy    <          4.7E-09 Ry

     iteration #  4     ecut=   124.00 Ry     beta= 0.70
     Davidson diagonalization with overlap
     ethr =  1.64E-11,  avg # of iterations =  5.9

     negative rho (up, down):  9.241E-04 0.000E+00

     total cpu time spent up to now is      262.9 secs

     total energy              =    -449.75312956 Ry
     estimated scf accuracy    <          2.3E-09 Ry

     iteration #  5     ecut=   124.00 Ry     beta= 0.70
     Davidson diagonalization with overlap
     ethr =  7.82E-12,  avg # of iterations =  1.3

     negative rho (up, down):  9.241E-04 0.000E+00

     total cpu time spent up to now is      265.3 secs

     total energy              =    -449.75312956 Ry
     estimated scf accuracy    <          1.0E-10 Ry

     iteration #  6     ecut=   124.00 Ry     beta= 0.70
     Davidson diagonalization with overlap
     ethr =  3.61E-13,  avg # of iterations =  3.2

     negative rho (up, down):  9.241E-04 0.000E+00

     total cpu time spent up to now is      268.6 secs

     End of self-consistent calculation

     Number of k-points >= 100: set verbosity='high' to print the bands.

     the Fermi energy is    16.2265 ev

!    total energy              =    -449.75312956 Ry
     estimated scf accuracy    <          1.6E-11 Ry
     smearing contrib. (-TS)   =       0.00004450 Ry
     internal energy E=F+TS    =    -449.75317406 Ry

     The total energy is F=E-TS. E is the sum of the following terms:
     one-electron contribution =    -161.17660045 Ry
     hartree contribution      =      95.80675083 Ry
     xc contribution           =     -53.63177177 Ry
     ewald contribution        =    -254.59928678 Ry
     one-center paw contrib.   =     -76.15226589 Ry

     convergence has been achieved in   6 iterations

     negative rho (up, down):  9.241E-04 0.000E+00

     Forces acting on atoms (cartesian axes, Ry/au):

     atom    1 type  1   force =     0.00000000    0.00000000    0.00000000
     atom    2 type  2   force =     0.00000000    0.00000000    0.00000000
     atom    3 type  3   force =     0.00000000    0.00000000    0.00000000

     Total force =     0.000000     Total SCF correction =     0.000000


     Computing stress (Cartesian axis) and pressure


     negative rho (up, down):  9.241E-04 0.000E+00
          total   stress  (Ry/bohr**3)                   (kbar)     P=        0.11
   0.00000009   0.00000000   0.00000000            0.01        0.00        0.00
   0.00000000   0.00000208   0.00000000            0.00        0.31        0.00
   0.00000000   0.00000000   0.00000009            0.00        0.00        0.01

     Energy error            =      4.5E-07 Ry
     Gradient error          =      0.0E+00 Ry/Bohr
     Cell gradient error     =      3.1E-01 kbar

     number of scf cycles    =   6
     number of bfgs steps    =   5

     enthalpy           old  =    -449.7531291171 Ry
     enthalpy           new  =    -449.7531295626 Ry

     CASE: enthalpy          _new < enthalpy          _old

     new trust radius        =       0.0001936312 bohr
     new conv_thr            =            1.0E-10 Ry

     new unit-cell volume =    191.34048 a.u.^3 (    28.35373 Ang^3 )
     density =      6.13291 g/cm^3

CELL_PARAMETERS (alat=  5.58242261)
   0.988016167   0.000000000   0.000000000
   0.000000000   1.126706049   0.000000000
   0.000000000   0.000000000   0.988016167

ATOMIC_POSITIONS (crystal)
Fe               0.5000000000        0.5000000000        0.5000000000
Ti               0.0000000000        0.0000000000        0.0000000000
H                0.5000000000        0.0000000000        0.5000000000



     Writing config-only to output data dir ./TiFe_H_faces_y.save/ :
     XML data file     NEW-OLD atomic charge density approx. for the potential
     New effective cutoffs (rho, wfc): 1777.90  127.02

     Check: negative core charge=   -0.000002

     negative rho (up, down):  9.242E-04 0.000E+00

     total cpu time spent up to now is      270.5 secs

     per-process dynamical memory:   168.3 Mb

     Self-consistent Calculation

     iteration #  1     ecut=   124.00 Ry     beta= 0.70
     Davidson diagonalization with overlap
     ethr =  1.00E-06,  avg # of iterations =  2.0

     Threshold (ethr) on eigenvalues was too large:
     Diagonalizing with lowered threshold

     Davidson diagonalization with overlap
     ethr =  6.48E-11,  avg # of iterations =  3.6

     negative rho (up, down):  9.240E-04 0.000E+00

     total cpu time spent up to now is      276.7 secs

     total energy              =    -449.75312956 Ry
     estimated scf accuracy    <       0.00000002 Ry

     iteration #  2     ecut=   124.00 Ry     beta= 0.70
     Davidson diagonalization with overlap
     ethr =  5.71E-11,  avg # of iterations =  4.5

     negative rho (up, down):  9.241E-04 0.000E+00

     total cpu time spent up to now is      280.6 secs

     total energy              =    -449.75312948 Ry
     estimated scf accuracy    <       0.00000185 Ry

     iteration #  3     ecut=   124.00 Ry     beta= 0.70
     Davidson diagonalization with overlap
     ethr =  5.71E-11,  avg # of iterations =  4.2

     negative rho (up, down):  9.241E-04 0.000E+00

     total cpu time spent up to now is      284.0 secs

     total energy              =    -449.75312958 Ry
     estimated scf accuracy    <          6.1E-10 Ry

     iteration #  4     ecut=   124.00 Ry     beta= 0.70
     Davidson diagonalization with overlap
     ethr =  2.11E-12,  avg # of iterations =  4.0

     negative rho (up, down):  9.241E-04 0.000E+00

     total cpu time spent up to now is      287.7 secs

     End of self-consistent calculation

     Number of k-points >= 100: set verbosity='high' to print the bands.

     the Fermi energy is    16.2254 ev

!    total energy              =    -449.75312958 Ry
     estimated scf accuracy    <          4.0E-11 Ry
     smearing contrib. (-TS)   =       0.00004467 Ry
     internal energy E=F+TS    =    -449.75317424 Ry

     The total energy is F=E-TS. E is the sum of the following terms:
     one-electron contribution =    -161.18181573 Ry
     hartree contribution      =      95.80850916 Ry
     xc contribution           =     -53.63168953 Ry
     ewald contribution        =    -254.59591261 Ry
     one-center paw contrib.   =     -76.15226553 Ry

     convergence has been achieved in   4 iterations

     negative rho (up, down):  9.241E-04 0.000E+00

     Forces acting on atoms (cartesian axes, Ry/au):

     atom    1 type  1   force =     0.00000000    0.00000000    0.00000000
     atom    2 type  2   force =     0.00000000    0.00000000    0.00000000
     atom    3 type  3   force =     0.00000000    0.00000000    0.00000000

     Total force =     0.000000     Total SCF correction =     0.000000


     Computing stress (Cartesian axis) and pressure


     negative rho (up, down):  9.241E-04 0.000E+00
          total   stress  (Ry/bohr**3)                   (kbar)     P=        0.08
   0.00000057   0.00000000   0.00000000            0.08        0.00        0.00
   0.00000000   0.00000054   0.00000000            0.00        0.08        0.00
   0.00000000   0.00000000   0.00000057            0.00        0.00        0.08

     Energy error            =      1.5E-08 Ry
     Gradient error          =      0.0E+00 Ry/Bohr
     Cell gradient error     =      8.3E-02 kbar

     bfgs converged in   7 scf cycles and   6 bfgs steps
     (criteria: energy <  1.0E-04 Ry, force <  1.0E-03 Ry/Bohr, cell <  1.0E-01 kbar)

     End of BFGS Geometry Optimization

     Final enthalpy           =    -449.7531295777 Ry

     File ./TiFe_H_faces_y.bfgs deleted, as requested
Begin final coordinates
     new unit-cell volume =    191.34048 a.u.^3 (    28.35373 Ang^3 )
     density =      6.13291 g/cm^3

CELL_PARAMETERS (alat=  5.58242261)
   0.988016167   0.000000000   0.000000000
   0.000000000   1.126706049   0.000000000
   0.000000000   0.000000000   0.988016167

ATOMIC_POSITIONS (crystal)
Fe               0.5000000000        0.5000000000        0.5000000000
Ti               0.0000000000        0.0000000000        0.0000000000
H                0.5000000000        0.0000000000        0.5000000000
End final coordinates



     Writing config-only to output data dir ./TiFe_H_faces_y.save/ :
     XML data file
     Final scf calculation at the relaxed structure.
     The G-vectors are recalculated for the final unit cell
     Results may differ from those at the preceding step.

     Parallelization info
     --------------------
     sticks:   dense  smooth     PW     G-vecs:    dense   smooth      PW
     Min         299      85     24                14613     2233     349
     Max         300      86     26                14618     2236     351
     Sum        4795    1375    397               233847    35757    5605

     Using Slab Decomposition



     bravais-lattice index     =            0
     lattice parameter (alat)  =       5.5824  a.u.
     unit-cell volume          =     191.3405 (a.u.)^3
     number of atoms/cell      =            3
     number of atomic types    =            3
     number of electrons       =        29.00
     number of Kohn-Sham states=           19
     kinetic-energy cutoff     =     124.0000  Ry
     charge density cutoff     =    1736.0000  Ry
     scf convergence threshold =      1.0E-10
     mixing beta               =       0.7000
     number of iterations used =            8  plain     mixing
     press convergence thresh. =      1.0E-01
     Exchange-correlation= PBE
                           (   1   4   3   4   0   0   0)

     celldm(1)=   5.582423  celldm(2)=   0.000000  celldm(3)=   0.000000
     celldm(4)=   0.000000  celldm(5)=   0.000000  celldm(6)=   0.000000

     crystal axes: (cart. coord. in units of alat)
               a(1) = (   0.988016   0.000000   0.000000 )  
               a(2) = (   0.000000   1.126706   0.000000 )  
               a(3) = (   0.000000   0.000000   0.988016 )  

     reciprocal axes: (cart. coord. in units 2 pi/alat)
               b(1) = (  1.012129  0.000000  0.000000 )  
               b(2) = (  0.000000  0.887543  0.000000 )  
               b(3) = (  0.000000  0.000000  1.012129 )  


     PseudoPot. # 1 for Fe read from file:
     ../../pseudos/Fe.pbe-spn-kjpaw_psl.0.2.1.UPF
     MD5 check sum: e86618425769142926afa95317d90200
     Pseudo is Projector augmented-wave + core cor, Zval = 16.0
     Generated using "atomic" code by A. Dal Corso  v.5.0.99 svn rev. 10869
     Shape of augmentation charge: PSQ
     Using radial grid of 1191 points,  6 beta functions with: 
                l(1) =   0
                l(2) =   0
                l(3) =   1
                l(4) =   1
                l(5) =   2
                l(6) =   2
     Q(r) pseudized with 0 coefficients 


     PseudoPot. # 2 for Ti read from file:
     ../../pseudos/ti_pbe_v1.4.uspp.F.UPF
     MD5 check sum: 88a00a6731bd790ddea75d31a80cb452
     Pseudo is Ultrasoft + core correction, Zval = 12.0
     Generated by new atomic code, or converted to UPF format
     Using radial grid of  851 points,  6 beta functions with: 
                l(1) =   0
                l(2) =   0
                l(3) =   1
                l(4) =   1
                l(5) =   2
                l(6) =   2
     Q(r) pseudized with  6 coefficients,  rinner =    1.000   1.000   1.000
                                                       1.000   1.000

     PseudoPot. # 3 for H  read from file:
     ../../pseudos/H.pbe-rrkjus_psl.1.0.0.UPF
     MD5 check sum: f52b6d4d1c606e5624b1dc7b2218f220
     Pseudo is Ultrasoft, Zval =  1.0
     Generated using "atomic" code by A. Dal Corso  v.5.1
     Using radial grid of  929 points,  2 beta functions with: 
                l(1) =   0
                l(2) =   0
     Q(r) pseudized with 0 coefficients 


     atomic species   valence    mass     pseudopotential
     Fe               16.00    55.84500     Fe( 1.00)
     Ti               12.00    47.86700     Ti( 1.00)
     H                 1.00     1.00750     H ( 1.00)

     16 Sym. Ops., with inversion, found



   Cartesian axes

     site n.     atom                  positions (alat units)
         1        Fe     tau(   1) = (   0.4940081   0.5633530   0.4940081  )
         2        Ti     tau(   2) = (   0.0000000   0.0000000   0.0000000  )
         3        H      tau(   3) = (   0.4940081   0.0000000   0.4940081  )

     number of k points=   288  Marzari-Vanderbilt smearing, width (Ry)=  0.0050

     Number of k-points >= 100: set verbosity='high' to print them.

     Dense  grid:   233847 G-vectors     FFT dimensions: (  75,  90,  75)

     Smooth grid:    35757 G-vectors     FFT dimensions: (  40,  45,  40)

     Estimated max dynamical RAM per process >      97.83 MB

     Estimated total dynamical RAM >       1.53 GB

     Check: negative core charge=   -0.000001

     Initial potential from superposition of free atoms

     starting charge      27.9995, renormalised to      29.0000

     negative rho (up, down):  1.330E-03 0.000E+00
     Starting wfcs are   24 randomized atomic wfcs
     Checking if some PAW data can be deallocated... 

     total cpu time spent up to now is      291.3 secs

     per-process dynamical memory:   164.8 Mb

     Self-consistent Calculation

     iteration #  1     ecut=   124.00 Ry     beta= 0.70
     Davidson diagonalization with overlap
     c_bands:  1 eigenvalues not converged
     c_bands:  1 eigenvalues not converged
     c_bands:  1 eigenvalues not converged
     c_bands:  1 eigenvalues not converged
     c_bands:  1 eigenvalues not converged
     c_bands:  1 eigenvalues not converged
     c_bands:  1 eigenvalues not converged
     c_bands:  1 eigenvalues not converged
     c_bands:  1 eigenvalues not converged
     c_bands:  1 eigenvalues not converged
     c_bands:  1 eigenvalues not converged
     c_bands:  1 eigenvalues not converged
     c_bands:  1 eigenvalues not converged
     c_bands:  1 eigenvalues not converged
     c_bands:  1 eigenvalues not converged
     c_bands:  1 eigenvalues not converged
     c_bands:  1 eigenvalues not converged
     c_bands:  1 eigenvalues not converged
     c_bands:  2 eigenvalues not converged
     c_bands:  1 eigenvalues not converged
     c_bands:  1 eigenvalues not converged
     c_bands:  1 eigenvalues not converged
     c_bands:  2 eigenvalues not converged
     c_bands:  1 eigenvalues not converged
     c_bands:  1 eigenvalues not converged
     c_bands:  1 eigenvalues not converged
     c_bands:  1 eigenvalues not converged
     c_bands:  1 eigenvalues not converged
     c_bands:  1 eigenvalues not converged
     c_bands:  1 eigenvalues not converged
     c_bands:  1 eigenvalues not converged
     c_bands:  1 eigenvalues not converged
     c_bands:  1 eigenvalues not converged
     c_bands:  1 eigenvalues not converged
     c_bands:  1 eigenvalues not converged
     c_bands:  1 eigenvalues not converged
     c_bands:  1 eigenvalues not converged
     c_bands:  1 eigenvalues not converged
     c_bands:  1 eigenvalues not converged
     c_bands:  1 eigenvalues not converged
     c_bands:  1 eigenvalues not converged
     c_bands:  1 eigenvalues not converged
     c_bands:  1 eigenvalues not converged
     ethr =  1.00E-06,  avg # of iterations = 16.8

     negative rho (up, down):  1.243E-04 0.000E+00

     total cpu time spent up to now is      307.5 secs

     total energy              =    -435.02875040 Ry
     estimated scf accuracy    <      18.61509514 Ry

     iteration #  2     ecut=   124.00 Ry     beta= 0.70
     Davidson diagonalization with overlap
     ethr =  1.00E-02,  avg # of iterations =  6.4

     negative rho (up, down):  2.377E-05 0.000E+00

     total cpu time spent up to now is      313.8 secs

     total energy              =    -449.01568913 Ry
     estimated scf accuracy    <      73.17866913 Ry

     iteration #  3     ecut=   124.00 Ry     beta= 0.70
     Davidson diagonalization with overlap
     ethr =  1.00E-02,  avg # of iterations =  3.2

     negative rho (up, down):  2.063E-04 0.000E+00

     total cpu time spent up to now is      318.0 secs

     total energy              =    -450.24413084 Ry
     estimated scf accuracy    <      17.65974038 Ry

     iteration #  4     ecut=   124.00 Ry     beta= 0.70
     Davidson diagonalization with overlap
     ethr =  1.00E-02,  avg # of iterations =  2.2

     negative rho (up, down):  2.953E-04 0.000E+00

     total cpu time spent up to now is      321.2 secs

     total energy              =    -450.42573449 Ry
     estimated scf accuracy    <       6.75682015 Ry

     iteration #  5     ecut=   124.00 Ry     beta= 0.70
     Davidson diagonalization with overlap
     ethr =  1.00E-02,  avg # of iterations =  1.1

     negative rho (up, down):  8.737E-04 0.000E+00

     total cpu time spent up to now is      324.0 secs

     total energy              =    -449.47518492 Ry
     estimated scf accuracy    <       5.53435989 Ry

     iteration #  6     ecut=   124.00 Ry     beta= 0.70
     Davidson diagonalization with overlap
     ethr =  1.00E-02,  avg # of iterations =  2.6

     negative rho (up, down):  8.864E-04 0.000E+00

     total cpu time spent up to now is      327.1 secs

     total energy              =    -449.72824801 Ry
     estimated scf accuracy    <       0.30748732 Ry

     iteration #  7     ecut=   124.00 Ry     beta= 0.70
     Davidson diagonalization with overlap
     ethr =  1.06E-03,  avg # of iterations =  3.9

     negative rho (up, down):  7.351E-04 0.000E+00

     total cpu time spent up to now is      330.7 secs

     total energy              =    -449.78954542 Ry
     estimated scf accuracy    <       0.11254967 Ry

     iteration #  8     ecut=   124.00 Ry     beta= 0.70
     Davidson diagonalization with overlap
     ethr =  3.88E-04,  avg # of iterations =  2.3

     negative rho (up, down):  1.089E-03 0.000E+00

     total cpu time spent up to now is      333.8 secs

     total energy              =    -449.52870348 Ry
     estimated scf accuracy    <       1.21139647 Ry

     iteration #  9     ecut=   124.00 Ry     beta= 0.70
     Davidson diagonalization with overlap
     ethr =  3.88E-04,  avg # of iterations =  4.8

     negative rho (up, down):  7.590E-04 0.000E+00

     total cpu time spent up to now is      338.3 secs

     total energy              =    -449.49406818 Ry
     estimated scf accuracy    <       4.57223113 Ry

     iteration # 10     ecut=   124.00 Ry     beta= 0.70
     Davidson diagonalization with overlap
     ethr =  3.88E-04,  avg # of iterations =  3.7

     negative rho (up, down):  6.593E-04 0.000E+00

     total cpu time spent up to now is      342.0 secs

     total energy              =    -449.78678839 Ry
     estimated scf accuracy    <       0.06610926 Ry

     iteration # 11     ecut=   124.00 Ry     beta= 0.70
     Davidson diagonalization with overlap
     ethr =  2.28E-04,  avg # of iterations =  2.5

     negative rho (up, down):  6.850E-04 0.000E+00

     total cpu time spent up to now is      345.2 secs

     total energy              =    -449.80616748 Ry
     estimated scf accuracy    <       0.75949933 Ry

     iteration # 12     ecut=   124.00 Ry     beta= 0.70
     Davidson diagonalization with overlap
     ethr =  2.28E-04,  avg # of iterations =  1.0

     negative rho (up, down):  7.507E-04 0.000E+00

     total cpu time spent up to now is      348.0 secs

     total energy              =    -449.76896873 Ry
     estimated scf accuracy    <       0.69680227 Ry

     iteration # 13     ecut=   124.00 Ry     beta= 0.70
     Davidson diagonalization with overlap
     ethr =  2.28E-04,  avg # of iterations =  1.1

     negative rho (up, down):  7.663E-04 0.000E+00

     total cpu time spent up to now is      350.7 secs

     total energy              =    -449.77072150 Ry
     estimated scf accuracy    <       0.28770333 Ry

     iteration # 14     ecut=   124.00 Ry     beta= 0.70
     Davidson diagonalization with overlap
     ethr =  2.28E-04,  avg # of iterations =  1.0

     negative rho (up, down):  7.721E-04 0.000E+00

     total cpu time spent up to now is      353.5 secs

     total energy              =    -449.77058080 Ry
     estimated scf accuracy    <       0.23855171 Ry

     iteration # 15     ecut=   124.00 Ry     beta= 0.70
     Davidson diagonalization with overlap
     ethr =  2.28E-04,  avg # of iterations =  1.0

     negative rho (up, down):  1.431E-03 0.000E+00

     total cpu time spent up to now is      356.2 secs

     total energy              =    -449.69232859 Ry
     estimated scf accuracy    <       0.23306112 Ry

     iteration # 16     ecut=   124.00 Ry     beta= 0.70
     Davidson diagonalization with overlap
     ethr =  2.28E-04,  avg # of iterations =  5.3

     negative rho (up, down):  9.390E-04 0.000E+00

     total cpu time spent up to now is      361.1 secs

     total energy              =    -449.63339244 Ry
     estimated scf accuracy    <       2.71868470 Ry

     iteration # 17     ecut=   124.00 Ry     beta= 0.70
     Davidson diagonalization with overlap
     ethr =  2.28E-04,  avg # of iterations =  3.9

     negative rho (up, down):  9.822E-04 0.000E+00

     total cpu time spent up to now is      365.3 secs

     total energy              =    -449.75544748 Ry
     estimated scf accuracy    <       0.00764698 Ry

     iteration # 18     ecut=   124.00 Ry     beta= 0.70
     Davidson diagonalization with overlap
     ethr =  2.64E-05,  avg # of iterations =  2.1

     negative rho (up, down):  8.667E-04 0.000E+00

     total cpu time spent up to now is      368.3 secs

     total energy              =    -449.74825179 Ry
     estimated scf accuracy    <       0.05112835 Ry

     iteration # 19     ecut=   124.00 Ry     beta= 0.70
     Davidson diagonalization with overlap
     ethr =  2.64E-05,  avg # of iterations =  3.3

     negative rho (up, down):  8.727E-04 0.000E+00

     total cpu time spent up to now is      372.1 secs

     total energy              =    -449.75354494 Ry
     estimated scf accuracy    <       0.00458985 Ry

     iteration # 20     ecut=   124.00 Ry     beta= 0.70
     Davidson diagonalization with overlap
     ethr =  1.58E-05,  avg # of iterations =  1.0

     negative rho (up, down):  8.782E-04 0.000E+00

     total cpu time spent up to now is      374.9 secs

     total energy              =    -449.75351451 Ry
     estimated scf accuracy    <       0.00342929 Ry

     iteration # 21     ecut=   124.00 Ry     beta= 0.70
     Davidson diagonalization with overlap
     ethr =  1.18E-05,  avg # of iterations =  1.0

     negative rho (up, down):  8.906E-04 0.000E+00

     total cpu time spent up to now is      377.6 secs

     total energy              =    -449.75336806 Ry
     estimated scf accuracy    <       0.00265609 Ry

     iteration # 22     ecut=   124.00 Ry     beta= 0.70
     Davidson diagonalization with overlap
     ethr =  9.16E-06,  avg # of iterations =  1.0

     negative rho (up, down):  8.942E-04 0.000E+00

     total cpu time spent up to now is      380.3 secs

     total energy              =    -449.75336935 Ry
     estimated scf accuracy    <       0.00103162 Ry

     iteration # 23     ecut=   124.00 Ry     beta= 0.70
     Davidson diagonalization with overlap
     ethr =  3.56E-06,  avg # of iterations =  1.0

     negative rho (up, down):  8.959E-04 0.000E+00

     total cpu time spent up to now is      383.1 secs

     total energy              =    -449.75336494 Ry
     estimated scf accuracy    <       0.00067517 Ry

     iteration # 24     ecut=   124.00 Ry     beta= 0.70
     Davidson diagonalization with overlap
     ethr =  2.33E-06,  avg # of iterations =  1.0

     negative rho (up, down):  9.001E-04 0.000E+00

     total cpu time spent up to now is      385.9 secs

     total energy              =    -449.75334005 Ry
     estimated scf accuracy    <       0.00054071 Ry

     iteration # 25     ecut=   124.00 Ry     beta= 0.70
     Davidson diagonalization with overlap
     ethr =  1.86E-06,  avg # of iterations =  1.0

     negative rho (up, down):  9.075E-04 0.000E+00

     total cpu time spent up to now is      388.6 secs

     total energy              =    -449.75331472 Ry
     estimated scf accuracy    <       0.00023188 Ry

     iteration # 26     ecut=   124.00 Ry     beta= 0.70
     Davidson diagonalization with overlap
     ethr =  8.00E-07,  avg # of iterations =  1.3

     negative rho (up, down):  9.076E-04 0.000E+00

     total cpu time spent up to now is      391.4 secs

     total energy              =    -449.75332947 Ry
     estimated scf accuracy    <       0.00000038 Ry

     iteration # 27     ecut=   124.00 Ry     beta= 0.70
     Davidson diagonalization with overlap
     ethr =  1.31E-09,  avg # of iterations =  5.8

     negative rho (up, down):  9.075E-04 0.000E+00

     total cpu time spent up to now is      396.6 secs

     total energy              =    -449.75333071 Ry
     estimated scf accuracy    <       0.00000043 Ry

     iteration # 28     ecut=   124.00 Ry     beta= 0.70
     Davidson diagonalization with overlap
     ethr =  1.31E-09,  avg # of iterations =  1.0

     negative rho (up, down):  9.070E-04 0.000E+00

     total cpu time spent up to now is      399.4 secs

     total energy              =    -449.75333064 Ry
     estimated scf accuracy    <       0.00000029 Ry

     iteration # 29     ecut=   124.00 Ry     beta= 0.70
     Davidson diagonalization with overlap
     ethr =  1.01E-09,  avg # of iterations =  2.0

     negative rho (up, down):  9.071E-04 0.000E+00

     total cpu time spent up to now is      402.3 secs

     total energy              =    -449.75333066 Ry
     estimated scf accuracy    <       0.00000001 Ry

     iteration # 30     ecut=   124.00 Ry     beta= 0.70
     Davidson diagonalization with overlap
     ethr =  4.84E-11,  avg # of iterations =  3.3

     negative rho (up, down):  9.072E-04 0.000E+00

     total cpu time spent up to now is      405.7 secs

     total energy              =    -449.75333066 Ry
     estimated scf accuracy    <          1.7E-09 Ry

     iteration # 31     ecut=   124.00 Ry     beta= 0.70
     Davidson diagonalization with overlap
     ethr =  5.87E-12,  avg # of iterations =  3.4

     negative rho (up, down):  9.072E-04 0.000E+00

     total cpu time spent up to now is      409.1 secs

     total energy              =    -449.75333066 Ry
     estimated scf accuracy    <          5.8E-10 Ry

     iteration # 32     ecut=   124.00 Ry     beta= 0.70
     Davidson diagonalization with overlap
     ethr =  1.99E-12,  avg # of iterations =  2.2

     negative rho (up, down):  9.072E-04 0.000E+00

     total cpu time spent up to now is      412.1 secs

     End of self-consistent calculation

     Number of k-points >= 100: set verbosity='high' to print the bands.

     the Fermi energy is    16.2253 ev

!    total energy              =    -449.75333066 Ry
     estimated scf accuracy    <          8.7E-12 Ry
     smearing contrib. (-TS)   =       0.00004465 Ry
     internal energy E=F+TS    =    -449.75337531 Ry

     The total energy is F=E-TS. E is the sum of the following terms:
     one-electron contribution =    -161.18148875 Ry
     hartree contribution      =      95.80819257 Ry
     xc contribution           =     -53.63186622 Ry
     ewald contribution        =    -254.59591261 Ry
     one-center paw contrib.   =     -76.15230029 Ry

     convergence has been achieved in  32 iterations

     negative rho (up, down):  9.072E-04 0.000E+00

     Forces acting on atoms (cartesian axes, Ry/au):

     atom    1 type  1   force =     0.00000000    0.00000000    0.00000000
     atom    2 type  2   force =     0.00000000    0.00000000    0.00000000
     atom    3 type  3   force =     0.00000000    0.00000000    0.00000000

     Total force =     0.000000     Total SCF correction =     0.000000


     Computing stress (Cartesian axis) and pressure


     negative rho (up, down):  9.072E-04 0.000E+00
          total   stress  (Ry/bohr**3)                   (kbar)     P=       -0.10
  -0.00000042   0.00000000   0.00000000           -0.06        0.00        0.00
   0.00000000  -0.00000121   0.00000000            0.00       -0.18        0.00
   0.00000000   0.00000000  -0.00000042            0.00        0.00       -0.06


     Writing all to output data dir ./TiFe_H_faces_y.save/ :
     XML data file
     init_run     :      3.91s CPU      4.05s WALL (       2 calls)
     electrons    :    380.04s CPU    394.63s WALL (       8 calls)
     update_pot   :      0.43s CPU      0.49s WALL (       6 calls)
     forces       :      2.14s CPU      2.26s WALL (       8 calls)
     stress       :     10.08s CPU     10.42s WALL (       8 calls)

     Called by init_run:
     wfcinit      :      2.39s CPU      2.47s WALL (       2 calls)
     potinit      :      0.54s CPU      0.56s WALL (       2 calls)
     hinit0       :      0.51s CPU      0.52s WALL (       2 calls)

     Called by electrons:
     c_bands      :    316.41s CPU    326.35s WALL (     113 calls)
     sum_band     :     49.11s CPU     51.71s WALL (     113 calls)
     v_of_rho     :      1.51s CPU      1.70s WALL (     118 calls)
     newd         :      8.39s CPU      9.79s WALL (     118 calls)
     PAW_pot      :      5.57s CPU      6.08s WALL (     124 calls)
     mix_rho      :      0.17s CPU      0.19s WALL (     113 calls)

     Called by c_bands:
     init_us_2    :      6.94s CPU      7.24s WALL (   72000 calls)
     cegterg      :    304.79s CPU    314.13s WALL (   32544 calls)

     Called by *egterg:
     cdiaghg      :     51.06s CPU     52.42s WALL (  134127 calls)
     h_psi        :    214.91s CPU    221.98s WALL (  137295 calls)
     s_psi        :      4.88s CPU      5.05s WALL (  137295 calls)
     g_psi        :      1.14s CPU      1.17s WALL (  104175 calls)

     Called by h_psi:
     h_psi:calbec :      9.79s CPU     10.11s WALL (  137295 calls)
     vloc_psi     :    198.79s CPU    205.34s WALL (  137295 calls)
     add_vuspsi   :      5.12s CPU      5.30s WALL (  137295 calls)

     General routines
     calbec       :     15.36s CPU     15.86s WALL (  210735 calls)
     fft          :      1.37s CPU      1.62s WALL (    1727 calls)
     ffts         :      0.43s CPU      0.44s WALL (     231 calls)
     fftw         :    192.91s CPU    199.11s WALL ( 4106806 calls)
     interpolate  :      0.50s CPU      0.54s WALL (     118 calls)

     Parallel routines

     PWSCF        :    398.10s CPU    413.99s WALL


   This run was terminated on:  23:22:25  12Nov2025            

=------------------------------------------------------------------------------=
   JOB DONE.
=------------------------------------------------------------------------------=
