
     Program PWSCF v.7.4 starts on 12Nov2025 at 23: 5:25 

     This program is part of the open-source Quantum ESPRESSO suite
     for quantum simulation of materials; please cite
         "P. Giannozzi et al., J. Phys.:Condens. Matter 21 395502 (2009);
         "P. Giannozzi et al., J. Phys.:Condens. Matter 29 465901 (2017);
         "P. Giannozzi et al., J. Chem. Phys. 152 154105 (2020);
          URL http://www.quantum-espresso.org", 
     in publications or presentations arising from this work. More details at
     http://www.quantum-espresso.org/quote

     Parallel version (MPI & OpenMP), running on      16 processor cores
     Number of MPI processes:                16
     Threads/MPI process:                     1

     MPI processes distributed on     1 nodes
     199053 MiB available memory on the printing compute node when the environment starts

     Reading input from TiFe_H_faces_xyz.in

     Current dimensions of program PWSCF are:
     Max number of different atomic species (ntypx) = 10
     Max number of k-points (npk) =  40000
     Max angular momentum in pseudopotentials (lmaxx) =  4
     file Fe.pbe-spn-kjpaw_psl.0.2.1.UPF: wavefunction(s)  3D renormalized

     IMPORTANT: XC functional enforced from input :
     Exchange-correlation= PBE
                           (   1   4   3   4   0   0   0)
     Any further DFT definition will be discarded
     Please, verify this is what you really want

     Message from routine setup:
     using ibrav=0 with symmetry is DISCOURAGED, use correct ibrav instead

     R & G space division:  proc/nbgrp/npool/nimage =      16
     Subspace diagonalization in iterative solution of the eigenvalue problem:
     a serial algorithm will be used


     Parallelization info
     --------------------
     sticks:   dense  smooth     PW     G-vecs:    dense   smooth      PW
     Min         269      76     22                13288     2024     320
     Max         271      77     23                13289     2027     323
     Sum        4309    1225    357               212623    32423    5137

     Using Slab Decomposition



     bravais-lattice index     =            0
     lattice parameter (alat)  =       5.5824  a.u.
     unit-cell volume          =     173.9675 (a.u.)^3
     number of atoms/cell      =            5
     number of atomic types    =            3
     number of electrons       =        31.00
     number of Kohn-Sham states=           20
     kinetic-energy cutoff     =     124.0000  Ry
     charge density cutoff     =    1736.0000  Ry
     scf convergence threshold =      1.0E-08
     mixing beta               =       0.7000
     number of iterations used =            8  plain     mixing
     energy convergence thresh.=      1.0E-04
     force convergence thresh. =      1.0E-03
     press convergence thresh. =      1.0E-01
     Exchange-correlation= PBE
                           (   1   4   3   4   0   0   0)
     nstep                     =           50


     celldm(1)=   5.582423  celldm(2)=   0.000000  celldm(3)=   0.000000
     celldm(4)=   0.000000  celldm(5)=   0.000000  celldm(6)=   0.000000

     crystal axes: (cart. coord. in units of alat)
               a(1) = (   1.000000   0.000000   0.000000 )  
               a(2) = (   0.000000   1.000000   0.000000 )  
               a(3) = (   0.000000   0.000000   1.000000 )  

     reciprocal axes: (cart. coord. in units 2 pi/alat)
               b(1) = (  1.000000  0.000000  0.000000 )  
               b(2) = (  0.000000  1.000000  0.000000 )  
               b(3) = (  0.000000  0.000000  1.000000 )  


     PseudoPot. # 1 for Fe read from file:
     ../../pseudos/Fe.pbe-spn-kjpaw_psl.0.2.1.UPF
     MD5 check sum: e86618425769142926afa95317d90200
     Pseudo is Projector augmented-wave + core cor, Zval = 16.0
     Generated using "atomic" code by A. Dal Corso  v.5.0.99 svn rev. 10869
     Shape of augmentation charge: PSQ
     Using radial grid of 1191 points,  6 beta functions with: 
                l(1) =   0
                l(2) =   0
                l(3) =   1
                l(4) =   1
                l(5) =   2
                l(6) =   2
     Q(r) pseudized with 0 coefficients 


     PseudoPot. # 2 for Ti read from file:
     ../../pseudos/ti_pbe_v1.4.uspp.F.UPF
     MD5 check sum: 88a00a6731bd790ddea75d31a80cb452
     Pseudo is Ultrasoft + core correction, Zval = 12.0
     Generated by new atomic code, or converted to UPF format
     Using radial grid of  851 points,  6 beta functions with: 
                l(1) =   0
                l(2) =   0
                l(3) =   1
                l(4) =   1
                l(5) =   2
                l(6) =   2
     Q(r) pseudized with  6 coefficients,  rinner =    1.000   1.000   1.000
                                                       1.000   1.000

     PseudoPot. # 3 for H  read from file:
     ../../pseudos/H.pbe-rrkjus_psl.1.0.0.UPF
     MD5 check sum: f52b6d4d1c606e5624b1dc7b2218f220
     Pseudo is Ultrasoft, Zval =  1.0
     Generated using "atomic" code by A. Dal Corso  v.5.1
     Using radial grid of  929 points,  2 beta functions with: 
                l(1) =   0
                l(2) =   0
     Q(r) pseudized with 0 coefficients 


     atomic species   valence    mass     pseudopotential
     Fe               16.00    55.84500     Fe( 1.00)
     Ti               12.00    47.86700     Ti( 1.00)
     H                 1.00     1.00750     H ( 1.00)

     48 Sym. Ops., with inversion, found



   Cartesian axes

     site n.     atom                  positions (alat units)
         1        Fe     tau(   1) = (   0.5000000   0.5000000   0.5000000  )
         2        Ti     tau(   2) = (   0.0000000   0.0000000   0.0000000  )
         3        H      tau(   3) = (   0.5000000   0.0000000   0.5000000  )
         4        H      tau(   4) = (   0.0000000   0.5000000   0.5000000  )
         5        H      tau(   5) = (   0.5000000   0.5000000   0.0000000  )

     number of k points=   120  Marzari-Vanderbilt smearing, width (Ry)=  0.0050

     Number of k-points >= 100: set verbosity='high' to print them.

     Dense  grid:   212623 G-vectors     FFT dimensions: (  75,  75,  75)

     Smooth grid:    32423 G-vectors     FFT dimensions: (  40,  40,  40)

     Estimated max dynamical RAM per process >      78.49 MB

     Estimated total dynamical RAM >       1.23 GB

     Check: negative core charge=   -0.000001

     Initial potential from superposition of free atoms

     starting charge      29.9995, renormalised to      31.0000

     negative rho (up, down):  1.317E-03 0.000E+00
     Starting wfcs are   26 randomized atomic wfcs
     Checking if some PAW data can be deallocated... 

     total cpu time spent up to now is        1.8 secs

     per-process dynamical memory:   147.3 Mb

     Self-consistent Calculation

     iteration #  1     ecut=   124.00 Ry     beta= 0.70
     Davidson diagonalization with overlap
     ethr =  1.00E-02,  avg # of iterations =  2.5

     negative rho (up, down):  1.737E-05 0.000E+00

     total cpu time spent up to now is        3.3 secs

     total energy              =    -444.31592661 Ry
     estimated scf accuracy    <       9.75736035 Ry

     iteration #  2     ecut=   124.00 Ry     beta= 0.70
     Davidson diagonalization with overlap
     ethr =  1.00E-02,  avg # of iterations =  5.2

     negative rho (up, down):  1.541E-04 0.000E+00

     total cpu time spent up to now is        5.6 secs

     total energy              =    -451.36864865 Ry
     estimated scf accuracy    <      44.18421850 Ry

     iteration #  3     ecut=   124.00 Ry     beta= 0.70
     Davidson diagonalization with overlap
     ethr =  1.00E-02,  avg # of iterations =  2.5

     negative rho (up, down):  3.622E-04 0.000E+00

     total cpu time spent up to now is        7.3 secs

     WARNING: integrated charge=    31.00000628, expected=    31.00000000

     total energy              =    -452.35797417 Ry
     estimated scf accuracy    <       9.84665070 Ry

     iteration #  4     ecut=   124.00 Ry     beta= 0.70
     Davidson diagonalization with overlap
     ethr =  1.00E-02,  avg # of iterations =  1.7

     negative rho (up, down):  8.085E-04 0.000E+00

     total cpu time spent up to now is        8.5 secs

     WARNING: integrated charge=    30.99997518, expected=    31.00000000

     total energy              =    -451.93920103 Ry
     estimated scf accuracy    <       4.77853576 Ry

     iteration #  5     ecut=   124.00 Ry     beta= 0.70
     Davidson diagonalization with overlap
     ethr =  1.00E-02,  avg # of iterations =  2.6

     negative rho (up, down):  1.035E-03 0.000E+00

     total cpu time spent up to now is        9.9 secs

     WARNING: integrated charge=    30.99998037, expected=    31.00000000

     total energy              =    -451.62871923 Ry
     estimated scf accuracy    <       1.78588096 Ry

     iteration #  6     ecut=   124.00 Ry     beta= 0.70
     Davidson diagonalization with overlap
     ethr =  5.76E-03,  avg # of iterations =  2.9

     negative rho (up, down):  1.049E-03 0.000E+00

     total cpu time spent up to now is       11.3 secs

     WARNING: integrated charge=    30.99998004, expected=    31.00000000

     total energy              =    -452.05365077 Ry
     estimated scf accuracy    <       2.18981834 Ry

     iteration #  7     ecut=   124.00 Ry     beta= 0.70
     Davidson diagonalization with overlap
     ethr =  5.76E-03,  avg # of iterations =  1.1

     negative rho (up, down):  1.042E-03 0.000E+00

     total cpu time spent up to now is       12.5 secs

     WARNING: integrated charge=    30.99997952, expected=    31.00000000

     total energy              =    -452.05906311 Ry
     estimated scf accuracy    <       2.68684110 Ry

     iteration #  8     ecut=   124.00 Ry     beta= 0.70
     Davidson diagonalization with overlap
     ethr =  5.76E-03,  avg # of iterations =  1.0

     negative rho (up, down):  1.014E-03 0.000E+00

     total cpu time spent up to now is       13.7 secs

     WARNING: integrated charge=    30.99998013, expected=    31.00000000

     total energy              =    -452.03019408 Ry
     estimated scf accuracy    <       2.56882682 Ry

     iteration #  9     ecut=   124.00 Ry     beta= 0.70
     Davidson diagonalization with overlap
     ethr =  5.76E-03,  avg # of iterations =  1.1

     negative rho (up, down):  1.025E-03 0.000E+00

     total cpu time spent up to now is       15.0 secs

     WARNING: integrated charge=    30.99998400, expected=    31.00000000

     total energy              =    -452.04297923 Ry
     estimated scf accuracy    <       1.90281301 Ry

     iteration # 10     ecut=   124.00 Ry     beta= 0.70
     Davidson diagonalization with overlap
     ethr =  5.76E-03,  avg # of iterations =  1.0

     negative rho (up, down):  9.336E-04 0.000E+00

     total cpu time spent up to now is       16.2 secs

     total energy              =    -451.88546554 Ry
     estimated scf accuracy    <       2.10749497 Ry

     iteration # 11     ecut=   124.00 Ry     beta= 0.70
     Davidson diagonalization with overlap
     ethr =  5.76E-03,  avg # of iterations =  1.3

     negative rho (up, down):  9.423E-04 0.000E+00

     total cpu time spent up to now is       17.4 secs

     total energy              =    -451.95409152 Ry
     estimated scf accuracy    <       0.10040306 Ry

     iteration # 12     ecut=   124.00 Ry     beta= 0.70
     Davidson diagonalization with overlap
     ethr =  3.24E-04,  avg # of iterations =  2.2

     negative rho (up, down):  9.571E-04 0.000E+00

     total cpu time spent up to now is       18.7 secs

     total energy              =    -451.96082335 Ry
     estimated scf accuracy    <       0.20778283 Ry

     iteration # 13     ecut=   124.00 Ry     beta= 0.70
     Davidson diagonalization with overlap
     ethr =  3.24E-04,  avg # of iterations =  1.0

     negative rho (up, down):  8.568E-04 0.000E+00

     total cpu time spent up to now is       19.9 secs

     total energy              =    -451.94482418 Ry
     estimated scf accuracy    <       0.29311014 Ry

     iteration # 14     ecut=   124.00 Ry     beta= 0.70
     Davidson diagonalization with overlap
     ethr =  3.24E-04,  avg # of iterations =  1.2

     negative rho (up, down):  8.563E-04 0.000E+00

     total cpu time spent up to now is       21.2 secs

     total energy              =    -451.94878971 Ry
     estimated scf accuracy    <       0.07574299 Ry

     iteration # 15     ecut=   124.00 Ry     beta= 0.70
     Davidson diagonalization with overlap
     ethr =  2.44E-04,  avg # of iterations =  1.0

     negative rho (up, down):  8.103E-04 0.000E+00

     total cpu time spent up to now is       22.4 secs

     WARNING: integrated charge=    30.99999468, expected=    31.00000000

     total energy              =    -451.93650451 Ry
     estimated scf accuracy    <       0.07332437 Ry

     iteration # 16     ecut=   124.00 Ry     beta= 0.70
     Davidson diagonalization with overlap
     ethr =  2.37E-04,  avg # of iterations =  1.9

     negative rho (up, down):  6.642E-04 0.000E+00

     total cpu time spent up to now is       23.7 secs

     total energy              =    -451.94744724 Ry
     estimated scf accuracy    <       0.01692392 Ry

     iteration # 17     ecut=   124.00 Ry     beta= 0.70
     Davidson diagonalization with overlap
     ethr =  5.46E-05,  avg # of iterations =  2.5

     negative rho (up, down):  7.173E-04 0.000E+00

     total cpu time spent up to now is       25.0 secs

     WARNING: integrated charge=    30.99999501, expected=    31.00000000

     total energy              =    -451.95001531 Ry
     estimated scf accuracy    <       0.03873940 Ry

     iteration # 18     ecut=   124.00 Ry     beta= 0.70
     Davidson diagonalization with overlap
     ethr =  5.46E-05,  avg # of iterations =  1.2

     negative rho (up, down):  7.651E-04 0.000E+00

     total cpu time spent up to now is       26.2 secs

     total energy              =    -451.94427297 Ry
     estimated scf accuracy    <       0.07221875 Ry

     iteration # 19     ecut=   124.00 Ry     beta= 0.70
     Davidson diagonalization with overlap
     ethr =  5.46E-05,  avg # of iterations =  1.4

     negative rho (up, down):  7.831E-04 0.000E+00

     total cpu time spent up to now is       27.5 secs

     total energy              =    -451.94431513 Ry
     estimated scf accuracy    <       0.01363680 Ry

     iteration # 20     ecut=   124.00 Ry     beta= 0.70
     Davidson diagonalization with overlap
     ethr =  4.40E-05,  avg # of iterations =  1.5

     negative rho (up, down):  7.886E-04 0.000E+00

     total cpu time spent up to now is       28.7 secs

     total energy              =    -451.94495552 Ry
     estimated scf accuracy    <       0.00036323 Ry

     iteration # 21     ecut=   124.00 Ry     beta= 0.70
     Davidson diagonalization with overlap
     ethr =  1.17E-06,  avg # of iterations =  3.7

     negative rho (up, down):  7.890E-04 0.000E+00

     total cpu time spent up to now is       30.2 secs

     total energy              =    -451.94500356 Ry
     estimated scf accuracy    <       0.00008977 Ry

     iteration # 22     ecut=   124.00 Ry     beta= 0.70
     Davidson diagonalization with overlap
     ethr =  2.90E-07,  avg # of iterations =  1.4

     negative rho (up, down):  7.910E-04 0.000E+00

     total cpu time spent up to now is       31.4 secs

     total energy              =    -451.94500129 Ry
     estimated scf accuracy    <       0.00003803 Ry

     iteration # 23     ecut=   124.00 Ry     beta= 0.70
     Davidson diagonalization with overlap
     ethr =  1.23E-07,  avg # of iterations =  1.1

     negative rho (up, down):  7.987E-04 0.000E+00

     total cpu time spent up to now is       32.6 secs

     total energy              =    -451.94498862 Ry
     estimated scf accuracy    <       0.00002202 Ry

     iteration # 24     ecut=   124.00 Ry     beta= 0.70
     Davidson diagonalization with overlap
     ethr =  7.10E-08,  avg # of iterations =  2.1

     negative rho (up, down):  7.996E-04 0.000E+00

     total cpu time spent up to now is       34.0 secs

     total energy              =    -451.94499309 Ry
     estimated scf accuracy    <       0.00000849 Ry

     iteration # 25     ecut=   124.00 Ry     beta= 0.70
     Davidson diagonalization with overlap
     ethr =  2.74E-08,  avg # of iterations =  1.1

     negative rho (up, down):  7.997E-04 0.000E+00

     total cpu time spent up to now is       35.3 secs

     total energy              =    -451.94499362 Ry
     estimated scf accuracy    <       0.00000014 Ry

     iteration # 26     ecut=   124.00 Ry     beta= 0.70
     Davidson diagonalization with overlap
     ethr =  4.68E-10,  avg # of iterations =  4.7

     negative rho (up, down):  7.998E-04 0.000E+00

     total cpu time spent up to now is       37.2 secs

     total energy              =    -451.94499370 Ry
     estimated scf accuracy    <       0.00000003 Ry

     iteration # 27     ecut=   124.00 Ry     beta= 0.70
     Davidson diagonalization with overlap
     ethr =  1.09E-10,  avg # of iterations =  2.0

     negative rho (up, down):  7.999E-04 0.000E+00

     total cpu time spent up to now is       38.5 secs

     End of self-consistent calculation

     Number of k-points >= 100: set verbosity='high' to print the bands.

     the Fermi energy is    20.0834 ev

!    total energy              =    -451.94499369 Ry
     estimated scf accuracy    <          8.5E-09 Ry
     smearing contrib. (-TS)   =      -0.00008481 Ry
     internal energy E=F+TS    =    -451.94490888 Ry

     The total energy is F=E-TS. E is the sum of the following terms:
     one-electron contribution =    -142.04551452 Ry
     hartree contribution      =      91.95690400 Ry
     xc contribution           =     -55.92149180 Ry
     ewald contribution        =    -269.77901587 Ry
     one-center paw contrib.   =     -76.15579069 Ry

     convergence has been achieved in  27 iterations

     negative rho (up, down):  7.999E-04 0.000E+00

     Forces acting on atoms (cartesian axes, Ry/au):

     atom    1 type  1   force =     0.00000000    0.00000000    0.00000000
     atom    2 type  2   force =     0.00000000    0.00000000    0.00000000
     atom    3 type  3   force =     0.00000000    0.00000000    0.00000000
     atom    4 type  3   force =     0.00000000    0.00000000    0.00000000
     atom    5 type  3   force =     0.00000000    0.00000000    0.00000000

     Total force =     0.000000     Total SCF correction =     0.000000


     Computing stress (Cartesian axis) and pressure


     negative rho (up, down):  7.999E-04 0.000E+00
          total   stress  (Ry/bohr**3)                   (kbar)     P=      857.32
   0.00582797   0.00000000   0.00000000          857.32        0.00        0.00
   0.00000000   0.00582797   0.00000000            0.00      857.32        0.00
   0.00000000   0.00000000   0.00582797            0.00        0.00      857.32


     BFGS Geometry Optimization
     Energy error            =      3.2E-01 Ry
     Gradient error          =      0.0E+00 Ry/Bohr
     Cell gradient error     =      8.6E+02 kbar

     number of scf cycles    =   1
     number of bfgs steps    =   0

     enthalpy           new  =    -451.9449936947 Ry

     new trust radius        =       0.3843452323 bohr
     new conv_thr            =       0.0000000100 Ry

     new unit-cell volume =    261.62550 a.u.^3 (    38.76890 Ang^3 )
     density =      4.57162 g/cm^3

CELL_PARAMETERS (alat=  5.58242261)
   1.145699290   0.000000000   0.000000000
   0.000000000   1.145699290   0.000000000
   0.000000000   0.000000000   1.145699290

ATOMIC_POSITIONS (crystal)
Fe               0.5000000000        0.5000000000        0.5000000000
Ti               0.0000000000        0.0000000000        0.0000000000
H                0.5000000000        0.0000000000        0.5000000000
H                0.0000000000        0.5000000000        0.5000000000
H                0.5000000000        0.5000000000        0.0000000000



     Writing config-only to output data dir ./TiFe_H_faces_xyz.save/ :
     XML data file     NEW-OLD atomic charge density approx. for the potential
     New effective cutoffs (rho, wfc): 1322.19   94.46

     Check: negative core charge=   -0.000002

     negative rho (up, down):  1.021E-03 0.000E+00

     total cpu time spent up to now is       40.0 secs

     per-process dynamical memory:   152.0 Mb

     Self-consistent Calculation

     iteration #  1     ecut=   124.00 Ry     beta= 0.70
     Davidson diagonalization with overlap
     ethr =  1.00E-06,  avg # of iterations = 13.7

     negative rho (up, down):  5.035E-04 0.000E+00

     total cpu time spent up to now is       44.9 secs

     total energy              =    -451.96966386 Ry
     estimated scf accuracy    <       0.11110297 Ry

     iteration #  2     ecut=   124.00 Ry     beta= 0.70
     Davidson diagonalization with overlap
     ethr =  3.58E-04,  avg # of iterations =  5.9

     negative rho (up, down):  6.543E-04 0.000E+00

     total cpu time spent up to now is       46.9 secs

     total energy              =    -451.84349235 Ry
     estimated scf accuracy    <       4.64447035 Ry

     iteration #  3     ecut=   124.00 Ry     beta= 0.70
     Davidson diagonalization with overlap
     ethr =  3.58E-04,  avg # of iterations =  5.2

     negative rho (up, down):  7.742E-04 0.000E+00

     total cpu time spent up to now is       48.8 secs

     total energy              =    -452.04438354 Ry
     estimated scf accuracy    <       0.11564893 Ry

     iteration #  4     ecut=   124.00 Ry     beta= 0.70
     Davidson diagonalization with overlap
     ethr =  3.58E-04,  avg # of iterations =  2.2

     negative rho (up, down):  8.350E-04 0.000E+00

     total cpu time spent up to now is       50.2 secs

     total energy              =    -452.04935126 Ry
     estimated scf accuracy    <       0.03431028 Ry

     iteration #  5     ecut=   124.00 Ry     beta= 0.70
     Davidson diagonalization with overlap
     ethr =  1.11E-04,  avg # of iterations =  4.2

     negative rho (up, down):  7.834E-04 0.000E+00

     total cpu time spent up to now is       51.7 secs

     total energy              =    -452.05212210 Ry
     estimated scf accuracy    <       0.08619361 Ry

     iteration #  6     ecut=   124.00 Ry     beta= 0.70
     Davidson diagonalization with overlap
     ethr =  1.11E-04,  avg # of iterations =  1.4

     negative rho (up, down):  7.789E-04 0.000E+00

     total cpu time spent up to now is       53.0 secs

     total energy              =    -452.05555495 Ry
     estimated scf accuracy    <       0.00062240 Ry

     iteration #  7     ecut=   124.00 Ry     beta= 0.70
     Davidson diagonalization with overlap
     ethr =  2.01E-06,  avg # of iterations =  4.8

     negative rho (up, down):  7.701E-04 0.000E+00

     total cpu time spent up to now is       54.7 secs

     total energy              =    -452.05573980 Ry
     estimated scf accuracy    <       0.00211959 Ry

     iteration #  8     ecut=   124.00 Ry     beta= 0.70
     Davidson diagonalization with overlap
     ethr =  2.01E-06,  avg # of iterations =  1.6

     negative rho (up, down):  7.682E-04 0.000E+00

     total cpu time spent up to now is       55.9 secs

     total energy              =    -452.05579895 Ry
     estimated scf accuracy    <       0.00008059 Ry

     iteration #  9     ecut=   124.00 Ry     beta= 0.70
     Davidson diagonalization with overlap
     ethr =  2.60E-07,  avg # of iterations =  3.2

     negative rho (up, down):  7.665E-04 0.000E+00

     total cpu time spent up to now is       57.3 secs

     total energy              =    -452.05580328 Ry
     estimated scf accuracy    <       0.00001157 Ry

     iteration # 10     ecut=   124.00 Ry     beta= 0.70
     Davidson diagonalization with overlap
     ethr =  3.73E-08,  avg # of iterations =  3.8

     negative rho (up, down):  7.668E-04 0.000E+00

     total cpu time spent up to now is       58.9 secs

     total energy              =    -452.05580628 Ry
     estimated scf accuracy    <       0.00000966 Ry

     iteration # 11     ecut=   124.00 Ry     beta= 0.70
     Davidson diagonalization with overlap
     ethr =  3.12E-08,  avg # of iterations =  1.0

     negative rho (up, down):  7.673E-04 0.000E+00

     total cpu time spent up to now is       60.1 secs

     total energy              =    -452.05580599 Ry
     estimated scf accuracy    <       0.00000477 Ry

     iteration # 12     ecut=   124.00 Ry     beta= 0.70
     Davidson diagonalization with overlap
     ethr =  1.54E-08,  avg # of iterations =  1.4

     negative rho (up, down):  7.675E-04 0.000E+00

     total cpu time spent up to now is       61.4 secs

     total energy              =    -452.05580615 Ry
     estimated scf accuracy    <       0.00000029 Ry

     iteration # 13     ecut=   124.00 Ry     beta= 0.70
     Davidson diagonalization with overlap
     ethr =  9.49E-10,  avg # of iterations =  4.0

     negative rho (up, down):  7.675E-04 0.000E+00

     total cpu time spent up to now is       63.0 secs

     End of self-consistent calculation

     Number of k-points >= 100: set verbosity='high' to print the bands.

     the Fermi energy is    12.4498 ev

!    total energy              =    -452.05580622 Ry
     estimated scf accuracy    <          3.4E-09 Ry
     smearing contrib. (-TS)   =      -0.00014222 Ry
     internal energy E=F+TS    =    -452.05566400 Ry

     The total energy is F=E-TS. E is the sum of the following terms:
     one-electron contribution =    -195.58239030 Ry
     hartree contribution      =     110.08174121 Ry
     xc contribution           =     -54.93750583 Ry
     ewald contribution        =    -235.47105089 Ry
     one-center paw contrib.   =     -76.14645818 Ry

     convergence has been achieved in  13 iterations

     negative rho (up, down):  7.675E-04 0.000E+00

     Forces acting on atoms (cartesian axes, Ry/au):

     atom    1 type  1   force =     0.00000000    0.00000000    0.00000000
     atom    2 type  2   force =     0.00000000    0.00000000    0.00000000
     atom    3 type  3   force =     0.00000000    0.00000000    0.00000000
     atom    4 type  3   force =     0.00000000    0.00000000    0.00000000
     atom    5 type  3   force =     0.00000000    0.00000000    0.00000000

     Total force =     0.000000     Total SCF correction =     0.000000


     Computing stress (Cartesian axis) and pressure


     negative rho (up, down):  7.675E-04 0.000E+00
          total   stress  (Ry/bohr**3)                   (kbar)     P=     -167.55
  -0.00113900   0.00000000   0.00000000         -167.55        0.00        0.00
   0.00000000  -0.00113900   0.00000000            0.00     -167.55        0.00
   0.00000000   0.00000000  -0.00113900            0.00        0.00     -167.55

     Energy error            =      1.1E-01 Ry
     Gradient error          =      0.0E+00 Ry/Bohr
     Cell gradient error     =      1.7E+02 kbar

     number of scf cycles    =   2
     number of bfgs steps    =   1

     enthalpy           old  =    -451.9449936947 Ry
     enthalpy           new  =    -452.0558062210 Ry

     CASE: enthalpy          _new < enthalpy          _old

     new trust radius        =       0.0839901428 bohr
     new conv_thr            =            1.0E-10 Ry

     new unit-cell volume =    241.77208 a.u.^3 (    35.82693 Ang^3 )
     density =      4.94703 g/cm^3

CELL_PARAMETERS (alat=  5.58242261)
   1.115953265   0.000000000   0.000000000
   0.000000000   1.115953265   0.000000000
   0.000000000   0.000000000   1.115953265

ATOMIC_POSITIONS (crystal)
Fe               0.5000000000        0.5000000000        0.5000000000
Ti               0.0000000000        0.0000000000        0.0000000000
H                0.5000000000        0.0000000000        0.5000000000
H                0.0000000000        0.5000000000        0.5000000000
H                0.5000000000        0.5000000000        0.0000000000



     Writing config-only to output data dir ./TiFe_H_faces_xyz.save/ :
     XML data file     NEW-OLD atomic charge density approx. for the potential
     New effective cutoffs (rho, wfc): 1393.62   99.56

     Check: negative core charge=   -0.000003

     negative rho (up, down):  7.207E-04 0.000E+00

     total cpu time spent up to now is       64.5 secs

     per-process dynamical memory:   152.1 Mb

     Self-consistent Calculation

     iteration #  1     ecut=   124.00 Ry     beta= 0.70
     Davidson diagonalization with overlap
     ethr =  1.00E-06,  avg # of iterations =  8.0

     negative rho (up, down):  8.258E-04 0.000E+00

     total cpu time spent up to now is       67.6 secs

     total energy              =    -452.06849489 Ry
     estimated scf accuracy    <       0.00504754 Ry

     iteration #  2     ecut=   124.00 Ry     beta= 0.70
     Davidson diagonalization with overlap
     ethr =  1.63E-05,  avg # of iterations =  6.1

     negative rho (up, down):  7.823E-04 0.000E+00

     total cpu time spent up to now is       69.7 secs

     total energy              =    -452.01932245 Ry
     estimated scf accuracy    <       1.54676094 Ry

     iteration #  3     ecut=   124.00 Ry     beta= 0.70
     Davidson diagonalization with overlap
     ethr =  1.63E-05,  avg # of iterations =  5.8

     negative rho (up, down):  7.703E-04 0.000E+00

     total cpu time spent up to now is       71.7 secs

     total energy              =    -452.07212379 Ry
     estimated scf accuracy    <       0.00216786 Ry

     iteration #  4     ecut=   124.00 Ry     beta= 0.70
     Davidson diagonalization with overlap
     ethr =  6.99E-06,  avg # of iterations =  2.1

     negative rho (up, down):  7.767E-04 0.000E+00

     total cpu time spent up to now is       73.1 secs

     total energy              =    -452.07249204 Ry
     estimated scf accuracy    <       0.00003364 Ry

     iteration #  5     ecut=   124.00 Ry     beta= 0.70
     Davidson diagonalization with overlap
     ethr =  1.09E-07,  avg # of iterations =  4.7

     negative rho (up, down):  7.798E-04 0.000E+00

     total cpu time spent up to now is       74.9 secs

     total energy              =    -452.07250662 Ry
     estimated scf accuracy    <       0.00006182 Ry

     iteration #  6     ecut=   124.00 Ry     beta= 0.70
     Davidson diagonalization with overlap
     ethr =  1.09E-07,  avg # of iterations =  2.0

     negative rho (up, down):  7.809E-04 0.000E+00

     total cpu time spent up to now is       76.2 secs

     total energy              =    -452.07250852 Ry
     estimated scf accuracy    <       0.00000785 Ry

     iteration #  7     ecut=   124.00 Ry     beta= 0.70
     Davidson diagonalization with overlap
     ethr =  2.53E-08,  avg # of iterations =  2.1

     negative rho (up, down):  7.809E-04 0.000E+00

     total cpu time spent up to now is       77.6 secs

     total energy              =    -452.07250935 Ry
     estimated scf accuracy    <       0.00000007 Ry

     iteration #  8     ecut=   124.00 Ry     beta= 0.70
     Davidson diagonalization with overlap
     ethr =  2.14E-10,  avg # of iterations =  5.8

     negative rho (up, down):  7.809E-04 0.000E+00

     total cpu time spent up to now is       79.8 secs

     total energy              =    -452.07250951 Ry
     estimated scf accuracy    <       0.00000011 Ry

     iteration #  9     ecut=   124.00 Ry     beta= 0.70
     Davidson diagonalization with overlap
     ethr =  2.14E-10,  avg # of iterations =  1.0

     negative rho (up, down):  7.809E-04 0.000E+00

     total cpu time spent up to now is       81.1 secs

     total energy              =    -452.07250949 Ry
     estimated scf accuracy    <       0.00000007 Ry

     iteration # 10     ecut=   124.00 Ry     beta= 0.70
     Davidson diagonalization with overlap
     ethr =  2.14E-10,  avg # of iterations =  2.0

     negative rho (up, down):  7.808E-04 0.000E+00

     total cpu time spent up to now is       82.4 secs

     total energy              =    -452.07250950 Ry
     estimated scf accuracy    <          5.1E-09 Ry

     iteration # 11     ecut=   124.00 Ry     beta= 0.70
     Davidson diagonalization with overlap
     ethr =  1.64E-11,  avg # of iterations =  2.6

     negative rho (up, down):  7.808E-04 0.000E+00

     total cpu time spent up to now is       83.8 secs

     total energy              =    -452.07250950 Ry
     estimated scf accuracy    <          1.8E-10 Ry

     iteration # 12     ecut=   124.00 Ry     beta= 0.70
     Davidson diagonalization with overlap
     ethr =  5.86E-13,  avg # of iterations =  5.5

     negative rho (up, down):  7.808E-04 0.000E+00

     total cpu time spent up to now is       85.9 secs

     total energy              =    -452.07250950 Ry
     estimated scf accuracy    <          6.1E-10 Ry

     iteration # 13     ecut=   124.00 Ry     beta= 0.70
     Davidson diagonalization with overlap
     ethr =  5.86E-13,  avg # of iterations =  3.0

     negative rho (up, down):  7.808E-04 0.000E+00

     total cpu time spent up to now is       87.3 secs

     End of self-consistent calculation

     Number of k-points >= 100: set verbosity='high' to print the bands.

     the Fermi energy is    13.7229 ev

!    total energy              =    -452.07250950 Ry
     estimated scf accuracy    <          5.3E-12 Ry
     smearing contrib. (-TS)   =      -0.00010929 Ry
     internal energy E=F+TS    =    -452.07240021 Ry

     The total energy is F=E-TS. E is the sum of the following terms:
     one-electron contribution =    -185.63149080 Ry
     hartree contribution      =     106.54873296 Ry
     xc contribution           =     -55.09394514 Ry
     ewald contribution        =    -241.74759305 Ry
     one-center paw contrib.   =     -76.14810416 Ry

     convergence has been achieved in  13 iterations

     negative rho (up, down):  7.808E-04 0.000E+00

     Forces acting on atoms (cartesian axes, Ry/au):

     atom    1 type  1   force =     0.00000000    0.00000000    0.00000000
     atom    2 type  2   force =     0.00000000    0.00000000    0.00000000
     atom    3 type  3   force =     0.00000000    0.00000000    0.00000000
     atom    4 type  3   force =     0.00000000    0.00000000    0.00000000
     atom    5 type  3   force =     0.00000000    0.00000000    0.00000000

     Total force =     0.000000     Total SCF correction =     0.000000


     Computing stress (Cartesian axis) and pressure


     negative rho (up, down):  7.808E-04 0.000E+00
          total   stress  (Ry/bohr**3)                   (kbar)     P=      -73.14
  -0.00049719   0.00000000   0.00000000          -73.14        0.00        0.00
   0.00000000  -0.00049719   0.00000000            0.00      -73.14        0.00
   0.00000000   0.00000000  -0.00049719            0.00        0.00      -73.14

     Energy error            =      1.7E-02 Ry
     Gradient error          =      0.0E+00 Ry/Bohr
     Cell gradient error     =      7.3E+01 kbar

     number of scf cycles    =   3
     number of bfgs steps    =   2

     enthalpy           old  =    -452.0558062210 Ry
     enthalpy           new  =    -452.0725094986 Ry

     CASE: enthalpy          _new < enthalpy          _old

     new trust radius        =       0.0585965127 bohr
     new conv_thr            =            1.0E-10 Ry

     new unit-cell volume =    228.36121 a.u.^3 (    33.83964 Ang^3 )
     density =      5.23755 g/cm^3

CELL_PARAMETERS (alat=  5.58242261)
   1.094925908   0.000000000   0.000000000
   0.000000000   1.094925908   0.000000000
   0.000000000   0.000000000   1.094925908

ATOMIC_POSITIONS (crystal)
Fe               0.5000000000        0.5000000000        0.5000000000
Ti               0.0000000000        0.0000000000        0.0000000000
H                0.5000000000        0.0000000000        0.5000000000
H                0.0000000000        0.5000000000        0.5000000000
H                0.5000000000        0.5000000000        0.0000000000



     Writing config-only to output data dir ./TiFe_H_faces_xyz.save/ :
     XML data file     NEW-OLD atomic charge density approx. for the potential
     New effective cutoffs (rho, wfc): 1447.66  103.42

     Check: negative core charge=   -0.000003

     negative rho (up, down):  7.413E-04 0.000E+00

     total cpu time spent up to now is       88.8 secs

     per-process dynamical memory:   152.1 Mb

     Self-consistent Calculation

     iteration #  1     ecut=   124.00 Ry     beta= 0.70
     Davidson diagonalization with overlap
     ethr =  1.00E-06,  avg # of iterations =  8.2

     negative rho (up, down):  8.076E-04 0.000E+00

     total cpu time spent up to now is       91.8 secs

     total energy              =    -452.07334805 Ry
     estimated scf accuracy    <       0.00213546 Ry

     iteration #  2     ecut=   124.00 Ry     beta= 0.70
     Davidson diagonalization with overlap
     ethr =  6.89E-06,  avg # of iterations =  5.8

     negative rho (up, down):  7.827E-04 0.000E+00

     total cpu time spent up to now is       93.9 secs

     total energy              =    -452.05755416 Ry
     estimated scf accuracy    <       0.45474357 Ry

     iteration #  3     ecut=   124.00 Ry     beta= 0.70
     Davidson diagonalization with overlap
     ethr =  6.89E-06,  avg # of iterations =  5.6

     negative rho (up, down):  7.762E-04 0.000E+00

     total cpu time spent up to now is       95.9 secs

     total energy              =    -452.07508301 Ry
     estimated scf accuracy    <       0.00051390 Ry

     iteration #  4     ecut=   124.00 Ry     beta= 0.70
     Davidson diagonalization with overlap
     ethr =  1.66E-06,  avg # of iterations =  2.8

     negative rho (up, down):  7.807E-04 0.000E+00

     total cpu time spent up to now is       97.4 secs

     total energy              =    -452.07521909 Ry
     estimated scf accuracy    <       0.00007758 Ry

     iteration #  5     ecut=   124.00 Ry     beta= 0.70
     Davidson diagonalization with overlap
     ethr =  2.50E-07,  avg # of iterations =  2.8

     negative rho (up, down):  7.824E-04 0.000E+00

     total cpu time spent up to now is       98.7 secs

     total energy              =    -452.07522417 Ry
     estimated scf accuracy    <       0.00000956 Ry

     iteration #  6     ecut=   124.00 Ry     beta= 0.70
     Davidson diagonalization with overlap
     ethr =  3.08E-08,  avg # of iterations =  3.2

     negative rho (up, down):  7.827E-04 0.000E+00

     total cpu time spent up to now is      100.2 secs

     total energy              =    -452.07522548 Ry
     estimated scf accuracy    <       0.00000010 Ry

     iteration #  7     ecut=   124.00 Ry     beta= 0.70
     Davidson diagonalization with overlap
     ethr =  3.29E-10,  avg # of iterations =  5.6

     negative rho (up, down):  7.827E-04 0.000E+00

     total cpu time spent up to now is      102.3 secs

     total energy              =    -452.07522567 Ry
     estimated scf accuracy    <       0.00000003 Ry

     iteration #  8     ecut=   124.00 Ry     beta= 0.70
     Davidson diagonalization with overlap
     ethr =  9.32E-11,  avg # of iterations =  2.3

     negative rho (up, down):  7.827E-04 0.000E+00

     total cpu time spent up to now is      103.7 secs

     total energy              =    -452.07522566 Ry
     estimated scf accuracy    <          2.8E-09 Ry

     iteration #  9     ecut=   124.00 Ry     beta= 0.70
     Davidson diagonalization with overlap
     ethr =  9.14E-12,  avg # of iterations =  3.1

     negative rho (up, down):  7.827E-04 0.000E+00

     total cpu time spent up to now is      105.3 secs

     total energy              =    -452.07522566 Ry
     estimated scf accuracy    <          2.1E-10 Ry

     iteration # 10     ecut=   124.00 Ry     beta= 0.70
     Davidson diagonalization with overlap
     ethr =  6.77E-13,  avg # of iterations =  4.6

     negative rho (up, down):  7.827E-04 0.000E+00

     total cpu time spent up to now is      107.2 secs

     total energy              =    -452.07522566 Ry
     estimated scf accuracy    <          3.8E-10 Ry

     iteration # 11     ecut=   124.00 Ry     beta= 0.70
     Davidson diagonalization with overlap
     ethr =  6.77E-13,  avg # of iterations =  2.1

     negative rho (up, down):  7.827E-04 0.000E+00

     total cpu time spent up to now is      108.6 secs

     End of self-consistent calculation

     Number of k-points >= 100: set verbosity='high' to print the bands.

     the Fermi energy is    14.6996 ev

!    total energy              =    -452.07522566 Ry
     estimated scf accuracy    <          5.4E-11 Ry
     smearing contrib. (-TS)   =      -0.00007810 Ry
     internal energy E=F+TS    =    -452.07514757 Ry

     The total energy is F=E-TS. E is the sum of the following terms:
     one-electron contribution =    -178.31921433 Ry
     hartree contribution      =     104.00024437 Ry
     xc contribution           =     -55.21664002 Ry
     ewald contribution        =    -246.39020229 Ry
     one-center paw contrib.   =     -76.14933529 Ry

     convergence has been achieved in  11 iterations

     negative rho (up, down):  7.827E-04 0.000E+00

     Forces acting on atoms (cartesian axes, Ry/au):

     atom    1 type  1   force =     0.00000000    0.00000000    0.00000000
     atom    2 type  2   force =     0.00000000    0.00000000    0.00000000
     atom    3 type  3   force =     0.00000000    0.00000000    0.00000000
     atom    4 type  3   force =     0.00000000    0.00000000    0.00000000
     atom    5 type  3   force =     0.00000000    0.00000000    0.00000000

     Total force =     0.000000     Total SCF correction =     0.000000


     Computing stress (Cartesian axis) and pressure


     negative rho (up, down):  7.827E-04 0.000E+00
          total   stress  (Ry/bohr**3)                   (kbar)     P=       17.99
   0.00012227   0.00000000   0.00000000           17.99        0.00        0.00
   0.00000000   0.00012227   0.00000000            0.00       17.99        0.00
   0.00000000   0.00000000   0.00012227            0.00        0.00       17.99

     Energy error            =      2.7E-03 Ry
     Gradient error          =      0.0E+00 Ry/Bohr
     Cell gradient error     =      1.8E+01 kbar

     number of scf cycles    =   4
     number of bfgs steps    =   3

     enthalpy           old  =    -452.0725094986 Ry
     enthalpy           new  =    -452.0752256645 Ry

     CASE: enthalpy          _new < enthalpy          _old

     new trust radius        =       0.0111107590 bohr
     new conv_thr            =            1.0E-10 Ry

     new unit-cell volume =    230.88900 a.u.^3 (    34.21422 Ang^3 )
     density =      5.18021 g/cm^3

CELL_PARAMETERS (alat=  5.58242261)
   1.098951106   0.000000000   0.000000000
   0.000000000   1.098951106   0.000000000
   0.000000000   0.000000000   1.098951106

ATOMIC_POSITIONS (crystal)
Fe               0.5000000000        0.5000000000        0.5000000000
Ti               0.0000000000        0.0000000000        0.0000000000
H                0.5000000000        0.0000000000        0.5000000000
H                0.0000000000        0.5000000000        0.5000000000
H                0.5000000000        0.5000000000        0.0000000000



     Writing config-only to output data dir ./TiFe_H_faces_xyz.save/ :
     XML data file     NEW-OLD atomic charge density approx. for the potential
     New effective cutoffs (rho, wfc): 1437.07  102.67

     Check: negative core charge=   -0.000003

     negative rho (up, down):  7.885E-04 0.000E+00

     total cpu time spent up to now is      110.1 secs

     per-process dynamical memory:   151.7 Mb

     Self-consistent Calculation

     iteration #  1     ecut=   124.00 Ry     beta= 0.70
     Davidson diagonalization with overlap
     ethr =  1.00E-06,  avg # of iterations =  4.9

     negative rho (up, down):  7.776E-04 0.000E+00

     total cpu time spent up to now is      112.3 secs

     total energy              =    -452.07528562 Ry
     estimated scf accuracy    <       0.00006524 Ry

     iteration #  2     ecut=   124.00 Ry     beta= 0.70
     Davidson diagonalization with overlap
     ethr =  2.10E-07,  avg # of iterations =  5.3

     negative rho (up, down):  7.822E-04 0.000E+00

     total cpu time spent up to now is      114.2 secs

     total energy              =    -452.07491682 Ry
     estimated scf accuracy    <       0.01133580 Ry

     iteration #  3     ecut=   124.00 Ry     beta= 0.70
     Davidson diagonalization with overlap
     ethr =  2.10E-07,  avg # of iterations =  4.8

     negative rho (up, down):  7.837E-04 0.000E+00

     total cpu time spent up to now is      116.0 secs

     total energy              =    -452.07536320 Ry
     estimated scf accuracy    <       0.00001194 Ry

     iteration #  4     ecut=   124.00 Ry     beta= 0.70
     Davidson diagonalization with overlap
     ethr =  3.85E-08,  avg # of iterations =  3.2

     negative rho (up, down):  7.832E-04 0.000E+00

     total cpu time spent up to now is      117.6 secs

     total energy              =    -452.07536705 Ry
     estimated scf accuracy    <       0.00000340 Ry

     iteration #  5     ecut=   124.00 Ry     beta= 0.70
     Davidson diagonalization with overlap
     ethr =  1.10E-08,  avg # of iterations =  1.7

     negative rho (up, down):  7.828E-04 0.000E+00

     total cpu time spent up to now is      118.9 secs

     total energy              =    -452.07536722 Ry
     estimated scf accuracy    <       0.00000031 Ry

     iteration #  6     ecut=   124.00 Ry     beta= 0.70
     Davidson diagonalization with overlap
     ethr =  1.01E-09,  avg # of iterations =  4.5

     negative rho (up, down):  7.828E-04 0.000E+00

     total cpu time spent up to now is      120.5 secs

     total energy              =    -452.07536731 Ry
     estimated scf accuracy    <       0.00000005 Ry

     iteration #  7     ecut=   124.00 Ry     beta= 0.70
     Davidson diagonalization with overlap
     ethr =  1.46E-10,  avg # of iterations =  2.9

     negative rho (up, down):  7.828E-04 0.000E+00

     total cpu time spent up to now is      121.9 secs

     total energy              =    -452.07536731 Ry
     estimated scf accuracy    <       0.00000001 Ry

     iteration #  8     ecut=   124.00 Ry     beta= 0.70
     Davidson diagonalization with overlap
     ethr =  3.53E-11,  avg # of iterations =  2.1

     negative rho (up, down):  7.828E-04 0.000E+00

     total cpu time spent up to now is      123.3 secs

     total energy              =    -452.07536731 Ry
     estimated scf accuracy    <          1.2E-09 Ry

     iteration #  9     ecut=   124.00 Ry     beta= 0.70
     Davidson diagonalization with overlap
     ethr =  3.87E-12,  avg # of iterations =  4.0

     negative rho (up, down):  7.828E-04 0.000E+00

     total cpu time spent up to now is      124.9 secs

     End of self-consistent calculation

     Number of k-points >= 100: set verbosity='high' to print the bands.

     the Fermi energy is    14.5074 ev

!    total energy              =    -452.07536732 Ry
     estimated scf accuracy    <          1.2E-11 Ry
     smearing contrib. (-TS)   =      -0.00008438 Ry
     internal energy E=F+TS    =    -452.07528293 Ry

     The total energy is F=E-TS. E is the sum of the following terms:
     one-electron contribution =    -179.73750475 Ry
     hartree contribution      =     104.49137691 Ry
     xc contribution           =     -55.19232742 Ry
     ewald contribution        =    -245.48773314 Ry
     one-center paw contrib.   =     -76.14909453 Ry

     convergence has been achieved in   9 iterations

     negative rho (up, down):  7.828E-04 0.000E+00

     Forces acting on atoms (cartesian axes, Ry/au):

     atom    1 type  1   force =     0.00000000    0.00000000    0.00000000
     atom    2 type  2   force =     0.00000000    0.00000000    0.00000000
     atom    3 type  3   force =     0.00000000    0.00000000    0.00000000
     atom    4 type  3   force =     0.00000000    0.00000000    0.00000000
     atom    5 type  3   force =     0.00000000    0.00000000    0.00000000

     Total force =     0.000000     Total SCF correction =     0.000000


     Computing stress (Cartesian axis) and pressure


     negative rho (up, down):  7.828E-04 0.000E+00
          total   stress  (Ry/bohr**3)                   (kbar)     P=       -1.30
  -0.00000881   0.00000000   0.00000000           -1.30        0.00        0.00
   0.00000000  -0.00000881   0.00000000            0.00       -1.30        0.00
   0.00000000   0.00000000  -0.00000881            0.00        0.00       -1.30

     Energy error            =      1.4E-04 Ry
     Gradient error          =      0.0E+00 Ry/Bohr
     Cell gradient error     =      1.3E+00 kbar

     number of scf cycles    =   5
     number of bfgs steps    =   4

     enthalpy           old  =    -452.0752256645 Ry
     enthalpy           new  =    -452.0753673151 Ry

     CASE: enthalpy          _new < enthalpy          _old

     new trust radius        =       0.0007536440 bohr
     new conv_thr            =            1.0E-10 Ry

     new unit-cell volume =    230.71727 a.u.^3 (    34.18877 Ang^3 )
     density =      5.18406 g/cm^3

CELL_PARAMETERS (alat=  5.58242261)
   1.098678577   0.000000000   0.000000000
   0.000000000   1.098678577   0.000000000
   0.000000000   0.000000000   1.098678577

ATOMIC_POSITIONS (crystal)
Fe               0.5000000000        0.5000000000        0.5000000000
Ti               0.0000000000        0.0000000000        0.0000000000
H                0.5000000000        0.0000000000        0.5000000000
H                0.0000000000        0.5000000000        0.5000000000
H                0.5000000000        0.5000000000        0.0000000000



     Writing config-only to output data dir ./TiFe_H_faces_xyz.save/ :
     XML data file     NEW-OLD atomic charge density approx. for the potential
     New effective cutoffs (rho, wfc): 1437.78  102.72

     Check: negative core charge=   -0.000003

     negative rho (up, down):  7.824E-04 0.000E+00

     total cpu time spent up to now is      126.4 secs

     per-process dynamical memory:   152.3 Mb

     Self-consistent Calculation

     iteration #  1     ecut=   124.00 Ry     beta= 0.70
     Davidson diagonalization with overlap
     ethr =  1.00E-06,  avg # of iterations =  2.0

     Threshold (ethr) on eigenvalues was too large:
     Diagonalizing with lowered threshold

     Davidson diagonalization with overlap
     ethr =  9.70E-10,  avg # of iterations =  5.0

     negative rho (up, down):  7.831E-04 0.000E+00

     total cpu time spent up to now is      129.6 secs

     total energy              =    -452.07536774 Ry
     estimated scf accuracy    <       0.00000026 Ry

     iteration #  2     ecut=   124.00 Ry     beta= 0.70
     Davidson diagonalization with overlap
     ethr =  8.45E-10,  avg # of iterations =  5.1

     negative rho (up, down):  7.828E-04 0.000E+00

     total cpu time spent up to now is      131.4 secs

     total energy              =    -452.07536634 Ry
     estimated scf accuracy    <       0.00004274 Ry

     iteration #  3     ecut=   124.00 Ry     beta= 0.70
     Davidson diagonalization with overlap
     ethr =  8.45E-10,  avg # of iterations =  4.8

     negative rho (up, down):  7.827E-04 0.000E+00

     total cpu time spent up to now is      133.2 secs

     total energy              =    -452.07536805 Ry
     estimated scf accuracy    <       0.00000009 Ry

     iteration #  4     ecut=   124.00 Ry     beta= 0.70
     Davidson diagonalization with overlap
     ethr =  2.97E-10,  avg # of iterations =  2.6

     negative rho (up, down):  7.828E-04 0.000E+00

     total cpu time spent up to now is      134.6 secs

     total energy              =    -452.07536809 Ry
     estimated scf accuracy    <       0.00000002 Ry

     iteration #  5     ecut=   124.00 Ry     beta= 0.70
     Davidson diagonalization with overlap
     ethr =  4.97E-11,  avg # of iterations =  2.4

     negative rho (up, down):  7.828E-04 0.000E+00

     total cpu time spent up to now is      136.0 secs

     total energy              =    -452.07536809 Ry
     estimated scf accuracy    <          9.1E-10 Ry

     iteration #  6     ecut=   124.00 Ry     beta= 0.70
     Davidson diagonalization with overlap
     ethr =  2.92E-12,  avg # of iterations =  4.4

     negative rho (up, down):  7.828E-04 0.000E+00

     total cpu time spent up to now is      137.7 secs

     total energy              =    -452.07536809 Ry
     estimated scf accuracy    <          1.4E-10 Ry

     iteration #  7     ecut=   124.00 Ry     beta= 0.70
     Davidson diagonalization with overlap
     ethr =  4.36E-13,  avg # of iterations =  3.3

     negative rho (up, down):  7.828E-04 0.000E+00

     total cpu time spent up to now is      139.2 secs

     End of self-consistent calculation

     Number of k-points >= 100: set verbosity='high' to print the bands.

     the Fermi energy is    14.5203 ev

!    total energy              =    -452.07536809 Ry
     estimated scf accuracy    <          4.5E-11 Ry
     smearing contrib. (-TS)   =      -0.00008396 Ry
     internal energy E=F+TS    =    -452.07528413 Ry

     The total energy is F=E-TS. E is the sum of the following terms:
     one-electron contribution =    -179.64164724 Ry
     hartree contribution      =     104.45804414 Ry
     xc contribution           =     -55.19394359 Ry
     ewald contribution        =    -245.54862681 Ry
     one-center paw contrib.   =     -76.14911062 Ry

     convergence has been achieved in   7 iterations

     negative rho (up, down):  7.828E-04 0.000E+00

     Forces acting on atoms (cartesian axes, Ry/au):

     atom    1 type  1   force =     0.00000000    0.00000000    0.00000000
     atom    2 type  2   force =     0.00000000    0.00000000    0.00000000
     atom    3 type  3   force =     0.00000000    0.00000000    0.00000000
     atom    4 type  3   force =     0.00000000    0.00000000    0.00000000
     atom    5 type  3   force =     0.00000000    0.00000000    0.00000000

     Total force =     0.000000     Total SCF correction =     0.000000


     Computing stress (Cartesian axis) and pressure


     negative rho (up, down):  7.828E-04 0.000E+00
          total   stress  (Ry/bohr**3)                   (kbar)     P=       -0.06
  -0.00000042   0.00000000   0.00000000           -0.06        0.00        0.00
   0.00000000  -0.00000042   0.00000000            0.00       -0.06        0.00
   0.00000000   0.00000000  -0.00000042            0.00        0.00       -0.06

     Energy error            =      7.7E-07 Ry
     Gradient error          =      0.0E+00 Ry/Bohr
     Cell gradient error     =      6.2E-02 kbar

     bfgs converged in   6 scf cycles and   5 bfgs steps
     (criteria: energy <  1.0E-04 Ry, force <  1.0E-03 Ry/Bohr, cell <  1.0E-01 kbar)

     End of BFGS Geometry Optimization

     Final enthalpy           =    -452.0753680897 Ry

     File ./TiFe_H_faces_xyz.bfgs deleted, as requested
Begin final coordinates
     new unit-cell volume =    230.71727 a.u.^3 (    34.18877 Ang^3 )
     density =      5.18406 g/cm^3

CELL_PARAMETERS (alat=  5.58242261)
   1.098678577   0.000000000   0.000000000
   0.000000000   1.098678577   0.000000000
   0.000000000   0.000000000   1.098678577

ATOMIC_POSITIONS (crystal)
Fe               0.5000000000        0.5000000000        0.5000000000
Ti               0.0000000000        0.0000000000        0.0000000000
H                0.5000000000        0.0000000000        0.5000000000
H                0.0000000000        0.5000000000        0.5000000000
H                0.5000000000        0.5000000000        0.0000000000
End final coordinates



     Writing config-only to output data dir ./TiFe_H_faces_xyz.save/ :
     XML data file
     Final scf calculation at the relaxed structure.
     The G-vectors are recalculated for the final unit cell
     Results may differ from those at the preceding step.

     Parallelization info
     --------------------
     sticks:   dense  smooth     PW     G-vecs:    dense   smooth      PW
     Min         324      92     26                17630     2686     415
     Max         325      93     28                17635     2689     419
     Sum        5193    1481    429               282113    43003    6667

     Using Slab Decomposition



     bravais-lattice index     =            0
     lattice parameter (alat)  =       5.5824  a.u.
     unit-cell volume          =     230.7173 (a.u.)^3
     number of atoms/cell      =            5
     number of atomic types    =            3
     number of electrons       =        31.00
     number of Kohn-Sham states=           20
     kinetic-energy cutoff     =     124.0000  Ry
     charge density cutoff     =    1736.0000  Ry
     scf convergence threshold =      1.0E-10
     mixing beta               =       0.7000
     number of iterations used =            8  plain     mixing
     press convergence thresh. =      1.0E-01
     Exchange-correlation= PBE
                           (   1   4   3   4   0   0   0)

     celldm(1)=   5.582423  celldm(2)=   0.000000  celldm(3)=   0.000000
     celldm(4)=   0.000000  celldm(5)=   0.000000  celldm(6)=   0.000000

     crystal axes: (cart. coord. in units of alat)
               a(1) = (   1.098679   0.000000   0.000000 )  
               a(2) = (   0.000000   1.098679   0.000000 )  
               a(3) = (   0.000000   0.000000   1.098679 )  

     reciprocal axes: (cart. coord. in units 2 pi/alat)
               b(1) = (  0.910184  0.000000  0.000000 )  
               b(2) = (  0.000000  0.910184  0.000000 )  
               b(3) = (  0.000000  0.000000  0.910184 )  


     PseudoPot. # 1 for Fe read from file:
     ../../pseudos/Fe.pbe-spn-kjpaw_psl.0.2.1.UPF
     MD5 check sum: e86618425769142926afa95317d90200
     Pseudo is Projector augmented-wave + core cor, Zval = 16.0
     Generated using "atomic" code by A. Dal Corso  v.5.0.99 svn rev. 10869
     Shape of augmentation charge: PSQ
     Using radial grid of 1191 points,  6 beta functions with: 
                l(1) =   0
                l(2) =   0
                l(3) =   1
                l(4) =   1
                l(5) =   2
                l(6) =   2
     Q(r) pseudized with 0 coefficients 


     PseudoPot. # 2 for Ti read from file:
     ../../pseudos/ti_pbe_v1.4.uspp.F.UPF
     MD5 check sum: 88a00a6731bd790ddea75d31a80cb452
     Pseudo is Ultrasoft + core correction, Zval = 12.0
     Generated by new atomic code, or converted to UPF format
     Using radial grid of  851 points,  6 beta functions with: 
                l(1) =   0
                l(2) =   0
                l(3) =   1
                l(4) =   1
                l(5) =   2
                l(6) =   2
     Q(r) pseudized with  6 coefficients,  rinner =    1.000   1.000   1.000
                                                       1.000   1.000

     PseudoPot. # 3 for H  read from file:
     ../../pseudos/H.pbe-rrkjus_psl.1.0.0.UPF
     MD5 check sum: f52b6d4d1c606e5624b1dc7b2218f220
     Pseudo is Ultrasoft, Zval =  1.0
     Generated using "atomic" code by A. Dal Corso  v.5.1
     Using radial grid of  929 points,  2 beta functions with: 
                l(1) =   0
                l(2) =   0
     Q(r) pseudized with 0 coefficients 


     atomic species   valence    mass     pseudopotential
     Fe               16.00    55.84500     Fe( 1.00)
     Ti               12.00    47.86700     Ti( 1.00)
     H                 1.00     1.00750     H ( 1.00)

     48 Sym. Ops., with inversion, found



   Cartesian axes

     site n.     atom                  positions (alat units)
         1        Fe     tau(   1) = (   0.5493393   0.5493393   0.5493393  )
         2        Ti     tau(   2) = (   0.0000000   0.0000000   0.0000000  )
         3        H      tau(   3) = (   0.5493393   0.0000000   0.5493393  )
         4        H      tau(   4) = (   0.0000000   0.5493393   0.5493393  )
         5        H      tau(   5) = (   0.5493393   0.5493393   0.0000000  )

     number of k points=   120  Marzari-Vanderbilt smearing, width (Ry)=  0.0050

     Number of k-points >= 100: set verbosity='high' to print them.

     Dense  grid:   282113 G-vectors     FFT dimensions: (  81,  81,  81)

     Smooth grid:    43003 G-vectors     FFT dimensions: (  45,  45,  45)

     Estimated max dynamical RAM per process >      98.06 MB

     Estimated total dynamical RAM >       1.53 GB

     Check: negative core charge=   -0.000001

     Initial potential from superposition of free atoms

     starting charge      29.9995, renormalised to      31.0000

     negative rho (up, down):  1.385E-03 0.000E+00
     Starting wfcs are   26 randomized atomic wfcs
     Checking if some PAW data can be deallocated... 

     total cpu time spent up to now is      141.8 secs

     per-process dynamical memory:   153.3 Mb

     Self-consistent Calculation

     iteration #  1     ecut=   124.00 Ry     beta= 0.70
     Davidson diagonalization with overlap
     c_bands:  1 eigenvalues not converged
     c_bands:  1 eigenvalues not converged
     c_bands:  1 eigenvalues not converged
     c_bands:  1 eigenvalues not converged
     c_bands:  3 eigenvalues not converged
     c_bands:  1 eigenvalues not converged
     c_bands:  2 eigenvalues not converged
     c_bands:  1 eigenvalues not converged
     c_bands:  2 eigenvalues not converged
     c_bands:  1 eigenvalues not converged
     c_bands:  1 eigenvalues not converged
     c_bands:  1 eigenvalues not converged
     c_bands:  1 eigenvalues not converged
     ethr =  1.00E-06,  avg # of iterations = 15.8

     negative rho (up, down):  8.157E-05 0.000E+00

     total cpu time spent up to now is      150.1 secs

     total energy              =    -438.22969818 Ry
     estimated scf accuracy    <      17.24803556 Ry

     iteration #  2     ecut=   124.00 Ry     beta= 0.70
     Davidson diagonalization with overlap
     ethr =  1.00E-02,  avg # of iterations =  6.2

     negative rho (up, down):  2.030E-05 0.000E+00

     total cpu time spent up to now is      153.5 secs

     total energy              =    -451.93122613 Ry
     estimated scf accuracy    <      68.72812820 Ry

     iteration #  3     ecut=   124.00 Ry     beta= 0.70
     Davidson diagonalization with overlap
     ethr =  1.00E-02,  avg # of iterations =  2.8

     negative rho (up, down):  1.765E-04 0.000E+00

     total cpu time spent up to now is      155.9 secs

     total energy              =    -452.44155426 Ry
     estimated scf accuracy    <      17.12421438 Ry

     iteration #  4     ecut=   124.00 Ry     beta= 0.70
     Davidson diagonalization with overlap
     ethr =  1.00E-02,  avg # of iterations =  2.2

     negative rho (up, down):  1.995E-04 0.000E+00

     total cpu time spent up to now is      157.8 secs

     total energy              =    -452.92346286 Ry
     estimated scf accuracy    <       6.21413663 Ry

     iteration #  5     ecut=   124.00 Ry     beta= 0.70
     Davidson diagonalization with overlap
     ethr =  1.00E-02,  avg # of iterations =  1.1

     negative rho (up, down):  4.700E-04 0.000E+00

     total cpu time spent up to now is      159.5 secs

     total energy              =    -452.69518101 Ry
     estimated scf accuracy    <       5.96788795 Ry

     iteration #  6     ecut=   124.00 Ry     beta= 0.70
     Davidson diagonalization with overlap
     ethr =  1.00E-02,  avg # of iterations =  1.4

     negative rho (up, down):  1.247E-03 0.000E+00

     total cpu time spent up to now is      161.2 secs

     total energy              =    -451.19276069 Ry
     estimated scf accuracy    <       5.86119847 Ry

     iteration #  7     ecut=   124.00 Ry     beta= 0.70
     Davidson diagonalization with overlap
     ethr =  1.00E-02,  avg # of iterations =  4.3

     negative rho (up, down):  7.174E-04 0.000E+00

     total cpu time spent up to now is      163.4 secs

     total energy              =    -451.36669806 Ry
     estimated scf accuracy    <      15.75062490 Ry

     iteration #  8     ecut=   124.00 Ry     beta= 0.70
     Davidson diagonalization with overlap
     ethr =  1.00E-02,  avg # of iterations =  1.4

     negative rho (up, down):  8.792E-04 0.000E+00

     total cpu time spent up to now is      165.1 secs

     total energy              =    -452.01928141 Ry
     estimated scf accuracy    <       0.19262267 Ry

     iteration #  9     ecut=   124.00 Ry     beta= 0.70
     Davidson diagonalization with overlap
     ethr =  6.21E-04,  avg # of iterations =  3.8

     negative rho (up, down):  8.791E-04 0.000E+00

     total cpu time spent up to now is      167.2 secs

     total energy              =    -452.14772302 Ry
     estimated scf accuracy    <       2.36137758 Ry

     iteration # 10     ecut=   124.00 Ry     beta= 0.70
     Davidson diagonalization with overlap
     ethr =  6.21E-04,  avg # of iterations =  1.2

     negative rho (up, down):  5.363E-04 0.000E+00

     total cpu time spent up to now is      168.9 secs

     total energy              =    -451.75570292 Ry
     estimated scf accuracy    <       2.37969589 Ry

     iteration # 11     ecut=   124.00 Ry     beta= 0.70
     Davidson diagonalization with overlap
     ethr =  6.21E-04,  avg # of iterations =  4.3

     negative rho (up, down):  6.800E-04 0.000E+00

     total cpu time spent up to now is      171.1 secs

     total energy              =    -452.01918608 Ry
     estimated scf accuracy    <       1.65802411 Ry

     iteration # 12     ecut=   124.00 Ry     beta= 0.70
     Davidson diagonalization with overlap
     ethr =  6.21E-04,  avg # of iterations =  2.5

     negative rho (up, down):  7.299E-04 0.000E+00

     total cpu time spent up to now is      172.9 secs

     total energy              =    -452.07603872 Ry
     estimated scf accuracy    <       0.07439791 Ry

     iteration # 13     ecut=   124.00 Ry     beta= 0.70
     Davidson diagonalization with overlap
     ethr =  2.40E-04,  avg # of iterations =  2.0

     negative rho (up, down):  7.102E-04 0.000E+00

     total cpu time spent up to now is      174.7 secs

     total energy              =    -452.07738804 Ry
     estimated scf accuracy    <       0.02407991 Ry

     iteration # 14     ecut=   124.00 Ry     beta= 0.70
     Davidson diagonalization with overlap
     ethr =  7.77E-05,  avg # of iterations =  1.9

     negative rho (up, down):  6.931E-04 0.000E+00

     total cpu time spent up to now is      176.4 secs

     total energy              =    -452.08097549 Ry
     estimated scf accuracy    <       0.01535259 Ry

     iteration # 15     ecut=   124.00 Ry     beta= 0.70
     Davidson diagonalization with overlap
     ethr =  4.95E-05,  avg # of iterations =  2.4

     negative rho (up, down):  6.965E-04 0.000E+00

     total cpu time spent up to now is      178.2 secs

     total energy              =    -452.08090174 Ry
     estimated scf accuracy    <       0.18396004 Ry

     iteration # 16     ecut=   124.00 Ry     beta= 0.70
     Davidson diagonalization with overlap
     ethr =  4.95E-05,  avg # of iterations =  1.0

     negative rho (up, down):  7.323E-04 0.000E+00

     total cpu time spent up to now is      179.9 secs

     total energy              =    -452.07775912 Ry
     estimated scf accuracy    <       0.10448157 Ry

     iteration # 17     ecut=   124.00 Ry     beta= 0.70
     Davidson diagonalization with overlap
     ethr =  4.95E-05,  avg # of iterations =  1.2

     negative rho (up, down):  6.711E-04 0.000E+00

     total cpu time spent up to now is      181.6 secs

     total energy              =    -452.08298291 Ry
     estimated scf accuracy    <       0.05065828 Ry

     iteration # 18     ecut=   124.00 Ry     beta= 0.70
     Davidson diagonalization with overlap
     ethr =  4.95E-05,  avg # of iterations =  1.1

     negative rho (up, down):  8.089E-04 0.000E+00

     total cpu time spent up to now is      183.2 secs

     total energy              =    -452.06733390 Ry
     estimated scf accuracy    <       0.13590849 Ry

     iteration # 19     ecut=   124.00 Ry     beta= 0.70
     Davidson diagonalization with overlap
     ethr =  4.95E-05,  avg # of iterations =  3.3

     negative rho (up, down):  7.979E-04 0.000E+00

     total cpu time spent up to now is      185.2 secs

     total energy              =    -452.07584737 Ry
     estimated scf accuracy    <       0.00806477 Ry

     iteration # 20     ecut=   124.00 Ry     beta= 0.70
     Davidson diagonalization with overlap
     ethr =  2.60E-05,  avg # of iterations =  1.2

     negative rho (up, down):  7.836E-04 0.000E+00

     total cpu time spent up to now is      186.9 secs

     total energy              =    -452.07573278 Ry
     estimated scf accuracy    <       0.00378979 Ry

     iteration # 21     ecut=   124.00 Ry     beta= 0.70
     Davidson diagonalization with overlap
     ethr =  1.22E-05,  avg # of iterations =  1.5

     negative rho (up, down):  7.869E-04 0.000E+00

     total cpu time spent up to now is      188.6 secs

     total energy              =    -452.07588025 Ry
     estimated scf accuracy    <       0.00031672 Ry

     iteration # 22     ecut=   124.00 Ry     beta= 0.70
     Davidson diagonalization with overlap
     ethr =  1.02E-06,  avg # of iterations =  3.7

     negative rho (up, down):  7.884E-04 0.000E+00

     total cpu time spent up to now is      190.6 secs

     total energy              =    -452.07592192 Ry
     estimated scf accuracy    <       0.00047525 Ry

     iteration # 23     ecut=   124.00 Ry     beta= 0.70
     Davidson diagonalization with overlap
     ethr =  1.02E-06,  avg # of iterations =  1.0

     negative rho (up, down):  7.880E-04 0.000E+00

     total cpu time spent up to now is      192.3 secs

     total energy              =    -452.07592620 Ry
     estimated scf accuracy    <       0.00067857 Ry

     iteration # 24     ecut=   124.00 Ry     beta= 0.70
     Davidson diagonalization with overlap
     ethr =  1.02E-06,  avg # of iterations =  1.0

     negative rho (up, down):  7.871E-04 0.000E+00

     total cpu time spent up to now is      193.9 secs

     total energy              =    -452.07591056 Ry
     estimated scf accuracy    <       0.00065535 Ry

     iteration # 25     ecut=   124.00 Ry     beta= 0.70
     Davidson diagonalization with overlap
     ethr =  1.02E-06,  avg # of iterations =  1.0

     negative rho (up, down):  7.846E-04 0.000E+00

     total cpu time spent up to now is      195.6 secs

     total energy              =    -452.07587981 Ry
     estimated scf accuracy    <       0.00033097 Ry

     iteration # 26     ecut=   124.00 Ry     beta= 0.70
     Davidson diagonalization with overlap
     ethr =  1.02E-06,  avg # of iterations =  1.0

     negative rho (up, down):  7.856E-04 0.000E+00

     total cpu time spent up to now is      197.3 secs

     total energy              =    -452.07589690 Ry
     estimated scf accuracy    <       0.00000262 Ry

     iteration # 27     ecut=   124.00 Ry     beta= 0.70
     Davidson diagonalization with overlap
     ethr =  8.45E-09,  avg # of iterations =  4.5

     negative rho (up, down):  7.854E-04 0.000E+00

     total cpu time spent up to now is      199.6 secs

     total energy              =    -452.07589846 Ry
     estimated scf accuracy    <       0.00000279 Ry

     iteration # 28     ecut=   124.00 Ry     beta= 0.70
     Davidson diagonalization with overlap
     ethr =  8.45E-09,  avg # of iterations =  1.1

     negative rho (up, down):  7.855E-04 0.000E+00

     total cpu time spent up to now is      201.3 secs

     total energy              =    -452.07589858 Ry
     estimated scf accuracy    <       0.00000021 Ry

     iteration # 29     ecut=   124.00 Ry     beta= 0.70
     Davidson diagonalization with overlap
     ethr =  6.88E-10,  avg # of iterations =  3.8

     negative rho (up, down):  7.856E-04 0.000E+00

     total cpu time spent up to now is      203.4 secs

     total energy              =    -452.07589856 Ry
     estimated scf accuracy    <       0.00000052 Ry

     iteration # 30     ecut=   124.00 Ry     beta= 0.70
     Davidson diagonalization with overlap
     ethr =  6.88E-10,  avg # of iterations =  2.0

     negative rho (up, down):  7.856E-04 0.000E+00

     total cpu time spent up to now is      205.3 secs

     total energy              =    -452.07589859 Ry
     estimated scf accuracy    <       0.00000001 Ry

     iteration # 31     ecut=   124.00 Ry     beta= 0.70
     Davidson diagonalization with overlap
     ethr =  4.77E-11,  avg # of iterations =  3.4

     negative rho (up, down):  7.856E-04 0.000E+00

     total cpu time spent up to now is      207.4 secs

     total energy              =    -452.07589859 Ry
     estimated scf accuracy    <          9.6E-10 Ry

     iteration # 32     ecut=   124.00 Ry     beta= 0.70
     Davidson diagonalization with overlap
     ethr =  3.10E-12,  avg # of iterations =  4.5

     negative rho (up, down):  7.856E-04 0.000E+00

     total cpu time spent up to now is      209.7 secs

     total energy              =    -452.07589859 Ry
     estimated scf accuracy    <          1.9E-09 Ry

     iteration # 33     ecut=   124.00 Ry     beta= 0.70
     Davidson diagonalization with overlap
     ethr =  3.10E-12,  avg # of iterations =  2.2

     negative rho (up, down):  7.856E-04 0.000E+00

     total cpu time spent up to now is      211.6 secs

     End of self-consistent calculation

     Number of k-points >= 100: set verbosity='high' to print the bands.

     the Fermi energy is    14.5203 ev

!    total energy              =    -452.07589859 Ry
     estimated scf accuracy    <          4.5E-11 Ry
     smearing contrib. (-TS)   =      -0.00008416 Ry
     internal energy E=F+TS    =    -452.07581443 Ry

     The total energy is F=E-TS. E is the sum of the following terms:
     one-electron contribution =    -179.64104982 Ry
     hartree contribution      =     104.45754106 Ry
     xc contribution           =     -55.19447547 Ry
     ewald contribution        =    -245.54862681 Ry
     one-center paw contrib.   =     -76.14920338 Ry

     convergence has been achieved in  33 iterations

     negative rho (up, down):  7.856E-04 0.000E+00

     Forces acting on atoms (cartesian axes, Ry/au):

     atom    1 type  1   force =     0.00000000    0.00000000    0.00000000
     atom    2 type  2   force =     0.00000000    0.00000000    0.00000000
     atom    3 type  3   force =     0.00000000    0.00000000    0.00000000
     atom    4 type  3   force =     0.00000000    0.00000000    0.00000000
     atom    5 type  3   force =     0.00000000    0.00000000    0.00000000

     Total force =     0.000000     Total SCF correction =     0.000000


     Computing stress (Cartesian axis) and pressure


     negative rho (up, down):  7.856E-04 0.000E+00
          total   stress  (Ry/bohr**3)                   (kbar)     P=       -0.68
  -0.00000461   0.00000000   0.00000000           -0.68        0.00        0.00
   0.00000000  -0.00000461   0.00000000            0.00       -0.68        0.00
   0.00000000   0.00000000  -0.00000461            0.00        0.00       -0.68


     Writing all to output data dir ./TiFe_H_faces_xyz.save/ :
     XML data file
     init_run     :      2.69s CPU      2.81s WALL (       2 calls)
     electrons    :    190.96s CPU    199.69s WALL (       7 calls)
     update_pot   :      0.39s CPU      0.46s WALL (       5 calls)
     forces       :      1.43s CPU      1.55s WALL (       7 calls)
     stress       :      6.69s CPU      6.98s WALL (       7 calls)

     Called by init_run:
     wfcinit      :      1.21s CPU      1.25s WALL (       2 calls)
     potinit      :      0.55s CPU      0.56s WALL (       2 calls)
     hinit0       :      0.41s CPU      0.43s WALL (       2 calls)

     Called by electrons:
     c_bands      :    143.87s CPU    148.06s WALL (     114 calls)
     sum_band     :     30.33s CPU     32.42s WALL (     114 calls)
     v_of_rho     :      1.62s CPU      1.83s WALL (     120 calls)
     newd         :      9.22s CPU     10.74s WALL (     120 calls)
     PAW_pot      :      6.71s CPU      7.53s WALL (     125 calls)
     mix_rho      :      0.20s CPU      0.23s WALL (     114 calls)

     Called by c_bands:
     init_us_2    :      3.15s CPU      3.28s WALL (   29880 calls)
     cegterg      :    138.63s CPU    142.54s WALL (   13680 calls)

     Called by *egterg:
     cdiaghg      :     22.68s CPU     23.22s WALL (   55846 calls)
     h_psi        :     98.65s CPU    101.67s WALL (   56806 calls)
     s_psi        :      2.40s CPU      2.48s WALL (   56806 calls)
     g_psi        :      0.50s CPU      0.51s WALL (   42886 calls)

     Called by h_psi:
     h_psi:calbec :      4.51s CPU      4.64s WALL (   56806 calls)
     vloc_psi     :     91.06s CPU     93.86s WALL (   56806 calls)
     add_vuspsi   :      2.54s CPU      2.62s WALL (   56806 calls)

     General routines
     calbec       :      6.97s CPU      7.18s WALL (   85366 calls)
     fft          :      1.32s CPU      1.58s WALL (    1727 calls)
     ffts         :      0.42s CPU      0.43s WALL (     234 calls)
     fftw         :     88.94s CPU     91.61s WALL ( 1743972 calls)
     interpolate  :      0.50s CPU      0.54s WALL (     120 calls)

     Parallel routines

     PWSCF        :    203.21s CPU    213.25s WALL


   This run was terminated on:  23: 8:58  12Nov2025            

=------------------------------------------------------------------------------=
   JOB DONE.
=------------------------------------------------------------------------------=
