
     Program PWSCF v.7.4 starts on 12Nov2025 at 23:22:28 

     This program is part of the open-source Quantum ESPRESSO suite
     for quantum simulation of materials; please cite
         "P. Giannozzi et al., J. Phys.:Condens. Matter 21 395502 (2009);
         "P. Giannozzi et al., J. Phys.:Condens. Matter 29 465901 (2017);
         "P. Giannozzi et al., J. Chem. Phys. 152 154105 (2020);
          URL http://www.quantum-espresso.org", 
     in publications or presentations arising from this work. More details at
     http://www.quantum-espresso.org/quote

     Parallel version (MPI & OpenMP), running on      16 processor cores
     Number of MPI processes:                16
     Threads/MPI process:                     1

     MPI processes distributed on     1 nodes
     200118 MiB available memory on the printing compute node when the environment starts

     Reading input from TiFe_H_faces_yz.in

     Current dimensions of program PWSCF are:
     Max number of different atomic species (ntypx) = 10
     Max number of k-points (npk) =  40000
     Max angular momentum in pseudopotentials (lmaxx) =  4
     file Fe.pbe-spn-kjpaw_psl.0.2.1.UPF: wavefunction(s)  3D renormalized

     IMPORTANT: XC functional enforced from input :
     Exchange-correlation= PBE
                           (   1   4   3   4   0   0   0)
     Any further DFT definition will be discarded
     Please, verify this is what you really want

     Message from routine setup:
     using ibrav=0 with symmetry is DISCOURAGED, use correct ibrav instead

     R & G space division:  proc/nbgrp/npool/nimage =      16
     Subspace diagonalization in iterative solution of the eigenvalue problem:
     a serial algorithm will be used


     Parallelization info
     --------------------
     sticks:   dense  smooth     PW     G-vecs:    dense   smooth      PW
     Min         269      76     22                13288     2024     320
     Max         271      77     23                13289     2027     323
     Sum        4309    1225    357               212623    32423    5137

     Using Slab Decomposition



     bravais-lattice index     =            0
     lattice parameter (alat)  =       5.5824  a.u.
     unit-cell volume          =     173.9675 (a.u.)^3
     number of atoms/cell      =            4
     number of atomic types    =            3
     number of electrons       =        30.00
     number of Kohn-Sham states=           19
     kinetic-energy cutoff     =     124.0000  Ry
     charge density cutoff     =    1736.0000  Ry
     scf convergence threshold =      1.0E-08
     mixing beta               =       0.7000
     number of iterations used =            8  plain     mixing
     energy convergence thresh.=      1.0E-04
     force convergence thresh. =      1.0E-03
     press convergence thresh. =      1.0E-01
     Exchange-correlation= PBE
                           (   1   4   3   4   0   0   0)
     nstep                     =           50


     celldm(1)=   5.582423  celldm(2)=   0.000000  celldm(3)=   0.000000
     celldm(4)=   0.000000  celldm(5)=   0.000000  celldm(6)=   0.000000

     crystal axes: (cart. coord. in units of alat)
               a(1) = (   1.000000   0.000000   0.000000 )  
               a(2) = (   0.000000   1.000000   0.000000 )  
               a(3) = (   0.000000   0.000000   1.000000 )  

     reciprocal axes: (cart. coord. in units 2 pi/alat)
               b(1) = (  1.000000  0.000000  0.000000 )  
               b(2) = (  0.000000  1.000000  0.000000 )  
               b(3) = (  0.000000  0.000000  1.000000 )  


     PseudoPot. # 1 for Fe read from file:
     ../../pseudos/Fe.pbe-spn-kjpaw_psl.0.2.1.UPF
     MD5 check sum: e86618425769142926afa95317d90200
     Pseudo is Projector augmented-wave + core cor, Zval = 16.0
     Generated using "atomic" code by A. Dal Corso  v.5.0.99 svn rev. 10869
     Shape of augmentation charge: PSQ
     Using radial grid of 1191 points,  6 beta functions with: 
                l(1) =   0
                l(2) =   0
                l(3) =   1
                l(4) =   1
                l(5) =   2
                l(6) =   2
     Q(r) pseudized with 0 coefficients 


     PseudoPot. # 2 for Ti read from file:
     ../../pseudos/ti_pbe_v1.4.uspp.F.UPF
     MD5 check sum: 88a00a6731bd790ddea75d31a80cb452
     Pseudo is Ultrasoft + core correction, Zval = 12.0
     Generated by new atomic code, or converted to UPF format
     Using radial grid of  851 points,  6 beta functions with: 
                l(1) =   0
                l(2) =   0
                l(3) =   1
                l(4) =   1
                l(5) =   2
                l(6) =   2
     Q(r) pseudized with  6 coefficients,  rinner =    1.000   1.000   1.000
                                                       1.000   1.000

     PseudoPot. # 3 for H  read from file:
     ../../pseudos/H.pbe-rrkjus_psl.1.0.0.UPF
     MD5 check sum: f52b6d4d1c606e5624b1dc7b2218f220
     Pseudo is Ultrasoft, Zval =  1.0
     Generated using "atomic" code by A. Dal Corso  v.5.1
     Using radial grid of  929 points,  2 beta functions with: 
                l(1) =   0
                l(2) =   0
     Q(r) pseudized with 0 coefficients 


     atomic species   valence    mass     pseudopotential
     Fe               16.00    55.84500     Fe( 1.00)
     Ti               12.00    47.86700     Ti( 1.00)
     H                 1.00     1.00750     H ( 1.00)

     16 Sym. Ops., with inversion, found



   Cartesian axes

     site n.     atom                  positions (alat units)
         1        Fe     tau(   1) = (   0.5000000   0.5000000   0.5000000  )
         2        Ti     tau(   2) = (   0.0000000   0.0000000   0.0000000  )
         3        H      tau(   3) = (   0.5000000   0.5000000   0.0000000  )
         4        H      tau(   4) = (   0.5000000   0.0000000   0.5000000  )

     number of k points=   288  Marzari-Vanderbilt smearing, width (Ry)=  0.0050

     Number of k-points >= 100: set verbosity='high' to print them.

     Dense  grid:   212623 G-vectors     FFT dimensions: (  75,  75,  75)

     Smooth grid:    32423 G-vectors     FFT dimensions: (  40,  40,  40)

     Estimated max dynamical RAM per process >      90.34 MB

     Estimated total dynamical RAM >       1.41 GB

     Check: negative core charge=   -0.000001

     Initial potential from superposition of free atoms

     starting charge      28.9995, renormalised to      30.0000

     negative rho (up, down):  1.329E-03 0.000E+00
     Starting wfcs are   25 randomized atomic wfcs
     Checking if some PAW data can be deallocated... 

     total cpu time spent up to now is        2.4 secs

     per-process dynamical memory:   160.1 Mb

     Self-consistent Calculation

     iteration #  1     ecut=   124.00 Ry     beta= 0.70
     Davidson diagonalization with overlap
     ethr =  1.00E-02,  avg # of iterations =  2.2

     negative rho (up, down):  1.040E-05 0.000E+00

     total cpu time spent up to now is        5.4 secs

     total energy              =    -441.39298957 Ry
     estimated scf accuracy    <      12.05260231 Ry

     iteration #  2     ecut=   124.00 Ry     beta= 0.70
     Davidson diagonalization with overlap
     ethr =  1.00E-02,  avg # of iterations =  5.8

     negative rho (up, down):  1.170E-04 0.000E+00

     total cpu time spent up to now is       10.4 secs

     total energy              =    -450.67844493 Ry
     estimated scf accuracy    <      50.30218072 Ry

     iteration #  3     ecut=   124.00 Ry     beta= 0.70
     Davidson diagonalization with overlap
     ethr =  1.00E-02,  avg # of iterations =  2.6

     negative rho (up, down):  3.610E-04 0.000E+00

     total cpu time spent up to now is       13.9 secs

     total energy              =    -450.89389175 Ry
     estimated scf accuracy    <      12.35120148 Ry

     iteration #  4     ecut=   124.00 Ry     beta= 0.70
     Davidson diagonalization with overlap
     ethr =  1.00E-02,  avg # of iterations =  2.3

     negative rho (up, down):  3.506E-04 0.000E+00

     total cpu time spent up to now is       16.7 secs

     total energy              =    -451.28332024 Ry
     estimated scf accuracy    <       3.92826496 Ry

     iteration #  5     ecut=   124.00 Ry     beta= 0.70
     Davidson diagonalization with overlap
     ethr =  1.00E-02,  avg # of iterations =  1.0

     negative rho (up, down):  4.985E-04 0.000E+00

     total cpu time spent up to now is       19.2 secs

     total energy              =    -450.72908632 Ry
     estimated scf accuracy    <       3.74487617 Ry

     iteration #  6     ecut=   124.00 Ry     beta= 0.70
     Davidson diagonalization with overlap
     ethr =  1.00E-02,  avg # of iterations =  1.6

     negative rho (up, down):  5.969E-04 0.000E+00

     total cpu time spent up to now is       21.7 secs

     total energy              =    -450.84529568 Ry
     estimated scf accuracy    <       0.57885340 Ry

     iteration #  7     ecut=   124.00 Ry     beta= 0.70
     Davidson diagonalization with overlap
     ethr =  1.93E-03,  avg # of iterations =  3.3

     negative rho (up, down):  7.802E-04 0.000E+00

     total cpu time spent up to now is       24.6 secs

     total energy              =    -450.85767921 Ry
     estimated scf accuracy    <       0.18460618 Ry

     iteration #  8     ecut=   124.00 Ry     beta= 0.70
     Davidson diagonalization with overlap
     ethr =  6.15E-04,  avg # of iterations =  2.6

     negative rho (up, down):  9.954E-04 0.000E+00

     total cpu time spent up to now is       27.5 secs

     total energy              =    -450.82774271 Ry
     estimated scf accuracy    <       0.13827964 Ry

     iteration #  9     ecut=   124.00 Ry     beta= 0.70
     Davidson diagonalization with overlap
     ethr =  4.61E-04,  avg # of iterations =  4.3

     negative rho (up, down):  9.942E-04 0.000E+00

     total cpu time spent up to now is       31.0 secs

     total energy              =    -450.92549747 Ry
     estimated scf accuracy    <       1.19570479 Ry

     iteration # 10     ecut=   124.00 Ry     beta= 0.70
     Davidson diagonalization with overlap
     ethr =  4.61E-04,  avg # of iterations =  1.2

     negative rho (up, down):  1.109E-03 0.000E+00

     total cpu time spent up to now is       33.4 secs

     total energy              =    -450.98860232 Ry
     estimated scf accuracy    <       1.21320138 Ry

     iteration # 11     ecut=   124.00 Ry     beta= 0.70
     Davidson diagonalization with overlap
     ethr =  4.61E-04,  avg # of iterations =  2.4

     negative rho (up, down):  8.487E-04 0.000E+00

     total cpu time spent up to now is       36.2 secs

     total energy              =    -450.74582232 Ry
     estimated scf accuracy    <       4.18212628 Ry

     iteration # 12     ecut=   124.00 Ry     beta= 0.70
     Davidson diagonalization with overlap
     ethr =  4.61E-04,  avg # of iterations =  3.0

     negative rho (up, down):  6.987E-04 0.000E+00

     total cpu time spent up to now is       39.3 secs

     total energy              =    -450.78052516 Ry
     estimated scf accuracy    <       0.36317772 Ry

     iteration # 13     ecut=   124.00 Ry     beta= 0.70
     Davidson diagonalization with overlap
     ethr =  4.61E-04,  avg # of iterations =  3.1

     negative rho (up, down):  6.810E-04 0.000E+00

     total cpu time spent up to now is       42.2 secs

     total energy              =    -450.84628036 Ry
     estimated scf accuracy    <       0.18598496 Ry

     iteration # 14     ecut=   124.00 Ry     beta= 0.70
     Davidson diagonalization with overlap
     ethr =  4.61E-04,  avg # of iterations =  1.0

     negative rho (up, down):  7.194E-04 0.000E+00

     total cpu time spent up to now is       44.6 secs

     total energy              =    -450.83418249 Ry
     estimated scf accuracy    <       0.19469711 Ry

     iteration # 15     ecut=   124.00 Ry     beta= 0.70
     Davidson diagonalization with overlap
     ethr =  4.61E-04,  avg # of iterations =  1.0

     negative rho (up, down):  7.497E-04 0.000E+00

     total cpu time spent up to now is       47.1 secs

     total energy              =    -450.83368535 Ry
     estimated scf accuracy    <       0.06365105 Ry

     iteration # 16     ecut=   124.00 Ry     beta= 0.70
     Davidson diagonalization with overlap
     ethr =  2.12E-04,  avg # of iterations =  1.0

     negative rho (up, down):  7.705E-04 0.000E+00

     total cpu time spent up to now is       49.5 secs

     total energy              =    -450.83300691 Ry
     estimated scf accuracy    <       0.03451612 Ry

     iteration # 17     ecut=   124.00 Ry     beta= 0.70
     Davidson diagonalization with overlap
     ethr =  1.15E-04,  avg # of iterations =  1.0

     negative rho (up, down):  7.851E-04 0.000E+00

     total cpu time spent up to now is       51.9 secs

     total energy              =    -450.83236026 Ry
     estimated scf accuracy    <       0.02453835 Ry

     iteration # 18     ecut=   124.00 Ry     beta= 0.70
     Davidson diagonalization with overlap
     ethr =  8.18E-05,  avg # of iterations =  1.0

     negative rho (up, down):  7.947E-04 0.000E+00

     total cpu time spent up to now is       54.3 secs

     total energy              =    -450.83203689 Ry
     estimated scf accuracy    <       0.01722652 Ry

     iteration # 19     ecut=   124.00 Ry     beta= 0.70
     Davidson diagonalization with overlap
     ethr =  5.74E-05,  avg # of iterations =  1.0

     negative rho (up, down):  8.385E-04 0.000E+00

     total cpu time spent up to now is       56.7 secs

     total energy              =    -450.83095551 Ry
     estimated scf accuracy    <       0.01300007 Ry

     iteration # 20     ecut=   124.00 Ry     beta= 0.70
     Davidson diagonalization with overlap
     ethr =  4.33E-05,  avg # of iterations =  1.1

     negative rho (up, down):  8.766E-04 0.000E+00

     total cpu time spent up to now is       59.1 secs

     total energy              =    -450.83014336 Ry
     estimated scf accuracy    <       0.00592812 Ry

     iteration # 21     ecut=   124.00 Ry     beta= 0.70
     Davidson diagonalization with overlap
     ethr =  1.98E-05,  avg # of iterations =  2.0

     negative rho (up, down):  8.682E-04 0.000E+00

     total cpu time spent up to now is       61.7 secs

     total energy              =    -450.83061109 Ry
     estimated scf accuracy    <       0.00003093 Ry

     iteration # 22     ecut=   124.00 Ry     beta= 0.70
     Davidson diagonalization with overlap
     ethr =  1.03E-07,  avg # of iterations =  5.8

     negative rho (up, down):  8.702E-04 0.000E+00

     total cpu time spent up to now is       66.2 secs

     total energy              =    -450.83064438 Ry
     estimated scf accuracy    <       0.00000963 Ry

     iteration # 23     ecut=   124.00 Ry     beta= 0.70
     Davidson diagonalization with overlap
     ethr =  3.21E-08,  avg # of iterations =  2.6

     negative rho (up, down):  8.695E-04 0.000E+00

     total cpu time spent up to now is       69.1 secs

     total energy              =    -450.83064626 Ry
     estimated scf accuracy    <       0.00000137 Ry

     iteration # 24     ecut=   124.00 Ry     beta= 0.70
     Davidson diagonalization with overlap
     ethr =  4.56E-09,  avg # of iterations =  3.0

     negative rho (up, down):  8.688E-04 0.000E+00

     total cpu time spent up to now is       72.0 secs

     total energy              =    -450.83064642 Ry
     estimated scf accuracy    <       0.00000014 Ry

     iteration # 25     ecut=   124.00 Ry     beta= 0.70
     Davidson diagonalization with overlap
     ethr =  4.70E-10,  avg # of iterations =  3.8

     negative rho (up, down):  8.690E-04 0.000E+00

     total cpu time spent up to now is       75.4 secs

     total energy              =    -450.83064646 Ry
     estimated scf accuracy    <       0.00000002 Ry

     iteration # 26     ecut=   124.00 Ry     beta= 0.70
     Davidson diagonalization with overlap
     ethr =  5.68E-11,  avg # of iterations =  3.9

     negative rho (up, down):  8.689E-04 0.000E+00

     total cpu time spent up to now is       78.9 secs

     End of self-consistent calculation

     Number of k-points >= 100: set verbosity='high' to print the bands.

     the Fermi energy is    19.2580 ev

!    total energy              =    -450.83064647 Ry
     estimated scf accuracy    <          7.2E-10 Ry
     smearing contrib. (-TS)   =      -0.00007961 Ry
     internal energy E=F+TS    =    -450.83056686 Ry

     The total energy is F=E-TS. E is the sum of the following terms:
     one-electron contribution =    -146.10455696 Ry
     hartree contribution      =      92.11523183 Ry
     xc contribution           =     -54.88691514 Ry
     ewald contribution        =    -265.79907102 Ry
     one-center paw contrib.   =     -76.15525557 Ry

     convergence has been achieved in  26 iterations

     negative rho (up, down):  8.689E-04 0.000E+00

     Forces acting on atoms (cartesian axes, Ry/au):

     atom    1 type  1   force =     0.00000000    0.00000000    0.00000000
     atom    2 type  2   force =     0.00000000    0.00000000    0.00000000
     atom    3 type  3   force =     0.00000000    0.00000000    0.00000000
     atom    4 type  3   force =     0.00000000    0.00000000    0.00000000

     Total force =     0.000000     Total SCF correction =     0.000000


     Computing stress (Cartesian axis) and pressure


     negative rho (up, down):  8.689E-04 0.000E+00
          total   stress  (Ry/bohr**3)                   (kbar)     P=      568.67
   0.00139744   0.00000000   0.00000000          205.57        0.00        0.00
   0.00000000   0.00509985   0.00000000            0.00      750.21        0.00
   0.00000000   0.00000000   0.00509985            0.00        0.00      750.21


     BFGS Geometry Optimization
     Energy error            =      1.9E-01 Ry
     Gradient error          =      0.0E+00 Ry/Bohr
     Cell gradient error     =      7.5E+02 kbar

     number of scf cycles    =   1
     number of bfgs steps    =   0

     enthalpy           new  =    -450.8306464713 Ry

     new trust radius        =       0.3363267652 bohr
     new conv_thr            =       0.0000000100 Ry

     new unit-cell volume =    228.88207 a.u.^3 (    33.91682 Ang^3 )
     density =      5.17630 g/cm^3

CELL_PARAMETERS (alat=  5.58242261)
   1.034935882   0.000000000   0.000000000
   0.000000000   1.127496237   0.000000000
   0.000000000   0.000000000   1.127496237

ATOMIC_POSITIONS (crystal)
Fe               0.5000000000        0.5000000000        0.5000000000
Ti               0.0000000000        0.0000000000        0.0000000000
H                0.5000000000        0.5000000000        0.0000000000
H                0.5000000000        0.0000000000        0.5000000000



     Writing config-only to output data dir ./TiFe_H_faces_yz.save/ :
     XML data file     NEW-OLD atomic charge density approx. for the potential
     New effective cutoffs (rho, wfc): 1620.16  115.66

     Check: negative core charge=   -0.000002

     negative rho (up, down):  1.023E-03 0.000E+00

     total cpu time spent up to now is       80.8 secs

     per-process dynamical memory:   164.3 Mb

     Self-consistent Calculation

     iteration #  1     ecut=   124.00 Ry     beta= 0.70
     Davidson diagonalization with overlap
     c_bands:  1 eigenvalues not converged
     c_bands:  1 eigenvalues not converged
     c_bands:  1 eigenvalues not converged
     c_bands:  1 eigenvalues not converged
     c_bands:  1 eigenvalues not converged
     c_bands:  1 eigenvalues not converged
     c_bands:  1 eigenvalues not converged
     c_bands:  1 eigenvalues not converged
     ethr =  1.00E-06,  avg # of iterations = 15.3

     negative rho (up, down):  7.219E-04 0.000E+00

     total cpu time spent up to now is       93.3 secs

     total energy              =    -450.88392473 Ry
     estimated scf accuracy    <       0.03554176 Ry

     iteration #  2     ecut=   124.00 Ry     beta= 0.70
     Davidson diagonalization with overlap
     ethr =  1.18E-04,  avg # of iterations =  5.6

     negative rho (up, down):  7.942E-04 0.000E+00

     total cpu time spent up to now is       97.6 secs

     total energy              =    -450.80356627 Ry
     estimated scf accuracy    <       1.97167802 Ry

     iteration #  3     ecut=   124.00 Ry     beta= 0.70
     Davidson diagonalization with overlap
     ethr =  1.18E-04,  avg # of iterations =  4.6

     negative rho (up, down):  8.482E-04 0.000E+00

     total cpu time spent up to now is      101.5 secs

     total energy              =    -450.90304280 Ry
     estimated scf accuracy    <       0.02889048 Ry

     iteration #  4     ecut=   124.00 Ry     beta= 0.70
     Davidson diagonalization with overlap
     ethr =  9.63E-05,  avg # of iterations =  2.1

     negative rho (up, down):  8.680E-04 0.000E+00

     total cpu time spent up to now is      104.3 secs

     total energy              =    -450.90727893 Ry
     estimated scf accuracy    <       0.00375968 Ry

     iteration #  5     ecut=   124.00 Ry     beta= 0.70
     Davidson diagonalization with overlap
     ethr =  1.25E-05,  avg # of iterations =  4.6

     negative rho (up, down):  8.445E-04 0.000E+00

     total cpu time spent up to now is      108.0 secs

     total energy              =    -450.90797857 Ry
     estimated scf accuracy    <       0.00296369 Ry

     iteration #  6     ecut=   124.00 Ry     beta= 0.70
     Davidson diagonalization with overlap
     ethr =  9.88E-06,  avg # of iterations =  1.8

     negative rho (up, down):  8.401E-04 0.000E+00

     total cpu time spent up to now is      110.6 secs

     total energy              =    -450.90823381 Ry
     estimated scf accuracy    <       0.00010982 Ry

     iteration #  7     ecut=   124.00 Ry     beta= 0.70
     Davidson diagonalization with overlap
     ethr =  3.66E-07,  avg # of iterations =  4.5

     negative rho (up, down):  8.396E-04 0.000E+00

     total cpu time spent up to now is      114.1 secs

     total energy              =    -450.90828190 Ry
     estimated scf accuracy    <       0.00000497 Ry

     iteration #  8     ecut=   124.00 Ry     beta= 0.70
     Davidson diagonalization with overlap
     ethr =  1.66E-08,  avg # of iterations =  4.2

     negative rho (up, down):  8.392E-04 0.000E+00

     total cpu time spent up to now is      117.6 secs

     total energy              =    -450.90828301 Ry
     estimated scf accuracy    <       0.00000133 Ry

     iteration #  9     ecut=   124.00 Ry     beta= 0.70
     Davidson diagonalization with overlap
     ethr =  4.45E-09,  avg # of iterations =  2.3

     negative rho (up, down):  8.394E-04 0.000E+00

     total cpu time spent up to now is      120.4 secs

     total energy              =    -450.90828294 Ry
     estimated scf accuracy    <       0.00000164 Ry

     iteration # 10     ecut=   124.00 Ry     beta= 0.70
     Davidson diagonalization with overlap
     ethr =  4.45E-09,  avg # of iterations =  1.8

     negative rho (up, down):  8.394E-04 0.000E+00

     total cpu time spent up to now is      123.0 secs

     total energy              =    -450.90828309 Ry
     estimated scf accuracy    <       0.00000003 Ry

     iteration # 11     ecut=   124.00 Ry     beta= 0.70
     Davidson diagonalization with overlap
     ethr =  8.41E-11,  avg # of iterations =  5.0

     negative rho (up, down):  8.394E-04 0.000E+00

     total cpu time spent up to now is      127.2 secs

     End of self-consistent calculation

     Number of k-points >= 100: set verbosity='high' to print the bands.

     the Fermi energy is    13.8534 ev

!    total energy              =    -450.90828312 Ry
     estimated scf accuracy    <          5.4E-10 Ry
     smearing contrib. (-TS)   =       0.00008620 Ry
     internal energy E=F+TS    =    -450.90836932 Ry

     The total energy is F=E-TS. E is the sum of the following terms:
     one-electron contribution =    -181.26479344 Ry
     hartree contribution      =     103.86850746 Ry
     xc contribution           =     -54.25202167 Ry
     ewald contribution        =    -243.11129752 Ry
     one-center paw contrib.   =     -76.14876415 Ry

     convergence has been achieved in  11 iterations

     negative rho (up, down):  8.394E-04 0.000E+00

     Forces acting on atoms (cartesian axes, Ry/au):

     atom    1 type  1   force =     0.00000000    0.00000000    0.00000000
     atom    2 type  2   force =     0.00000000    0.00000000    0.00000000
     atom    3 type  3   force =     0.00000000    0.00000000    0.00000000
     atom    4 type  3   force =     0.00000000    0.00000000    0.00000000

     Total force =     0.000000     Total SCF correction =     0.000000


     Computing stress (Cartesian axis) and pressure


     negative rho (up, down):  8.394E-04 0.000E+00
          total   stress  (Ry/bohr**3)                   (kbar)     P=     -127.37
  -0.00134334   0.00000000   0.00000000         -197.61        0.00        0.00
   0.00000000  -0.00062707   0.00000000            0.00      -92.25        0.00
   0.00000000   0.00000000  -0.00062707            0.00        0.00      -92.25

     Energy error            =      7.8E-02 Ry
     Gradient error          =      0.0E+00 Ry/Bohr
     Cell gradient error     =      2.0E+02 kbar

     number of scf cycles    =   2
     number of bfgs steps    =   1

     enthalpy           old  =    -450.8306464713 Ry
     enthalpy           new  =    -450.9082831158 Ry

     CASE: enthalpy          _new < enthalpy          _old

     new trust radius        =       0.1025907359 bohr
     new conv_thr            =            1.0E-10 Ry

     new unit-cell volume =    216.52890 a.u.^3 (    32.08627 Ang^3 )
     density =      5.47162 g/cm^3

CELL_PARAMETERS (alat=  5.58242261)
   0.999845694   0.000000000   0.000000000
   0.000000000   1.115725537   0.000000000
   0.000000000   0.000000000   1.115725537

ATOMIC_POSITIONS (crystal)
Fe               0.5000000000        0.5000000000        0.5000000000
Ti               0.0000000000        0.0000000000        0.0000000000
H                0.5000000000        0.5000000000        0.0000000000
H                0.5000000000        0.0000000000        0.5000000000



     Writing config-only to output data dir ./TiFe_H_faces_yz.save/ :
     XML data file     NEW-OLD atomic charge density approx. for the potential
     New effective cutoffs (rho, wfc): 1735.83  123.89

     Check: negative core charge=   -0.000002

     negative rho (up, down):  7.981E-04 0.000E+00

     total cpu time spent up to now is      129.2 secs

     per-process dynamical memory:   164.3 Mb

     Self-consistent Calculation

     iteration #  1     ecut=   124.00 Ry     beta= 0.70
     Davidson diagonalization with overlap
     ethr =  1.00E-06,  avg # of iterations =  9.0

     negative rho (up, down):  8.348E-04 0.000E+00

     total cpu time spent up to now is      136.8 secs

     total energy              =    -450.91760513 Ry
     estimated scf accuracy    <       0.00132174 Ry

     iteration #  2     ecut=   124.00 Ry     beta= 0.70
     Davidson diagonalization with overlap
     ethr =  4.41E-06,  avg # of iterations =  5.0

     negative rho (up, down):  8.523E-04 0.000E+00

     total cpu time spent up to now is      140.9 secs

     total energy              =    -450.91281302 Ry
     estimated scf accuracy    <       0.09323507 Ry

     iteration #  3     ecut=   124.00 Ry     beta= 0.70
     Davidson diagonalization with overlap
     ethr =  4.41E-06,  avg # of iterations =  4.8

     negative rho (up, down):  8.395E-04 0.000E+00

     total cpu time spent up to now is      144.8 secs

     total energy              =    -450.91829312 Ry
     estimated scf accuracy    <       0.00318023 Ry

     iteration #  4     ecut=   124.00 Ry     beta= 0.70
     Davidson diagonalization with overlap
     ethr =  4.41E-06,  avg # of iterations =  1.9

     negative rho (up, down):  8.445E-04 0.000E+00

     total cpu time spent up to now is      147.4 secs

     total energy              =    -450.91849016 Ry
     estimated scf accuracy    <       0.00008754 Ry

     iteration #  5     ecut=   124.00 Ry     beta= 0.70
     Davidson diagonalization with overlap
     ethr =  2.92E-07,  avg # of iterations =  3.0

     negative rho (up, down):  8.479E-04 0.000E+00

     total cpu time spent up to now is      150.4 secs

     total energy              =    -450.91850386 Ry
     estimated scf accuracy    <       0.00000775 Ry

     iteration #  6     ecut=   124.00 Ry     beta= 0.70
     Davidson diagonalization with overlap
     ethr =  2.58E-08,  avg # of iterations =  4.1

     negative rho (up, down):  8.483E-04 0.000E+00

     total cpu time spent up to now is      153.9 secs

     total energy              =    -450.91850609 Ry
     estimated scf accuracy    <       0.00000043 Ry

     iteration #  7     ecut=   124.00 Ry     beta= 0.70
     Davidson diagonalization with overlap
     ethr =  1.43E-09,  avg # of iterations =  4.4

     negative rho (up, down):  8.486E-04 0.000E+00

     total cpu time spent up to now is      157.5 secs

     total energy              =    -450.91850629 Ry
     estimated scf accuracy    <       0.00000004 Ry

     iteration #  8     ecut=   124.00 Ry     beta= 0.70
     Davidson diagonalization with overlap
     ethr =  1.39E-10,  avg # of iterations =  4.0

     negative rho (up, down):  8.486E-04 0.000E+00

     total cpu time spent up to now is      160.9 secs

     total energy              =    -450.91850630 Ry
     estimated scf accuracy    <          5.8E-09 Ry

     iteration #  9     ecut=   124.00 Ry     beta= 0.70
     Davidson diagonalization with overlap
     ethr =  1.95E-11,  avg # of iterations =  3.0

     negative rho (up, down):  8.486E-04 0.000E+00

     total cpu time spent up to now is      164.0 secs

     total energy              =    -450.91850630 Ry
     estimated scf accuracy    <          1.8E-10 Ry

     iteration # 10     ecut=   124.00 Ry     beta= 0.70
     Davidson diagonalization with overlap
     ethr =  6.03E-13,  avg # of iterations =  5.2

     negative rho (up, down):  8.486E-04 0.000E+00

     total cpu time spent up to now is      168.2 secs

     End of self-consistent calculation

     Number of k-points >= 100: set verbosity='high' to print the bands.

     the Fermi energy is    14.7693 ev

!    total energy              =    -450.91850630 Ry
     estimated scf accuracy    <          3.7E-11 Ry
     smearing contrib. (-TS)   =       0.00007960 Ry
     internal energy E=F+TS    =    -450.91858590 Ry

     The total energy is F=E-TS. E is the sum of the following terms:
     one-electron contribution =    -173.90871311 Ry
     hartree contribution      =     101.25406020 Ry
     xc contribution           =     -54.34859436 Ry
     ewald contribution        =    -247.76528618 Ry
     one-center paw contrib.   =     -76.15005245 Ry

     convergence has been achieved in  10 iterations

     negative rho (up, down):  8.486E-04 0.000E+00

     Forces acting on atoms (cartesian axes, Ry/au):

     atom    1 type  1   force =     0.00000000    0.00000000    0.00000000
     atom    2 type  2   force =     0.00000000    0.00000000    0.00000000
     atom    3 type  3   force =     0.00000000    0.00000000    0.00000000
     atom    4 type  3   force =     0.00000000    0.00000000    0.00000000

     Total force =     0.000000     Total SCF correction =     0.000000


     Computing stress (Cartesian axis) and pressure


     negative rho (up, down):  8.486E-04 0.000E+00
          total   stress  (Ry/bohr**3)                   (kbar)     P=      -56.57
  -0.00077782   0.00000000   0.00000000         -114.42        0.00        0.00
   0.00000000  -0.00018793   0.00000000            0.00      -27.65        0.00
   0.00000000   0.00000000  -0.00018793            0.00        0.00      -27.65

     Energy error            =      1.0E-02 Ry
     Gradient error          =      0.0E+00 Ry/Bohr
     Cell gradient error     =      1.1E+02 kbar

     number of scf cycles    =   3
     number of bfgs steps    =   2

     enthalpy           old  =    -450.9082831158 Ry
     enthalpy           new  =    -450.9185063019 Ry

     CASE: enthalpy          _new < enthalpy          _old

     new trust radius        =       0.1136143883 bohr
     new conv_thr            =            1.0E-10 Ry

     new unit-cell volume =    206.68220 a.u.^3 (    30.62714 Ang^3 )
     density =      5.73230 g/cm^3

CELL_PARAMETERS (alat=  5.58242261)
   0.961246486   0.000000000   0.000000000
   0.000000000   1.111731949   0.000000000
   0.000000000   0.000000000   1.111731949

ATOMIC_POSITIONS (crystal)
Fe               0.5000000000        0.5000000000        0.5000000000
Ti               0.0000000000        0.0000000000        0.0000000000
H                0.5000000000        0.5000000000        0.0000000000
H                0.5000000000        0.0000000000        0.5000000000



     Writing config-only to output data dir ./TiFe_H_faces_yz.save/ :
     XML data file     NEW-OLD atomic charge density approx. for the potential
     New effective cutoffs (rho, wfc): 1877.96  134.00

     Check: negative core charge=   -0.000002

     negative rho (up, down):  8.184E-04 0.000E+00

     total cpu time spent up to now is      170.1 secs

     per-process dynamical memory:   164.3 Mb

     Self-consistent Calculation

     iteration #  1     ecut=   124.00 Ry     beta= 0.70
     Davidson diagonalization with overlap
     ethr =  1.00E-06,  avg # of iterations =  9.4

     negative rho (up, down):  8.172E-04 0.000E+00

     total cpu time spent up to now is      178.4 secs

     total energy              =    -450.91944293 Ry
     estimated scf accuracy    <       0.00358748 Ry

     iteration #  2     ecut=   124.00 Ry     beta= 0.70
     Davidson diagonalization with overlap
     ethr =  1.20E-05,  avg # of iterations =  5.4

     negative rho (up, down):  8.507E-04 0.000E+00

     total cpu time spent up to now is      182.7 secs

     total energy              =    -450.90248667 Ry
     estimated scf accuracy    <       0.36123685 Ry

     iteration #  3     ecut=   124.00 Ry     beta= 0.70
     Davidson diagonalization with overlap
     ethr =  1.20E-05,  avg # of iterations =  4.9

     negative rho (up, down):  8.486E-04 0.000E+00

     total cpu time spent up to now is      186.7 secs

     total energy              =    -450.92194619 Ry
     estimated scf accuracy    <       0.00052972 Ry

     iteration #  4     ecut=   124.00 Ry     beta= 0.70
     Davidson diagonalization with overlap
     ethr =  1.77E-06,  avg # of iterations =  2.4

     negative rho (up, down):  8.531E-04 0.000E+00

     total cpu time spent up to now is      189.5 secs

     total energy              =    -450.92200381 Ry
     estimated scf accuracy    <       0.00003221 Ry

     iteration #  5     ecut=   124.00 Ry     beta= 0.70
     Davidson diagonalization with overlap
     ethr =  1.07E-07,  avg # of iterations =  4.3

     negative rho (up, down):  8.540E-04 0.000E+00

     total cpu time spent up to now is      193.2 secs

     total energy              =    -450.92201672 Ry
     estimated scf accuracy    <       0.00001155 Ry

     iteration #  6     ecut=   124.00 Ry     beta= 0.70
     Davidson diagonalization with overlap
     ethr =  3.85E-08,  avg # of iterations =  1.4

     negative rho (up, down):  8.548E-04 0.000E+00

     total cpu time spent up to now is      195.7 secs

     total energy              =    -450.92201753 Ry
     estimated scf accuracy    <       0.00000044 Ry

     iteration #  7     ecut=   124.00 Ry     beta= 0.70
     Davidson diagonalization with overlap
     ethr =  1.47E-09,  avg # of iterations =  4.4

     negative rho (up, down):  8.548E-04 0.000E+00

     total cpu time spent up to now is      199.5 secs

     total energy              =    -450.92201772 Ry
     estimated scf accuracy    <       0.00000003 Ry

     iteration #  8     ecut=   124.00 Ry     beta= 0.70
     Davidson diagonalization with overlap
     ethr =  9.49E-11,  avg # of iterations =  4.4

     negative rho (up, down):  8.548E-04 0.000E+00

     total cpu time spent up to now is      203.1 secs

     total energy              =    -450.92201773 Ry
     estimated scf accuracy    <          4.1E-10 Ry

     iteration #  9     ecut=   124.00 Ry     beta= 0.70
     Davidson diagonalization with overlap
     ethr =  1.37E-12,  avg # of iterations =  5.1

     negative rho (up, down):  8.548E-04 0.000E+00

     total cpu time spent up to now is      207.3 secs

     total energy              =    -450.92201773 Ry
     estimated scf accuracy    <          3.5E-10 Ry

     iteration # 10     ecut=   124.00 Ry     beta= 0.70
     Davidson diagonalization with overlap
     ethr =  1.15E-12,  avg # of iterations =  2.0

     negative rho (up, down):  8.548E-04 0.000E+00

     total cpu time spent up to now is      210.1 secs

     End of self-consistent calculation

     Number of k-points >= 100: set verbosity='high' to print the bands.

     the Fermi energy is    15.5542 ev

!    total energy              =    -450.92201773 Ry
     estimated scf accuracy    <          3.4E-12 Ry
     smearing contrib. (-TS)   =       0.00005742 Ry
     internal energy E=F+TS    =    -450.92207514 Ry

     The total energy is F=E-TS. E is the sum of the following terms:
     one-electron contribution =    -167.61692772 Ry
     hartree contribution      =      99.05351474 Ry
     xc contribution           =     -54.43301201 Ry
     ewald contribution        =    -251.77458675 Ry
     one-center paw contrib.   =     -76.15106339 Ry

     convergence has been achieved in  10 iterations

     negative rho (up, down):  8.548E-04 0.000E+00

     Forces acting on atoms (cartesian axes, Ry/au):

     atom    1 type  1   force =     0.00000000    0.00000000    0.00000000
     atom    2 type  2   force =     0.00000000    0.00000000    0.00000000
     atom    3 type  3   force =     0.00000000    0.00000000    0.00000000
     atom    4 type  3   force =     0.00000000    0.00000000    0.00000000

     Total force =     0.000000     Total SCF correction =     0.000000


     Computing stress (Cartesian axis) and pressure


     negative rho (up, down):  8.548E-04 0.000E+00
          total   stress  (Ry/bohr**3)                   (kbar)     P=       13.37
  -0.00001922   0.00000000   0.00000000           -2.83        0.00        0.00
   0.00000000   0.00014599   0.00000000            0.00       21.48        0.00
   0.00000000   0.00000000   0.00014599            0.00        0.00       21.48

     Energy error            =      3.5E-03 Ry
     Gradient error          =      0.0E+00 Ry/Bohr
     Cell gradient error     =      2.1E+01 kbar

     number of scf cycles    =   4
     number of bfgs steps    =   3

     enthalpy           old  =    -450.9185063019 Ry
     enthalpy           new  =    -450.9220177271 Ry

     CASE: enthalpy          _new < enthalpy          _old

     new trust radius        =       0.0086915067 bohr
     new conv_thr            =            1.0E-10 Ry

     new unit-cell volume =    207.44619 a.u.^3 (    30.74035 Ang^3 )
     density =      5.71118 g/cm^3

CELL_PARAMETERS (alat=  5.58242261)
   0.958993173   0.000000000   0.000000000
   0.000000000   1.115092524   0.000000000
   0.000000000   0.000000000   1.115092524

ATOMIC_POSITIONS (crystal)
Fe               0.5000000000        0.5000000000        0.5000000000
Ti               0.0000000000        0.0000000000        0.0000000000
H                0.5000000000        0.5000000000        0.0000000000
H                0.5000000000        0.0000000000        0.5000000000



     Writing config-only to output data dir ./TiFe_H_faces_yz.save/ :
     XML data file     NEW-OLD atomic charge density approx. for the potential
     New effective cutoffs (rho, wfc): 1886.78  134.63

     Check: negative core charge=   -0.000002

     negative rho (up, down):  8.560E-04 0.000E+00

     total cpu time spent up to now is      212.1 secs

     per-process dynamical memory:   164.3 Mb

     Self-consistent Calculation

     iteration #  1     ecut=   124.00 Ry     beta= 0.70
     Davidson diagonalization with overlap
     ethr =  1.00E-06,  avg # of iterations =  3.7

     negative rho (up, down):  8.447E-04 0.000E+00

     total cpu time spent up to now is      216.3 secs

     total energy              =    -450.92204788 Ry
     estimated scf accuracy    <       0.00011725 Ry

     iteration #  2     ecut=   124.00 Ry     beta= 0.70
     Davidson diagonalization with overlap
     ethr =  3.91E-07,  avg # of iterations =  5.3

     negative rho (up, down):  8.513E-04 0.000E+00

     total cpu time spent up to now is      220.6 secs

     total energy              =    -450.92144671 Ry
     estimated scf accuracy    <       0.01465262 Ry

     iteration #  3     ecut=   124.00 Ry     beta= 0.70
     Davidson diagonalization with overlap
     ethr =  3.91E-07,  avg # of iterations =  4.6

     negative rho (up, down):  8.532E-04 0.000E+00

     total cpu time spent up to now is      224.5 secs

     total energy              =    -450.92214522 Ry
     estimated scf accuracy    <       0.00000769 Ry

     iteration #  4     ecut=   124.00 Ry     beta= 0.70
     Davidson diagonalization with overlap
     ethr =  2.56E-08,  avg # of iterations =  4.0

     negative rho (up, down):  8.525E-04 0.000E+00

     total cpu time spent up to now is      228.0 secs

     total energy              =    -450.92214830 Ry
     estimated scf accuracy    <       0.00000076 Ry

     iteration #  5     ecut=   124.00 Ry     beta= 0.70
     Davidson diagonalization with overlap
     ethr =  2.52E-09,  avg # of iterations =  3.9

     negative rho (up, down):  8.524E-04 0.000E+00

     total cpu time spent up to now is      231.4 secs

     total energy              =    -450.92214855 Ry
     estimated scf accuracy    <       0.00000004 Ry

     iteration #  6     ecut=   124.00 Ry     beta= 0.70
     Davidson diagonalization with overlap
     ethr =  1.47E-10,  avg # of iterations =  4.5

     negative rho (up, down):  8.524E-04 0.000E+00

     total cpu time spent up to now is      235.1 secs

     total energy              =    -450.92214857 Ry
     estimated scf accuracy    <          4.7E-09 Ry

     iteration #  7     ecut=   124.00 Ry     beta= 0.70
     Davidson diagonalization with overlap
     ethr =  1.57E-11,  avg # of iterations =  2.6

     negative rho (up, down):  8.524E-04 0.000E+00

     total cpu time spent up to now is      238.1 secs

     total energy              =    -450.92214856 Ry
     estimated scf accuracy    <          7.3E-10 Ry

     iteration #  8     ecut=   124.00 Ry     beta= 0.70
     Davidson diagonalization with overlap
     ethr =  2.44E-12,  avg # of iterations =  4.2

     negative rho (up, down):  8.524E-04 0.000E+00

     total cpu time spent up to now is      241.6 secs

     End of self-consistent calculation

     Number of k-points >= 100: set verbosity='high' to print the bands.

     the Fermi energy is    15.4768 ev

!    total energy              =    -450.92214856 Ry
     estimated scf accuracy    <          9.6E-11 Ry
     smearing contrib. (-TS)   =       0.00005727 Ry
     internal energy E=F+TS    =    -450.92220584 Ry

     The total energy is F=E-TS. E is the sum of the following terms:
     one-electron contribution =    -168.07528696 Ry
     hartree contribution      =      99.20909740 Ry
     xc contribution           =     -54.42421673 Ry
     ewald contribution        =    -251.48084167 Ry
     one-center paw contrib.   =     -76.15095787 Ry

     convergence has been achieved in   8 iterations

     negative rho (up, down):  8.524E-04 0.000E+00

     Forces acting on atoms (cartesian axes, Ry/au):

     atom    1 type  1   force =     0.00000000    0.00000000    0.00000000
     atom    2 type  2   force =     0.00000000    0.00000000    0.00000000
     atom    3 type  3   force =     0.00000000    0.00000000    0.00000000
     atom    4 type  3   force =     0.00000000    0.00000000    0.00000000

     Total force =     0.000000     Total SCF correction =     0.000000


     Computing stress (Cartesian axis) and pressure


     negative rho (up, down):  8.524E-04 0.000E+00
          total   stress  (Ry/bohr**3)                   (kbar)     P=        5.03
  -0.00000575   0.00000000   0.00000000           -0.85        0.00        0.00
   0.00000000   0.00005414   0.00000000            0.00        7.96        0.00
   0.00000000   0.00000000   0.00005414            0.00        0.00        7.96

     Energy error            =      1.3E-04 Ry
     Gradient error          =      0.0E+00 Ry/Bohr
     Cell gradient error     =      8.0E+00 kbar

     number of scf cycles    =   5
     number of bfgs steps    =   4

     enthalpy           old  =    -450.9220177271 Ry
     enthalpy           new  =    -450.9221485641 Ry

     CASE: enthalpy          _new < enthalpy          _old

     new trust radius        =       0.0050706865 bohr
     new conv_thr            =            1.0E-10 Ry

     new unit-cell volume =    207.91510 a.u.^3 (    30.80984 Ang^3 )
     density =      5.69830 g/cm^3

CELL_PARAMETERS (alat=  5.58242261)
   0.957785962   0.000000000   0.000000000
   0.000000000   1.117055409   0.000000000
   0.000000000   0.000000000   1.117055409

ATOMIC_POSITIONS (crystal)
Fe               0.5000000000        0.5000000000        0.5000000000
Ti               0.0000000000        0.0000000000        0.0000000000
H                0.5000000000        0.5000000000        0.0000000000
H                0.5000000000        0.0000000000        0.5000000000



     Writing config-only to output data dir ./TiFe_H_faces_yz.save/ :
     XML data file     NEW-OLD atomic charge density approx. for the potential
     New effective cutoffs (rho, wfc): 1891.53  134.96

     Check: negative core charge=   -0.000002

     negative rho (up, down):  8.533E-04 0.000E+00

     total cpu time spent up to now is      243.6 secs

     per-process dynamical memory:   164.7 Mb

     Self-consistent Calculation

     iteration #  1     ecut=   124.00 Ry     beta= 0.70
     Davidson diagonalization with overlap
     ethr =  1.00E-06,  avg # of iterations =  3.1

     negative rho (up, down):  8.467E-04 0.000E+00

     total cpu time spent up to now is      247.4 secs

     total energy              =    -450.92213155 Ry
     estimated scf accuracy    <       0.00004209 Ry

     iteration #  2     ecut=   124.00 Ry     beta= 0.70
     Davidson diagonalization with overlap
     ethr =  1.40E-07,  avg # of iterations =  5.2

     negative rho (up, down):  8.506E-04 0.000E+00

     total cpu time spent up to now is      251.7 secs

     total energy              =    -450.92190432 Ry
     estimated scf accuracy    <       0.00564521 Ry

     iteration #  3     ecut=   124.00 Ry     beta= 0.70
     Davidson diagonalization with overlap
     ethr =  1.40E-07,  avg # of iterations =  4.7

     negative rho (up, down):  8.514E-04 0.000E+00

     total cpu time spent up to now is      255.5 secs

     total energy              =    -450.92216821 Ry
     estimated scf accuracy    <       0.00000176 Ry

     iteration #  4     ecut=   124.00 Ry     beta= 0.70
     Davidson diagonalization with overlap
     ethr =  5.85E-09,  avg # of iterations =  4.1

     negative rho (up, down):  8.510E-04 0.000E+00

     total cpu time spent up to now is      259.1 secs

     total energy              =    -450.92216895 Ry
     estimated scf accuracy    <       0.00000021 Ry

     iteration #  5     ecut=   124.00 Ry     beta= 0.70
     Davidson diagonalization with overlap
     ethr =  7.01E-10,  avg # of iterations =  4.4

     negative rho (up, down):  8.510E-04 0.000E+00

     total cpu time spent up to now is      262.7 secs

     total energy              =    -450.92216903 Ry
     estimated scf accuracy    <       0.00000001 Ry

     iteration #  6     ecut=   124.00 Ry     beta= 0.70
     Davidson diagonalization with overlap
     ethr =  4.85E-11,  avg # of iterations =  4.4

     negative rho (up, down):  8.510E-04 0.000E+00

     total cpu time spent up to now is      266.3 secs

     total energy              =    -450.92216903 Ry
     estimated scf accuracy    <          1.6E-09 Ry

     iteration #  7     ecut=   124.00 Ry     beta= 0.70
     Davidson diagonalization with overlap
     ethr =  5.26E-12,  avg # of iterations =  3.2

     negative rho (up, down):  8.509E-04 0.000E+00

     total cpu time spent up to now is      269.5 secs

     total energy              =    -450.92216903 Ry
     estimated scf accuracy    <          1.9E-10 Ry

     iteration #  8     ecut=   124.00 Ry     beta= 0.70
     Davidson diagonalization with overlap
     ethr =  6.24E-13,  avg # of iterations =  4.6

     negative rho (up, down):  8.509E-04 0.000E+00

     total cpu time spent up to now is      273.0 secs

     End of self-consistent calculation

     Number of k-points >= 100: set verbosity='high' to print the bands.

     the Fermi energy is    15.4296 ev

!    total energy              =    -450.92216903 Ry
     estimated scf accuracy    <          1.4E-11 Ry
     smearing contrib. (-TS)   =       0.00005817 Ry
     internal energy E=F+TS    =    -450.92222720 Ry

     The total energy is F=E-TS. E is the sum of the following terms:
     one-electron contribution =    -168.35749072 Ry
     hartree contribution      =      99.30494463 Ry
     xc contribution           =     -54.41886684 Ry
     ewald contribution        =    -251.29991817 Ry
     one-center paw contrib.   =     -76.15089610 Ry

     convergence has been achieved in   8 iterations

     negative rho (up, down):  8.509E-04 0.000E+00

     Forces acting on atoms (cartesian axes, Ry/au):

     atom    1 type  1   force =     0.00000000    0.00000000    0.00000000
     atom    2 type  2   force =     0.00000000    0.00000000    0.00000000
     atom    3 type  3   force =     0.00000000    0.00000000    0.00000000
     atom    4 type  3   force =     0.00000000    0.00000000    0.00000000

     Total force =     0.000000     Total SCF correction =     0.000000


     Computing stress (Cartesian axis) and pressure


     negative rho (up, down):  8.509E-04 0.000E+00
          total   stress  (Ry/bohr**3)                   (kbar)     P=        0.01
  -0.00000020   0.00000000   0.00000000           -0.03        0.00        0.00
   0.00000000   0.00000023   0.00000000            0.00        0.03        0.00
   0.00000000   0.00000000   0.00000023            0.00        0.00        0.03

     Energy error            =      2.0E-05 Ry
     Gradient error          =      0.0E+00 Ry/Bohr
     Cell gradient error     =      3.4E-02 kbar

     bfgs converged in   6 scf cycles and   5 bfgs steps
     (criteria: energy <  1.0E-04 Ry, force <  1.0E-03 Ry/Bohr, cell <  1.0E-01 kbar)

     End of BFGS Geometry Optimization

     Final enthalpy           =    -450.9221690272 Ry

     File ./TiFe_H_faces_yz.bfgs deleted, as requested
Begin final coordinates
     new unit-cell volume =    207.91510 a.u.^3 (    30.80984 Ang^3 )
     density =      5.69830 g/cm^3

CELL_PARAMETERS (alat=  5.58242261)
   0.957785962   0.000000000   0.000000000
   0.000000000   1.117055409   0.000000000
   0.000000000   0.000000000   1.117055409

ATOMIC_POSITIONS (crystal)
Fe               0.5000000000        0.5000000000        0.5000000000
Ti               0.0000000000        0.0000000000        0.0000000000
H                0.5000000000        0.5000000000        0.0000000000
H                0.5000000000        0.0000000000        0.5000000000
End final coordinates



     Writing config-only to output data dir ./TiFe_H_faces_yz.save/ :
     XML data file
     Final scf calculation at the relaxed structure.
     The G-vectors are recalculated for the final unit cell
     Results may differ from those at the preceding step.

     Parallelization info
     --------------------
     sticks:   dense  smooth     PW     G-vecs:    dense   smooth      PW
     Min         288      81     23                15878     2417     377
     Max         289      82     24                15881     2420     380
     Sum        4609    1305    379               254079    38689    6065

     Using Slab Decomposition



     bravais-lattice index     =            0
     lattice parameter (alat)  =       5.5824  a.u.
     unit-cell volume          =     207.9151 (a.u.)^3
     number of atoms/cell      =            4
     number of atomic types    =            3
     number of electrons       =        30.00
     number of Kohn-Sham states=           19
     kinetic-energy cutoff     =     124.0000  Ry
     charge density cutoff     =    1736.0000  Ry
     scf convergence threshold =      1.0E-10
     mixing beta               =       0.7000
     number of iterations used =            8  plain     mixing
     press convergence thresh. =      1.0E-01
     Exchange-correlation= PBE
                           (   1   4   3   4   0   0   0)

     celldm(1)=   5.582423  celldm(2)=   0.000000  celldm(3)=   0.000000
     celldm(4)=   0.000000  celldm(5)=   0.000000  celldm(6)=   0.000000

     crystal axes: (cart. coord. in units of alat)
               a(1) = (   0.957786   0.000000   0.000000 )  
               a(2) = (   0.000000   1.117055   0.000000 )  
               a(3) = (   0.000000   0.000000   1.117055 )  

     reciprocal axes: (cart. coord. in units 2 pi/alat)
               b(1) = (  1.044075  0.000000  0.000000 )  
               b(2) = (  0.000000  0.895211  0.000000 )  
               b(3) = (  0.000000  0.000000  0.895211 )  


     PseudoPot. # 1 for Fe read from file:
     ../../pseudos/Fe.pbe-spn-kjpaw_psl.0.2.1.UPF
     MD5 check sum: e86618425769142926afa95317d90200
     Pseudo is Projector augmented-wave + core cor, Zval = 16.0
     Generated using "atomic" code by A. Dal Corso  v.5.0.99 svn rev. 10869
     Shape of augmentation charge: PSQ
     Using radial grid of 1191 points,  6 beta functions with: 
                l(1) =   0
                l(2) =   0
                l(3) =   1
                l(4) =   1
                l(5) =   2
                l(6) =   2
     Q(r) pseudized with 0 coefficients 


     PseudoPot. # 2 for Ti read from file:
     ../../pseudos/ti_pbe_v1.4.uspp.F.UPF
     MD5 check sum: 88a00a6731bd790ddea75d31a80cb452
     Pseudo is Ultrasoft + core correction, Zval = 12.0
     Generated by new atomic code, or converted to UPF format
     Using radial grid of  851 points,  6 beta functions with: 
                l(1) =   0
                l(2) =   0
                l(3) =   1
                l(4) =   1
                l(5) =   2
                l(6) =   2
     Q(r) pseudized with  6 coefficients,  rinner =    1.000   1.000   1.000
                                                       1.000   1.000

     PseudoPot. # 3 for H  read from file:
     ../../pseudos/H.pbe-rrkjus_psl.1.0.0.UPF
     MD5 check sum: f52b6d4d1c606e5624b1dc7b2218f220
     Pseudo is Ultrasoft, Zval =  1.0
     Generated using "atomic" code by A. Dal Corso  v.5.1
     Using radial grid of  929 points,  2 beta functions with: 
                l(1) =   0
                l(2) =   0
     Q(r) pseudized with 0 coefficients 


     atomic species   valence    mass     pseudopotential
     Fe               16.00    55.84500     Fe( 1.00)
     Ti               12.00    47.86700     Ti( 1.00)
     H                 1.00     1.00750     H ( 1.00)

     16 Sym. Ops., with inversion, found



   Cartesian axes

     site n.     atom                  positions (alat units)
         1        Fe     tau(   1) = (   0.4788930   0.5585277   0.5585277  )
         2        Ti     tau(   2) = (   0.0000000   0.0000000   0.0000000  )
         3        H      tau(   3) = (   0.4788930   0.5585277   0.0000000  )
         4        H      tau(   4) = (   0.4788930   0.0000000   0.5585277  )

     number of k points=   288  Marzari-Vanderbilt smearing, width (Ry)=  0.0050

     Number of k-points >= 100: set verbosity='high' to print them.

     Dense  grid:   254079 G-vectors     FFT dimensions: (  72,  90,  90)

     Smooth grid:    38689 G-vectors     FFT dimensions: (  40,  45,  45)

     Estimated max dynamical RAM per process >     104.77 MB

     Estimated total dynamical RAM >       1.64 GB

     Check: negative core charge=   -0.000001

     Initial potential from superposition of free atoms

     starting charge      28.9995, renormalised to      30.0000

     negative rho (up, down):  1.311E-03 0.000E+00
     Starting wfcs are   25 randomized atomic wfcs
     Checking if some PAW data can be deallocated... 

     total cpu time spent up to now is      277.1 secs

     per-process dynamical memory:   166.0 Mb

     Self-consistent Calculation

     iteration #  1     ecut=   124.00 Ry     beta= 0.70
     Davidson diagonalization with overlap
     c_bands:  1 eigenvalues not converged
     c_bands:  1 eigenvalues not converged
     c_bands:  2 eigenvalues not converged
     c_bands:  1 eigenvalues not converged
     c_bands:  1 eigenvalues not converged
     c_bands:  1 eigenvalues not converged
     c_bands:  1 eigenvalues not converged
     c_bands:  1 eigenvalues not converged
     c_bands:  1 eigenvalues not converged
     c_bands:  1 eigenvalues not converged
     c_bands:  1 eigenvalues not converged
     c_bands:  1 eigenvalues not converged
     c_bands:  1 eigenvalues not converged
     c_bands:  1 eigenvalues not converged
     c_bands:  2 eigenvalues not converged
     c_bands:  2 eigenvalues not converged
     c_bands:  2 eigenvalues not converged
     c_bands:  1 eigenvalues not converged
     c_bands:  1 eigenvalues not converged
     c_bands:  1 eigenvalues not converged
     c_bands:  2 eigenvalues not converged
     c_bands:  2 eigenvalues not converged
     c_bands:  1 eigenvalues not converged
     c_bands:  1 eigenvalues not converged
     c_bands:  2 eigenvalues not converged
     c_bands:  1 eigenvalues not converged
     c_bands:  1 eigenvalues not converged
     c_bands:  1 eigenvalues not converged
     c_bands:  1 eigenvalues not converged
     c_bands:  1 eigenvalues not converged
     c_bands:  1 eigenvalues not converged
     c_bands:  1 eigenvalues not converged
     c_bands:  1 eigenvalues not converged
     c_bands:  2 eigenvalues not converged
     c_bands:  1 eigenvalues not converged
     c_bands:  2 eigenvalues not converged
     c_bands:  3 eigenvalues not converged
     c_bands:  3 eigenvalues not converged
     c_bands:  2 eigenvalues not converged
     c_bands:  1 eigenvalues not converged
     c_bands:  1 eigenvalues not converged
     c_bands:  2 eigenvalues not converged
     c_bands:  2 eigenvalues not converged
     c_bands:  1 eigenvalues not converged
     c_bands:  1 eigenvalues not converged
     c_bands:  1 eigenvalues not converged
     c_bands:  1 eigenvalues not converged
     c_bands:  1 eigenvalues not converged
     c_bands:  2 eigenvalues not converged
     c_bands:  1 eigenvalues not converged
     c_bands:  2 eigenvalues not converged
     c_bands:  1 eigenvalues not converged
     c_bands:  1 eigenvalues not converged
     c_bands:  1 eigenvalues not converged
     c_bands:  1 eigenvalues not converged
     c_bands:  1 eigenvalues not converged
     c_bands:  1 eigenvalues not converged
     c_bands:  1 eigenvalues not converged
     c_bands:  1 eigenvalues not converged
     c_bands:  1 eigenvalues not converged
     c_bands:  1 eigenvalues not converged
     c_bands:  1 eigenvalues not converged
     c_bands:  1 eigenvalues not converged
     c_bands:  1 eigenvalues not converged
     c_bands:  1 eigenvalues not converged
     c_bands:  1 eigenvalues not converged
     c_bands:  1 eigenvalues not converged
     c_bands:  1 eigenvalues not converged
     c_bands:  1 eigenvalues not converged
     c_bands:  1 eigenvalues not converged
     c_bands:  1 eigenvalues not converged
     c_bands:  1 eigenvalues not converged
     c_bands:  1 eigenvalues not converged
     c_bands:  1 eigenvalues not converged
     c_bands:  1 eigenvalues not converged
     c_bands:  1 eigenvalues not converged
     c_bands:  1 eigenvalues not converged
     c_bands:  1 eigenvalues not converged
     c_bands:  1 eigenvalues not converged
     c_bands:  1 eigenvalues not converged
     c_bands:  1 eigenvalues not converged
     c_bands:  1 eigenvalues not converged
     c_bands:  1 eigenvalues not converged
     c_bands:  1 eigenvalues not converged
     c_bands:  1 eigenvalues not converged
     c_bands:  1 eigenvalues not converged
     c_bands:  2 eigenvalues not converged
     ethr =  1.00E-06,  avg # of iterations = 17.5

     negative rho (up, down):  8.186E-05 0.000E+00

     total cpu time spent up to now is      294.4 secs

     total energy              =    -436.14398646 Ry
     estimated scf accuracy    <      18.51182859 Ry

     iteration #  2     ecut=   124.00 Ry     beta= 0.70
     Davidson diagonalization with overlap
     ethr =  1.00E-02,  avg # of iterations =  6.5

     negative rho (up, down):  1.486E-05 0.000E+00

     total cpu time spent up to now is      301.3 secs

     total energy              =    -449.76014302 Ry
     estimated scf accuracy    <      75.33770941 Ry

     iteration #  3     ecut=   124.00 Ry     beta= 0.70
     Davidson diagonalization with overlap
     ethr =  1.00E-02,  avg # of iterations =  3.1

     negative rho (up, down):  1.658E-04 0.000E+00

     total cpu time spent up to now is      305.7 secs

     total energy              =    -451.53319788 Ry
     estimated scf accuracy    <      17.67602345 Ry

     iteration #  4     ecut=   124.00 Ry     beta= 0.70
     Davidson diagonalization with overlap
     ethr =  1.00E-02,  avg # of iterations =  2.3

     negative rho (up, down):  2.643E-04 0.000E+00

     total cpu time spent up to now is      309.2 secs

     total energy              =    -451.63249786 Ry
     estimated scf accuracy    <       7.16528311 Ry

     iteration #  5     ecut=   124.00 Ry     beta= 0.70
     Davidson diagonalization with overlap
     ethr =  1.00E-02,  avg # of iterations =  1.1

     negative rho (up, down):  8.747E-04 0.000E+00

     total cpu time spent up to now is      312.1 secs

     total energy              =    -450.53788964 Ry
     estimated scf accuracy    <       5.76342433 Ry

     iteration #  6     ecut=   124.00 Ry     beta= 0.70
     Davidson diagonalization with overlap
     ethr =  1.00E-02,  avg # of iterations =  2.8

     negative rho (up, down):  8.856E-04 0.000E+00

     total cpu time spent up to now is      315.5 secs

     total energy              =    -450.88289439 Ry
     estimated scf accuracy    <       0.06687130 Ry

     iteration #  7     ecut=   124.00 Ry     beta= 0.70
     Davidson diagonalization with overlap
     ethr =  2.23E-04,  avg # of iterations =  6.3

     negative rho (up, down):  6.947E-04 0.000E+00

     total cpu time spent up to now is      321.1 secs

     total energy              =    -450.89066910 Ry
     estimated scf accuracy    <       0.09324408 Ry

     iteration #  8     ecut=   124.00 Ry     beta= 0.70
     Davidson diagonalization with overlap
     ethr =  2.23E-04,  avg # of iterations =  4.2

     negative rho (up, down):  7.292E-04 0.000E+00

     total cpu time spent up to now is      325.1 secs

     total energy              =    -450.94740762 Ry
     estimated scf accuracy    <       0.84856056 Ry

     iteration #  9     ecut=   124.00 Ry     beta= 0.70
     Davidson diagonalization with overlap
     ethr =  2.23E-04,  avg # of iterations =  1.0

     negative rho (up, down):  7.501E-04 0.000E+00

     total cpu time spent up to now is      328.1 secs

     total energy              =    -450.93564869 Ry
     estimated scf accuracy    <       0.49228929 Ry

     iteration # 10     ecut=   124.00 Ry     beta= 0.70
     Davidson diagonalization with overlap
     ethr =  2.23E-04,  avg # of iterations =  1.1

     negative rho (up, down):  7.600E-04 0.000E+00

     total cpu time spent up to now is      331.0 secs

     total energy              =    -450.92998527 Ry
     estimated scf accuracy    <       0.27031258 Ry

     iteration # 11     ecut=   124.00 Ry     beta= 0.70
     Davidson diagonalization with overlap
     ethr =  2.23E-04,  avg # of iterations =  1.0

     negative rho (up, down):  7.519E-04 0.000E+00

     total cpu time spent up to now is      333.9 secs

     total energy              =    -450.93769851 Ry
     estimated scf accuracy    <       0.14709915 Ry

     iteration # 12     ecut=   124.00 Ry     beta= 0.70
     Davidson diagonalization with overlap
     ethr =  2.23E-04,  avg # of iterations =  1.0

     negative rho (up, down):  8.226E-04 0.000E+00

     total cpu time spent up to now is      336.8 secs

     total energy              =    -450.91241496 Ry
     estimated scf accuracy    <       0.27451500 Ry

     iteration # 13     ecut=   124.00 Ry     beta= 0.70
     Davidson diagonalization with overlap
     ethr =  2.23E-04,  avg # of iterations =  1.5

     negative rho (up, down):  8.423E-04 0.000E+00

     total cpu time spent up to now is      339.8 secs

     total energy              =    -450.92126391 Ry
     estimated scf accuracy    <       0.01044349 Ry

     iteration # 14     ecut=   124.00 Ry     beta= 0.70
     Davidson diagonalization with overlap
     ethr =  3.48E-05,  avg # of iterations =  3.5

     negative rho (up, down):  8.240E-04 0.000E+00

     total cpu time spent up to now is      343.3 secs

     total energy              =    -450.92236325 Ry
     estimated scf accuracy    <       0.00015674 Ry

     iteration # 15     ecut=   124.00 Ry     beta= 0.70
     Davidson diagonalization with overlap
     ethr =  5.22E-07,  avg # of iterations =  5.8

     negative rho (up, down):  8.369E-04 0.000E+00

     total cpu time spent up to now is      348.8 secs

     total energy              =    -450.92238878 Ry
     estimated scf accuracy    <       0.00466007 Ry

     iteration # 16     ecut=   124.00 Ry     beta= 0.70
     Davidson diagonalization with overlap
     ethr =  5.22E-07,  avg # of iterations =  3.8

     negative rho (up, down):  8.383E-04 0.000E+00

     total cpu time spent up to now is      352.8 secs

     total energy              =    -450.92252047 Ry
     estimated scf accuracy    <       0.00027010 Ry

     iteration # 17     ecut=   124.00 Ry     beta= 0.70
     Davidson diagonalization with overlap
     ethr =  5.22E-07,  avg # of iterations =  1.0

     negative rho (up, down):  8.398E-04 0.000E+00

     total cpu time spent up to now is      355.7 secs

     total energy              =    -450.92251596 Ry
     estimated scf accuracy    <       0.00008126 Ry

     iteration # 18     ecut=   124.00 Ry     beta= 0.70
     Davidson diagonalization with overlap
     ethr =  2.71E-07,  avg # of iterations =  1.6

     negative rho (up, down):  8.400E-04 0.000E+00

     total cpu time spent up to now is      358.8 secs

     total energy              =    -450.92252176 Ry
     estimated scf accuracy    <       0.00000012 Ry

     iteration # 19     ecut=   124.00 Ry     beta= 0.70
     Davidson diagonalization with overlap
     ethr =  4.14E-10,  avg # of iterations =  8.7

     negative rho (up, down):  8.399E-04 0.000E+00

     total cpu time spent up to now is      366.9 secs

     total energy              =    -450.92252312 Ry
     estimated scf accuracy    <       0.00000160 Ry

     iteration # 20     ecut=   124.00 Ry     beta= 0.70
     Davidson diagonalization with overlap
     ethr =  4.14E-10,  avg # of iterations =  2.6

     negative rho (up, down):  8.399E-04 0.000E+00

     total cpu time spent up to now is      370.3 secs

     total energy              =    -450.92252311 Ry
     estimated scf accuracy    <       0.00000017 Ry

     iteration # 21     ecut=   124.00 Ry     beta= 0.70
     Davidson diagonalization with overlap
     ethr =  4.14E-10,  avg # of iterations =  2.9

     negative rho (up, down):  8.399E-04 0.000E+00

     total cpu time spent up to now is      373.8 secs

     total energy              =    -450.92252314 Ry
     estimated scf accuracy    <       0.00000008 Ry

     iteration # 22     ecut=   124.00 Ry     beta= 0.70
     Davidson diagonalization with overlap
     ethr =  2.70E-10,  avg # of iterations =  1.0

     negative rho (up, down):  8.399E-04 0.000E+00

     total cpu time spent up to now is      376.7 secs

     total energy              =    -450.92252314 Ry
     estimated scf accuracy    <       0.00000001 Ry

     iteration # 23     ecut=   124.00 Ry     beta= 0.70
     Davidson diagonalization with overlap
     ethr =  3.95E-11,  avg # of iterations =  1.9

     negative rho (up, down):  8.399E-04 0.000E+00

     total cpu time spent up to now is      379.8 secs

     total energy              =    -450.92252314 Ry
     estimated scf accuracy    <          9.5E-10 Ry

     iteration # 24     ecut=   124.00 Ry     beta= 0.70
     Davidson diagonalization with overlap
     ethr =  3.17E-12,  avg # of iterations =  3.6

     negative rho (up, down):  8.399E-04 0.000E+00

     total cpu time spent up to now is      383.4 secs

     End of self-consistent calculation

     Number of k-points >= 100: set verbosity='high' to print the bands.

     the Fermi energy is    15.4296 ev

!    total energy              =    -450.92252314 Ry
     estimated scf accuracy    <          1.8E-11 Ry
     smearing contrib. (-TS)   =       0.00005817 Ry
     internal energy E=F+TS    =    -450.92258131 Ry

     The total energy is F=E-TS. E is the sum of the following terms:
     one-electron contribution =    -168.35699022 Ry
     hartree contribution      =      99.30448811 Ry
     xc contribution           =     -54.41920254 Ry
     ewald contribution        =    -251.29991817 Ry
     one-center paw contrib.   =     -76.15095849 Ry

     convergence has been achieved in  24 iterations

     negative rho (up, down):  8.399E-04 0.000E+00

     Forces acting on atoms (cartesian axes, Ry/au):

     atom    1 type  1   force =     0.00000000    0.00000000    0.00000000
     atom    2 type  2   force =     0.00000000    0.00000000    0.00000000
     atom    3 type  3   force =     0.00000000    0.00000000    0.00000000
     atom    4 type  3   force =     0.00000000    0.00000000    0.00000000

     Total force =     0.000000     Total SCF correction =     0.000000


     Computing stress (Cartesian axis) and pressure


     negative rho (up, down):  8.399E-04 0.000E+00
          total   stress  (Ry/bohr**3)                   (kbar)     P=       -0.42
  -0.00000236   0.00000000   0.00000000           -0.35        0.00        0.00
   0.00000000  -0.00000314   0.00000000            0.00       -0.46        0.00
   0.00000000   0.00000000  -0.00000314            0.00        0.00       -0.46


     Writing all to output data dir ./TiFe_H_faces_yz.save/ :
     XML data file
     init_run     :      4.40s CPU      4.58s WALL (       2 calls)
     electrons    :    353.13s CPU    367.06s WALL (       7 calls)
     update_pot   :      0.38s CPU      0.46s WALL (       5 calls)
     forces       :      1.93s CPU      2.05s WALL (       7 calls)
     stress       :      8.98s CPU      9.31s WALL (       7 calls)

     Called by init_run:
     wfcinit      :      2.56s CPU      2.66s WALL (       2 calls)
     potinit      :      0.59s CPU      0.61s WALL (       2 calls)
     hinit0       :      0.76s CPU      0.78s WALL (       2 calls)

     Called by electrons:
     c_bands      :    296.94s CPU    306.18s WALL (      97 calls)
     sum_band     :     42.47s CPU     44.89s WALL (      97 calls)
     v_of_rho     :      1.37s CPU      1.55s WALL (     104 calls)
     newd         :      7.40s CPU      8.85s WALL (     104 calls)
     PAW_pot      :      5.82s CPU      6.57s WALL (     109 calls)
     mix_rho      :      0.15s CPU      0.17s WALL (      97 calls)

     Called by c_bands:
     init_us_2    :      6.12s CPU      6.39s WALL (   61920 calls)
     cegterg      :    286.80s CPU    295.49s WALL (   27936 calls)

     Called by *egterg:
     cdiaghg      :     49.70s CPU     50.99s WALL (  129053 calls)
     h_psi        :    199.03s CPU    205.56s WALL (  131069 calls)
     s_psi        :      4.89s CPU      5.06s WALL (  131069 calls)
     g_psi        :      1.09s CPU      1.12s WALL (  102557 calls)

     Called by h_psi:
     h_psi:calbec :      9.62s CPU      9.95s WALL (  131069 calls)
     vloc_psi     :    183.16s CPU    189.17s WALL (  131069 calls)
     add_vuspsi   :      5.10s CPU      5.28s WALL (  131069 calls)

     General routines
     calbec       :     14.58s CPU     15.07s WALL (  194717 calls)
     fft          :      1.49s CPU      1.72s WALL (    1518 calls)
     ffts         :      0.45s CPU      0.46s WALL (     201 calls)
     fftw         :    176.13s CPU    181.78s WALL ( 3723664 calls)
     interpolate  :      0.52s CPU      0.55s WALL (     104 calls)

     Parallel routines

     PWSCF        :    370.15s CPU    385.38s WALL


   This run was terminated on:  23:28:53  12Nov2025            

=------------------------------------------------------------------------------=
   JOB DONE.
=------------------------------------------------------------------------------=
