
     Program PWSCF v.7.4 starts on 12Nov2025 at 22:52: 8 

     This program is part of the open-source Quantum ESPRESSO suite
     for quantum simulation of materials; please cite
         "P. Giannozzi et al., J. Phys.:Condens. Matter 21 395502 (2009);
         "P. Giannozzi et al., J. Phys.:Condens. Matter 29 465901 (2017);
         "P. Giannozzi et al., J. Chem. Phys. 152 154105 (2020);
          URL http://www.quantum-espresso.org", 
     in publications or presentations arising from this work. More details at
     http://www.quantum-espresso.org/quote

     Parallel version (MPI & OpenMP), running on      16 processor cores
     Number of MPI processes:                16
     Threads/MPI process:                     1

     MPI processes distributed on     1 nodes
     203576 MiB available memory on the printing compute node when the environment starts

     Reading input from TiFe_H_faces_x.in

     Current dimensions of program PWSCF are:
     Max number of different atomic species (ntypx) = 10
     Max number of k-points (npk) =  40000
     Max angular momentum in pseudopotentials (lmaxx) =  4
     file Fe.pbe-spn-kjpaw_psl.0.2.1.UPF: wavefunction(s)  3D renormalized

     IMPORTANT: XC functional enforced from input :
     Exchange-correlation= PBE
                           (   1   4   3   4   0   0   0)
     Any further DFT definition will be discarded
     Please, verify this is what you really want

     Message from routine setup:
     using ibrav=0 with symmetry is DISCOURAGED, use correct ibrav instead

     R & G space division:  proc/nbgrp/npool/nimage =      16
     Subspace diagonalization in iterative solution of the eigenvalue problem:
     a serial algorithm will be used


     Parallelization info
     --------------------
     sticks:   dense  smooth     PW     G-vecs:    dense   smooth      PW
     Min         269      76     22                13288     2024     320
     Max         271      77     23                13289     2027     323
     Sum        4309    1225    357               212623    32423    5137

     Using Slab Decomposition



     bravais-lattice index     =            0
     lattice parameter (alat)  =       5.5824  a.u.
     unit-cell volume          =     173.9675 (a.u.)^3
     number of atoms/cell      =            3
     number of atomic types    =            3
     number of electrons       =        29.00
     number of Kohn-Sham states=           19
     kinetic-energy cutoff     =     124.0000  Ry
     charge density cutoff     =    1736.0000  Ry
     scf convergence threshold =      1.0E-08
     mixing beta               =       0.7000
     number of iterations used =            8  plain     mixing
     energy convergence thresh.=      1.0E-04
     force convergence thresh. =      1.0E-03
     press convergence thresh. =      1.0E-01
     Exchange-correlation= PBE
                           (   1   4   3   4   0   0   0)
     nstep                     =           50


     celldm(1)=   5.582423  celldm(2)=   0.000000  celldm(3)=   0.000000
     celldm(4)=   0.000000  celldm(5)=   0.000000  celldm(6)=   0.000000

     crystal axes: (cart. coord. in units of alat)
               a(1) = (   1.000000   0.000000   0.000000 )  
               a(2) = (   0.000000   1.000000   0.000000 )  
               a(3) = (   0.000000   0.000000   1.000000 )  

     reciprocal axes: (cart. coord. in units 2 pi/alat)
               b(1) = (  1.000000  0.000000  0.000000 )  
               b(2) = (  0.000000  1.000000  0.000000 )  
               b(3) = (  0.000000  0.000000  1.000000 )  


     PseudoPot. # 1 for Fe read from file:
     ../../pseudos/Fe.pbe-spn-kjpaw_psl.0.2.1.UPF
     MD5 check sum: e86618425769142926afa95317d90200
     Pseudo is Projector augmented-wave + core cor, Zval = 16.0
     Generated using "atomic" code by A. Dal Corso  v.5.0.99 svn rev. 10869
     Shape of augmentation charge: PSQ
     Using radial grid of 1191 points,  6 beta functions with: 
                l(1) =   0
                l(2) =   0
                l(3) =   1
                l(4) =   1
                l(5) =   2
                l(6) =   2
     Q(r) pseudized with 0 coefficients 


     PseudoPot. # 2 for Ti read from file:
     ../../pseudos/ti_pbe_v1.4.uspp.F.UPF
     MD5 check sum: 88a00a6731bd790ddea75d31a80cb452
     Pseudo is Ultrasoft + core correction, Zval = 12.0
     Generated by new atomic code, or converted to UPF format
     Using radial grid of  851 points,  6 beta functions with: 
                l(1) =   0
                l(2) =   0
                l(3) =   1
                l(4) =   1
                l(5) =   2
                l(6) =   2
     Q(r) pseudized with  6 coefficients,  rinner =    1.000   1.000   1.000
                                                       1.000   1.000

     PseudoPot. # 3 for H  read from file:
     ../../pseudos/H.pbe-rrkjus_psl.1.0.0.UPF
     MD5 check sum: f52b6d4d1c606e5624b1dc7b2218f220
     Pseudo is Ultrasoft, Zval =  1.0
     Generated using "atomic" code by A. Dal Corso  v.5.1
     Using radial grid of  929 points,  2 beta functions with: 
                l(1) =   0
                l(2) =   0
     Q(r) pseudized with 0 coefficients 


     atomic species   valence    mass     pseudopotential
     Fe               16.00    55.84500     Fe( 1.00)
     Ti               12.00    47.86700     Ti( 1.00)
     H                 1.00     1.00750     H ( 1.00)

     16 Sym. Ops., with inversion, found



   Cartesian axes

     site n.     atom                  positions (alat units)
         1        Fe     tau(   1) = (   0.5000000   0.5000000   0.5000000  )
         2        Ti     tau(   2) = (   0.0000000   0.0000000   0.0000000  )
         3        H      tau(   3) = (   0.0000000   0.5000000   0.5000000  )

     number of k points=   288  Marzari-Vanderbilt smearing, width (Ry)=  0.0050

     Number of k-points >= 100: set verbosity='high' to print them.

     Dense  grid:   212623 G-vectors     FFT dimensions: (  75,  75,  75)

     Smooth grid:    32423 G-vectors     FFT dimensions: (  40,  40,  40)

     Estimated max dynamical RAM per process >      90.33 MB

     Estimated total dynamical RAM >       1.41 GB

     Check: negative core charge=   -0.000001

     Initial potential from superposition of free atoms

     starting charge      27.9995, renormalised to      29.0000

     negative rho (up, down):  1.342E-03 0.000E+00
     Starting wfcs are   24 randomized atomic wfcs
     Checking if some PAW data can be deallocated... 

     total cpu time spent up to now is        3.1 secs

     per-process dynamical memory:   160.1 Mb

     Self-consistent Calculation

     iteration #  1     ecut=   124.00 Ry     beta= 0.70
     Davidson diagonalization with overlap
     ethr =  1.00E-02,  avg # of iterations =  2.1

     negative rho (up, down):  1.685E-05 0.000E+00

     total cpu time spent up to now is        6.0 secs

     total energy              =    -438.28468488 Ry
     estimated scf accuracy    <      14.59074531 Ry

     iteration #  2     ecut=   124.00 Ry     beta= 0.70
     Davidson diagonalization with overlap
     ethr =  1.00E-02,  avg # of iterations =  5.9

     negative rho (up, down):  7.771E-05 0.000E+00

     total cpu time spent up to now is       10.9 secs

     total energy              =    -449.74094341 Ry
     estimated scf accuracy    <      57.30427904 Ry

     iteration #  3     ecut=   124.00 Ry     beta= 0.70
     Davidson diagonalization with overlap
     ethr =  1.00E-02,  avg # of iterations =  2.9

     negative rho (up, down):  3.164E-04 0.000E+00

     total cpu time spent up to now is       14.2 secs

     total energy              =    -449.69257308 Ry
     estimated scf accuracy    <      14.57226877 Ry

     iteration #  4     ecut=   124.00 Ry     beta= 0.70
     Davidson diagonalization with overlap
     ethr =  1.00E-02,  avg # of iterations =  2.5

     negative rho (up, down):  3.055E-04 0.000E+00

     total cpu time spent up to now is       17.0 secs

     total energy              =    -450.20752270 Ry
     estimated scf accuracy    <       3.98536067 Ry

     iteration #  5     ecut=   124.00 Ry     beta= 0.70
     Davidson diagonalization with overlap
     ethr =  1.00E-02,  avg # of iterations =  1.0

     negative rho (up, down):  4.819E-04 0.000E+00

     total cpu time spent up to now is       19.3 secs

     total energy              =    -449.65915808 Ry
     estimated scf accuracy    <       3.76711051 Ry

     iteration #  6     ecut=   124.00 Ry     beta= 0.70
     Davidson diagonalization with overlap
     ethr =  1.00E-02,  avg # of iterations =  1.6

     negative rho (up, down):  5.688E-04 0.000E+00

     total cpu time spent up to now is       21.7 secs

     total energy              =    -449.77469669 Ry
     estimated scf accuracy    <       0.63678838 Ry

     iteration #  7     ecut=   124.00 Ry     beta= 0.70
     Davidson diagonalization with overlap
     ethr =  2.20E-03,  avg # of iterations =  2.3

     negative rho (up, down):  8.741E-04 0.000E+00

     total cpu time spent up to now is       24.2 secs

     total energy              =    -449.72372456 Ry
     estimated scf accuracy    <       0.31146796 Ry

     iteration #  8     ecut=   124.00 Ry     beta= 0.70
     Davidson diagonalization with overlap
     ethr =  1.07E-03,  avg # of iterations =  2.5

     negative rho (up, down):  1.117E-03 0.000E+00

     total cpu time spent up to now is       26.9 secs

     total energy              =    -449.66699849 Ry
     estimated scf accuracy    <       0.24163519 Ry

     iteration #  9     ecut=   124.00 Ry     beta= 0.70
     Davidson diagonalization with overlap
     ethr =  8.33E-04,  avg # of iterations =  3.7

     negative rho (up, down):  1.108E-03 0.000E+00

     total cpu time spent up to now is       29.9 secs

     total energy              =    -449.77967861 Ry
     estimated scf accuracy    <       1.16046235 Ry

     iteration # 10     ecut=   124.00 Ry     beta= 0.70
     Davidson diagonalization with overlap
     ethr =  8.33E-04,  avg # of iterations =  1.1

     negative rho (up, down):  1.379E-03 0.000E+00

     total cpu time spent up to now is       32.2 secs

     total energy              =    -449.91243827 Ry
     estimated scf accuracy    <       1.11484605 Ry

     iteration # 11     ecut=   124.00 Ry     beta= 0.70
     Davidson diagonalization with overlap
     ethr =  8.33E-04,  avg # of iterations =  2.5

     negative rho (up, down):  1.323E-03 0.000E+00

     total cpu time spent up to now is       34.8 secs

     total energy              =    -449.86765206 Ry
     estimated scf accuracy    <       6.20984622 Ry

     iteration # 12     ecut=   124.00 Ry     beta= 0.70
     Davidson diagonalization with overlap
     ethr =  8.33E-04,  avg # of iterations =  1.0

     negative rho (up, down):  1.273E-03 0.000E+00

     total cpu time spent up to now is       37.0 secs

     total energy              =    -449.90576707 Ry
     estimated scf accuracy    <       3.30347196 Ry

     iteration # 13     ecut=   124.00 Ry     beta= 0.70
     Davidson diagonalization with overlap
     ethr =  8.33E-04,  avg # of iterations =  1.0

     negative rho (up, down):  6.319E-04 0.000E+00

     total cpu time spent up to now is       39.3 secs

     total energy              =    -449.39564611 Ry
     estimated scf accuracy    <       4.08638964 Ry

     iteration # 14     ecut=   124.00 Ry     beta= 0.70
     Davidson diagonalization with overlap
     ethr =  8.33E-04,  avg # of iterations =  3.6

     negative rho (up, down):  6.697E-04 0.000E+00

     total cpu time spent up to now is       42.4 secs

     total energy              =    -449.72114938 Ry
     estimated scf accuracy    <       0.18545317 Ry

     iteration # 15     ecut=   124.00 Ry     beta= 0.70
     Davidson diagonalization with overlap
     ethr =  6.39E-04,  avg # of iterations =  1.0

     negative rho (up, down):  7.309E-04 0.000E+00

     total cpu time spent up to now is       44.7 secs

     total energy              =    -449.72016106 Ry
     estimated scf accuracy    <       0.11796464 Ry

     iteration # 16     ecut=   124.00 Ry     beta= 0.70
     Davidson diagonalization with overlap
     ethr =  4.07E-04,  avg # of iterations =  1.0

     negative rho (up, down):  7.498E-04 0.000E+00

     total cpu time spent up to now is       47.0 secs

     total energy              =    -449.71869818 Ry
     estimated scf accuracy    <       0.09659021 Ry

     iteration # 17     ecut=   124.00 Ry     beta= 0.70
     Davidson diagonalization with overlap
     ethr =  3.33E-04,  avg # of iterations =  1.0

     negative rho (up, down):  8.040E-04 0.000E+00

     total cpu time spent up to now is       49.2 secs

     total energy              =    -449.71414026 Ry
     estimated scf accuracy    <       0.07550964 Ry

     iteration # 18     ecut=   124.00 Ry     beta= 0.70
     Davidson diagonalization with overlap
     ethr =  2.60E-04,  avg # of iterations =  1.0

     negative rho (up, down):  8.781E-04 0.000E+00

     total cpu time spent up to now is       51.5 secs

     total energy              =    -449.71091092 Ry
     estimated scf accuracy    <       0.03406872 Ry

     iteration # 19     ecut=   124.00 Ry     beta= 0.70
     Davidson diagonalization with overlap
     ethr =  1.17E-04,  avg # of iterations =  1.2

     negative rho (up, down):  9.228E-04 0.000E+00

     total cpu time spent up to now is       53.8 secs

     total energy              =    -449.71120646 Ry
     estimated scf accuracy    <       0.00426434 Ry

     iteration # 20     ecut=   124.00 Ry     beta= 0.70
     Davidson diagonalization with overlap
     ethr =  1.47E-05,  avg # of iterations =  2.3

     negative rho (up, down):  9.619E-04 0.000E+00

     total cpu time spent up to now is       56.4 secs

     total energy              =    -449.71218234 Ry
     estimated scf accuracy    <       0.00078899 Ry

     iteration # 21     ecut=   124.00 Ry     beta= 0.70
     Davidson diagonalization with overlap
     ethr =  2.72E-06,  avg # of iterations =  4.4

     negative rho (up, down):  9.677E-04 0.000E+00

     total cpu time spent up to now is       60.0 secs

     total energy              =    -449.71278011 Ry
     estimated scf accuracy    <       0.01167119 Ry

     iteration # 22     ecut=   124.00 Ry     beta= 0.70
     Davidson diagonalization with overlap
     ethr =  2.72E-06,  avg # of iterations =  1.0

     negative rho (up, down):  9.261E-04 0.000E+00

     total cpu time spent up to now is       62.3 secs

     total energy              =    -449.71134010 Ry
     estimated scf accuracy    <       0.01223427 Ry

     iteration # 23     ecut=   124.00 Ry     beta= 0.70
     Davidson diagonalization with overlap
     ethr =  2.72E-06,  avg # of iterations =  2.9

     negative rho (up, down):  9.271E-04 0.000E+00

     total cpu time spent up to now is       65.4 secs

     total energy              =    -449.71190821 Ry
     estimated scf accuracy    <       0.00028396 Ry

     iteration # 24     ecut=   124.00 Ry     beta= 0.70
     Davidson diagonalization with overlap
     ethr =  9.79E-07,  avg # of iterations =  1.1

     negative rho (up, down):  9.284E-04 0.000E+00

     total cpu time spent up to now is       67.7 secs

     total energy              =    -449.71189037 Ry
     estimated scf accuracy    <       0.00045334 Ry

     iteration # 25     ecut=   124.00 Ry     beta= 0.70
     Davidson diagonalization with overlap
     ethr =  9.79E-07,  avg # of iterations =  1.0

     negative rho (up, down):  9.284E-04 0.000E+00

     total cpu time spent up to now is       70.0 secs

     total energy              =    -449.71188566 Ry
     estimated scf accuracy    <       0.00012100 Ry

     iteration # 26     ecut=   124.00 Ry     beta= 0.70
     Davidson diagonalization with overlap
     ethr =  4.17E-07,  avg # of iterations =  1.2

     negative rho (up, down):  9.289E-04 0.000E+00

     total cpu time spent up to now is       72.4 secs

     total energy              =    -449.71189120 Ry
     estimated scf accuracy    <       0.00000248 Ry

     iteration # 27     ecut=   124.00 Ry     beta= 0.70
     Davidson diagonalization with overlap
     ethr =  8.54E-09,  avg # of iterations =  4.9

     negative rho (up, down):  9.294E-04 0.000E+00

     total cpu time spent up to now is       76.2 secs

     total energy              =    -449.71189316 Ry
     estimated scf accuracy    <       0.00000286 Ry

     iteration # 28     ecut=   124.00 Ry     beta= 0.70
     Davidson diagonalization with overlap
     ethr =  8.54E-09,  avg # of iterations =  1.0

     negative rho (up, down):  9.295E-04 0.000E+00

     total cpu time spent up to now is       78.5 secs

     total energy              =    -449.71189325 Ry
     estimated scf accuracy    <       0.00000020 Ry

     iteration # 29     ecut=   124.00 Ry     beta= 0.70
     Davidson diagonalization with overlap
     ethr =  6.83E-10,  avg # of iterations =  2.4

     negative rho (up, down):  9.295E-04 0.000E+00

     total cpu time spent up to now is       81.1 secs

     End of self-consistent calculation

     Number of k-points >= 100: set verbosity='high' to print the bands.

     the Fermi energy is    18.4340 ev

!    total energy              =    -449.71189327 Ry
     estimated scf accuracy    <          4.7E-10 Ry
     smearing contrib. (-TS)   =      -0.00012957 Ry
     internal energy E=F+TS    =    -449.71176370 Ry

     The total energy is F=E-TS. E is the sum of the following terms:
     one-electron contribution =    -149.89015394 Ry
     hartree contribution      =      92.22502685 Ry
     xc contribution           =     -53.86436839 Ry
     ewald contribution        =    -262.02782464 Ry
     one-center paw contrib.   =     -76.15444358 Ry

     convergence has been achieved in  29 iterations

     negative rho (up, down):  9.295E-04 0.000E+00

     Forces acting on atoms (cartesian axes, Ry/au):

     atom    1 type  1   force =     0.00000000    0.00000000    0.00000000
     atom    2 type  2   force =     0.00000000    0.00000000    0.00000000
     atom    3 type  3   force =     0.00000000    0.00000000    0.00000000

     Total force =     0.000000     Total SCF correction =     0.000000


     Computing stress (Cartesian axis) and pressure


     negative rho (up, down):  9.295E-04 0.000E+00
          total   stress  (Ry/bohr**3)                   (kbar)     P=      282.24
   0.00415688   0.00000000   0.00000000          611.50        0.00        0.00
   0.00000000   0.00079951   0.00000000            0.00      117.61        0.00
   0.00000000   0.00000000   0.00079951            0.00        0.00      117.61


     BFGS Geometry Optimization
     Energy error            =      7.3E-02 Ry
     Gradient error          =      0.0E+00 Ry/Bohr
     Cell gradient error     =      6.1E+02 kbar

     number of scf cycles    =   1
     number of bfgs steps    =   0

     enthalpy           new  =    -449.7118932676 Ry

     new trust radius        =       0.2741397595 bohr
     new conv_thr            =       0.0000000100 Ry

     new unit-cell volume =    199.80043 a.u.^3 (    29.60737 Ang^3 )
     density =      5.87323 g/cm^3

CELL_PARAMETERS (alat=  5.58242261)
   1.103922112   0.000000000   0.000000000
   0.000000000   1.019987679   0.000000000
   0.000000000   0.000000000   1.019987679

ATOMIC_POSITIONS (crystal)
Fe               0.5000000000        0.5000000000        0.5000000000
Ti               0.0000000000        0.0000000000        0.0000000000
H                0.0000000000        0.5000000000        0.5000000000



     Writing config-only to output data dir ./TiFe_H_faces_x.save/ :
     XML data file     NEW-OLD atomic charge density approx. for the potential
     New effective cutoffs (rho, wfc): 1668.19  119.18

     Check: negative core charge=   -0.000001

     negative rho (up, down):  1.018E-03 0.000E+00

     total cpu time spent up to now is       83.1 secs

     per-process dynamical memory:   168.5 Mb

     Self-consistent Calculation

     iteration #  1     ecut=   124.00 Ry     beta= 0.70
     Davidson diagonalization with overlap
     c_bands:  1 eigenvalues not converged
     c_bands:  1 eigenvalues not converged
     ethr =  1.00E-06,  avg # of iterations = 12.6

     negative rho (up, down):  8.746E-04 0.000E+00

     total cpu time spent up to now is       93.4 secs

     total energy              =    -449.74341306 Ry
     estimated scf accuracy    <       0.00727513 Ry

     iteration #  2     ecut=   124.00 Ry     beta= 0.70
     Davidson diagonalization with overlap
     ethr =  2.51E-05,  avg # of iterations =  5.0

     negative rho (up, down):  9.137E-04 0.000E+00

     total cpu time spent up to now is       97.4 secs

     total energy              =    -449.72441843 Ry
     estimated scf accuracy    <       0.39906164 Ry

     iteration #  3     ecut=   124.00 Ry     beta= 0.70
     Davidson diagonalization with overlap
     ethr =  2.51E-05,  avg # of iterations =  4.1

     negative rho (up, down):  9.425E-04 0.000E+00

     total cpu time spent up to now is      100.9 secs

     total energy              =    -449.74700433 Ry
     estimated scf accuracy    <       0.00819872 Ry

     iteration #  4     ecut=   124.00 Ry     beta= 0.70
     Davidson diagonalization with overlap
     ethr =  2.51E-05,  avg # of iterations =  2.0

     negative rho (up, down):  9.432E-04 0.000E+00

     total cpu time spent up to now is      103.7 secs

     total energy              =    -449.74803492 Ry
     estimated scf accuracy    <       0.00013519 Ry

     iteration #  5     ecut=   124.00 Ry     beta= 0.70
     Davidson diagonalization with overlap
     ethr =  4.66E-07,  avg # of iterations =  4.6

     negative rho (up, down):  9.338E-04 0.000E+00

     total cpu time spent up to now is      107.2 secs

     total energy              =    -449.74808245 Ry
     estimated scf accuracy    <       0.00006774 Ry

     iteration #  6     ecut=   124.00 Ry     beta= 0.70
     Davidson diagonalization with overlap
     ethr =  2.34E-07,  avg # of iterations =  2.7

     negative rho (up, down):  9.325E-04 0.000E+00

     total cpu time spent up to now is      110.2 secs

     total energy              =    -449.74809809 Ry
     estimated scf accuracy    <       0.00000084 Ry

     iteration #  7     ecut=   124.00 Ry     beta= 0.70
     Davidson diagonalization with overlap
     ethr =  2.90E-09,  avg # of iterations =  5.4

     negative rho (up, down):  9.331E-04 0.000E+00

     total cpu time spent up to now is      114.4 secs

     total energy              =    -449.74809871 Ry
     estimated scf accuracy    <       0.00000094 Ry

     iteration #  8     ecut=   124.00 Ry     beta= 0.70
     Davidson diagonalization with overlap
     ethr =  2.90E-09,  avg # of iterations =  2.0

     negative rho (up, down):  9.333E-04 0.000E+00

     total cpu time spent up to now is      117.1 secs

     total energy              =    -449.74809881 Ry
     estimated scf accuracy    <       0.00000005 Ry

     iteration #  9     ecut=   124.00 Ry     beta= 0.70
     Davidson diagonalization with overlap
     ethr =  1.60E-10,  avg # of iterations =  4.2

     negative rho (up, down):  9.331E-04 0.000E+00

     total cpu time spent up to now is      120.8 secs

     total energy              =    -449.74809883 Ry
     estimated scf accuracy    <       0.00000001 Ry

     iteration # 10     ecut=   124.00 Ry     beta= 0.70
     Davidson diagonalization with overlap
     ethr =  4.69E-11,  avg # of iterations =  2.6

     negative rho (up, down):  9.331E-04 0.000E+00

     total cpu time spent up to now is      123.7 secs

     End of self-consistent calculation

     Number of k-points >= 100: set verbosity='high' to print the bands.

     the Fermi energy is    15.5694 ev

!    total energy              =    -449.74809883 Ry
     estimated scf accuracy    <          2.0E-11 Ry
     smearing contrib. (-TS)   =      -0.00007075 Ry
     internal energy E=F+TS    =    -449.74802809 Ry

     The total energy is F=E-TS. E is the sum of the following terms:
     one-electron contribution =    -167.31015737 Ry
     hartree contribution      =      97.97977938 Ry
     xc contribution           =     -53.56325633 Ry
     ewald contribution        =    -250.70306749 Ry
     one-center paw contrib.   =     -76.15132628 Ry

     convergence has been achieved in  10 iterations

     negative rho (up, down):  9.331E-04 0.000E+00

     Forces acting on atoms (cartesian axes, Ry/au):

     atom    1 type  1   force =     0.00000000    0.00000000    0.00000000
     atom    2 type  2   force =     0.00000000    0.00000000    0.00000000
     atom    3 type  3   force =     0.00000000    0.00000000    0.00000000

     Total force =     0.000000     Total SCF correction =     0.000000


     Computing stress (Cartesian axis) and pressure


     negative rho (up, down):  9.331E-04 0.000E+00
          total   stress  (Ry/bohr**3)                   (kbar)     P=      -61.28
   0.00018131   0.00000000   0.00000000           26.67        0.00        0.00
   0.00000000  -0.00071556   0.00000000            0.00     -105.26        0.00
   0.00000000   0.00000000  -0.00071556            0.00        0.00     -105.26

     Energy error            =      3.6E-02 Ry
     Gradient error          =      0.0E+00 Ry/Bohr
     Cell gradient error     =      1.1E+02 kbar

     number of scf cycles    =   2
     number of bfgs steps    =   1

     enthalpy           old  =    -449.7118932676 Ry
     enthalpy           new  =    -449.7480988340 Ry

     CASE: enthalpy          _new < enthalpy          _old

     new trust radius        =       0.0506161973 bohr
     new conv_thr            =            1.0E-10 Ry

     new unit-cell volume =    194.73452 a.u.^3 (    28.85668 Ang^3 )
     density =      6.02602 g/cm^3

CELL_PARAMETERS (alat=  5.58242261)
   1.115520293   0.000000000   0.000000000
   0.000000000   1.001725347   0.000000000
   0.000000000   0.000000000   1.001725347

ATOMIC_POSITIONS (crystal)
Fe               0.5000000000        0.5000000000        0.5000000000
Ti               0.0000000000        0.0000000000        0.0000000000
H                0.0000000000        0.5000000000        0.5000000000



     Writing config-only to output data dir ./TiFe_H_faces_x.save/ :
     XML data file     NEW-OLD atomic charge density approx. for the potential
     New effective cutoffs (rho, wfc): 1729.57  123.56

     Check: negative core charge=   -0.000002

     negative rho (up, down):  9.147E-04 0.000E+00

     total cpu time spent up to now is      125.6 secs

     per-process dynamical memory:   168.6 Mb

     Self-consistent Calculation

     iteration #  1     ecut=   124.00 Ry     beta= 0.70
     Davidson diagonalization with overlap
     ethr =  1.00E-06,  avg # of iterations =  8.3

     negative rho (up, down):  9.040E-04 0.000E+00

     total cpu time spent up to now is      132.8 secs

     total energy              =    -449.75073155 Ry
     estimated scf accuracy    <       0.00144182 Ry

     iteration #  2     ecut=   124.00 Ry     beta= 0.70
     Davidson diagonalization with overlap
     ethr =  4.97E-06,  avg # of iterations =  5.0

     negative rho (up, down):  9.245E-04 0.000E+00

     total cpu time spent up to now is      136.8 secs

     total energy              =    -449.74347662 Ry
     estimated scf accuracy    <       0.15895310 Ry

     iteration #  3     ecut=   124.00 Ry     beta= 0.70
     Davidson diagonalization with overlap
     ethr =  4.97E-06,  avg # of iterations =  4.7

     negative rho (up, down):  9.288E-04 0.000E+00

     total cpu time spent up to now is      140.6 secs

     total energy              =    -449.75207200 Ry
     estimated scf accuracy    <       0.00022904 Ry

     iteration #  4     ecut=   124.00 Ry     beta= 0.70
     Davidson diagonalization with overlap
     ethr =  7.90E-07,  avg # of iterations =  1.6

     negative rho (up, down):  9.291E-04 0.000E+00

     total cpu time spent up to now is      143.1 secs

     total energy              =    -449.75208927 Ry
     estimated scf accuracy    <       0.00001795 Ry

     iteration #  5     ecut=   124.00 Ry     beta= 0.70
     Davidson diagonalization with overlap
     ethr =  6.19E-08,  avg # of iterations =  4.5

     negative rho (up, down):  9.296E-04 0.000E+00

     total cpu time spent up to now is      146.5 secs

     total energy              =    -449.75209478 Ry
     estimated scf accuracy    <       0.00000215 Ry

     iteration #  6     ecut=   124.00 Ry     beta= 0.70
     Davidson diagonalization with overlap
     ethr =  7.42E-09,  avg # of iterations =  2.8

     negative rho (up, down):  9.297E-04 0.000E+00

     total cpu time spent up to now is      149.5 secs

     total energy              =    -449.75209499 Ry
     estimated scf accuracy    <       0.00000048 Ry

     iteration #  7     ecut=   124.00 Ry     beta= 0.70
     Davidson diagonalization with overlap
     ethr =  1.66E-09,  avg # of iterations =  2.1

     negative rho (up, down):  9.299E-04 0.000E+00

     total cpu time spent up to now is      152.2 secs

     total energy              =    -449.75209505 Ry
     estimated scf accuracy    <       0.00000006 Ry

     iteration #  8     ecut=   124.00 Ry     beta= 0.70
     Davidson diagonalization with overlap
     ethr =  2.05E-10,  avg # of iterations =  4.8

     negative rho (up, down):  9.299E-04 0.000E+00

     total cpu time spent up to now is      155.8 secs

     total energy              =    -449.75209507 Ry
     estimated scf accuracy    <       0.00000001 Ry

     iteration #  9     ecut=   124.00 Ry     beta= 0.70
     Davidson diagonalization with overlap
     ethr =  3.87E-11,  avg # of iterations =  2.2

     negative rho (up, down):  9.299E-04 0.000E+00

     total cpu time spent up to now is      158.6 secs

     total energy              =    -449.75209508 Ry
     estimated scf accuracy    <          1.4E-10 Ry

     iteration # 10     ecut=   124.00 Ry     beta= 0.70
     Davidson diagonalization with overlap
     ethr =  4.91E-13,  avg # of iterations =  6.2

     negative rho (up, down):  9.299E-04 0.000E+00

     total cpu time spent up to now is      163.1 secs

     total energy              =    -449.75209508 Ry
     estimated scf accuracy    <          1.2E-10 Ry

     iteration # 11     ecut=   124.00 Ry     beta= 0.70
     Davidson diagonalization with overlap
     ethr =  4.29E-13,  avg # of iterations =  2.0

     negative rho (up, down):  9.299E-04 0.000E+00

     total cpu time spent up to now is      165.8 secs

     End of self-consistent calculation

     Number of k-points >= 100: set verbosity='high' to print the bands.

     the Fermi energy is    15.9647 ev

!    total energy              =    -449.75209508 Ry
     estimated scf accuracy    <          1.7E-12 Ry
     smearing contrib. (-TS)   =      -0.00001839 Ry
     internal energy E=F+TS    =    -449.75207669 Ry

     The total energy is F=E-TS. E is the sum of the following terms:
     one-electron contribution =    -163.68819002 Ry
     hartree contribution      =      96.69247492 Ry
     xc contribution           =     -53.60308891 Ry
     ewald contribution        =    -253.00136079 Ry
     one-center paw contrib.   =     -76.15191189 Ry

     convergence has been achieved in  11 iterations

     negative rho (up, down):  9.299E-04 0.000E+00

     Forces acting on atoms (cartesian axes, Ry/au):

     atom    1 type  1   force =     0.00000000    0.00000000    0.00000000
     atom    2 type  2   force =     0.00000000    0.00000000    0.00000000
     atom    3 type  3   force =     0.00000000    0.00000000    0.00000000

     Total force =     0.000000     Total SCF correction =     0.000000


     Computing stress (Cartesian axis) and pressure


     negative rho (up, down):  9.299E-04 0.000E+00
          total   stress  (Ry/bohr**3)                   (kbar)     P=      -26.23
   0.00011477   0.00000000   0.00000000           16.88        0.00        0.00
   0.00000000  -0.00032483   0.00000000            0.00      -47.78        0.00
   0.00000000   0.00000000  -0.00032483            0.00        0.00      -47.78

     Energy error            =      4.0E-03 Ry
     Gradient error          =      0.0E+00 Ry/Bohr
     Cell gradient error     =      4.8E+01 kbar

     number of scf cycles    =   3
     number of bfgs steps    =   2

     enthalpy           old  =    -449.7480988340 Ry
     enthalpy           new  =    -449.7520950762 Ry

     CASE: enthalpy          _new < enthalpy          _old

     new trust radius        =       0.0432889021 bohr
     new conv_thr            =            1.0E-10 Ry

     new unit-cell volume =    190.66473 a.u.^3 (    28.25360 Ang^3 )
     density =      6.15464 g/cm^3

CELL_PARAMETERS (alat=  5.58242261)
   1.126893056   0.000000000   0.000000000
   0.000000000   0.986188111   0.000000000
   0.000000000   0.000000000   0.986188111

ATOMIC_POSITIONS (crystal)
Fe               0.5000000000        0.5000000000        0.5000000000
Ti               0.0000000000        0.0000000000        0.0000000000
H                0.0000000000        0.5000000000        0.5000000000



     Writing config-only to output data dir ./TiFe_H_faces_x.save/ :
     XML data file     NEW-OLD atomic charge density approx. for the potential
     New effective cutoffs (rho, wfc): 1784.50  127.49

     Check: negative core charge=   -0.000002

     negative rho (up, down):  9.132E-04 0.000E+00

     total cpu time spent up to now is      167.8 secs

     per-process dynamical memory:   169.0 Mb

     Self-consistent Calculation

     iteration #  1     ecut=   124.00 Ry     beta= 0.70
     Davidson diagonalization with overlap
     ethr =  1.00E-06,  avg # of iterations =  7.5

     negative rho (up, down):  8.973E-04 0.000E+00

     total cpu time spent up to now is      174.5 secs

     total energy              =    -449.75166821 Ry
     estimated scf accuracy    <       0.00147446 Ry

     iteration #  2     ecut=   124.00 Ry     beta= 0.70
     Davidson diagonalization with overlap
     ethr =  5.08E-06,  avg # of iterations =  5.0

     negative rho (up, down):  9.182E-04 0.000E+00

     total cpu time spent up to now is      178.5 secs

     total energy              =    -449.74426451 Ry
     estimated scf accuracy    <       0.16055407 Ry

     iteration #  3     ecut=   124.00 Ry     beta= 0.70
     Davidson diagonalization with overlap
     ethr =  5.08E-06,  avg # of iterations =  4.7

     negative rho (up, down):  9.233E-04 0.000E+00

     total cpu time spent up to now is      182.4 secs

     total energy              =    -449.75308701 Ry
     estimated scf accuracy    <       0.00016986 Ry

     iteration #  4     ecut=   124.00 Ry     beta= 0.70
     Davidson diagonalization with overlap
     ethr =  5.86E-07,  avg # of iterations =  2.2

     negative rho (up, down):  9.232E-04 0.000E+00

     total cpu time spent up to now is      185.0 secs

     total energy              =    -449.75310437 Ry
     estimated scf accuracy    <       0.00002333 Ry

     iteration #  5     ecut=   124.00 Ry     beta= 0.70
     Davidson diagonalization with overlap
     ethr =  8.05E-08,  avg # of iterations =  4.0

     negative rho (up, down):  9.237E-04 0.000E+00

     total cpu time spent up to now is      188.2 secs

     total energy              =    -449.75310916 Ry
     estimated scf accuracy    <       0.00000218 Ry

     iteration #  6     ecut=   124.00 Ry     beta= 0.70
     Davidson diagonalization with overlap
     ethr =  7.51E-09,  avg # of iterations =  3.8

     negative rho (up, down):  9.237E-04 0.000E+00

     total cpu time spent up to now is      191.4 secs

     total energy              =    -449.75310971 Ry
     estimated scf accuracy    <       0.00000031 Ry

     iteration #  7     ecut=   124.00 Ry     beta= 0.70
     Davidson diagonalization with overlap
     ethr =  1.07E-09,  avg # of iterations =  2.8

     negative rho (up, down):  9.238E-04 0.000E+00

     total cpu time spent up to now is      194.3 secs

     total energy              =    -449.75310977 Ry
     estimated scf accuracy    <       0.00000002 Ry

     iteration #  8     ecut=   124.00 Ry     beta= 0.70
     Davidson diagonalization with overlap
     ethr =  5.84E-11,  avg # of iterations =  4.8

     negative rho (up, down):  9.238E-04 0.000E+00

     total cpu time spent up to now is      198.0 secs

     total energy              =    -449.75310978 Ry
     estimated scf accuracy    <          7.5E-09 Ry

     iteration #  9     ecut=   124.00 Ry     beta= 0.70
     Davidson diagonalization with overlap
     ethr =  2.57E-11,  avg # of iterations =  2.1

     negative rho (up, down):  9.238E-04 0.000E+00

     total cpu time spent up to now is      200.8 secs

     total energy              =    -449.75310978 Ry
     estimated scf accuracy    <          1.4E-10 Ry

     iteration # 10     ecut=   124.00 Ry     beta= 0.70
     Davidson diagonalization with overlap
     ethr =  4.90E-13,  avg # of iterations =  5.3

     negative rho (up, down):  9.238E-04 0.000E+00

     total cpu time spent up to now is      204.8 secs

     End of self-consistent calculation

     Number of k-points >= 100: set verbosity='high' to print the bands.

     the Fermi energy is    16.2851 ev

!    total energy              =    -449.75310978 Ry
     estimated scf accuracy    <          8.2E-11 Ry
     smearing contrib. (-TS)   =       0.00004965 Ry
     internal energy E=F+TS    =    -449.75315943 Ry

     The total energy is F=E-TS. E is the sum of the following terms:
     one-electron contribution =    -160.69782536 Ry
     hartree contribution      =      95.63980293 Ry
     xc contribution           =     -53.63780278 Ry
     ewald contribution        =    -254.90497950 Ry
     one-center paw contrib.   =     -76.15235471 Ry

     convergence has been achieved in  10 iterations

     negative rho (up, down):  9.238E-04 0.000E+00

     Forces acting on atoms (cartesian axes, Ry/au):

     atom    1 type  1   force =     0.00000000    0.00000000    0.00000000
     atom    2 type  2   force =     0.00000000    0.00000000    0.00000000
     atom    3 type  3   force =     0.00000000    0.00000000    0.00000000

     Total force =     0.000000     Total SCF correction =     0.000000


     Computing stress (Cartesian axis) and pressure


     negative rho (up, down):  9.238E-04 0.000E+00
          total   stress  (Ry/bohr**3)                   (kbar)     P=        6.37
   0.00001689   0.00000000   0.00000000            2.49        0.00        0.00
   0.00000000   0.00005655   0.00000000            0.00        8.32        0.00
   0.00000000   0.00000000   0.00005655            0.00        0.00        8.32

     Energy error            =      1.0E-03 Ry
     Gradient error          =      0.0E+00 Ry/Bohr
     Cell gradient error     =      8.3E+00 kbar

     number of scf cycles    =   4
     number of bfgs steps    =   3

     enthalpy           old  =    -449.7520950762 Ry
     enthalpy           new  =    -449.7531097755 Ry

     CASE: enthalpy          _new < enthalpy          _old

     new trust radius        =       0.0056042373 bohr
     new conv_thr            =            1.0E-10 Ry

     new unit-cell volume =    191.33355 a.u.^3 (    28.35271 Ang^3 )
     density =      6.13313 g/cm^3

CELL_PARAMETERS (alat=  5.58242261)
   1.126270260   0.000000000   0.000000000
   0.000000000   0.988189405   0.000000000
   0.000000000   0.000000000   0.988189405

ATOMIC_POSITIONS (crystal)
Fe               0.5000000000        0.5000000000        0.5000000000
Ti               0.0000000000        0.0000000000        0.0000000000
H                0.0000000000        0.5000000000        0.5000000000



     Writing config-only to output data dir ./TiFe_H_faces_x.save/ :
     XML data file     NEW-OLD atomic charge density approx. for the potential
     New effective cutoffs (rho, wfc): 1777.27  126.97

     Check: negative core charge=   -0.000002

     negative rho (up, down):  9.252E-04 0.000E+00

     total cpu time spent up to now is      206.8 secs

     per-process dynamical memory:   169.0 Mb

     Self-consistent Calculation

     iteration #  1     ecut=   124.00 Ry     beta= 0.70
     Davidson diagonalization with overlap
     ethr =  1.00E-06,  avg # of iterations =  3.0

     Threshold (ethr) on eigenvalues was too large:
     Diagonalizing with lowered threshold

     Davidson diagonalization with overlap
     ethr =  8.85E-08,  avg # of iterations =  4.0

     negative rho (up, down):  9.267E-04 0.000E+00

     total cpu time spent up to now is      213.4 secs

     total energy              =    -449.75309373 Ry
     estimated scf accuracy    <       0.00002981 Ry

     iteration #  2     ecut=   124.00 Ry     beta= 0.70
     Davidson diagonalization with overlap
     ethr =  1.03E-07,  avg # of iterations =  4.1

     negative rho (up, down):  9.240E-04 0.000E+00

     total cpu time spent up to now is      216.9 secs

     total energy              =    -449.75294058 Ry
     estimated scf accuracy    <       0.00355473 Ry

     iteration #  3     ecut=   124.00 Ry     beta= 0.70
     Davidson diagonalization with overlap
     ethr =  1.03E-07,  avg # of iterations =  4.2

     negative rho (up, down):  9.246E-04 0.000E+00

     total cpu time spent up to now is      220.4 secs

     total energy              =    -449.75312844 Ry
     estimated scf accuracy    <       0.00000217 Ry

     iteration #  4     ecut=   124.00 Ry     beta= 0.70
     Davidson diagonalization with overlap
     ethr =  7.49E-09,  avg # of iterations =  3.9

     negative rho (up, down):  9.244E-04 0.000E+00

     total cpu time spent up to now is      223.7 secs

     total energy              =    -449.75312907 Ry
     estimated scf accuracy    <       0.00000043 Ry

     iteration #  5     ecut=   124.00 Ry     beta= 0.70
     Davidson diagonalization with overlap
     ethr =  1.49E-09,  avg # of iterations =  2.3

     negative rho (up, down):  9.242E-04 0.000E+00

     total cpu time spent up to now is      226.4 secs

     total energy              =    -449.75312910 Ry
     estimated scf accuracy    <       0.00000008 Ry

     iteration #  6     ecut=   124.00 Ry     beta= 0.70
     Davidson diagonalization with overlap
     ethr =  2.69E-10,  avg # of iterations =  2.7

     negative rho (up, down):  9.242E-04 0.000E+00

     total cpu time spent up to now is      229.3 secs

     total energy              =    -449.75312911 Ry
     estimated scf accuracy    <          8.4E-10 Ry

     iteration #  7     ecut=   124.00 Ry     beta= 0.70
     Davidson diagonalization with overlap
     ethr =  2.91E-12,  avg # of iterations =  6.1

     negative rho (up, down):  9.242E-04 0.000E+00

     total cpu time spent up to now is      234.0 secs

     total energy              =    -449.75312911 Ry
     estimated scf accuracy    <          3.0E-10 Ry

     iteration #  8     ecut=   124.00 Ry     beta= 0.70
     Davidson diagonalization with overlap
     ethr =  1.05E-12,  avg # of iterations =  2.1

     negative rho (up, down):  9.242E-04 0.000E+00

     total cpu time spent up to now is      236.7 secs

     End of self-consistent calculation

     Number of k-points >= 100: set verbosity='high' to print the bands.

     the Fermi energy is    16.2282 ev

!    total energy              =    -449.75312911 Ry
     estimated scf accuracy    <          1.9E-12 Ry
     smearing contrib. (-TS)   =       0.00004347 Ry
     internal energy E=F+TS    =    -449.75317258 Ry

     The total energy is F=E-TS. E is the sum of the following terms:
     one-electron contribution =    -161.18151843 Ry
     hartree contribution      =      95.80904249 Ry
     xc contribution           =     -53.63186375 Ry
     ewald contribution        =    -254.59656693 Ry
     one-center paw contrib.   =     -76.15226597 Ry

     convergence has been achieved in   8 iterations

     negative rho (up, down):  9.242E-04 0.000E+00

     Forces acting on atoms (cartesian axes, Ry/au):

     atom    1 type  1   force =     0.00000000    0.00000000    0.00000000
     atom    2 type  2   force =     0.00000000    0.00000000    0.00000000
     atom    3 type  3   force =     0.00000000    0.00000000    0.00000000

     Total force =     0.000000     Total SCF correction =     0.000000


     Computing stress (Cartesian axis) and pressure


     negative rho (up, down):  9.242E-04 0.000E+00
          total   stress  (Ry/bohr**3)                   (kbar)     P=        0.21
   0.00001001   0.00000000   0.00000000            1.47        0.00        0.00
   0.00000000  -0.00000284   0.00000000            0.00       -0.42        0.00
   0.00000000   0.00000000  -0.00000284            0.00        0.00       -0.42

     Energy error            =      1.9E-05 Ry
     Gradient error          =      0.0E+00 Ry/Bohr
     Cell gradient error     =      1.5E+00 kbar

     number of scf cycles    =   5
     number of bfgs steps    =   4

     enthalpy           old  =    -449.7531097755 Ry
     enthalpy           new  =    -449.7531291103 Ry

     CASE: enthalpy          _new < enthalpy          _old

     new trust radius        =       0.0008742737 bohr
     new conv_thr            =            1.0E-10 Ry

     new unit-cell volume =    191.33203 a.u.^3 (    28.35248 Ang^3 )
     density =      6.13318 g/cm^3

CELL_PARAMETERS (alat=  5.58242261)
   1.126626190   0.000000000   0.000000000
   0.000000000   0.988029367   0.000000000
   0.000000000   0.000000000   0.988029367

ATOMIC_POSITIONS (crystal)
Fe               0.5000000000        0.5000000000        0.5000000000
Ti               0.0000000000        0.0000000000        0.0000000000
H                0.0000000000        0.5000000000        0.5000000000



     Writing config-only to output data dir ./TiFe_H_faces_x.save/ :
     XML data file     NEW-OLD atomic charge density approx. for the potential
     New effective cutoffs (rho, wfc): 1777.85  127.01

     Check: negative core charge=   -0.000002

     negative rho (up, down):  9.242E-04 0.000E+00

     total cpu time spent up to now is      238.6 secs

     per-process dynamical memory:   169.2 Mb

     Self-consistent Calculation

     iteration #  1     ecut=   124.00 Ry     beta= 0.70
     Davidson diagonalization with overlap
     ethr =  1.00E-06,  avg # of iterations =  2.0

     Threshold (ethr) on eigenvalues was too large:
     Diagonalizing with lowered threshold

     Davidson diagonalization with overlap
     ethr =  2.28E-09,  avg # of iterations =  3.1

     negative rho (up, down):  9.237E-04 0.000E+00

     total cpu time spent up to now is      244.5 secs

     total energy              =    -449.75312898 Ry
     estimated scf accuracy    <       0.00000064 Ry

     iteration #  2     ecut=   124.00 Ry     beta= 0.70
     Davidson diagonalization with overlap
     ethr =  2.22E-09,  avg # of iterations =  4.4

     negative rho (up, down):  9.241E-04 0.000E+00

     total cpu time spent up to now is      248.2 secs

     total energy              =    -449.75312562 Ry
     estimated scf accuracy    <       0.00007622 Ry

     iteration #  3     ecut=   124.00 Ry     beta= 0.70
     Davidson diagonalization with overlap
     ethr =  2.22E-09,  avg # of iterations =  4.1

     negative rho (up, down):  9.241E-04 0.000E+00

     total cpu time spent up to now is      251.6 secs

     total energy              =    -449.75312955 Ry
     estimated scf accuracy    <          4.8E-09 Ry

     iteration #  4     ecut=   124.00 Ry     beta= 0.70
     Davidson diagonalization with overlap
     ethr =  1.66E-11,  avg # of iterations =  5.8

     negative rho (up, down):  9.241E-04 0.000E+00

     total cpu time spent up to now is      256.1 secs

     total energy              =    -449.75312956 Ry
     estimated scf accuracy    <          2.2E-09 Ry

     iteration #  5     ecut=   124.00 Ry     beta= 0.70
     Davidson diagonalization with overlap
     ethr =  7.58E-12,  avg # of iterations =  1.4

     negative rho (up, down):  9.241E-04 0.000E+00

     total cpu time spent up to now is      258.5 secs

     End of self-consistent calculation

     Number of k-points >= 100: set verbosity='high' to print the bands.

     the Fermi energy is    16.2265 ev

!    total energy              =    -449.75312956 Ry
     estimated scf accuracy    <          9.8E-11 Ry
     smearing contrib. (-TS)   =       0.00004450 Ry
     internal energy E=F+TS    =    -449.75317406 Ry

     The total energy is F=E-TS. E is the sum of the following terms:
     one-electron contribution =    -161.17658031 Ry
     hartree contribution      =      95.80674745 Ry
     xc contribution           =     -53.63177703 Ry
     ewald contribution        =    -254.59929832 Ry
     one-center paw contrib.   =     -76.15226585 Ry

     convergence has been achieved in   5 iterations

     negative rho (up, down):  9.241E-04 0.000E+00

     Forces acting on atoms (cartesian axes, Ry/au):

     atom    1 type  1   force =     0.00000000    0.00000000    0.00000000
     atom    2 type  2   force =     0.00000000    0.00000000    0.00000000
     atom    3 type  3   force =     0.00000000    0.00000000    0.00000000

     Total force =     0.000000     Total SCF correction =     0.000000


     Computing stress (Cartesian axis) and pressure


     negative rho (up, down):  9.241E-04 0.000E+00
          total   stress  (Ry/bohr**3)                   (kbar)     P=        0.17
   0.00000253   0.00000000   0.00000000            0.37        0.00        0.00
   0.00000000   0.00000046   0.00000000            0.00        0.07        0.00
   0.00000000   0.00000000   0.00000046            0.00        0.00        0.07

     Energy error            =      4.5E-07 Ry
     Gradient error          =      0.0E+00 Ry/Bohr
     Cell gradient error     =      3.7E-01 kbar

     number of scf cycles    =   6
     number of bfgs steps    =   5

     enthalpy           old  =    -449.7531291103 Ry
     enthalpy           new  =    -449.7531295622 Ry

     CASE: enthalpy          _new < enthalpy          _old

     new trust radius        =       0.0002321969 bohr
     new conv_thr            =            1.0E-10 Ry

     new unit-cell volume =    191.34687 a.u.^3 (    28.35468 Ang^3 )
     density =      6.13270 g/cm^3

CELL_PARAMETERS (alat=  5.58242261)
   1.126720751   0.000000000   0.000000000
   0.000000000   0.988026220   0.000000000
   0.000000000   0.000000000   0.988026220

ATOMIC_POSITIONS (crystal)
Fe               0.5000000000        0.5000000000        0.5000000000
Ti               0.0000000000        0.0000000000        0.0000000000
H                0.0000000000        0.5000000000        0.5000000000



     Writing config-only to output data dir ./TiFe_H_faces_x.save/ :
     XML data file     NEW-OLD atomic charge density approx. for the potential
     New effective cutoffs (rho, wfc): 1777.86  127.01

     Check: negative core charge=   -0.000002

     negative rho (up, down):  9.242E-04 0.000E+00

     total cpu time spent up to now is      260.5 secs

     per-process dynamical memory:   169.2 Mb

     Self-consistent Calculation

     iteration #  1     ecut=   124.00 Ry     beta= 0.70
     Davidson diagonalization with overlap
     ethr =  1.00E-06,  avg # of iterations =  2.0

     Threshold (ethr) on eigenvalues was too large:
     Diagonalizing with lowered threshold

     Davidson diagonalization with overlap
     ethr =  1.54E-11,  avg # of iterations =  5.4

     negative rho (up, down):  9.241E-04 0.000E+00

     total cpu time spent up to now is      268.1 secs

     total energy              =    -449.75312958 Ry
     estimated scf accuracy    <          3.4E-09 Ry

     iteration #  2     ecut=   124.00 Ry     beta= 0.70
     Davidson diagonalization with overlap
     ethr =  1.17E-11,  avg # of iterations =  3.8

     negative rho (up, down):  9.241E-04 0.000E+00

     total cpu time spent up to now is      271.5 secs

     total energy              =    -449.75312957 Ry
     estimated scf accuracy    <       0.00000007 Ry

     iteration #  3     ecut=   124.00 Ry     beta= 0.70
     Davidson diagonalization with overlap
     ethr =  1.17E-11,  avg # of iterations =  3.3

     negative rho (up, down):  9.241E-04 0.000E+00

     total cpu time spent up to now is      274.5 secs

     total energy              =    -449.75312958 Ry
     estimated scf accuracy    <       0.00000002 Ry

     iteration #  4     ecut=   124.00 Ry     beta= 0.70
     Davidson diagonalization with overlap
     ethr =  1.17E-11,  avg # of iterations =  2.1

     negative rho (up, down):  9.241E-04 0.000E+00

     total cpu time spent up to now is      277.2 secs

     End of self-consistent calculation

     Number of k-points >= 100: set verbosity='high' to print the bands.

     the Fermi energy is    16.2247 ev

!    total energy              =    -449.75312958 Ry
     estimated scf accuracy    <          6.0E-11 Ry
     smearing contrib. (-TS)   =       0.00004466 Ry
     internal energy E=F+TS    =    -449.75317424 Ry

     The total energy is F=E-TS. E is the sum of the following terms:
     one-electron contribution =    -161.18623125 Ry
     hartree contribution      =      95.81003924 Ry
     xc contribution           =     -53.63162770 Ry
     ewald contribution        =    -254.59309045 Ry
     one-center paw contrib.   =     -76.15226407 Ry

     convergence has been achieved in   4 iterations

     negative rho (up, down):  9.241E-04 0.000E+00

     Forces acting on atoms (cartesian axes, Ry/au):

     atom    1 type  1   force =     0.00000000    0.00000000    0.00000000
     atom    2 type  2   force =     0.00000000    0.00000000    0.00000000
     atom    3 type  3   force =     0.00000000    0.00000000    0.00000000

     Total force =     0.000000     Total SCF correction =     0.000000


     Computing stress (Cartesian axis) and pressure


     negative rho (up, down):  9.241E-04 0.000E+00
          total   stress  (Ry/bohr**3)                   (kbar)     P=       -0.00
  -0.00000014   0.00000000   0.00000000           -0.02        0.00        0.00
   0.00000000   0.00000003   0.00000000            0.00        0.00        0.00
   0.00000000   0.00000000   0.00000003            0.00        0.00        0.00

     Energy error            =      1.5E-08 Ry
     Gradient error          =      0.0E+00 Ry/Bohr
     Cell gradient error     =      2.1E-02 kbar

     bfgs converged in   7 scf cycles and   6 bfgs steps
     (criteria: energy <  1.0E-04 Ry, force <  1.0E-03 Ry/Bohr, cell <  1.0E-01 kbar)

     End of BFGS Geometry Optimization

     Final enthalpy           =    -449.7531295776 Ry

     File ./TiFe_H_faces_x.bfgs deleted, as requested
Begin final coordinates
     new unit-cell volume =    191.34687 a.u.^3 (    28.35468 Ang^3 )
     density =      6.13270 g/cm^3

CELL_PARAMETERS (alat=  5.58242261)
   1.126720751   0.000000000   0.000000000
   0.000000000   0.988026220   0.000000000
   0.000000000   0.000000000   0.988026220

ATOMIC_POSITIONS (crystal)
Fe               0.5000000000        0.5000000000        0.5000000000
Ti               0.0000000000        0.0000000000        0.0000000000
H                0.0000000000        0.5000000000        0.5000000000
End final coordinates



     Writing config-only to output data dir ./TiFe_H_faces_x.save/ :
     XML data file
     Final scf calculation at the relaxed structure.
     The G-vectors are recalculated for the final unit cell
     Results may differ from those at the preceding step.

     Parallelization info
     --------------------
     sticks:   dense  smooth     PW     G-vecs:    dense   smooth      PW
     Min         299      85     24                14613     2233     349
     Max         300      86     26                14618     2236     351
     Sum        4795    1375    397               233847    35757    5605

     Using Slab Decomposition



     bravais-lattice index     =            0
     lattice parameter (alat)  =       5.5824  a.u.
     unit-cell volume          =     191.3469 (a.u.)^3
     number of atoms/cell      =            3
     number of atomic types    =            3
     number of electrons       =        29.00
     number of Kohn-Sham states=           19
     kinetic-energy cutoff     =     124.0000  Ry
     charge density cutoff     =    1736.0000  Ry
     scf convergence threshold =      1.0E-10
     mixing beta               =       0.7000
     number of iterations used =            8  plain     mixing
     press convergence thresh. =      1.0E-01
     Exchange-correlation= PBE
                           (   1   4   3   4   0   0   0)

     celldm(1)=   5.582423  celldm(2)=   0.000000  celldm(3)=   0.000000
     celldm(4)=   0.000000  celldm(5)=   0.000000  celldm(6)=   0.000000

     crystal axes: (cart. coord. in units of alat)
               a(1) = (   1.126721   0.000000   0.000000 )  
               a(2) = (   0.000000   0.988026   0.000000 )  
               a(3) = (   0.000000   0.000000   0.988026 )  

     reciprocal axes: (cart. coord. in units 2 pi/alat)
               b(1) = (  0.887531  0.000000  0.000000 )  
               b(2) = (  0.000000  1.012119  0.000000 )  
               b(3) = (  0.000000  0.000000  1.012119 )  


     PseudoPot. # 1 for Fe read from file:
     ../../pseudos/Fe.pbe-spn-kjpaw_psl.0.2.1.UPF
     MD5 check sum: e86618425769142926afa95317d90200
     Pseudo is Projector augmented-wave + core cor, Zval = 16.0
     Generated using "atomic" code by A. Dal Corso  v.5.0.99 svn rev. 10869
     Shape of augmentation charge: PSQ
     Using radial grid of 1191 points,  6 beta functions with: 
                l(1) =   0
                l(2) =   0
                l(3) =   1
                l(4) =   1
                l(5) =   2
                l(6) =   2
     Q(r) pseudized with 0 coefficients 


     PseudoPot. # 2 for Ti read from file:
     ../../pseudos/ti_pbe_v1.4.uspp.F.UPF
     MD5 check sum: 88a00a6731bd790ddea75d31a80cb452
     Pseudo is Ultrasoft + core correction, Zval = 12.0
     Generated by new atomic code, or converted to UPF format
     Using radial grid of  851 points,  6 beta functions with: 
                l(1) =   0
                l(2) =   0
                l(3) =   1
                l(4) =   1
                l(5) =   2
                l(6) =   2
     Q(r) pseudized with  6 coefficients,  rinner =    1.000   1.000   1.000
                                                       1.000   1.000

     PseudoPot. # 3 for H  read from file:
     ../../pseudos/H.pbe-rrkjus_psl.1.0.0.UPF
     MD5 check sum: f52b6d4d1c606e5624b1dc7b2218f220
     Pseudo is Ultrasoft, Zval =  1.0
     Generated using "atomic" code by A. Dal Corso  v.5.1
     Using radial grid of  929 points,  2 beta functions with: 
                l(1) =   0
                l(2) =   0
     Q(r) pseudized with 0 coefficients 


     atomic species   valence    mass     pseudopotential
     Fe               16.00    55.84500     Fe( 1.00)
     Ti               12.00    47.86700     Ti( 1.00)
     H                 1.00     1.00750     H ( 1.00)

     16 Sym. Ops., with inversion, found



   Cartesian axes

     site n.     atom                  positions (alat units)
         1        Fe     tau(   1) = (   0.5633604   0.4940131   0.4940131  )
         2        Ti     tau(   2) = (   0.0000000   0.0000000   0.0000000  )
         3        H      tau(   3) = (   0.0000000   0.4940131   0.4940131  )

     number of k points=   288  Marzari-Vanderbilt smearing, width (Ry)=  0.0050

     Number of k-points >= 100: set verbosity='high' to print them.

     Dense  grid:   233847 G-vectors     FFT dimensions: (  90,  75,  75)

     Smooth grid:    35757 G-vectors     FFT dimensions: (  45,  40,  40)

     Estimated max dynamical RAM per process >      97.83 MB

     Estimated total dynamical RAM >       1.53 GB

     Check: negative core charge=   -0.000001

     Initial potential from superposition of free atoms

     starting charge      27.9995, renormalised to      29.0000

     negative rho (up, down):  1.330E-03 0.000E+00
     Starting wfcs are   24 randomized atomic wfcs
     Checking if some PAW data can be deallocated... 

     total cpu time spent up to now is      280.9 secs

     per-process dynamical memory:   165.1 Mb

     Self-consistent Calculation

     iteration #  1     ecut=   124.00 Ry     beta= 0.70
     Davidson diagonalization with overlap
     c_bands:  1 eigenvalues not converged
     c_bands:  1 eigenvalues not converged
     c_bands:  1 eigenvalues not converged
     c_bands:  1 eigenvalues not converged
     c_bands:  1 eigenvalues not converged
     c_bands:  1 eigenvalues not converged
     c_bands:  1 eigenvalues not converged
     c_bands:  1 eigenvalues not converged
     c_bands:  2 eigenvalues not converged
     c_bands:  1 eigenvalues not converged
     c_bands:  1 eigenvalues not converged
     c_bands:  1 eigenvalues not converged
     c_bands:  1 eigenvalues not converged
     c_bands:  1 eigenvalues not converged
     c_bands:  1 eigenvalues not converged
     c_bands:  1 eigenvalues not converged
     c_bands:  1 eigenvalues not converged
     c_bands:  1 eigenvalues not converged
     c_bands:  1 eigenvalues not converged
     c_bands:  1 eigenvalues not converged
     c_bands:  1 eigenvalues not converged
     c_bands:  1 eigenvalues not converged
     c_bands:  1 eigenvalues not converged
     c_bands:  1 eigenvalues not converged
     c_bands:  1 eigenvalues not converged
     c_bands:  1 eigenvalues not converged
     c_bands:  1 eigenvalues not converged
     c_bands:  1 eigenvalues not converged
     c_bands:  1 eigenvalues not converged
     c_bands:  1 eigenvalues not converged
     c_bands:  1 eigenvalues not converged
     c_bands:  1 eigenvalues not converged
     c_bands:  1 eigenvalues not converged
     c_bands:  1 eigenvalues not converged
     c_bands:  1 eigenvalues not converged
     c_bands:  1 eigenvalues not converged
     c_bands:  1 eigenvalues not converged
     c_bands:  1 eigenvalues not converged
     c_bands:  1 eigenvalues not converged
     c_bands:  1 eigenvalues not converged
     ethr =  1.00E-06,  avg # of iterations = 16.8

     negative rho (up, down):  1.243E-04 0.000E+00

     total cpu time spent up to now is      296.9 secs

     total energy              =    -435.02872710 Ry
     estimated scf accuracy    <      18.61513830 Ry

     iteration #  2     ecut=   124.00 Ry     beta= 0.70
     Davidson diagonalization with overlap
     ethr =  1.00E-02,  avg # of iterations =  6.3

     negative rho (up, down):  2.379E-05 0.000E+00

     total cpu time spent up to now is      303.3 secs

     total energy              =    -449.01884815 Ry
     estimated scf accuracy    <      73.16754076 Ry

     iteration #  3     ecut=   124.00 Ry     beta= 0.70
     Davidson diagonalization with overlap
     ethr =  1.00E-02,  avg # of iterations =  3.2

     negative rho (up, down):  2.064E-04 0.000E+00

     total cpu time spent up to now is      307.5 secs

     total energy              =    -450.24306762 Ry
     estimated scf accuracy    <      17.66114555 Ry

     iteration #  4     ecut=   124.00 Ry     beta= 0.70
     Davidson diagonalization with overlap
     ethr =  1.00E-02,  avg # of iterations =  2.2

     negative rho (up, down):  2.953E-04 0.000E+00

     total cpu time spent up to now is      310.8 secs

     total energy              =    -450.42570413 Ry
     estimated scf accuracy    <       6.75270130 Ry

     iteration #  5     ecut=   124.00 Ry     beta= 0.70
     Davidson diagonalization with overlap
     ethr =  1.00E-02,  avg # of iterations =  1.1

     negative rho (up, down):  8.755E-04 0.000E+00

     total cpu time spent up to now is      313.6 secs

     total energy              =    -449.47335517 Ry
     estimated scf accuracy    <       5.53335580 Ry

     iteration #  6     ecut=   124.00 Ry     beta= 0.70
     Davidson diagonalization with overlap
     ethr =  1.00E-02,  avg # of iterations =  2.6

     negative rho (up, down):  8.884E-04 0.000E+00

     total cpu time spent up to now is      316.8 secs

     total energy              =    -449.72785619 Ry
     estimated scf accuracy    <       0.29885925 Ry

     iteration #  7     ecut=   124.00 Ry     beta= 0.70
     Davidson diagonalization with overlap
     ethr =  1.03E-03,  avg # of iterations =  4.0

     negative rho (up, down):  7.356E-04 0.000E+00

     total cpu time spent up to now is      320.4 secs

     total energy              =    -449.78801169 Ry
     estimated scf accuracy    <       0.10447840 Ry

     iteration #  8     ecut=   124.00 Ry     beta= 0.70
     Davidson diagonalization with overlap
     ethr =  3.60E-04,  avg # of iterations =  2.3

     negative rho (up, down):  1.062E-03 0.000E+00

     total cpu time spent up to now is      323.6 secs

     total energy              =    -449.55077467 Ry
     estimated scf accuracy    <       1.18888804 Ry

     iteration #  9     ecut=   124.00 Ry     beta= 0.70
     Davidson diagonalization with overlap
     ethr =  3.60E-04,  avg # of iterations =  4.7

     negative rho (up, down):  7.530E-04 0.000E+00

     total cpu time spent up to now is      328.1 secs

     total energy              =    -449.53743348 Ry
     estimated scf accuracy    <       3.31853836 Ry

     iteration # 10     ecut=   124.00 Ry     beta= 0.70
     Davidson diagonalization with overlap
     ethr =  3.60E-04,  avg # of iterations =  3.6

     negative rho (up, down):  6.730E-04 0.000E+00

     total cpu time spent up to now is      331.9 secs

     total energy              =    -449.79130405 Ry
     estimated scf accuracy    <       0.11463053 Ry

     iteration # 11     ecut=   124.00 Ry     beta= 0.70
     Davidson diagonalization with overlap
     ethr =  3.60E-04,  avg # of iterations =  1.6

     negative rho (up, down):  7.001E-04 0.000E+00

     total cpu time spent up to now is      334.9 secs

     total energy              =    -449.80094454 Ry
     estimated scf accuracy    <       0.70942663 Ry

     iteration # 12     ecut=   124.00 Ry     beta= 0.70
     Davidson diagonalization with overlap
     ethr =  3.60E-04,  avg # of iterations =  1.0

     negative rho (up, down):  7.624E-04 0.000E+00

     total cpu time spent up to now is      337.6 secs

     total energy              =    -449.76808273 Ry
     estimated scf accuracy    <       0.62853473 Ry

     iteration # 13     ecut=   124.00 Ry     beta= 0.70
     Davidson diagonalization with overlap
     ethr =  3.60E-04,  avg # of iterations =  1.0

     negative rho (up, down):  7.695E-04 0.000E+00

     total cpu time spent up to now is      340.4 secs

     total energy              =    -449.77189164 Ry
     estimated scf accuracy    <       0.26420215 Ry

     iteration # 14     ecut=   124.00 Ry     beta= 0.70
     Davidson diagonalization with overlap
     ethr =  3.60E-04,  avg # of iterations =  1.0

     negative rho (up, down):  7.920E-04 0.000E+00

     total cpu time spent up to now is      343.2 secs

     total energy              =    -449.76754240 Ry
     estimated scf accuracy    <       0.25142620 Ry

     iteration # 15     ecut=   124.00 Ry     beta= 0.70
     Davidson diagonalization with overlap
     ethr =  3.60E-04,  avg # of iterations =  1.0

     negative rho (up, down):  1.082E-03 0.000E+00

     total cpu time spent up to now is      346.0 secs

     total energy              =    -449.72512875 Ry
     estimated scf accuracy    <       0.19774805 Ry

     iteration # 16     ecut=   124.00 Ry     beta= 0.70
     Davidson diagonalization with overlap
     ethr =  3.60E-04,  avg # of iterations =  2.4

     negative rho (up, down):  1.234E-03 0.000E+00

     total cpu time spent up to now is      349.3 secs

     total energy              =    -449.78356965 Ry
     estimated scf accuracy    <       0.14075481 Ry

     iteration # 17     ecut=   124.00 Ry     beta= 0.70
     Davidson diagonalization with overlap
     ethr =  3.60E-04,  avg # of iterations =  1.8

     negative rho (up, down):  1.058E-03 0.000E+00

     total cpu time spent up to now is      352.3 secs

     total energy              =    -449.75396860 Ry
     estimated scf accuracy    <       0.76551453 Ry

     iteration # 18     ecut=   124.00 Ry     beta= 0.70
     Davidson diagonalization with overlap
     ethr =  3.60E-04,  avg # of iterations =  1.0

     negative rho (up, down):  8.191E-04 0.000E+00

     total cpu time spent up to now is      355.1 secs

     total energy              =    -449.73490692 Ry
     estimated scf accuracy    <       0.17043675 Ry

     iteration # 19     ecut=   124.00 Ry     beta= 0.70
     Davidson diagonalization with overlap
     ethr =  3.60E-04,  avg # of iterations =  1.7

     negative rho (up, down):  8.739E-04 0.000E+00

     total cpu time spent up to now is      358.0 secs

     total energy              =    -449.75277541 Ry
     estimated scf accuracy    <       0.01656368 Ry

     iteration # 20     ecut=   124.00 Ry     beta= 0.70
     Davidson diagonalization with overlap
     ethr =  5.71E-05,  avg # of iterations =  1.4

     negative rho (up, down):  8.984E-04 0.000E+00

     total cpu time spent up to now is      360.9 secs

     total energy              =    -449.75318412 Ry
     estimated scf accuracy    <       0.00288053 Ry

     iteration # 21     ecut=   124.00 Ry     beta= 0.70
     Davidson diagonalization with overlap
     ethr =  9.93E-06,  avg # of iterations =  1.4

     negative rho (up, down):  9.103E-04 0.000E+00

     total cpu time spent up to now is      363.7 secs

     total energy              =    -449.75329670 Ry
     estimated scf accuracy    <       0.00017027 Ry

     iteration # 22     ecut=   124.00 Ry     beta= 0.70
     Davidson diagonalization with overlap
     ethr =  5.87E-07,  avg # of iterations =  2.7

     negative rho (up, down):  9.051E-04 0.000E+00

     total cpu time spent up to now is      366.9 secs

     total energy              =    -449.75332345 Ry
     estimated scf accuracy    <       0.00002593 Ry

     iteration # 23     ecut=   124.00 Ry     beta= 0.70
     Davidson diagonalization with overlap
     ethr =  8.94E-08,  avg # of iterations =  3.7

     negative rho (up, down):  9.053E-04 0.000E+00

     total cpu time spent up to now is      370.5 secs

     total energy              =    -449.75333137 Ry
     estimated scf accuracy    <       0.00001119 Ry

     iteration # 24     ecut=   124.00 Ry     beta= 0.70
     Davidson diagonalization with overlap
     ethr =  3.86E-08,  avg # of iterations =  1.5

     negative rho (up, down):  9.063E-04 0.000E+00

     total cpu time spent up to now is      373.4 secs

     total energy              =    -449.75333065 Ry
     estimated scf accuracy    <       0.00001192 Ry

     iteration # 25     ecut=   124.00 Ry     beta= 0.70
     Davidson diagonalization with overlap
     ethr =  3.86E-08,  avg # of iterations =  1.0

     negative rho (up, down):  9.068E-04 0.000E+00

     total cpu time spent up to now is      376.1 secs

     total energy              =    -449.75333059 Ry
     estimated scf accuracy    <       0.00000408 Ry

     iteration # 26     ecut=   124.00 Ry     beta= 0.70
     Davidson diagonalization with overlap
     ethr =  1.41E-08,  avg # of iterations =  1.1

     negative rho (up, down):  9.073E-04 0.000E+00

     total cpu time spent up to now is      378.9 secs

     total energy              =    -449.75333059 Ry
     estimated scf accuracy    <       0.00000095 Ry

     iteration # 27     ecut=   124.00 Ry     beta= 0.70
     Davidson diagonalization with overlap
     ethr =  3.26E-09,  avg # of iterations =  2.5

     negative rho (up, down):  9.072E-04 0.000E+00

     total cpu time spent up to now is      382.0 secs

     total energy              =    -449.75333071 Ry
     estimated scf accuracy    <          5.7E-09 Ry

     iteration # 28     ecut=   124.00 Ry     beta= 0.70
     Davidson diagonalization with overlap
     ethr =  1.97E-11,  avg # of iterations =  6.8

     negative rho (up, down):  9.072E-04 0.000E+00

     total cpu time spent up to now is      388.3 secs

     total energy              =    -449.75333074 Ry
     estimated scf accuracy    <          3.7E-09 Ry

     iteration # 29     ecut=   124.00 Ry     beta= 0.70
     Davidson diagonalization with overlap
     ethr =  1.26E-11,  avg # of iterations =  1.0

     negative rho (up, down):  9.072E-04 0.000E+00

     total cpu time spent up to now is      391.0 secs

     total energy              =    -449.75333073 Ry
     estimated scf accuracy    <          4.5E-09 Ry

     iteration # 30     ecut=   124.00 Ry     beta= 0.70
     Davidson diagonalization with overlap
     ethr =  1.26E-11,  avg # of iterations =  2.0

     negative rho (up, down):  9.072E-04 0.000E+00

     total cpu time spent up to now is      394.2 secs

     total energy              =    -449.75333073 Ry
     estimated scf accuracy    <          2.5E-10 Ry

     iteration # 31     ecut=   124.00 Ry     beta= 0.70
     Davidson diagonalization with overlap
     ethr =  8.47E-13,  avg # of iterations =  4.7

     negative rho (up, down):  9.072E-04 0.000E+00

     total cpu time spent up to now is      398.3 secs

     End of self-consistent calculation

     Number of k-points >= 100: set verbosity='high' to print the bands.

     the Fermi energy is    16.2246 ev

!    total energy              =    -449.75333073 Ry
     estimated scf accuracy    <          1.6E-11 Ry
     smearing contrib. (-TS)   =       0.00004464 Ry
     internal energy E=F+TS    =    -449.75337538 Ry

     The total energy is F=E-TS. E is the sum of the following terms:
     one-electron contribution =    -161.18591131 Ry
     hartree contribution      =      95.80973399 Ry
     xc contribution           =     -53.63180792 Ry
     ewald contribution        =    -254.59309045 Ry
     one-center paw contrib.   =     -76.15229969 Ry

     convergence has been achieved in  31 iterations

     negative rho (up, down):  9.072E-04 0.000E+00

     Forces acting on atoms (cartesian axes, Ry/au):

     atom    1 type  1   force =     0.00000000    0.00000000    0.00000000
     atom    2 type  2   force =     0.00000000    0.00000000    0.00000000
     atom    3 type  3   force =     0.00000000    0.00000000    0.00000000

     Total force =     0.000000     Total SCF correction =     0.000000


     Computing stress (Cartesian axis) and pressure


     negative rho (up, down):  9.072E-04 0.000E+00
          total   stress  (Ry/bohr**3)                   (kbar)     P=       -0.17
  -0.00000175   0.00000000   0.00000000           -0.26        0.00        0.00
   0.00000000  -0.00000082   0.00000000            0.00       -0.12        0.00
   0.00000000   0.00000000  -0.00000082            0.00        0.00       -0.12


     Writing all to output data dir ./TiFe_H_faces_x.save/ :
     XML data file
     init_run     :      3.92s CPU      4.26s WALL (       2 calls)
     electrons    :    366.98s CPU    379.83s WALL (       8 calls)
     update_pot   :      0.43s CPU      0.48s WALL (       6 calls)
     forces       :      2.16s CPU      2.26s WALL (       8 calls)
     stress       :     10.25s CPU     10.56s WALL (       8 calls)

     Called by init_run:
     wfcinit      :      2.38s CPU      2.58s WALL (       2 calls)
     potinit      :      0.57s CPU      0.61s WALL (       2 calls)
     hinit0       :      0.52s CPU      0.58s WALL (       2 calls)

     Called by electrons:
     c_bands      :    304.47s CPU    313.35s WALL (     111 calls)
     sum_band     :     48.31s CPU     50.60s WALL (     111 calls)
     v_of_rho     :      1.51s CPU      1.67s WALL (     116 calls)
     newd         :      8.15s CPU      9.31s WALL (     116 calls)
     PAW_pot      :      5.46s CPU      5.90s WALL (     122 calls)
     mix_rho      :      0.17s CPU      0.19s WALL (     111 calls)

     Called by c_bands:
     init_us_2    :      6.01s CPU      6.21s WALL (   70848 calls)
     cegterg      :    293.84s CPU    302.36s WALL (   31968 calls)

     Called by *egterg:
     cdiaghg      :     47.15s CPU     48.43s WALL (  130635 calls)
     h_psi        :    210.29s CPU    216.83s WALL (  133803 calls)
     s_psi        :      4.77s CPU      4.94s WALL (  133803 calls)
     g_psi        :      1.07s CPU      1.09s WALL (  101259 calls)

     Called by h_psi:
     h_psi:calbec :      9.26s CPU      9.59s WALL (  133803 calls)
     vloc_psi     :    195.19s CPU    201.22s WALL (  133803 calls)
     add_vuspsi   :      4.89s CPU      5.06s WALL (  133803 calls)

     General routines
     calbec       :     15.09s CPU     15.58s WALL (  206667 calls)
     fft          :      1.46s CPU      1.67s WALL (    1701 calls)
     ffts         :      0.47s CPU      0.48s WALL (     227 calls)
     fftw         :    190.08s CPU    195.82s WALL ( 4018970 calls)
     interpolate  :      0.55s CPU      0.57s WALL (     116 calls)

     Parallel routines

     PWSCF        :    385.23s CPU    400.14s WALL


   This run was terminated on:  22:58:48  12Nov2025            

=------------------------------------------------------------------------------=
   JOB DONE.
=------------------------------------------------------------------------------=
