
     Program PWSCF v.7.4 starts on 15Nov2025 at 22:34:35 

     This program is part of the open-source Quantum ESPRESSO suite
     for quantum simulation of materials; please cite
         "P. Giannozzi et al., J. Phys.:Condens. Matter 21 395502 (2009);
         "P. Giannozzi et al., J. Phys.:Condens. Matter 29 465901 (2017);
         "P. Giannozzi et al., J. Chem. Phys. 152 154105 (2020);
          URL http://www.quantum-espresso.org", 
     in publications or presentations arising from this work. More details at
     http://www.quantum-espresso.org/quote

     Parallel version (MPI & OpenMP), running on       8 processor cores
     Number of MPI processes:                 8
     Threads/MPI process:                     1

     MPI processes distributed on     1 nodes
     218538 MiB available memory on the printing compute node when the environment starts

     Reading input from TiFeH.in

     Current dimensions of program PWSCF are:
     Max number of different atomic species (ntypx) = 10
     Max number of k-points (npk) =  40000
     Max angular momentum in pseudopotentials (lmaxx) =  4
     file Fe.pbe-spn-kjpaw_psl.0.2.1.UPF: wavefunction(s)  3D renormalized
     file H.pbe-kjpaw_psl.1.0.0.UPF: wavefunction(s)  1S renormalized

     IMPORTANT: XC functional enforced from input :
     Exchange-correlation= PBE
                           (   1   4   3   4   0   0   0)
     Any further DFT definition will be discarded
     Please, verify this is what you really want

     Message from routine setup:
     using ibrav=0 with symmetry is DISCOURAGED, use correct ibrav instead

     R & G space division:  proc/nbgrp/npool/nimage =       8
     Subspace diagonalization in iterative solution of the eigenvalue problem:
     a serial algorithm will be used


     Parallelization info
     --------------------
     sticks:   dense  smooth     PW     G-vecs:    dense   smooth      PW
     Min         538     153     44                26577     4051     640
     Max         540     154     45                26578     4054     643
     Sum        4309    1225    357               212623    32423    5137

     Using Slab Decomposition



     bravais-lattice index     =            0
     lattice parameter (alat)  =       5.5824  a.u.
     unit-cell volume          =     173.9675 (a.u.)^3
     number of atoms/cell      =            3
     number of atomic types    =            3
     number of electrons       =        29.00
     number of Kohn-Sham states=           19
     kinetic-energy cutoff     =     124.0000  Ry
     charge density cutoff     =    1736.0000  Ry
     scf convergence threshold =      1.0E-08
     mixing beta               =       0.7000
     number of iterations used =            8  plain     mixing
     energy convergence thresh.=      1.0E-04
     force convergence thresh. =      1.0E-03
     press convergence thresh. =      1.0E-01
     Exchange-correlation= PBE
                           (   1   4   3   4   0   0   0)
     nstep                     =           50


     celldm(1)=   5.582423  celldm(2)=   0.000000  celldm(3)=   0.000000
     celldm(4)=   0.000000  celldm(5)=   0.000000  celldm(6)=   0.000000

     crystal axes: (cart. coord. in units of alat)
               a(1) = (   1.000000   0.000000   0.000000 )  
               a(2) = (   0.000000   1.000000   0.000000 )  
               a(3) = (   0.000000   0.000000   1.000000 )  

     reciprocal axes: (cart. coord. in units 2 pi/alat)
               b(1) = (  1.000000  0.000000  0.000000 )  
               b(2) = (  0.000000  1.000000  0.000000 )  
               b(3) = (  0.000000  0.000000  1.000000 )  


     PseudoPot. # 1 for Fe read from file:
     ../pseudos/Fe.pbe-spn-kjpaw_psl.0.2.1.UPF
     MD5 check sum: e86618425769142926afa95317d90200
     Pseudo is Projector augmented-wave + core cor, Zval = 16.0
     Generated using "atomic" code by A. Dal Corso  v.5.0.99 svn rev. 10869
     Shape of augmentation charge: PSQ
     Using radial grid of 1191 points,  6 beta functions with: 
                l(1) =   0
                l(2) =   0
                l(3) =   1
                l(4) =   1
                l(5) =   2
                l(6) =   2
     Q(r) pseudized with 0 coefficients 


     PseudoPot. # 2 for Ti read from file:
     ../pseudos/ti_pbe_v1.4.uspp.F.UPF
     MD5 check sum: 88a00a6731bd790ddea75d31a80cb452
     Pseudo is Ultrasoft + core correction, Zval = 12.0
     Generated by new atomic code, or converted to UPF format
     Using radial grid of  851 points,  6 beta functions with: 
                l(1) =   0
                l(2) =   0
                l(3) =   1
                l(4) =   1
                l(5) =   2
                l(6) =   2
     Q(r) pseudized with  6 coefficients,  rinner =    1.000   1.000   1.000
                                                       1.000   1.000

     PseudoPot. # 3 for H  read from file:
     ../pseudos/H.pbe-kjpaw_psl.1.0.0.UPF
     MD5 check sum: d81a744832360e4a8af0b0b5b123bc2a
     Pseudo is Projector augmented-wave, Zval =  1.0
     Generated using &quot;atomic&quot; code by A. Dal Corso  v.6.3MaX
     Shape of augmentation charge: PSQ
     Using radial grid of  929 points,  2 beta functions with: 
                l(1) =   0
                l(2) =   0
     Q(r) pseudized with 0 coefficients 


     atomic species   valence    mass     pseudopotential
     Fe               16.00    55.84500     Fe( 1.00)
     Ti               12.00    47.86700     Ti( 1.00)
     H                 1.00     1.00784     H ( 1.00)

     16 Sym. Ops., with inversion, found



   Cartesian axes

     site n.     atom                  positions (alat units)
         1        Fe     tau(   1) = (   0.5000000   0.5000000   0.5000000  )
         2        Ti     tau(   2) = (   0.0000000   0.0000000   0.0000000  )
         3        H      tau(   3) = (   0.5000000   0.0000000   0.0000000  )

     number of k points=   288  Marzari-Vanderbilt smearing, width (Ry)=  0.0050

     Number of k-points >= 100: set verbosity='high' to print them.

     Dense  grid:   212623 G-vectors     FFT dimensions: (  75,  75,  75)

     Smooth grid:    32423 G-vectors     FFT dimensions: (  40,  40,  40)

     Estimated max dynamical RAM per process >     160.70 MB

     Estimated total dynamical RAM >       1.26 GB

     Check: negative core charge=   -0.000001

     Initial potential from superposition of free atoms

     starting charge      27.9995, renormalised to      29.0000

     negative rho (up, down):  1.312E-03 0.000E+00
     Starting wfcs are   24 randomized atomic wfcs
     Checking if some PAW data can be deallocated... 

     total cpu time spent up to now is        3.2 secs

     per-process dynamical memory:   187.6 Mb

     Self-consistent Calculation

     iteration #  1     ecut=   124.00 Ry     beta= 0.70
     Davidson diagonalization with overlap
     ethr =  1.00E-02,  avg # of iterations =  2.1

     negative rho (up, down):  1.117E-04 0.000E+00

     total cpu time spent up to now is        7.5 secs

     total energy              =    -434.92782157 Ry
     estimated scf accuracy    <      18.72462370 Ry

     iteration #  2     ecut=   124.00 Ry     beta= 0.70
     Davidson diagonalization with overlap
     ethr =  1.00E-02,  avg # of iterations =  6.2

     negative rho (up, down):  1.394E-05 0.000E+00

     total cpu time spent up to now is       15.3 secs

     total energy              =    -448.56649927 Ry
     estimated scf accuracy    <      73.32107812 Ry

     iteration #  3     ecut=   124.00 Ry     beta= 0.70
     Davidson diagonalization with overlap
     ethr =  1.00E-02,  avg # of iterations =  3.1

     negative rho (up, down):  1.457E-04 0.000E+00

     total cpu time spent up to now is       20.5 secs

     total energy              =    -449.73573127 Ry
     estimated scf accuracy    <      16.98413275 Ry

     iteration #  4     ecut=   124.00 Ry     beta= 0.70
     Davidson diagonalization with overlap
     ethr =  1.00E-02,  avg # of iterations =  2.3

     negative rho (up, down):  2.210E-04 0.000E+00

     total cpu time spent up to now is       24.6 secs

     total energy              =    -450.06857532 Ry
     estimated scf accuracy    <       5.10255457 Ry

     iteration #  5     ecut=   124.00 Ry     beta= 0.70
     Davidson diagonalization with overlap
     ethr =  1.00E-02,  avg # of iterations =  1.1

     negative rho (up, down):  8.262E-04 0.000E+00

     total cpu time spent up to now is       28.2 secs

     total energy              =    -449.32191338 Ry
     estimated scf accuracy    <       4.07621577 Ry

     iteration #  6     ecut=   124.00 Ry     beta= 0.70
     Davidson diagonalization with overlap
     ethr =  1.00E-02,  avg # of iterations =  2.1

     negative rho (up, down):  8.227E-04 0.000E+00

     total cpu time spent up to now is       32.0 secs

     total energy              =    -449.57128732 Ry
     estimated scf accuracy    <       0.07329095 Ry

     iteration #  7     ecut=   124.00 Ry     beta= 0.70
     Davidson diagonalization with overlap
     ethr =  2.53E-04,  avg # of iterations =  5.4

     negative rho (up, down):  6.965E-04 0.000E+00

     total cpu time spent up to now is       37.7 secs

     total energy              =    -449.59992496 Ry
     estimated scf accuracy    <       0.01793425 Ry

     iteration #  8     ecut=   124.00 Ry     beta= 0.70
     Davidson diagonalization with overlap
     ethr =  6.18E-05,  avg # of iterations =  4.4

     negative rho (up, down):  1.064E-03 0.000E+00

     total cpu time spent up to now is       43.1 secs

     total energy              =    -449.45997767 Ry
     estimated scf accuracy    <       1.54872369 Ry

     iteration #  9     ecut=   124.00 Ry     beta= 0.70
     Davidson diagonalization with overlap
     ethr =  6.18E-05,  avg # of iterations =  5.2

     negative rho (up, down):  8.946E-04 0.000E+00

     total cpu time spent up to now is       49.3 secs

     total energy              =    -449.58155764 Ry
     estimated scf accuracy    <       0.16140085 Ry

     iteration # 10     ecut=   124.00 Ry     beta= 0.70
     Davidson diagonalization with overlap
     ethr =  6.18E-05,  avg # of iterations =  3.2

     negative rho (up, down):  9.153E-04 0.000E+00

     total cpu time spent up to now is       53.9 secs

     total energy              =    -449.59485442 Ry
     estimated scf accuracy    <       0.01671674 Ry

     iteration # 11     ecut=   124.00 Ry     beta= 0.70
     Davidson diagonalization with overlap
     ethr =  5.76E-05,  avg # of iterations =  1.9

     negative rho (up, down):  9.087E-04 0.000E+00

     total cpu time spent up to now is       57.7 secs

     total energy              =    -449.59756139 Ry
     estimated scf accuracy    <       0.01951285 Ry

     iteration # 12     ecut=   124.00 Ry     beta= 0.70
     Davidson diagonalization with overlap
     ethr =  5.76E-05,  avg # of iterations =  1.0

     negative rho (up, down):  9.005E-04 0.000E+00

     total cpu time spent up to now is       61.2 secs

     total energy              =    -449.59735914 Ry
     estimated scf accuracy    <       0.00326811 Ry

     iteration # 13     ecut=   124.00 Ry     beta= 0.70
     Davidson diagonalization with overlap
     ethr =  1.13E-05,  avg # of iterations =  1.4

     negative rho (up, down):  9.037E-04 0.000E+00

     total cpu time spent up to now is       64.8 secs

     total energy              =    -449.59791983 Ry
     estimated scf accuracy    <       0.00248059 Ry

     iteration # 14     ecut=   124.00 Ry     beta= 0.70
     Davidson diagonalization with overlap
     ethr =  8.55E-06,  avg # of iterations =  1.0

     negative rho (up, down):  9.124E-04 0.000E+00

     total cpu time spent up to now is       68.3 secs

     total energy              =    -449.59776131 Ry
     estimated scf accuracy    <       0.00183991 Ry

     iteration # 15     ecut=   124.00 Ry     beta= 0.70
     Davidson diagonalization with overlap
     ethr =  6.34E-06,  avg # of iterations =  1.0

     negative rho (up, down):  9.236E-04 0.000E+00

     total cpu time spent up to now is       71.8 secs

     total energy              =    -449.59772976 Ry
     estimated scf accuracy    <       0.00031658 Ry

     iteration # 16     ecut=   124.00 Ry     beta= 0.70
     Davidson diagonalization with overlap
     ethr =  1.09E-06,  avg # of iterations =  2.1

     negative rho (up, down):  9.180E-04 0.000E+00

     total cpu time spent up to now is       75.7 secs

     total energy              =    -449.59777619 Ry
     estimated scf accuracy    <       0.00021992 Ry

     iteration # 17     ecut=   124.00 Ry     beta= 0.70
     Davidson diagonalization with overlap
     ethr =  7.58E-07,  avg # of iterations =  1.0

     negative rho (up, down):  9.171E-04 0.000E+00

     total cpu time spent up to now is       79.2 secs

     total energy              =    -449.59778822 Ry
     estimated scf accuracy    <       0.00000453 Ry

     iteration # 18     ecut=   124.00 Ry     beta= 0.70
     Davidson diagonalization with overlap
     ethr =  1.56E-08,  avg # of iterations =  4.4

     negative rho (up, down):  9.175E-04 0.000E+00

     total cpu time spent up to now is       84.5 secs

     total energy              =    -449.59779073 Ry
     estimated scf accuracy    <       0.00000039 Ry

     iteration # 19     ecut=   124.00 Ry     beta= 0.70
     Davidson diagonalization with overlap
     ethr =  1.33E-09,  avg # of iterations =  2.7

     negative rho (up, down):  9.175E-04 0.000E+00

     total cpu time spent up to now is       88.7 secs

     total energy              =    -449.59779075 Ry
     estimated scf accuracy    <       0.00000007 Ry

     iteration # 20     ecut=   124.00 Ry     beta= 0.70
     Davidson diagonalization with overlap
     ethr =  2.39E-10,  avg # of iterations =  2.3

     negative rho (up, down):  9.174E-04 0.000E+00

     total cpu time spent up to now is       92.9 secs

     total energy              =    -449.59779076 Ry
     estimated scf accuracy    <       0.00000001 Ry

     iteration # 21     ecut=   124.00 Ry     beta= 0.70
     Davidson diagonalization with overlap
     ethr =  5.13E-11,  avg # of iterations =  2.9

     negative rho (up, down):  9.174E-04 0.000E+00

     total cpu time spent up to now is       97.1 secs

     End of self-consistent calculation

     Number of k-points >= 100: set verbosity='high' to print the bands.

     the Fermi energy is    18.0364 ev

!    total energy              =    -449.59779076 Ry
     estimated scf accuracy    <          1.8E-09 Ry
     smearing contrib. (-TS)   =      -0.00002983 Ry
     internal energy E=F+TS    =    -449.59776092 Ry

     The total energy is F=E-TS. E is the sum of the following terms:
     one-electron contribution =    -148.22716476 Ry
     hartree contribution      =      91.39641618 Ry
     xc contribution           =     -53.89077594 Ry
     ewald contribution        =    -262.72514085 Ry
     one-center paw contrib.   =     -76.15109554 Ry

     convergence has been achieved in  21 iterations

     negative rho (up, down):  9.174E-04 0.000E+00

     Forces acting on atoms (cartesian axes, Ry/au):

     atom    1 type  1   force =     0.00000000    0.00000000    0.00000000
     atom    2 type  2   force =     0.00000000    0.00000000    0.00000000
     atom    3 type  3   force =     0.00000000    0.00000000    0.00000000

     Total force =     0.000000     Total SCF correction =     0.000000


     Computing stress (Cartesian axis) and pressure


     negative rho (up, down):  9.174E-04 0.000E+00
          total   stress  (Ry/bohr**3)                   (kbar)     P=      365.45
   0.00584982   0.00000000   0.00000000          860.54        0.00        0.00
   0.00000000   0.00080152   0.00000000            0.00      117.91        0.00
   0.00000000   0.00000000   0.00080152            0.00        0.00      117.91


     BFGS Geometry Optimization
     Energy error            =      1.4E-01 Ry
     Gradient error          =      0.0E+00 Ry/Bohr
     Cell gradient error     =      8.6E+02 kbar

     number of scf cycles    =   1
     number of bfgs steps    =   0

     enthalpy           new  =    -449.5977907589 Ry

     new trust radius        =       0.3857858392 bohr
     new conv_thr            =       0.0000000100 Ry

     new unit-cell volume =    207.48103 a.u.^3 (    30.74552 Ang^3 )
     density =      5.65583 g/cm^3

CELL_PARAMETERS (alat=  5.58242261)
   1.146245402   0.000000000   0.000000000
   0.000000000   1.020037953   0.000000000
   0.000000000   0.000000000   1.020037953

ATOMIC_POSITIONS (crystal)
Fe               0.5000000000        0.5000000000        0.5000000000
Ti               0.0000000000        0.0000000000        0.0000000000
H                0.5000000000        0.0000000000        0.0000000000



     Writing config-only to output data dir ./TiFeH.save/ :
     XML data file     NEW-OLD atomic charge density approx. for the potential
     New effective cutoffs (rho, wfc): 1668.02  119.17

     Check: negative core charge=   -0.000002

     negative rho (up, down):  1.033E-03 0.000E+00

     total cpu time spent up to now is      100.5 secs

     per-process dynamical memory:   200.3 Mb

     Self-consistent Calculation

     iteration #  1     ecut=   124.00 Ry     beta= 0.70
     Davidson diagonalization with overlap
     c_bands:  1 eigenvalues not converged
     c_bands:  1 eigenvalues not converged
     c_bands:  1 eigenvalues not converged
     c_bands:  1 eigenvalues not converged
     c_bands:  1 eigenvalues not converged
     c_bands:  1 eigenvalues not converged
     c_bands:  1 eigenvalues not converged
     c_bands:  1 eigenvalues not converged
     ethr =  1.00E-06,  avg # of iterations = 14.6

     negative rho (up, down):  9.990E-04 0.000E+00

     total cpu time spent up to now is      117.1 secs

     total energy              =    -449.61804101 Ry
     estimated scf accuracy    <       0.07847055 Ry

     iteration #  2     ecut=   124.00 Ry     beta= 0.70
     Davidson diagonalization with overlap
     ethr =  2.71E-04,  avg # of iterations =  5.2

     negative rho (up, down):  8.241E-04 0.000E+00

     total cpu time spent up to now is      122.9 secs

     total energy              =    -449.17021478 Ry
     estimated scf accuracy    <      12.02286210 Ry

     iteration #  3     ecut=   124.00 Ry     beta= 0.70
     Davidson diagonalization with overlap
     ethr =  2.71E-04,  avg # of iterations =  4.6

     negative rho (up, down):  9.182E-04 0.000E+00

     total cpu time spent up to now is      128.4 secs

     total energy              =    -449.66413157 Ry
     estimated scf accuracy    <       0.02633247 Ry

     iteration #  4     ecut=   124.00 Ry     beta= 0.70
     Davidson diagonalization with overlap
     ethr =  9.08E-05,  avg # of iterations =  2.2

     negative rho (up, down):  9.103E-04 0.000E+00

     total cpu time spent up to now is      132.6 secs

     total energy              =    -449.66918394 Ry
     estimated scf accuracy    <       0.00689167 Ry

     iteration #  5     ecut=   124.00 Ry     beta= 0.70
     Davidson diagonalization with overlap
     ethr =  2.38E-05,  avg # of iterations =  1.8

     negative rho (up, down):  9.093E-04 0.000E+00

     total cpu time spent up to now is      136.3 secs

     total energy              =    -449.66967551 Ry
     estimated scf accuracy    <       0.00036129 Ry

     iteration #  6     ecut=   124.00 Ry     beta= 0.70
     Davidson diagonalization with overlap
     ethr =  1.25E-06,  avg # of iterations =  5.2

     negative rho (up, down):  9.075E-04 0.000E+00

     total cpu time spent up to now is      142.1 secs

     total energy              =    -449.66985770 Ry
     estimated scf accuracy    <       0.00009892 Ry

     iteration #  7     ecut=   124.00 Ry     beta= 0.70
     Davidson diagonalization with overlap
     ethr =  3.41E-07,  avg # of iterations =  1.4

     negative rho (up, down):  9.059E-04 0.000E+00

     total cpu time spent up to now is      145.8 secs

     total energy              =    -449.66985775 Ry
     estimated scf accuracy    <       0.00001703 Ry

     iteration #  8     ecut=   124.00 Ry     beta= 0.70
     Davidson diagonalization with overlap
     ethr =  5.87E-08,  avg # of iterations =  2.6

     negative rho (up, down):  9.066E-04 0.000E+00

     total cpu time spent up to now is      150.1 secs

     total energy              =    -449.66986180 Ry
     estimated scf accuracy    <       0.00000601 Ry

     iteration #  9     ecut=   124.00 Ry     beta= 0.70
     Davidson diagonalization with overlap
     ethr =  2.07E-08,  avg # of iterations =  2.0

     negative rho (up, down):  9.070E-04 0.000E+00

     total cpu time spent up to now is      154.1 secs

     total energy              =    -449.66986197 Ry
     estimated scf accuracy    <       0.00000103 Ry

     iteration # 10     ecut=   124.00 Ry     beta= 0.70
     Davidson diagonalization with overlap
     ethr =  3.54E-09,  avg # of iterations =  3.6

     negative rho (up, down):  9.068E-04 0.000E+00

     total cpu time spent up to now is      158.8 secs

     total energy              =    -449.66986227 Ry
     estimated scf accuracy    <       0.00000002 Ry

     iteration # 11     ecut=   124.00 Ry     beta= 0.70
     Davidson diagonalization with overlap
     ethr =  7.34E-11,  avg # of iterations =  5.3

     negative rho (up, down):  9.067E-04 0.000E+00

     total cpu time spent up to now is      164.8 secs

     End of self-consistent calculation

     Number of k-points >= 100: set verbosity='high' to print the bands.

     the Fermi energy is    14.8913 ev

!    total energy              =    -449.66986229 Ry
     estimated scf accuracy    <          1.8E-09 Ry
     smearing contrib. (-TS)   =      -0.00019086 Ry
     internal energy E=F+TS    =    -449.66967143 Ry

     The total energy is F=E-TS. E is the sum of the following terms:
     one-electron contribution =    -171.46711088 Ry
     hartree contribution      =      99.40752587 Ry
     xc contribution           =     -53.52001909 Ry
     ewald contribution        =    -247.94312676 Ry
     one-center paw contrib.   =     -76.14694058 Ry

     convergence has been achieved in  11 iterations

     negative rho (up, down):  9.067E-04 0.000E+00

     Forces acting on atoms (cartesian axes, Ry/au):

     atom    1 type  1   force =     0.00000000    0.00000000    0.00000000
     atom    2 type  2   force =     0.00000000    0.00000000    0.00000000
     atom    3 type  3   force =     0.00000000    0.00000000    0.00000000

     Total force =     0.000000     Total SCF correction =     0.000000


     Computing stress (Cartesian axis) and pressure


     negative rho (up, down):  9.067E-04 0.000E+00
          total   stress  (Ry/bohr**3)                   (kbar)     P=      -76.18
   0.00092418   0.00000000   0.00000000          135.95        0.00        0.00
   0.00000000  -0.00123893   0.00000000            0.00     -182.25        0.00
   0.00000000   0.00000000  -0.00123893            0.00        0.00     -182.25

     Energy error            =      7.2E-02 Ry
     Gradient error          =      0.0E+00 Ry/Bohr
     Cell gradient error     =      1.8E+02 kbar

     number of scf cycles    =   2
     number of bfgs steps    =   1

     enthalpy           old  =    -449.5977907589 Ry
     enthalpy           new  =    -449.6698622942 Ry

     CASE: enthalpy          _new < enthalpy          _old

     new trust radius        =       0.1271999413 bohr
     new conv_thr            =            1.0E-10 Ry

     new unit-cell volume =    201.36370 a.u.^3 (    29.83902 Ang^3 )
     density =      5.82765 g/cm^3

CELL_PARAMETERS (alat=  5.58242261)
   1.196856449   0.000000000   0.000000000
   0.000000000   0.983411969   0.000000000
   0.000000000   0.000000000   0.983411969

ATOMIC_POSITIONS (crystal)
Fe               0.5000000000        0.5000000000        0.5000000000
Ti               0.0000000000        0.0000000000        0.0000000000
H                0.5000000000        0.0000000000        0.0000000000



     Writing config-only to output data dir ./TiFeH.save/ :
     XML data file     NEW-OLD atomic charge density approx. for the potential
     New effective cutoffs (rho, wfc): 1794.58  128.21

     Check: negative core charge=   -0.000002

     negative rho (up, down):  8.810E-04 0.000E+00

     total cpu time spent up to now is      168.3 secs

     per-process dynamical memory:   200.3 Mb

     Self-consistent Calculation

     iteration #  1     ecut=   124.00 Ry     beta= 0.70
     Davidson diagonalization with overlap
     ethr =  1.00E-06,  avg # of iterations = 11.3

     negative rho (up, down):  8.784E-04 0.000E+00

     total cpu time spent up to now is      181.8 secs

     total energy              =    -449.69395678 Ry
     estimated scf accuracy    <       0.00424519 Ry

     iteration #  2     ecut=   124.00 Ry     beta= 0.70
     Davidson diagonalization with overlap
     ethr =  1.46E-05,  avg # of iterations =  2.8

     negative rho (up, down):  9.015E-04 0.000E+00

     total cpu time spent up to now is      186.0 secs

     total energy              =    -449.69120424 Ry
     estimated scf accuracy    <       0.01443087 Ry

     iteration #  3     ecut=   124.00 Ry     beta= 0.70
     Davidson diagonalization with overlap
     ethr =  1.46E-05,  avg # of iterations =  3.7

     negative rho (up, down):  8.905E-04 0.000E+00

     total cpu time spent up to now is      190.8 secs

     total energy              =    -449.68988129 Ry
     estimated scf accuracy    <       0.11510104 Ry

     iteration #  4     ecut=   124.00 Ry     beta= 0.70
     Davidson diagonalization with overlap
     ethr =  1.46E-05,  avg # of iterations =  3.1

     negative rho (up, down):  8.855E-04 0.000E+00

     total cpu time spent up to now is      195.0 secs

     total energy              =    -449.69513375 Ry
     estimated scf accuracy    <       0.00002889 Ry

     iteration #  5     ecut=   124.00 Ry     beta= 0.70
     Davidson diagonalization with overlap
     ethr =  9.96E-08,  avg # of iterations =  4.8

     negative rho (up, down):  8.882E-04 0.000E+00

     total cpu time spent up to now is      200.7 secs

     total energy              =    -449.69515747 Ry
     estimated scf accuracy    <       0.00001197 Ry

     iteration #  6     ecut=   124.00 Ry     beta= 0.70
     Davidson diagonalization with overlap
     ethr =  4.13E-08,  avg # of iterations =  2.4

     negative rho (up, down):  8.883E-04 0.000E+00

     total cpu time spent up to now is      204.8 secs

     total energy              =    -449.69515959 Ry
     estimated scf accuracy    <       0.00000027 Ry

     iteration #  7     ecut=   124.00 Ry     beta= 0.70
     Davidson diagonalization with overlap
     ethr =  9.40E-10,  avg # of iterations =  4.9

     negative rho (up, down):  8.882E-04 0.000E+00

     total cpu time spent up to now is      210.5 secs

     total energy              =    -449.69515983 Ry
     estimated scf accuracy    <       0.00000009 Ry

     iteration #  8     ecut=   124.00 Ry     beta= 0.70
     Davidson diagonalization with overlap
     ethr =  3.23E-10,  avg # of iterations =  1.6

     negative rho (up, down):  8.882E-04 0.000E+00

     total cpu time spent up to now is      214.1 secs

     total energy              =    -449.69515983 Ry
     estimated scf accuracy    <          4.7E-09 Ry

     iteration #  9     ecut=   124.00 Ry     beta= 0.70
     Davidson diagonalization with overlap
     ethr =  1.62E-11,  avg # of iterations =  4.3

     negative rho (up, down):  8.882E-04 0.000E+00

     total cpu time spent up to now is      218.9 secs

     total energy              =    -449.69515984 Ry
     estimated scf accuracy    <          1.1E-09 Ry

     iteration # 10     ecut=   124.00 Ry     beta= 0.70
     Davidson diagonalization with overlap
     ethr =  3.69E-12,  avg # of iterations =  2.6

     negative rho (up, down):  8.882E-04 0.000E+00

     total cpu time spent up to now is      222.9 secs

     total energy              =    -449.69515984 Ry
     estimated scf accuracy    <          1.8E-10 Ry

     iteration # 11     ecut=   124.00 Ry     beta= 0.70
     Davidson diagonalization with overlap
     ethr =  6.31E-13,  avg # of iterations =  3.5

     negative rho (up, down):  8.882E-04 0.000E+00

     total cpu time spent up to now is      227.4 secs

     End of self-consistent calculation

     Number of k-points >= 100: set verbosity='high' to print the bands.

     the Fermi energy is    15.3967 ev

!    total energy              =    -449.69515984 Ry
     estimated scf accuracy    <          7.4E-12 Ry
     smearing contrib. (-TS)   =      -0.00008896 Ry
     internal energy E=F+TS    =    -449.69507087 Ry

     The total energy is F=E-TS. E is the sum of the following terms:
     one-electron contribution =    -167.73134001 Ry
     hartree contribution      =      98.13951358 Ry
     xc contribution           =     -53.54678459 Ry
     ewald contribution        =    -250.40828385 Ry
     one-center paw contrib.   =     -76.14817600 Ry

     convergence has been achieved in  11 iterations

     negative rho (up, down):  8.882E-04 0.000E+00

     Forces acting on atoms (cartesian axes, Ry/au):

     atom    1 type  1   force =     0.00000000    0.00000000    0.00000000
     atom    2 type  2   force =     0.00000000    0.00000000    0.00000000
     atom    3 type  3   force =     0.00000000    0.00000000    0.00000000

     Total force =     0.000000     Total SCF correction =     0.000000


     Computing stress (Cartesian axis) and pressure


     negative rho (up, down):  8.882E-04 0.000E+00
          total   stress  (Ry/bohr**3)                   (kbar)     P=      -69.13
   0.00070840   0.00000000   0.00000000          104.21        0.00        0.00
   0.00000000  -0.00105908   0.00000000            0.00     -155.80        0.00
   0.00000000   0.00000000  -0.00105908            0.00        0.00     -155.80

     Energy error            =      2.5E-02 Ry
     Gradient error          =      0.0E+00 Ry/Bohr
     Cell gradient error     =      1.6E+02 kbar

     number of scf cycles    =   3
     number of bfgs steps    =   2

     enthalpy           old  =    -449.6698622942 Ry
     enthalpy           new  =    -449.6951598361 Ry

     CASE: enthalpy          _new < enthalpy          _old


     WARNING: bfgs curvature condition failed, Theta= 0.983
     new trust radius        =       0.1800176550 bohr
     new conv_thr            =            1.0E-10 Ry

     new unit-cell volume =    188.68364 a.u.^3 (    27.96003 Ang^3 )
     density =      6.21928 g/cm^3

CELL_PARAMETERS (alat=  5.58242261)
   1.272773019   0.000000000   0.000000000
   0.000000000   0.923118761   0.000000000
   0.000000000   0.000000000   0.923118761

ATOMIC_POSITIONS (crystal)
Fe               0.5000000000        0.5000000000        0.5000000000
Ti               0.0000000000        0.0000000000        0.0000000000
H                0.5000000000        0.0000000000        0.0000000000



     Writing config-only to output data dir ./TiFeH.save/ :
     XML data file     NEW-OLD atomic charge density approx. for the potential
     New effective cutoffs (rho, wfc): 2036.67  145.50

     Check: negative core charge=   -0.000002

     negative rho (up, down):  8.342E-04 0.000E+00

     total cpu time spent up to now is      230.9 secs

     per-process dynamical memory:   200.3 Mb

     Self-consistent Calculation

     iteration #  1     ecut=   124.00 Ry     beta= 0.70
     Davidson diagonalization with overlap
     c_bands:  1 eigenvalues not converged
     ethr =  1.00E-06,  avg # of iterations = 13.0

     negative rho (up, down):  7.863E-04 0.000E+00

     total cpu time spent up to now is      246.6 secs

     total energy              =    -449.70780942 Ry
     estimated scf accuracy    <       0.01336076 Ry

     iteration #  2     ecut=   124.00 Ry     beta= 0.70
     Davidson diagonalization with overlap
     ethr =  4.61E-05,  avg # of iterations =  4.5

     negative rho (up, down):  8.405E-04 0.000E+00

     total cpu time spent up to now is      251.9 secs

     total energy              =    -449.66507257 Ry
     estimated scf accuracy    <       0.88042007 Ry

     iteration #  3     ecut=   124.00 Ry     beta= 0.70
     Davidson diagonalization with overlap
     ethr =  4.61E-05,  avg # of iterations =  4.3

     negative rho (up, down):  8.572E-04 0.000E+00

     total cpu time spent up to now is      257.1 secs

     total energy              =    -449.71467749 Ry
     estimated scf accuracy    <       0.01083042 Ry

     iteration #  4     ecut=   124.00 Ry     beta= 0.70
     Davidson diagonalization with overlap
     ethr =  3.73E-05,  avg # of iterations =  1.0

     negative rho (up, down):  8.528E-04 0.000E+00

     total cpu time spent up to now is      260.7 secs

     total energy              =    -449.71543211 Ry
     estimated scf accuracy    <       0.00007815 Ry

     iteration #  5     ecut=   124.00 Ry     beta= 0.70
     Davidson diagonalization with overlap
     ethr =  2.69E-07,  avg # of iterations =  4.8

     negative rho (up, down):  8.532E-04 0.000E+00

     total cpu time spent up to now is      266.4 secs

     total energy              =    -449.71550893 Ry
     estimated scf accuracy    <       0.00000736 Ry

     iteration #  6     ecut=   124.00 Ry     beta= 0.70
     Davidson diagonalization with overlap
     ethr =  2.54E-08,  avg # of iterations =  3.6

     negative rho (up, down):  8.543E-04 0.000E+00

     total cpu time spent up to now is      271.0 secs

     total energy              =    -449.71551085 Ry
     estimated scf accuracy    <       0.00000176 Ry

     iteration #  7     ecut=   124.00 Ry     beta= 0.70
     Davidson diagonalization with overlap
     ethr =  6.05E-09,  avg # of iterations =  2.5

     negative rho (up, down):  8.542E-04 0.000E+00

     total cpu time spent up to now is      275.2 secs

     total energy              =    -449.71551118 Ry
     estimated scf accuracy    <       0.00000059 Ry

     iteration #  8     ecut=   124.00 Ry     beta= 0.70
     Davidson diagonalization with overlap
     ethr =  2.03E-09,  avg # of iterations =  1.9

     negative rho (up, down):  8.542E-04 0.000E+00

     total cpu time spent up to now is      279.0 secs

     total energy              =    -449.71551127 Ry
     estimated scf accuracy    <       0.00000006 Ry

     iteration #  9     ecut=   124.00 Ry     beta= 0.70
     Davidson diagonalization with overlap
     ethr =  1.98E-10,  avg # of iterations =  4.5

     negative rho (up, down):  8.542E-04 0.000E+00

     total cpu time spent up to now is      283.8 secs

     total energy              =    -449.71551128 Ry
     estimated scf accuracy    <          2.0E-09 Ry

     iteration # 10     ecut=   124.00 Ry     beta= 0.70
     Davidson diagonalization with overlap
     ethr =  7.05E-12,  avg # of iterations =  4.3

     negative rho (up, down):  8.542E-04 0.000E+00

     total cpu time spent up to now is      288.9 secs

     total energy              =    -449.71551129 Ry
     estimated scf accuracy    <          2.2E-10 Ry

     iteration # 11     ecut=   124.00 Ry     beta= 0.70
     Davidson diagonalization with overlap
     ethr =  7.47E-13,  avg # of iterations =  2.8

     negative rho (up, down):  8.542E-04 0.000E+00

     total cpu time spent up to now is      293.4 secs

     End of self-consistent calculation

     Number of k-points >= 100: set verbosity='high' to print the bands.

     the Fermi energy is    16.4012 ev

!    total energy              =    -449.71551129 Ry
     estimated scf accuracy    <          2.2E-12 Ry
     smearing contrib. (-TS)   =      -0.00002969 Ry
     internal energy E=F+TS    =    -449.71548160 Ry

     The total energy is F=E-TS. E is the sum of the following terms:
     one-electron contribution =    -159.89535245 Ry
     hartree contribution      =      95.59020025 Ry
     xc contribution           =     -53.64618443 Ry
     ewald contribution        =    -255.61358441 Ry
     one-center paw contrib.   =     -76.15056057 Ry

     convergence has been achieved in  11 iterations

     negative rho (up, down):  8.542E-04 0.000E+00

     Forces acting on atoms (cartesian axes, Ry/au):

     atom    1 type  1   force =     0.00000000    0.00000000    0.00000000
     atom    2 type  2   force =     0.00000000    0.00000000    0.00000000
     atom    3 type  3   force =     0.00000000    0.00000000    0.00000000

     Total force =     0.000000     Total SCF correction =     0.000000


     Computing stress (Cartesian axis) and pressure


     negative rho (up, down):  8.542E-04 0.000E+00
          total   stress  (Ry/bohr**3)                   (kbar)     P=        7.97
   0.00028220   0.00000000   0.00000000           41.51        0.00        0.00
   0.00000000  -0.00005979   0.00000000            0.00       -8.79        0.00
   0.00000000   0.00000000  -0.00005979            0.00        0.00       -8.79

     Energy error            =      2.0E-02 Ry
     Gradient error          =      0.0E+00 Ry/Bohr
     Cell gradient error     =      4.2E+01 kbar

     number of scf cycles    =   4
     number of bfgs steps    =   3

     enthalpy           old  =    -449.6951598361 Ry
     enthalpy           new  =    -449.7155112852 Ry

     CASE: enthalpy          _new < enthalpy          _old

     new trust radius        =       0.0361244786 bohr
     new conv_thr            =            1.0E-10 Ry

     new unit-cell volume =    187.78459 a.u.^3 (    27.82681 Ang^3 )
     density =      6.24906 g/cm^3

CELL_PARAMETERS (alat=  5.58242261)
   1.289509164   0.000000000   0.000000000
   0.000000000   0.914921205   0.000000000
   0.000000000   0.000000000   0.914921205

ATOMIC_POSITIONS (crystal)
Fe               0.5000000000        0.5000000000        0.5000000000
Ti               0.0000000000        0.0000000000        0.0000000000
H                0.5000000000        0.0000000000        0.0000000000



     Writing config-only to output data dir ./TiFeH.save/ :
     XML data file     NEW-OLD atomic charge density approx. for the potential
     New effective cutoffs (rho, wfc): 2073.33  148.12

     Check: negative core charge=   -0.000002

     negative rho (up, down):  8.517E-04 0.000E+00

     total cpu time spent up to now is      296.9 secs

     per-process dynamical memory:   200.3 Mb

     Self-consistent Calculation

     iteration #  1     ecut=   124.00 Ry     beta= 0.70
     Davidson diagonalization with overlap
     ethr =  1.00E-06,  avg # of iterations =  7.2

     negative rho (up, down):  8.019E-04 0.000E+00

     total cpu time spent up to now is      305.7 secs

     total energy              =    -449.71347212 Ry
     estimated scf accuracy    <       0.00300265 Ry

     iteration #  2     ecut=   124.00 Ry     beta= 0.70
     Davidson diagonalization with overlap
     ethr =  1.04E-05,  avg # of iterations =  5.4

     negative rho (up, down):  8.328E-04 0.000E+00

     total cpu time spent up to now is      311.7 secs

     total energy              =    -449.69712782 Ry
     estimated scf accuracy    <       0.42144089 Ry

     iteration #  3     ecut=   124.00 Ry     beta= 0.70
     Davidson diagonalization with overlap
     ethr =  1.04E-05,  avg # of iterations =  4.8

     negative rho (up, down):  8.427E-04 0.000E+00

     total cpu time spent up to now is      317.2 secs

     total energy              =    -449.71606961 Ry
     estimated scf accuracy    <       0.00023044 Ry

     iteration #  4     ecut=   124.00 Ry     beta= 0.70
     Davidson diagonalization with overlap
     ethr =  7.95E-07,  avg # of iterations =  3.2

     negative rho (up, down):  8.440E-04 0.000E+00

     total cpu time spent up to now is      321.8 secs

     total energy              =    -449.71612489 Ry
     estimated scf accuracy    <       0.00002853 Ry

     iteration #  5     ecut=   124.00 Ry     beta= 0.70
     Davidson diagonalization with overlap
     ethr =  9.84E-08,  avg # of iterations =  3.4

     negative rho (up, down):  8.433E-04 0.000E+00

     total cpu time spent up to now is      326.2 secs

     total energy              =    -449.71613064 Ry
     estimated scf accuracy    <       0.00000051 Ry

     iteration #  6     ecut=   124.00 Ry     beta= 0.70
     Davidson diagonalization with overlap
     ethr =  1.75E-09,  avg # of iterations =  5.2

     negative rho (up, down):  8.432E-04 0.000E+00

     total cpu time spent up to now is      332.3 secs

     total energy              =    -449.71613132 Ry
     estimated scf accuracy    <       0.00000009 Ry

     iteration #  7     ecut=   124.00 Ry     beta= 0.70
     Davidson diagonalization with overlap
     ethr =  3.15E-10,  avg # of iterations =  2.1

     negative rho (up, down):  8.432E-04 0.000E+00

     total cpu time spent up to now is      336.2 secs

     total energy              =    -449.71613133 Ry
     estimated scf accuracy    <       0.00000001 Ry

     iteration #  8     ecut=   124.00 Ry     beta= 0.70
     Davidson diagonalization with overlap
     ethr =  4.38E-11,  avg # of iterations =  2.9

     negative rho (up, down):  8.432E-04 0.000E+00

     total cpu time spent up to now is      340.2 secs

     total energy              =    -449.71613133 Ry
     estimated scf accuracy    <          1.4E-09 Ry

     iteration #  9     ecut=   124.00 Ry     beta= 0.70
     Davidson diagonalization with overlap
     ethr =  4.72E-12,  avg # of iterations =  4.5

     negative rho (up, down):  8.432E-04 0.000E+00

     total cpu time spent up to now is      345.2 secs

     End of self-consistent calculation

     Number of k-points >= 100: set verbosity='high' to print the bands.

     the Fermi energy is    16.4659 ev

!    total energy              =    -449.71613133 Ry
     estimated scf accuracy    <          3.9E-11 Ry
     smearing contrib. (-TS)   =      -0.00004531 Ry
     internal energy E=F+TS    =    -449.71608602 Ry

     The total energy is F=E-TS. E is the sum of the following terms:
     one-electron contribution =    -159.45067185 Ry
     hartree contribution      =      95.47113157 Ry
     xc contribution           =     -53.65387450 Ry
     ewald contribution        =    -255.93180249 Ry
     one-center paw contrib.   =     -76.15086875 Ry

     convergence has been achieved in   9 iterations

     negative rho (up, down):  8.432E-04 0.000E+00

     Forces acting on atoms (cartesian axes, Ry/au):

     atom    1 type  1   force =     0.00000000    0.00000000    0.00000000
     atom    2 type  2   force =     0.00000000    0.00000000    0.00000000
     atom    3 type  3   force =     0.00000000    0.00000000    0.00000000

     Total force =     0.000000     Total SCF correction =     0.000000


     Computing stress (Cartesian axis) and pressure


     negative rho (up, down):  8.432E-04 0.000E+00
          total   stress  (Ry/bohr**3)                   (kbar)     P=       13.43
   0.00019086   0.00000000   0.00000000           28.08        0.00        0.00
   0.00000000   0.00004155   0.00000000            0.00        6.11        0.00
   0.00000000   0.00000000   0.00004155            0.00        0.00        6.11

     Energy error            =      6.2E-04 Ry
     Gradient error          =      0.0E+00 Ry/Bohr
     Cell gradient error     =      2.8E+01 kbar

     number of scf cycles    =   5
     number of bfgs steps    =   4

     enthalpy           old  =    -449.7155112852 Ry
     enthalpy           new  =    -449.7161313326 Ry

     CASE: enthalpy          _new < enthalpy          _old

     new trust radius        =       0.0286116527 bohr
     new conv_thr            =            1.0E-10 Ry

     new unit-cell volume =    188.38478 a.u.^3 (    27.91574 Ang^3 )
     density =      6.22915 g/cm^3

CELL_PARAMETERS (alat=  5.58242261)
   1.302971096   0.000000000   0.000000000
   0.000000000   0.911635950   0.000000000
   0.000000000   0.000000000   0.911635950

ATOMIC_POSITIONS (crystal)
Fe               0.5000000000        0.5000000000        0.5000000000
Ti               0.0000000000        0.0000000000        0.0000000000
H                0.5000000000        0.0000000000        0.0000000000



     Writing config-only to output data dir ./TiFeH.save/ :
     XML data file     NEW-OLD atomic charge density approx. for the potential
     New effective cutoffs (rho, wfc): 2088.30  149.19

     Check: negative core charge=   -0.000002

     negative rho (up, down):  8.416E-04 0.000E+00

     total cpu time spent up to now is      348.6 secs

     per-process dynamical memory:   200.6 Mb

     Self-consistent Calculation

     iteration #  1     ecut=   124.00 Ry     beta= 0.70
     Davidson diagonalization with overlap
     ethr =  1.00E-06,  avg # of iterations =  6.1

     negative rho (up, down):  8.044E-04 0.000E+00

     total cpu time spent up to now is      356.3 secs

     total energy              =    -449.71463307 Ry
     estimated scf accuracy    <       0.00203012 Ry

     iteration #  2     ecut=   124.00 Ry     beta= 0.70
     Davidson diagonalization with overlap
     ethr =  7.00E-06,  avg # of iterations =  5.4

     negative rho (up, down):  8.305E-04 0.000E+00

     total cpu time spent up to now is      362.4 secs

     total energy              =    -449.70203488 Ry
     estimated scf accuracy    <       0.34380287 Ry

     iteration #  3     ecut=   124.00 Ry     beta= 0.70
     Davidson diagonalization with overlap
     ethr =  7.00E-06,  avg # of iterations =  4.9

     negative rho (up, down):  8.360E-04 0.000E+00

     total cpu time spent up to now is      368.0 secs

     total energy              =    -449.71626962 Ry
     estimated scf accuracy    <       0.00008672 Ry

     iteration #  4     ecut=   124.00 Ry     beta= 0.70
     Davidson diagonalization with overlap
     ethr =  2.99E-07,  avg # of iterations =  3.8

     negative rho (up, down):  8.351E-04 0.000E+00

     total cpu time spent up to now is      372.8 secs

     total energy              =    -449.71630033 Ry
     estimated scf accuracy    <       0.00000121 Ry

     iteration #  5     ecut=   124.00 Ry     beta= 0.70
     Davidson diagonalization with overlap
     ethr =  4.16E-09,  avg # of iterations =  5.4

     negative rho (up, down):  8.348E-04 0.000E+00

     total cpu time spent up to now is      379.0 secs

     total energy              =    -449.71630208 Ry
     estimated scf accuracy    <       0.00000030 Ry

     iteration #  6     ecut=   124.00 Ry     beta= 0.70
     Davidson diagonalization with overlap
     ethr =  1.04E-09,  avg # of iterations =  1.7

     negative rho (up, down):  8.346E-04 0.000E+00

     total cpu time spent up to now is      382.6 secs

     total energy              =    -449.71630209 Ry
     estimated scf accuracy    <       0.00000002 Ry

     iteration #  7     ecut=   124.00 Ry     beta= 0.70
     Davidson diagonalization with overlap
     ethr =  6.94E-11,  avg # of iterations =  3.7

     negative rho (up, down):  8.346E-04 0.000E+00

     total cpu time spent up to now is      387.3 secs

     total energy              =    -449.71630210 Ry
     estimated scf accuracy    <          1.6E-09 Ry

     iteration #  8     ecut=   124.00 Ry     beta= 0.70
     Davidson diagonalization with overlap
     ethr =  5.50E-12,  avg # of iterations =  4.5

     negative rho (up, down):  8.346E-04 0.000E+00

     total cpu time spent up to now is      392.4 secs

     End of self-consistent calculation

     Number of k-points >= 100: set verbosity='high' to print the bands.

     the Fermi energy is    16.3842 ev

!    total energy              =    -449.71630210 Ry
     estimated scf accuracy    <          5.8E-11 Ry
     smearing contrib. (-TS)   =      -0.00002163 Ry
     internal energy E=F+TS    =    -449.71628046 Ry

     The total energy is F=E-TS. E is the sum of the following terms:
     one-electron contribution =    -160.00249712 Ry
     hartree contribution      =      95.67969505 Ry
     xc contribution           =     -53.64703360 Ry
     ewald contribution        =    -255.59552381 Ry
     one-center paw contrib.   =     -76.15092098 Ry

     convergence has been achieved in   8 iterations

     negative rho (up, down):  8.346E-04 0.000E+00

     Forces acting on atoms (cartesian axes, Ry/au):

     atom    1 type  1   force =     0.00000000    0.00000000    0.00000000
     atom    2 type  2   force =     0.00000000    0.00000000    0.00000000
     atom    3 type  3   force =     0.00000000    0.00000000    0.00000000

     Total force =     0.000000     Total SCF correction =     0.000000


     Computing stress (Cartesian axis) and pressure


     negative rho (up, down):  8.346E-04 0.000E+00
          total   stress  (Ry/bohr**3)                   (kbar)     P=        5.62
   0.00003796   0.00000000   0.00000000            5.58        0.00        0.00
   0.00000000   0.00003828   0.00000000            0.00        5.63        0.00
   0.00000000   0.00000000   0.00003828            0.00        0.00        5.63

     Energy error            =      1.7E-04 Ry
     Gradient error          =      0.0E+00 Ry/Bohr
     Cell gradient error     =      5.6E+00 kbar

     number of scf cycles    =   6
     number of bfgs steps    =   5

     enthalpy           old  =    -449.7161313326 Ry
     enthalpy           new  =    -449.7163020966 Ry

     CASE: enthalpy          _new < enthalpy          _old

     new trust radius        =       0.0026189148 bohr
     new conv_thr            =            1.0E-10 Ry

     new unit-cell volume =    188.87973 a.u.^3 (    27.98909 Ang^3 )
     density =      6.21283 g/cm^3

CELL_PARAMETERS (alat=  5.58242261)
   1.303905294   0.000000000   0.000000000
   0.000000000   0.912505691   0.000000000
   0.000000000   0.000000000   0.912505691

ATOMIC_POSITIONS (crystal)
Fe               0.5000000000        0.5000000000        0.5000000000
Ti               0.0000000000        0.0000000000        0.0000000000
H                0.5000000000        0.0000000000        0.0000000000



     Writing config-only to output data dir ./TiFeH.save/ :
     XML data file     NEW-OLD atomic charge density approx. for the potential
     New effective cutoffs (rho, wfc): 2084.32  148.90

     Check: negative core charge=   -0.000002

     negative rho (up, down):  8.358E-04 0.000E+00

     total cpu time spent up to now is      395.8 secs

     per-process dynamical memory:   200.6 Mb

     Self-consistent Calculation

     iteration #  1     ecut=   124.00 Ry     beta= 0.70
     Davidson diagonalization with overlap
     ethr =  1.00E-06,  avg # of iterations =  2.0

     Threshold (ethr) on eigenvalues was too large:
     Diagonalizing with lowered threshold

     Davidson diagonalization with overlap
     ethr =  4.22E-09,  avg # of iterations =  6.0

     negative rho (up, down):  8.344E-04 0.000E+00

     total cpu time spent up to now is      406.2 secs

     total energy              =    -449.71630622 Ry
     estimated scf accuracy    <       0.00000227 Ry

     iteration #  2     ecut=   124.00 Ry     beta= 0.70
     Davidson diagonalization with overlap
     ethr =  7.83E-09,  avg # of iterations =  4.2

     negative rho (up, down):  8.337E-04 0.000E+00

     total cpu time spent up to now is      411.4 secs

     total energy              =    -449.71629881 Ry
     estimated scf accuracy    <       0.00028296 Ry

     iteration #  3     ecut=   124.00 Ry     beta= 0.70
     Davidson diagonalization with overlap
     ethr =  7.83E-09,  avg # of iterations =  4.1

     negative rho (up, down):  8.343E-04 0.000E+00

     total cpu time spent up to now is      416.1 secs

     total energy              =    -449.71631254 Ry
     estimated scf accuracy    <       0.00000543 Ry

     iteration #  4     ecut=   124.00 Ry     beta= 0.70
     Davidson diagonalization with overlap
     ethr =  7.83E-09,  avg # of iterations =  2.0

     negative rho (up, down):  8.343E-04 0.000E+00

     total cpu time spent up to now is      420.0 secs

     total energy              =    -449.71631287 Ry
     estimated scf accuracy    <       0.00000031 Ry

     iteration #  5     ecut=   124.00 Ry     beta= 0.70
     Davidson diagonalization with overlap
     ethr =  1.07E-09,  avg # of iterations =  2.6

     negative rho (up, down):  8.342E-04 0.000E+00

     total cpu time spent up to now is      424.0 secs

     total energy              =    -449.71631290 Ry
     estimated scf accuracy    <       0.00000001 Ry

     iteration #  6     ecut=   124.00 Ry     beta= 0.70
     Davidson diagonalization with overlap
     ethr =  3.87E-11,  avg # of iterations =  4.9

     negative rho (up, down):  8.342E-04 0.000E+00

     total cpu time spent up to now is      429.6 secs

     total energy              =    -449.71631290 Ry
     estimated scf accuracy    <          4.7E-09 Ry

     iteration #  7     ecut=   124.00 Ry     beta= 0.70
     Davidson diagonalization with overlap
     ethr =  1.63E-11,  avg # of iterations =  1.7

     negative rho (up, down):  8.342E-04 0.000E+00

     total cpu time spent up to now is      433.3 secs

     total energy              =    -449.71631290 Ry
     estimated scf accuracy    <          1.7E-09 Ry

     iteration #  8     ecut=   124.00 Ry     beta= 0.70
     Davidson diagonalization with overlap
     ethr =  5.75E-12,  avg # of iterations =  2.0

     negative rho (up, down):  8.342E-04 0.000E+00

     total cpu time spent up to now is      437.4 secs

     End of self-consistent calculation

     Number of k-points >= 100: set verbosity='high' to print the bands.

     the Fermi energy is    16.3344 ev

!    total energy              =    -449.71631290 Ry
     estimated scf accuracy    <          7.4E-11 Ry
     smearing contrib. (-TS)   =      -0.00002242 Ry
     internal energy E=F+TS    =    -449.71629048 Ry

     The total energy is F=E-TS. E is the sum of the following terms:
     one-electron contribution =    -160.34654761 Ry
     hartree contribution      =      95.79637699 Ry
     xc contribution           =     -53.64205901 Ry
     ewald contribution        =    -255.37320796 Ry
     one-center paw contrib.   =     -76.15085290 Ry

     convergence has been achieved in   8 iterations

     negative rho (up, down):  8.342E-04 0.000E+00

     Forces acting on atoms (cartesian axes, Ry/au):

     atom    1 type  1   force =     0.00000000    0.00000000    0.00000000
     atom    2 type  2   force =     0.00000000    0.00000000    0.00000000
     atom    3 type  3   force =     0.00000000    0.00000000    0.00000000

     Total force =     0.000000     Total SCF correction =     0.000000


     Computing stress (Cartesian axis) and pressure


     negative rho (up, down):  8.342E-04 0.000E+00
          total   stress  (Ry/bohr**3)                   (kbar)     P=        0.73
   0.00000442   0.00000000   0.00000000            0.65        0.00        0.00
   0.00000000   0.00000524   0.00000000            0.00        0.77        0.00
   0.00000000   0.00000000   0.00000524            0.00        0.00        0.77

     Energy error            =      1.1E-05 Ry
     Gradient error          =      0.0E+00 Ry/Bohr
     Cell gradient error     =      7.7E-01 kbar

     number of scf cycles    =   7
     number of bfgs steps    =   6

     enthalpy           old  =    -449.7163020966 Ry
     enthalpy           new  =    -449.7163129012 Ry

     CASE: enthalpy          _new < enthalpy          _old

     new trust radius        =       0.0004752699 bohr
     new conv_thr            =            1.0E-10 Ry

     new unit-cell volume =    188.95497 a.u.^3 (    28.00024 Ang^3 )
     density =      6.21035 g/cm^3

CELL_PARAMETERS (alat=  5.58242261)
   1.303973751   0.000000000   0.000000000
   0.000000000   0.912663472   0.000000000
   0.000000000   0.000000000   0.912663472

ATOMIC_POSITIONS (crystal)
Fe               0.5000000000        0.5000000000        0.5000000000
Ti               0.0000000000        0.0000000000        0.0000000000
H                0.5000000000        0.0000000000        0.0000000000



     Writing config-only to output data dir ./TiFeH.save/ :
     XML data file     NEW-OLD atomic charge density approx. for the potential
     New effective cutoffs (rho, wfc): 2083.60  148.85

     Check: negative core charge=   -0.000002

     negative rho (up, down):  8.344E-04 0.000E+00

     total cpu time spent up to now is      440.8 secs

     per-process dynamical memory:   200.6 Mb

     Self-consistent Calculation

     iteration #  1     ecut=   124.00 Ry     beta= 0.70
     Davidson diagonalization with overlap
     ethr =  1.00E-06,  avg # of iterations =  2.0

     Threshold (ethr) on eigenvalues was too large:
     Diagonalizing with lowered threshold

     Davidson diagonalization with overlap
     ethr =  5.31E-10,  avg # of iterations =  5.0

     negative rho (up, down):  8.344E-04 0.000E+00

     total cpu time spent up to now is      450.5 secs

     total energy              =    -449.71631279 Ry
     estimated scf accuracy    <       0.00000023 Ry

     iteration #  2     ecut=   124.00 Ry     beta= 0.70
     Davidson diagonalization with overlap
     ethr =  7.89E-10,  avg # of iterations =  4.3

     negative rho (up, down):  8.341E-04 0.000E+00

     total cpu time spent up to now is      455.7 secs

     total energy              =    -449.71631118 Ry
     estimated scf accuracy    <       0.00004654 Ry

     iteration #  3     ecut=   124.00 Ry     beta= 0.70
     Davidson diagonalization with overlap
     ethr =  7.89E-10,  avg # of iterations =  4.3

     negative rho (up, down):  8.342E-04 0.000E+00

     total cpu time spent up to now is      460.7 secs

     total energy              =    -449.71631311 Ry
     estimated scf accuracy    <       0.00000006 Ry

     iteration #  4     ecut=   124.00 Ry     beta= 0.70
     Davidson diagonalization with overlap
     ethr =  2.22E-10,  avg # of iterations =  2.0

     negative rho (up, down):  8.342E-04 0.000E+00

     total cpu time spent up to now is      464.5 secs

     total energy              =    -449.71631312 Ry
     estimated scf accuracy    <       0.00000001 Ry

     iteration #  5     ecut=   124.00 Ry     beta= 0.70
     Davidson diagonalization with overlap
     ethr =  3.45E-11,  avg # of iterations =  2.4

     negative rho (up, down):  8.341E-04 0.000E+00

     total cpu time spent up to now is      468.5 secs

     total energy              =    -449.71631312 Ry
     estimated scf accuracy    <          4.4E-10 Ry

     iteration #  6     ecut=   124.00 Ry     beta= 0.70
     Davidson diagonalization with overlap
     ethr =  1.51E-12,  avg # of iterations =  4.8

     negative rho (up, down):  8.341E-04 0.000E+00

     total cpu time spent up to now is      474.1 secs

     End of self-consistent calculation

     Number of k-points >= 100: set verbosity='high' to print the bands.

     the Fermi energy is    16.3270 ev

!    total energy              =    -449.71631312 Ry
     estimated scf accuracy    <          8.7E-11 Ry
     smearing contrib. (-TS)   =      -0.00002271 Ry
     internal energy E=F+TS    =    -449.71629041 Ry

     The total energy is F=E-TS. E is the sum of the following terms:
     one-electron contribution =    -160.39811175 Ry
     hartree contribution      =      95.81388889 Ry
     xc contribution           =     -53.64134176 Ry
     ewald contribution        =    -255.33988411 Ry
     one-center paw contrib.   =     -76.15084169 Ry

     convergence has been achieved in   6 iterations

     negative rho (up, down):  8.341E-04 0.000E+00

     Forces acting on atoms (cartesian axes, Ry/au):

     atom    1 type  1   force =     0.00000000    0.00000000    0.00000000
     atom    2 type  2   force =     0.00000000    0.00000000    0.00000000
     atom    3 type  3   force =     0.00000000    0.00000000    0.00000000

     Total force =     0.000000     Total SCF correction =     0.000000


     Computing stress (Cartesian axis) and pressure


     negative rho (up, down):  8.341E-04 0.000E+00
          total   stress  (Ry/bohr**3)                   (kbar)     P=        0.11
   0.00000084   0.00000000   0.00000000            0.12        0.00        0.00
   0.00000000   0.00000067   0.00000000            0.00        0.10        0.00
   0.00000000   0.00000000   0.00000067            0.00        0.00        0.10

     Energy error            =      2.2E-07 Ry
     Gradient error          =      0.0E+00 Ry/Bohr
     Cell gradient error     =      1.2E-01 kbar

     number of scf cycles    =   8
     number of bfgs steps    =   7

     enthalpy           old  =    -449.7163129012 Ry
     enthalpy           new  =    -449.7163131181 Ry

     CASE: enthalpy          _new < enthalpy          _old

     small trust_radius: resetting bfgs history

     new trust radius        =       0.0000578600 bohr
     new conv_thr            =            1.0E-10 Ry

     new unit-cell volume =    188.96531 a.u.^3 (    28.00177 Ang^3 )
     density =      6.21001 g/cm^3

CELL_PARAMETERS (alat=  5.58242261)
   1.304001194   0.000000000   0.000000000
   0.000000000   0.912678838   0.000000000
   0.000000000   0.000000000   0.912678838

ATOMIC_POSITIONS (crystal)
Fe               0.5000000000        0.5000000000        0.5000000000
Ti               0.0000000000        0.0000000000        0.0000000000
H                0.5000000000        0.0000000000        0.0000000000



     Writing config-only to output data dir ./TiFeH.save/ :
     XML data file     NEW-OLD atomic charge density approx. for the potential
     New effective cutoffs (rho, wfc): 2083.53  148.85

     Check: negative core charge=   -0.000002

     negative rho (up, down):  8.342E-04 0.000E+00

     total cpu time spent up to now is      477.5 secs

     per-process dynamical memory:   200.6 Mb

     Self-consistent Calculation

     iteration #  1     ecut=   124.00 Ry     beta= 0.70
     Davidson diagonalization with overlap
     ethr =  1.00E-06,  avg # of iterations =  2.0

     Threshold (ethr) on eigenvalues was too large:
     Diagonalizing with lowered threshold

     Davidson diagonalization with overlap
     ethr =  2.06E-11,  avg # of iterations =  4.0

     negative rho (up, down):  8.341E-04 0.000E+00

     total cpu time spent up to now is      486.2 secs

     total energy              =    -449.71631311 Ry
     estimated scf accuracy    <          5.5E-09 Ry

     iteration #  2     ecut=   124.00 Ry     beta= 0.70
     Davidson diagonalization with overlap
     ethr =  1.88E-11,  avg # of iterations =  4.8

     negative rho (up, down):  8.341E-04 0.000E+00

     total cpu time spent up to now is      492.0 secs

     total energy              =    -449.71631307 Ry
     estimated scf accuracy    <       0.00000131 Ry

     iteration #  3     ecut=   124.00 Ry     beta= 0.70
     Davidson diagonalization with overlap
     ethr =  1.88E-11,  avg # of iterations =  4.3

     negative rho (up, down):  8.341E-04 0.000E+00

     total cpu time spent up to now is      497.0 secs

     total energy              =    -449.71631312 Ry
     estimated scf accuracy    <          4.8E-10 Ry

     iteration #  4     ecut=   124.00 Ry     beta= 0.70
     Davidson diagonalization with overlap
     ethr =  1.66E-12,  avg # of iterations =  2.6

     negative rho (up, down):  8.341E-04 0.000E+00

     total cpu time spent up to now is      501.0 secs

     End of self-consistent calculation

     Number of k-points >= 100: set verbosity='high' to print the bands.

     the Fermi energy is    16.3259 ev

!    total energy              =    -449.71631312 Ry
     estimated scf accuracy    <          5.3E-11 Ry
     smearing contrib. (-TS)   =      -0.00002271 Ry
     internal energy E=F+TS    =    -449.71629041 Ry

     The total energy is F=E-TS. E is the sum of the following terms:
     one-electron contribution =    -160.40533821 Ry
     hartree contribution      =      95.81632152 Ry
     xc contribution           =     -53.64122645 Ry
     ewald contribution        =    -255.33520657 Ry
     one-center paw contrib.   =     -76.15084070 Ry

     convergence has been achieved in   4 iterations

     negative rho (up, down):  8.341E-04 0.000E+00

     Forces acting on atoms (cartesian axes, Ry/au):

     atom    1 type  1   force =     0.00000000    0.00000000    0.00000000
     atom    2 type  2   force =     0.00000000    0.00000000    0.00000000
     atom    3 type  3   force =     0.00000000    0.00000000    0.00000000

     Total force =     0.000000     Total SCF correction =     0.000000


     Computing stress (Cartesian axis) and pressure


     negative rho (up, down):  8.341E-04 0.000E+00
          total   stress  (Ry/bohr**3)                   (kbar)     P=       -0.06
  -0.00000039   0.00000000   0.00000000           -0.06        0.00        0.00
   0.00000000  -0.00000043   0.00000000            0.00       -0.06        0.00
   0.00000000   0.00000000  -0.00000043            0.00        0.00       -0.06

     Energy error            =      2.5E-10 Ry
     Gradient error          =      0.0E+00 Ry/Bohr
     Cell gradient error     =      6.3E-02 kbar

     bfgs converged in   9 scf cycles and   8 bfgs steps
     (criteria: energy <  1.0E-04 Ry, force <  1.0E-03 Ry/Bohr, cell <  1.0E-01 kbar)

     End of BFGS Geometry Optimization

     Final enthalpy           =    -449.7163131183 Ry

     File ./TiFeH.bfgs deleted, as requested
Begin final coordinates
     new unit-cell volume =    188.96531 a.u.^3 (    28.00177 Ang^3 )
     density =      6.21001 g/cm^3

CELL_PARAMETERS (alat=  5.58242261)
   1.304001194   0.000000000   0.000000000
   0.000000000   0.912678838   0.000000000
   0.000000000   0.000000000   0.912678838

ATOMIC_POSITIONS (crystal)
Fe               0.5000000000        0.5000000000        0.5000000000
Ti               0.0000000000        0.0000000000        0.0000000000
H                0.5000000000        0.0000000000        0.0000000000
End final coordinates



     Writing config-only to output data dir ./TiFeH.save/ :
     XML data file
     Final scf calculation at the relaxed structure.
     The G-vectors are recalculated for the final unit cell
     Results may differ from those at the preceding step.

     Parallelization info
     --------------------
     sticks:   dense  smooth     PW     G-vecs:    dense   smooth      PW
     Min         639     182     53                28844     4406     690
     Max         640     183     54                28845     4409     691
     Sum        5119    1463    425               230753    35259    5527

     Using Slab Decomposition



     bravais-lattice index     =            0
     lattice parameter (alat)  =       5.5824  a.u.
     unit-cell volume          =     188.9653 (a.u.)^3
     number of atoms/cell      =            3
     number of atomic types    =            3
     number of electrons       =        29.00
     number of Kohn-Sham states=           19
     kinetic-energy cutoff     =     124.0000  Ry
     charge density cutoff     =    1736.0000  Ry
     scf convergence threshold =      1.0E-10
     mixing beta               =       0.7000
     number of iterations used =            8  plain     mixing
     press convergence thresh. =      1.0E-01
     Exchange-correlation= PBE
                           (   1   4   3   4   0   0   0)

     celldm(1)=   5.582423  celldm(2)=   0.000000  celldm(3)=   0.000000
     celldm(4)=   0.000000  celldm(5)=   0.000000  celldm(6)=   0.000000

     crystal axes: (cart. coord. in units of alat)
               a(1) = (   1.304001   0.000000   0.000000 )  
               a(2) = (   0.000000   0.912679   0.000000 )  
               a(3) = (   0.000000   0.000000   0.912679 )  

     reciprocal axes: (cart. coord. in units 2 pi/alat)
               b(1) = (  0.766870  0.000000  0.000000 )  
               b(2) = (  0.000000  1.095676  0.000000 )  
               b(3) = (  0.000000  0.000000  1.095676 )  


     PseudoPot. # 1 for Fe read from file:
     ../pseudos/Fe.pbe-spn-kjpaw_psl.0.2.1.UPF
     MD5 check sum: e86618425769142926afa95317d90200
     Pseudo is Projector augmented-wave + core cor, Zval = 16.0
     Generated using "atomic" code by A. Dal Corso  v.5.0.99 svn rev. 10869
     Shape of augmentation charge: PSQ
     Using radial grid of 1191 points,  6 beta functions with: 
                l(1) =   0
                l(2) =   0
                l(3) =   1
                l(4) =   1
                l(5) =   2
                l(6) =   2
     Q(r) pseudized with 0 coefficients 


     PseudoPot. # 2 for Ti read from file:
     ../pseudos/ti_pbe_v1.4.uspp.F.UPF
     MD5 check sum: 88a00a6731bd790ddea75d31a80cb452
     Pseudo is Ultrasoft + core correction, Zval = 12.0
     Generated by new atomic code, or converted to UPF format
     Using radial grid of  851 points,  6 beta functions with: 
                l(1) =   0
                l(2) =   0
                l(3) =   1
                l(4) =   1
                l(5) =   2
                l(6) =   2
     Q(r) pseudized with  6 coefficients,  rinner =    1.000   1.000   1.000
                                                       1.000   1.000

     PseudoPot. # 3 for H  read from file:
     ../pseudos/H.pbe-kjpaw_psl.1.0.0.UPF
     MD5 check sum: d81a744832360e4a8af0b0b5b123bc2a
     Pseudo is Projector augmented-wave, Zval =  1.0
     Generated using &quot;atomic&quot; code by A. Dal Corso  v.6.3MaX
     Shape of augmentation charge: PSQ
     Using radial grid of  929 points,  2 beta functions with: 
                l(1) =   0
                l(2) =   0
     Q(r) pseudized with 0 coefficients 


     atomic species   valence    mass     pseudopotential
     Fe               16.00    55.84500     Fe( 1.00)
     Ti               12.00    47.86700     Ti( 1.00)
     H                 1.00     1.00784     H ( 1.00)

     16 Sym. Ops., with inversion, found



   Cartesian axes

     site n.     atom                  positions (alat units)
         1        Fe     tau(   1) = (   0.6520006   0.4563394   0.4563394  )
         2        Ti     tau(   2) = (   0.0000000   0.0000000   0.0000000  )
         3        H      tau(   3) = (   0.6520006   0.0000000   0.0000000  )

     number of k points=   288  Marzari-Vanderbilt smearing, width (Ry)=  0.0050

     Number of k-points >= 100: set verbosity='high' to print them.

     Dense  grid:   230753 G-vectors     FFT dimensions: ( 100,  72,  72)

     Smooth grid:    35259 G-vectors     FFT dimensions: (  54,  40,  40)

     Estimated max dynamical RAM per process >     173.54 MB

     Estimated total dynamical RAM >       1.36 GB

     Check: negative core charge=   -0.000001

     Initial potential from superposition of free atoms

     starting charge      27.9995, renormalised to      29.0000

     negative rho (up, down):  1.318E-03 0.000E+00
     Starting wfcs are   24 randomized atomic wfcs
     Checking if some PAW data can be deallocated... 

     total cpu time spent up to now is      507.2 secs

     per-process dynamical memory:   193.1 Mb

     Self-consistent Calculation

     iteration #  1     ecut=   124.00 Ry     beta= 0.70
     Davidson diagonalization with overlap
     c_bands:  1 eigenvalues not converged
     c_bands:  1 eigenvalues not converged
     c_bands:  1 eigenvalues not converged
     c_bands:  1 eigenvalues not converged
     c_bands:  1 eigenvalues not converged
     c_bands:  1 eigenvalues not converged
     c_bands:  2 eigenvalues not converged
     c_bands:  1 eigenvalues not converged
     c_bands:  1 eigenvalues not converged
     c_bands:  2 eigenvalues not converged
     c_bands:  1 eigenvalues not converged
     c_bands:  1 eigenvalues not converged
     c_bands:  1 eigenvalues not converged
     c_bands:  1 eigenvalues not converged
     c_bands:  1 eigenvalues not converged
     c_bands:  1 eigenvalues not converged
     c_bands:  1 eigenvalues not converged
     c_bands:  1 eigenvalues not converged
     c_bands:  1 eigenvalues not converged
     c_bands:  1 eigenvalues not converged
     c_bands:  1 eigenvalues not converged
     c_bands:  1 eigenvalues not converged
     c_bands:  1 eigenvalues not converged
     c_bands:  1 eigenvalues not converged
     c_bands:  1 eigenvalues not converged
     c_bands:  1 eigenvalues not converged
     c_bands:  1 eigenvalues not converged
     c_bands:  1 eigenvalues not converged
     c_bands:  1 eigenvalues not converged
     c_bands:  1 eigenvalues not converged
     c_bands:  1 eigenvalues not converged
     ethr =  1.00E-06,  avg # of iterations = 16.2

     negative rho (up, down):  1.693E-04 0.000E+00

     total cpu time spent up to now is      530.5 secs

     total energy              =    -428.90523498 Ry
     estimated scf accuracy    <      26.06969541 Ry

     iteration #  2     ecut=   124.00 Ry     beta= 0.70
     Davidson diagonalization with overlap
     ethr =  1.00E-02,  avg # of iterations =  7.5

     total cpu time spent up to now is      540.9 secs

     total energy              =    -438.93346126 Ry
     estimated scf accuracy    <     143.55682528 Ry

     iteration #  3     ecut=   124.00 Ry     beta= 0.70
     Davidson diagonalization with overlap
     ethr =  1.00E-02,  avg # of iterations =  4.3

     negative rho (up, down):  1.533E-05 0.000E+00

     total cpu time spent up to now is      547.7 secs

     total energy              =    -451.49967618 Ry
     estimated scf accuracy    <      22.49541978 Ry

     iteration #  4     ecut=   124.00 Ry     beta= 0.70
     Davidson diagonalization with overlap
     ethr =  1.00E-02,  avg # of iterations =  2.2

     negative rho (up, down):  1.749E-04 0.000E+00

     total cpu time spent up to now is      552.5 secs

     total energy              =    -450.00202223 Ry
     estimated scf accuracy    <      13.18086624 Ry

     iteration #  5     ecut=   124.00 Ry     beta= 0.70
     Davidson diagonalization with overlap
     ethr =  1.00E-02,  avg # of iterations =  2.0

     negative rho (up, down):  3.216E-04 0.000E+00

     total cpu time spent up to now is      557.1 secs

     total energy              =    -450.00747320 Ry
     estimated scf accuracy    <       5.07681519 Ry

     iteration #  6     ecut=   124.00 Ry     beta= 0.70
     Davidson diagonalization with overlap
     ethr =  1.00E-02,  avg # of iterations =  1.0

     negative rho (up, down):  4.353E-04 0.000E+00

     total cpu time spent up to now is      561.4 secs

     total energy              =    -449.91467959 Ry
     estimated scf accuracy    <       3.39603244 Ry

     iteration #  7     ecut=   124.00 Ry     beta= 0.70
     Davidson diagonalization with overlap
     ethr =  1.00E-02,  avg # of iterations =  1.0

     negative rho (up, down):  7.839E-04 0.000E+00

     total cpu time spent up to now is      565.6 secs

     total energy              =    -449.73568101 Ry
     estimated scf accuracy    <       2.50487150 Ry

     iteration #  8     ecut=   124.00 Ry     beta= 0.70
     Davidson diagonalization with overlap
     ethr =  8.64E-03,  avg # of iterations =  1.2

     negative rho (up, down):  9.189E-04 0.000E+00

     total cpu time spent up to now is      569.9 secs

     total energy              =    -449.60510790 Ry
     estimated scf accuracy    <       1.36811835 Ry

     iteration #  9     ecut=   124.00 Ry     beta= 0.70
     Davidson diagonalization with overlap
     ethr =  4.72E-03,  avg # of iterations =  1.3

     negative rho (up, down):  8.900E-04 0.000E+00

     total cpu time spent up to now is      574.2 secs

     total energy              =    -449.70248433 Ry
     estimated scf accuracy    <       0.12832151 Ry

     iteration # 10     ecut=   124.00 Ry     beta= 0.70
     Davidson diagonalization with overlap
     ethr =  4.42E-04,  avg # of iterations =  4.5

     negative rho (up, down):  1.053E-03 0.000E+00

     total cpu time spent up to now is      579.7 secs

     total energy              =    -449.73777187 Ry
     estimated scf accuracy    <       0.03443278 Ry

     iteration # 11     ecut=   124.00 Ry     beta= 0.70
     Davidson diagonalization with overlap
     ethr =  1.19E-04,  avg # of iterations =  4.7

     negative rho (up, down):  9.907E-04 0.000E+00

     total cpu time spent up to now is      586.1 secs

     total energy              =    -449.75318494 Ry
     estimated scf accuracy    <       1.75134377 Ry

     iteration # 12     ecut=   124.00 Ry     beta= 0.70
     Davidson diagonalization with overlap
     ethr =  1.19E-04,  avg # of iterations =  1.2

     negative rho (up, down):  6.426E-04 0.000E+00

     total cpu time spent up to now is      590.4 secs

     total energy              =    -449.62418557 Ry
     estimated scf accuracy    <       1.02554409 Ry

     iteration # 13     ecut=   124.00 Ry     beta= 0.70
     Davidson diagonalization with overlap
     ethr =  1.19E-04,  avg # of iterations =  5.0

     negative rho (up, down):  4.640E-04 0.000E+00

     total cpu time spent up to now is      597.2 secs

     total energy              =    -449.79162083 Ry
     estimated scf accuracy    <       0.22872442 Ry

     iteration # 14     ecut=   124.00 Ry     beta= 0.70
     Davidson diagonalization with overlap
     ethr =  1.19E-04,  avg # of iterations =  3.6

     negative rho (up, down):  5.748E-04 0.000E+00

     total cpu time spent up to now is      602.7 secs

     total energy              =    -449.76631548 Ry
     estimated scf accuracy    <       1.09723543 Ry

     iteration # 15     ecut=   124.00 Ry     beta= 0.70
     Davidson diagonalization with overlap
     ethr =  1.19E-04,  avg # of iterations =  1.5

     negative rho (up, down):  8.121E-04 0.000E+00

     total cpu time spent up to now is      607.0 secs

     total energy              =    -449.68839615 Ry
     estimated scf accuracy    <       0.69342512 Ry

     iteration # 16     ecut=   124.00 Ry     beta= 0.70
     Davidson diagonalization with overlap
     ethr =  1.19E-04,  avg # of iterations =  3.5

     negative rho (up, down):  8.046E-04 0.000E+00

     total cpu time spent up to now is      613.0 secs

     total energy              =    -449.71744778 Ry
     estimated scf accuracy    <       0.01959099 Ry

     iteration # 17     ecut=   124.00 Ry     beta= 0.70
     Davidson diagonalization with overlap
     ethr =  6.76E-05,  avg # of iterations =  1.1

     negative rho (up, down):  8.128E-04 0.000E+00

     total cpu time spent up to now is      617.3 secs

     total energy              =    -449.71721541 Ry
     estimated scf accuracy    <       0.01946997 Ry

     iteration # 18     ecut=   124.00 Ry     beta= 0.70
     Davidson diagonalization with overlap
     ethr =  6.71E-05,  avg # of iterations =  1.0

     negative rho (up, down):  8.215E-04 0.000E+00

     total cpu time spent up to now is      621.6 secs

     total energy              =    -449.71689546 Ry
     estimated scf accuracy    <       0.01191175 Ry

     iteration # 19     ecut=   124.00 Ry     beta= 0.70
     Davidson diagonalization with overlap
     ethr =  4.11E-05,  avg # of iterations =  1.0

     negative rho (up, down):  8.661E-04 0.000E+00

     total cpu time spent up to now is      625.8 secs

     total energy              =    -449.71590987 Ry
     estimated scf accuracy    <       0.00604779 Ry

     iteration # 20     ecut=   124.00 Ry     beta= 0.70
     Davidson diagonalization with overlap
     ethr =  2.09E-05,  avg # of iterations =  2.2

     negative rho (up, down):  8.740E-04 0.000E+00

     total cpu time spent up to now is      630.5 secs

     total energy              =    -449.71700874 Ry
     estimated scf accuracy    <       0.00477332 Ry

     iteration # 21     ecut=   124.00 Ry     beta= 0.70
     Davidson diagonalization with overlap
     ethr =  1.65E-05,  avg # of iterations =  1.0

     negative rho (up, down):  8.542E-04 0.000E+00

     total cpu time spent up to now is      634.7 secs

     total energy              =    -449.71648168 Ry
     estimated scf accuracy    <       0.00627039 Ry

     iteration # 22     ecut=   124.00 Ry     beta= 0.70
     Davidson diagonalization with overlap
     ethr =  1.65E-05,  avg # of iterations =  1.0

     negative rho (up, down):  8.540E-04 0.000E+00

     total cpu time spent up to now is      639.0 secs

     total energy              =    -449.71672642 Ry
     estimated scf accuracy    <       0.00005171 Ry

     iteration # 23     ecut=   124.00 Ry     beta= 0.70
     Davidson diagonalization with overlap
     ethr =  1.78E-07,  avg # of iterations =  4.4

     negative rho (up, down):  8.525E-04 0.000E+00

     total cpu time spent up to now is      644.4 secs

     total energy              =    -449.71673344 Ry
     estimated scf accuracy    <       0.00001949 Ry

     iteration # 24     ecut=   124.00 Ry     beta= 0.70
     Davidson diagonalization with overlap
     ethr =  6.72E-08,  avg # of iterations =  2.0

     negative rho (up, down):  8.537E-04 0.000E+00

     total cpu time spent up to now is      649.0 secs

     total energy              =    -449.71673570 Ry
     estimated scf accuracy    <       0.00001576 Ry

     iteration # 25     ecut=   124.00 Ry     beta= 0.70
     Davidson diagonalization with overlap
     ethr =  5.44E-08,  avg # of iterations =  1.0

     negative rho (up, down):  8.536E-04 0.000E+00

     total cpu time spent up to now is      653.3 secs

     total energy              =    -449.71673665 Ry
     estimated scf accuracy    <       0.00000052 Ry

     iteration # 26     ecut=   124.00 Ry     beta= 0.70
     Davidson diagonalization with overlap
     ethr =  1.78E-09,  avg # of iterations =  3.7

     negative rho (up, down):  8.536E-04 0.000E+00

     total cpu time spent up to now is      658.7 secs

     total energy              =    -449.71673677 Ry
     estimated scf accuracy    <       0.00000003 Ry

     iteration # 27     ecut=   124.00 Ry     beta= 0.70
     Davidson diagonalization with overlap
     ethr =  8.78E-11,  avg # of iterations =  4.3

     negative rho (up, down):  8.537E-04 0.000E+00

     total cpu time spent up to now is      664.7 secs

     total energy              =    -449.71673678 Ry
     estimated scf accuracy    <          4.7E-09 Ry

     iteration # 28     ecut=   124.00 Ry     beta= 0.70
     Davidson diagonalization with overlap
     ethr =  1.62E-11,  avg # of iterations =  1.9

     negative rho (up, down):  8.537E-04 0.000E+00

     total cpu time spent up to now is      669.2 secs

     total energy              =    -449.71673678 Ry
     estimated scf accuracy    <          2.0E-09 Ry

     iteration # 29     ecut=   124.00 Ry     beta= 0.70
     Davidson diagonalization with overlap
     ethr =  6.77E-12,  avg # of iterations =  1.4

     negative rho (up, down):  8.537E-04 0.000E+00

     total cpu time spent up to now is      673.6 secs

     total energy              =    -449.71673678 Ry
     estimated scf accuracy    <          3.5E-10 Ry

     iteration # 30     ecut=   124.00 Ry     beta= 0.70
     Davidson diagonalization with overlap
     ethr =  1.21E-12,  avg # of iterations =  3.5

     negative rho (up, down):  8.537E-04 0.000E+00

     total cpu time spent up to now is      678.8 secs

     End of self-consistent calculation

     Number of k-points >= 100: set verbosity='high' to print the bands.

     the Fermi energy is    16.3257 ev

!    total energy              =    -449.71673678 Ry
     estimated scf accuracy    <          4.5E-11 Ry
     smearing contrib. (-TS)   =      -0.00002276 Ry
     internal energy E=F+TS    =    -449.71671402 Ry

     The total energy is F=E-TS. E is the sum of the following terms:
     one-electron contribution =    -160.40514301 Ry
     hartree contribution      =      95.81589788 Ry
     xc contribution           =     -53.64134226 Ry
     ewald contribution        =    -255.33520657 Ry
     one-center paw contrib.   =     -76.15092006 Ry

     convergence has been achieved in  30 iterations

     negative rho (up, down):  8.537E-04 0.000E+00

     Forces acting on atoms (cartesian axes, Ry/au):

     atom    1 type  1   force =     0.00000000    0.00000000    0.00000000
     atom    2 type  2   force =     0.00000000    0.00000000    0.00000000
     atom    3 type  3   force =     0.00000000    0.00000000    0.00000000

     Total force =     0.000000     Total SCF correction =     0.000000


     Computing stress (Cartesian axis) and pressure


     negative rho (up, down):  8.537E-04 0.000E+00
          total   stress  (Ry/bohr**3)                   (kbar)     P=        0.56
   0.00002333   0.00000000   0.00000000            3.43        0.00        0.00
   0.00000000  -0.00000596   0.00000000            0.00       -0.88        0.00
   0.00000000   0.00000000  -0.00000596            0.00        0.00       -0.88


     Writing all to output data dir ./TiFeH.save/ :
     XML data file
     init_run     :      5.73s CPU      5.94s WALL (       2 calls)
     electrons    :    616.82s CPU    642.05s WALL (      10 calls)
     update_pot   :      0.87s CPU      0.95s WALL (       8 calls)
     forces       :      4.77s CPU      5.13s WALL (      10 calls)
     stress       :     23.67s CPU     24.38s WALL (      10 calls)

     Called by init_run:
     wfcinit      :      3.57s CPU      3.67s WALL (       2 calls)
     potinit      :      0.71s CPU      0.74s WALL (       2 calls)
     hinit0       :      1.04s CPU      1.06s WALL (       2 calls)

     Called by electrons:
     c_bands      :    511.10s CPU    524.01s WALL (     122 calls)
     sum_band     :     78.24s CPU     85.72s WALL (     122 calls)
     v_of_rho     :      3.42s CPU      3.76s WALL (     129 calls)
     newd         :     17.26s CPU     21.06s WALL (     129 calls)
     PAW_pot      :      8.92s CPU      9.64s WALL (     137 calls)
     mix_rho      :      0.34s CPU      0.56s WALL (     122 calls)

     Called by c_bands:
     init_us_2    :     13.83s CPU     14.45s WALL (   78912 calls)
     cegterg      :    489.28s CPU    500.77s WALL (   35136 calls)

     Called by *egterg:
     cdiaghg      :     61.66s CPU     62.91s WALL (  157021 calls)
     h_psi        :    357.51s CPU    366.55s WALL (  160765 calls)
     s_psi        :     11.42s CPU     11.71s WALL (  160765 calls)
     g_psi        :      2.41s CPU      2.45s WALL (  125053 calls)

     Called by h_psi:
     h_psi:calbec :     16.68s CPU     17.11s WALL (  160765 calls)
     vloc_psi     :    326.95s CPU    335.20s WALL (  160765 calls)
     add_vuspsi   :     11.71s CPU     12.03s WALL (  160765 calls)

     General routines
     calbec       :     26.70s CPU     27.41s WALL (  247165 calls)
     fft          :      2.53s CPU      2.95s WALL (    1918 calls)
     ffts         :      0.51s CPU      0.53s WALL (     251 calls)
     fftw         :    273.61s CPU    280.17s WALL ( 4619592 calls)
     interpolate  :      0.64s CPU      0.71s WALL (     129 calls)

     Parallel routines

     PWSCF        :    654.83s CPU    682.05s WALL


   This run was terminated on:  22:45:57  15Nov2025            

=------------------------------------------------------------------------------=
   JOB DONE.
=------------------------------------------------------------------------------=
