
     Program PWSCF v.7.4 starts on 27Nov2025 at 13: 2: 8 

     This program is part of the open-source Quantum ESPRESSO suite
     for quantum simulation of materials; please cite
         "P. Giannozzi et al., J. Phys.:Condens. Matter 21 395502 (2009);
         "P. Giannozzi et al., J. Phys.:Condens. Matter 29 465901 (2017);
         "P. Giannozzi et al., J. Chem. Phys. 152 154105 (2020);
          URL http://www.quantum-espresso.org", 
     in publications or presentations arising from this work. More details at
     http://www.quantum-espresso.org/quote

     Parallel version (MPI & OpenMP), running on      16 processor cores
     Number of MPI processes:                16
     Threads/MPI process:                     1

     MPI processes distributed on     1 nodes
     266152 MiB available memory on the printing compute node when the environment starts

     Reading input from TiFe2H_cub_symm_int_1H.in
Warning: card / ignored

     Current dimensions of program PWSCF are:
     Max number of different atomic species (ntypx) = 10
     Max number of k-points (npk) =  40000
     Max angular momentum in pseudopotentials (lmaxx) =  4
     file Fe.pbe-spn-kjpaw_psl.0.2.1.UPF: wavefunction(s)  3D renormalized

     IMPORTANT: XC functional enforced from input :
     Exchange-correlation= PBE
                           (   1   4   3   4   0   0   0)
     Any further DFT definition will be discarded
     Please, verify this is what you really want


     R & G space division:  proc/nbgrp/npool/nimage =      16
     Subspace diagonalization in iterative solution of the eigenvalue problem:
     one sub-group per band group will be used
     ELPA distributed-memory algorithm (size of sub-group:  2*  2 procs)


     Parallelization info
     --------------------
     sticks:   dense  smooth     PW     G-vecs:    dense   smooth      PW
     Min        1407     402    106               158861    24246    3306
     Max        1408     403    107               158864    24249    3309
     Sum       22525    6433   1701              2541805   387947   52923

     Using Slab Decomposition



     bravais-lattice index     =            0
     lattice parameter (alat)  =      12.7659  a.u.
     unit-cell volume          =    2080.4419 (a.u.)^3
     number of atoms/cell      =           25
     number of atomic types    =            3
     number of electrons       =       353.00
     number of Kohn-Sham states=          212
     kinetic-energy cutoff     =     124.0000  Ry
     charge density cutoff     =    1736.0000  Ry
     scf convergence threshold =      1.0E-08
     mixing beta               =       0.2000
     number of iterations used =            8  local-TF  mixing
     energy convergence thresh.=      1.0E-04
     force convergence thresh. =      1.0E-03
     press convergence thresh. =      1.0E-01
     Exchange-correlation= PBE
                           (   1   4   3   4   0   0   0)
     nstep                     =           50


     celldm(1)=  12.765913  celldm(2)=   0.000000  celldm(3)=   0.000000
     celldm(4)=   0.000000  celldm(5)=   0.000000  celldm(6)=   0.000000

     crystal axes: (cart. coord. in units of alat)
               a(1) = (   1.000000   0.000000   0.000000 )  
               a(2) = (   0.000000   1.000000   0.000000 )  
               a(3) = (   0.000000   0.000000   1.000000 )  

     reciprocal axes: (cart. coord. in units 2 pi/alat)
               b(1) = (  1.000000  0.000000  0.000000 )  
               b(2) = (  0.000000  1.000000  0.000000 )  
               b(3) = (  0.000000  0.000000  1.000000 )  


     PseudoPot. # 1 for Fe read from file:
     ../../pseudos/Fe.pbe-spn-kjpaw_psl.0.2.1.UPF
     MD5 check sum: e86618425769142926afa95317d90200
     Pseudo is Projector augmented-wave + core cor, Zval = 16.0
     Generated using "atomic" code by A. Dal Corso  v.5.0.99 svn rev. 10869
     Shape of augmentation charge: PSQ
     Using radial grid of 1191 points,  6 beta functions with: 
                l(1) =   0
                l(2) =   0
                l(3) =   1
                l(4) =   1
                l(5) =   2
                l(6) =   2
     Q(r) pseudized with 0 coefficients 


     PseudoPot. # 2 for Ti read from file:
     ../../pseudos/ti_pbe_v1.4.uspp.F.UPF
     MD5 check sum: 88a00a6731bd790ddea75d31a80cb452
     Pseudo is Ultrasoft + core correction, Zval = 12.0
     Generated by new atomic code, or converted to UPF format
     Using radial grid of  851 points,  6 beta functions with: 
                l(1) =   0
                l(2) =   0
                l(3) =   1
                l(4) =   1
                l(5) =   2
                l(6) =   2
     Q(r) pseudized with  6 coefficients,  rinner =    1.000   1.000   1.000
                                                       1.000   1.000

     PseudoPot. # 3 for H  read from file:
     ../../pseudos/H.pbe-rrkjus_psl.1.0.0.UPF
     MD5 check sum: f52b6d4d1c606e5624b1dc7b2218f220
     Pseudo is Ultrasoft, Zval =  1.0
     Generated using "atomic" code by A. Dal Corso  v.5.1
     Using radial grid of  929 points,  2 beta functions with: 
                l(1) =   0
                l(2) =   0
     Q(r) pseudized with 0 coefficients 


     atomic species   valence    mass     pseudopotential
     Fe               16.00    55.84500     Fe( 1.00)
     Ti               12.00    47.86700     Ti( 1.00)
     H                 1.00     1.00750     H ( 1.00)

     Starting magnetic structure 
     atomic species   magnetization
     Fe              0.111
     Ti             -0.047
     H               0.000

     No symmetry found



   Cartesian axes

     site n.     atom                  positions (alat units)
         1        Fe     tau(   1) = (   0.1250000   0.1250000   0.6250000  )
         2        Fe     tau(   2) = (   0.6250000   0.6250000   0.6250000  )
         3        Fe     tau(   3) = (   0.8750000   0.6250000   0.8750000  )
         4        Fe     tau(   4) = (   0.3750000   0.8750000   0.1250000  )
         5        Fe     tau(   5) = (   0.1250000   0.6250000   0.1250000  )
         6        Fe     tau(   6) = (   0.6250000   0.1250000   0.1250000  )
         7        Fe     tau(   7) = (   0.8750000   0.3750000   0.1250000  )
         8        Fe     tau(   8) = (   0.3750000   0.6250000   0.3750000  )
         9        Fe     tau(   9) = (   0.6250000   0.3750000   0.3750000  )
        10        Fe     tau(  10) = (   0.6250000   0.8750000   0.8750000  )
        11        Fe     tau(  11) = (   0.3750000   0.1250000   0.8750000  )
        12        Fe     tau(  12) = (   0.8750000   0.8750000   0.6250000  )
        13        Fe     tau(  13) = (   0.3750000   0.3750000   0.6250000  )
        14        Fe     tau(  14) = (   0.8750000   0.1250000   0.3750000  )
        15        Fe     tau(  15) = (   0.1250000   0.3750000   0.8750000  )
        16        Fe     tau(  16) = (   0.1250000   0.8750000   0.3750000  )
        17        Ti     tau(  17) = (   0.0000000   0.0000000   0.0000000  )
        18        Ti     tau(  18) = (   0.7500000   0.7500000   0.2500000  )
        19        Ti     tau(  19) = (   0.5000000   0.0000000   0.5000000  )
        20        Ti     tau(  20) = (   0.7500000   0.2500000   0.7500000  )
        21        Ti     tau(  21) = (   0.0000000   0.5000000   0.5000000  )
        22        Ti     tau(  22) = (   0.2500000   0.2500000   0.2500000  )
        23        Ti     tau(  23) = (   0.2500000   0.7500000   0.7500000  )
        24        Ti     tau(  24) = (   0.5000000   0.5000000   0.0000000  )
        25        H      tau(  25) = (   0.3570000   0.7860000   0.5000000  )

     number of k points=    63  Marzari-Vanderbilt smearing, width (Ry)=  0.0050
                       cart. coord. in units 2pi/alat
        k(    1) = (   0.0000000   0.0000000   0.0000000), wk =   0.0080000
        k(    2) = (   0.0000000   0.0000000   0.2000000), wk =   0.0160000
        k(    3) = (   0.0000000   0.0000000   0.4000000), wk =   0.0160000
        k(    4) = (   0.0000000   0.2000000   0.2000000), wk =   0.0160000
        k(    5) = (   0.0000000   0.2000000   0.4000000), wk =   0.0160000
        k(    6) = (   0.0000000   0.4000000   0.4000000), wk =   0.0160000
        k(    7) = (   0.2000000   0.2000000   0.2000000), wk =   0.0160000
        k(    8) = (   0.2000000   0.2000000   0.4000000), wk =   0.0160000
        k(    9) = (   0.2000000   0.4000000   0.4000000), wk =   0.0160000
        k(   10) = (   0.4000000   0.4000000   0.4000000), wk =   0.0160000
        k(   11) = (   0.2000000   0.0000000   0.0000000), wk =   0.0160000
        k(   12) = (   0.0000000   0.2000000   0.0000000), wk =   0.0160000
        k(   13) = (   0.4000000   0.0000000   0.0000000), wk =   0.0160000
        k(   14) = (   0.0000000   0.4000000   0.0000000), wk =   0.0160000
        k(   15) = (   0.0000000  -0.2000000   0.2000000), wk =   0.0160000
        k(   16) = (   0.2000000   0.0000000  -0.2000000), wk =   0.0160000
        k(   17) = (  -0.2000000   0.0000000  -0.2000000), wk =   0.0160000
        k(   18) = (   0.2000000  -0.2000000   0.0000000), wk =   0.0160000
        k(   19) = (  -0.2000000  -0.2000000   0.0000000), wk =   0.0160000
        k(   20) = (   0.0000000  -0.2000000   0.4000000), wk =   0.0160000
        k(   21) = (   0.2000000   0.0000000  -0.4000000), wk =   0.0160000
        k(   22) = (  -0.2000000   0.0000000  -0.4000000), wk =   0.0160000
        k(   23) = (   0.4000000  -0.2000000   0.0000000), wk =   0.0160000
        k(   24) = (  -0.4000000  -0.2000000   0.0000000), wk =   0.0160000
        k(   25) = (   0.0000000   0.4000000   0.2000000), wk =   0.0160000
        k(   26) = (   0.0000000   0.4000000  -0.2000000), wk =   0.0160000
        k(   27) = (   0.2000000   0.4000000   0.0000000), wk =   0.0160000
        k(   28) = (  -0.2000000   0.4000000   0.0000000), wk =   0.0160000
        k(   29) = (   0.4000000   0.0000000   0.2000000), wk =   0.0160000
        k(   30) = (   0.4000000   0.0000000  -0.2000000), wk =   0.0160000
        k(   31) = (   0.0000000  -0.4000000   0.4000000), wk =   0.0160000
        k(   32) = (   0.4000000   0.0000000  -0.4000000), wk =   0.0160000
        k(   33) = (  -0.4000000   0.0000000  -0.4000000), wk =   0.0160000
        k(   34) = (   0.4000000  -0.4000000   0.0000000), wk =   0.0160000
        k(   35) = (  -0.4000000  -0.4000000   0.0000000), wk =   0.0160000
        k(   36) = (  -0.2000000  -0.2000000   0.2000000), wk =   0.0160000
        k(   37) = (  -0.2000000   0.2000000  -0.2000000), wk =   0.0160000
        k(   38) = (   0.2000000  -0.2000000  -0.2000000), wk =   0.0160000
        k(   39) = (  -0.2000000  -0.2000000   0.4000000), wk =   0.0160000
        k(   40) = (  -0.2000000   0.2000000  -0.4000000), wk =   0.0160000
        k(   41) = (   0.2000000  -0.2000000  -0.4000000), wk =   0.0160000
        k(   42) = (   0.4000000  -0.2000000   0.2000000), wk =   0.0160000
        k(   43) = (  -0.4000000  -0.2000000  -0.2000000), wk =   0.0160000
        k(   44) = (   0.4000000   0.2000000  -0.2000000), wk =   0.0160000
        k(   45) = (  -0.4000000   0.2000000   0.2000000), wk =   0.0160000
        k(   46) = (  -0.2000000   0.4000000   0.2000000), wk =   0.0160000
        k(   47) = (  -0.2000000  -0.4000000  -0.2000000), wk =   0.0160000
        k(   48) = (   0.2000000   0.4000000  -0.2000000), wk =   0.0160000
        k(   49) = (   0.2000000  -0.4000000   0.2000000), wk =   0.0160000
        k(   50) = (  -0.2000000  -0.4000000   0.4000000), wk =   0.0160000
        k(   51) = (  -0.2000000   0.4000000  -0.4000000), wk =   0.0160000
        k(   52) = (   0.2000000  -0.4000000  -0.4000000), wk =   0.0160000
        k(   53) = (   0.4000000   0.2000000  -0.4000000), wk =   0.0160000
        k(   54) = (  -0.4000000  -0.2000000  -0.4000000), wk =   0.0160000
        k(   55) = (   0.4000000  -0.2000000   0.4000000), wk =   0.0160000
        k(   56) = (  -0.4000000   0.2000000   0.4000000), wk =   0.0160000
        k(   57) = (   0.4000000  -0.4000000   0.2000000), wk =   0.0160000
        k(   58) = (  -0.4000000  -0.4000000  -0.2000000), wk =   0.0160000
        k(   59) = (   0.4000000   0.4000000  -0.2000000), wk =   0.0160000
        k(   60) = (  -0.4000000   0.4000000   0.2000000), wk =   0.0160000
        k(   61) = (  -0.4000000  -0.4000000   0.4000000), wk =   0.0160000
        k(   62) = (  -0.4000000   0.4000000  -0.4000000), wk =   0.0160000
        k(   63) = (   0.4000000  -0.4000000  -0.4000000), wk =   0.0160000

     Dense  grid:  2541805 G-vectors     FFT dimensions: ( 180, 180, 180)

     Smooth grid:   387947 G-vectors     FFT dimensions: (  96,  96,  96)

     Estimated max dynamical RAM per process >       1.97 GB

     Estimated total dynamical RAM >      31.48 GB

     Check: negative core charge=   -0.000002
     Generating pointlists ...
     new r_m :   0.0844 (alat units)  1.0775 (a.u.) for type    1
     new r_m :   0.1062 (alat units)  1.3554 (a.u.) for type    2
     new r_m :   0.0844 (alat units)  1.0775 (a.u.) for type    3

     Initial potential from superposition of free atoms

     starting charge     344.9926, renormalised to     353.0000

     negative rho (up, down):  4.939E-03 5.482E-03
     Starting wfcs are  289 randomized atomic wfcs
     Checking if some PAW data can be deallocated... 

     total cpu time spent up to now is      104.6 secs

     per-process dynamical memory:  1553.5 Mb

     Self-consistent Calculation

     iteration #  1     ecut=   124.00 Ry     beta= 0.20
     CG style diagonalization
     ethr =  1.00E-02,  avg # of iterations =  2.6

     negative rho (up, down):  1.944E-03 1.874E-03

     total cpu time spent up to now is     2124.9 secs

     total energy              =   -6212.55912296 Ry
     estimated scf accuracy    <     239.22899843 Ry

     total magnetization       =     9.74 Bohr mag/cell
     absolute magnetization    =    14.58 Bohr mag/cell

     iteration #  2     ecut=   124.00 Ry     beta= 0.20
     CG style diagonalization
     ethr =  1.00E-02,  avg # of iterations =  3.3

     negative rho (up, down):  2.509E-03 2.180E-03

     total cpu time spent up to now is     4003.8 secs

     total energy              =   -6223.34957815 Ry
     estimated scf accuracy    <       4.74637094 Ry

     total magnetization       =    10.60 Bohr mag/cell
     absolute magnetization    =    16.14 Bohr mag/cell

     iteration #  3     ecut=   124.00 Ry     beta= 0.20
     CG style diagonalization
     c_bands:  1 eigenvalues not converged
     ethr =  1.34E-03,  avg # of iterations =  3.4

     negative rho (up, down):  3.749E-03 3.007E-03

     total cpu time spent up to now is     5978.8 secs

     total energy              =   -6223.54634700 Ry
     estimated scf accuracy    <       1.65010643 Ry

     total magnetization       =    11.49 Bohr mag/cell
     absolute magnetization    =    17.19 Bohr mag/cell

     iteration #  4     ecut=   124.00 Ry     beta= 0.20
     CG style diagonalization
     c_bands:  1 eigenvalues not converged
     c_bands:  1 eigenvalues not converged
     c_bands:  1 eigenvalues not converged
     c_bands:  3 eigenvalues not converged
     c_bands:  2 eigenvalues not converged
     c_bands:  1 eigenvalues not converged
     c_bands:  1 eigenvalues not converged
     c_bands:  1 eigenvalues not converged
     c_bands:  1 eigenvalues not converged
     c_bands:  1 eigenvalues not converged
     c_bands:  1 eigenvalues not converged
     c_bands:  1 eigenvalues not converged
     c_bands:  2 eigenvalues not converged
     c_bands:  1 eigenvalues not converged
     c_bands:  2 eigenvalues not converged
     c_bands:  2 eigenvalues not converged
     c_bands:  1 eigenvalues not converged
     c_bands:  2 eigenvalues not converged
     c_bands:  1 eigenvalues not converged
     c_bands:  1 eigenvalues not converged
     c_bands:  1 eigenvalues not converged
     c_bands:  1 eigenvalues not converged
     c_bands:  1 eigenvalues not converged
     c_bands:  1 eigenvalues not converged
     c_bands:  1 eigenvalues not converged
     c_bands:  2 eigenvalues not converged
     c_bands:  1 eigenvalues not converged
     c_bands:  1 eigenvalues not converged
     c_bands:  1 eigenvalues not converged
     c_bands:  1 eigenvalues not converged
     c_bands:  1 eigenvalues not converged
     ethr =  4.67E-04,  avg # of iterations =  4.3

     negative rho (up, down):  4.354E-03 3.265E-03

     total cpu time spent up to now is     8684.0 secs

     total energy              =   -6223.80500760 Ry
     estimated scf accuracy    <       0.34504282 Ry

     total magnetization       =    14.72 Bohr mag/cell
     absolute magnetization    =    21.04 Bohr mag/cell

     iteration #  5     ecut=   124.00 Ry     beta= 0.20
     CG style diagonalization
     c_bands:  4 eigenvalues not converged
     c_bands:  5 eigenvalues not converged
     c_bands:  2 eigenvalues not converged
     c_bands:  3 eigenvalues not converged
     c_bands:  3 eigenvalues not converged
     c_bands:  2 eigenvalues not converged
     c_bands:  2 eigenvalues not converged
     c_bands:  3 eigenvalues not converged
     c_bands:  1 eigenvalues not converged
     c_bands:  5 eigenvalues not converged
     c_bands:  1 eigenvalues not converged
     c_bands:  1 eigenvalues not converged
     c_bands:  1 eigenvalues not converged
     c_bands:  1 eigenvalues not converged
     c_bands:  2 eigenvalues not converged
     c_bands:  1 eigenvalues not converged
     c_bands:  2 eigenvalues not converged
     c_bands:  2 eigenvalues not converged
     c_bands:  1 eigenvalues not converged
     c_bands:  1 eigenvalues not converged
     c_bands:  2 eigenvalues not converged
     c_bands:  1 eigenvalues not converged
     c_bands:  1 eigenvalues not converged
     c_bands:  2 eigenvalues not converged
     c_bands:  2 eigenvalues not converged
     c_bands:  2 eigenvalues not converged
     c_bands:  2 eigenvalues not converged
     c_bands:  2 eigenvalues not converged
     c_bands:  3 eigenvalues not converged
     c_bands:  2 eigenvalues not converged
     c_bands:  2 eigenvalues not converged
     c_bands:  4 eigenvalues not converged
     c_bands:  3 eigenvalues not converged
     c_bands:  3 eigenvalues not converged
     c_bands:  3 eigenvalues not converged
     c_bands:  2 eigenvalues not converged
     c_bands:  4 eigenvalues not converged
     c_bands:  4 eigenvalues not converged
     c_bands:  3 eigenvalues not converged
     c_bands:  1 eigenvalues not converged
     c_bands:  3 eigenvalues not converged
     c_bands:  2 eigenvalues not converged
     c_bands:  4 eigenvalues not converged
     c_bands:  4 eigenvalues not converged
     c_bands:  2 eigenvalues not converged
     c_bands:  3 eigenvalues not converged
     c_bands:  4 eigenvalues not converged
     c_bands:  2 eigenvalues not converged
     c_bands:  4 eigenvalues not converged
     c_bands:  3 eigenvalues not converged
     c_bands:  1 eigenvalues not converged
     c_bands:  4 eigenvalues not converged
     c_bands:  1 eigenvalues not converged
     c_bands:  4 eigenvalues not converged
     c_bands:  3 eigenvalues not converged
     c_bands:  4 eigenvalues not converged
     c_bands:  2 eigenvalues not converged
     c_bands:  4 eigenvalues not converged
     c_bands:  1 eigenvalues not converged
     c_bands:  1 eigenvalues not converged
     c_bands:  1 eigenvalues not converged
     c_bands:  2 eigenvalues not converged
     c_bands:  2 eigenvalues not converged
     c_bands:  1 eigenvalues not converged
     c_bands:  5 eigenvalues not converged
     c_bands:  1 eigenvalues not converged
     c_bands:  1 eigenvalues not converged
     c_bands:  3 eigenvalues not converged
     c_bands:  3 eigenvalues not converged
     c_bands:  2 eigenvalues not converged
     c_bands:  4 eigenvalues not converged
     c_bands:  3 eigenvalues not converged
     c_bands:  1 eigenvalues not converged
     c_bands:  2 eigenvalues not converged
     c_bands:  4 eigenvalues not converged
     c_bands:  2 eigenvalues not converged
     c_bands:  1 eigenvalues not converged
     c_bands:  2 eigenvalues not converged
     c_bands:  2 eigenvalues not converged
     c_bands:  5 eigenvalues not converged
     c_bands:  1 eigenvalues not converged
     c_bands:  2 eigenvalues not converged
     c_bands:  2 eigenvalues not converged
     c_bands:  1 eigenvalues not converged
     c_bands:  1 eigenvalues not converged
     c_bands:  1 eigenvalues not converged
     c_bands:  2 eigenvalues not converged
     c_bands:  1 eigenvalues not converged
     c_bands:  1 eigenvalues not converged
     c_bands:  2 eigenvalues not converged
     c_bands:  1 eigenvalues not converged
     c_bands:  3 eigenvalues not converged
     c_bands:  1 eigenvalues not converged
     c_bands:  3 eigenvalues not converged
     c_bands:  2 eigenvalues not converged
     c_bands:  2 eigenvalues not converged
     c_bands:  1 eigenvalues not converged
     c_bands:  4 eigenvalues not converged
     c_bands:  1 eigenvalues not converged
     ethr =  9.77E-05,  avg # of iterations =  4.3

     negative rho (up, down):  4.512E-03 3.235E-03

     total cpu time spent up to now is    11293.7 secs

     total energy              =   -6223.90706503 Ry
     estimated scf accuracy    <       0.08921177 Ry

     total magnetization       =    15.33 Bohr mag/cell
     absolute magnetization    =    22.72 Bohr mag/cell

     iteration #  6     ecut=   124.00 Ry     beta= 0.20
     CG style diagonalization
     c_bands:  3 eigenvalues not converged
     c_bands:  4 eigenvalues not converged
     c_bands:  4 eigenvalues not converged
     c_bands:  4 eigenvalues not converged
     c_bands:  3 eigenvalues not converged
     c_bands:  2 eigenvalues not converged
     c_bands:  1 eigenvalues not converged
     c_bands:  2 eigenvalues not converged
     c_bands:  4 eigenvalues not converged
     c_bands:  5 eigenvalues not converged
     c_bands:  3 eigenvalues not converged
     c_bands:  2 eigenvalues not converged
     c_bands:  3 eigenvalues not converged
     c_bands:  1 eigenvalues not converged
     c_bands:  3 eigenvalues not converged
     c_bands:  1 eigenvalues not converged
     c_bands:  2 eigenvalues not converged
     c_bands:  2 eigenvalues not converged
     c_bands:  1 eigenvalues not converged
     c_bands:  2 eigenvalues not converged
     c_bands:  1 eigenvalues not converged
     c_bands:  1 eigenvalues not converged
     c_bands:  2 eigenvalues not converged
     c_bands:  1 eigenvalues not converged
     c_bands:  1 eigenvalues not converged
     c_bands:  2 eigenvalues not converged
     c_bands:  3 eigenvalues not converged
     c_bands:  4 eigenvalues not converged
     c_bands:  4 eigenvalues not converged
     c_bands:  3 eigenvalues not converged
     c_bands:  1 eigenvalues not converged
     c_bands:  1 eigenvalues not converged
     c_bands:  3 eigenvalues not converged
     c_bands:  2 eigenvalues not converged
     c_bands:  1 eigenvalues not converged
     c_bands:  3 eigenvalues not converged
     c_bands:  2 eigenvalues not converged
     c_bands:  3 eigenvalues not converged
     c_bands:  3 eigenvalues not converged
     c_bands:  5 eigenvalues not converged
     c_bands:  1 eigenvalues not converged
     c_bands:  1 eigenvalues not converged
     c_bands:  2 eigenvalues not converged
     c_bands:  2 eigenvalues not converged
     c_bands:  3 eigenvalues not converged
     c_bands:  4 eigenvalues not converged
     c_bands:  2 eigenvalues not converged
     c_bands:  4 eigenvalues not converged
     c_bands:  4 eigenvalues not converged
     c_bands:  3 eigenvalues not converged
     c_bands:  4 eigenvalues not converged
     c_bands:  1 eigenvalues not converged
     c_bands:  3 eigenvalues not converged
     c_bands:  4 eigenvalues not converged
     c_bands:  2 eigenvalues not converged
     c_bands:  4 eigenvalues not converged
     c_bands:  3 eigenvalues not converged
     c_bands:  3 eigenvalues not converged
     c_bands:  1 eigenvalues not converged
     c_bands:  2 eigenvalues not converged
     c_bands:  1 eigenvalues not converged
     c_bands:  2 eigenvalues not converged
     c_bands:  3 eigenvalues not converged
     c_bands:  1 eigenvalues not converged
     c_bands:  3 eigenvalues not converged
     c_bands:  4 eigenvalues not converged
     c_bands:  1 eigenvalues not converged
     c_bands:  2 eigenvalues not converged
     c_bands:  1 eigenvalues not converged
     c_bands:  1 eigenvalues not converged
     c_bands:  3 eigenvalues not converged
     c_bands:  3 eigenvalues not converged
     c_bands:  1 eigenvalues not converged
     c_bands:  4 eigenvalues not converged
     c_bands:  4 eigenvalues not converged
     c_bands:  2 eigenvalues not converged
     c_bands:  2 eigenvalues not converged
     c_bands:  2 eigenvalues not converged
     c_bands:  1 eigenvalues not converged
     c_bands:  4 eigenvalues not converged
     c_bands:  4 eigenvalues not converged
     c_bands:  1 eigenvalues not converged
     c_bands:  2 eigenvalues not converged
     c_bands:  2 eigenvalues not converged
     c_bands:  1 eigenvalues not converged
     c_bands:  2 eigenvalues not converged
     c_bands:  3 eigenvalues not converged
     c_bands:  2 eigenvalues not converged
     c_bands:  3 eigenvalues not converged
     c_bands:  3 eigenvalues not converged
     c_bands:  2 eigenvalues not converged
     c_bands:  4 eigenvalues not converged
     c_bands:  2 eigenvalues not converged
     c_bands:  2 eigenvalues not converged
     c_bands:  1 eigenvalues not converged
     c_bands:  2 eigenvalues not converged
     c_bands:  2 eigenvalues not converged
     c_bands:  4 eigenvalues not converged
     c_bands:  2 eigenvalues not converged
     c_bands:  1 eigenvalues not converged
     c_bands:  2 eigenvalues not converged
     c_bands:  2 eigenvalues not converged
     c_bands:  2 eigenvalues not converged
     c_bands:  1 eigenvalues not converged
     c_bands:  1 eigenvalues not converged
     c_bands:  4 eigenvalues not converged
     c_bands:  4 eigenvalues not converged
     c_bands:  3 eigenvalues not converged
     c_bands:  2 eigenvalues not converged
     ethr =  2.53E-05,  avg # of iterations =  4.5

     negative rho (up, down):  4.551E-03 3.119E-03

     total cpu time spent up to now is    14044.6 secs

     total energy              =   -6223.93949835 Ry
     estimated scf accuracy    <       0.04367660 Ry

     total magnetization       =    15.49 Bohr mag/cell
     absolute magnetization    =    23.15 Bohr mag/cell

     iteration #  7     ecut=   124.00 Ry     beta= 0.20
     CG style diagonalization
     c_bands:  2 eigenvalues not converged
     c_bands:  4 eigenvalues not converged
     c_bands:  3 eigenvalues not converged
     c_bands:  1 eigenvalues not converged
     c_bands:  1 eigenvalues not converged
     c_bands:  1 eigenvalues not converged
     c_bands:  2 eigenvalues not converged
     c_bands:  5 eigenvalues not converged
     c_bands:  2 eigenvalues not converged
     c_bands:  1 eigenvalues not converged
     c_bands:  1 eigenvalues not converged
     c_bands:  3 eigenvalues not converged
     c_bands:  2 eigenvalues not converged
     c_bands:  1 eigenvalues not converged
     c_bands:  1 eigenvalues not converged
     c_bands:  1 eigenvalues not converged
     c_bands:  2 eigenvalues not converged
     c_bands:  2 eigenvalues not converged
     c_bands:  1 eigenvalues not converged
     c_bands:  1 eigenvalues not converged
     c_bands:  2 eigenvalues not converged
     c_bands:  1 eigenvalues not converged
     c_bands:  1 eigenvalues not converged
     c_bands:  1 eigenvalues not converged
     c_bands:  1 eigenvalues not converged
     c_bands:  1 eigenvalues not converged
     c_bands:  3 eigenvalues not converged
     c_bands:  1 eigenvalues not converged
     c_bands:  1 eigenvalues not converged
     c_bands:  3 eigenvalues not converged
     c_bands:  1 eigenvalues not converged
     c_bands:  3 eigenvalues not converged
     c_bands:  2 eigenvalues not converged
     c_bands:  1 eigenvalues not converged
     c_bands:  1 eigenvalues not converged
     c_bands:  2 eigenvalues not converged
     c_bands:  1 eigenvalues not converged
     c_bands:  1 eigenvalues not converged
     c_bands:  1 eigenvalues not converged
     c_bands:  2 eigenvalues not converged
     c_bands:  1 eigenvalues not converged
     c_bands:  5 eigenvalues not converged
     c_bands:  2 eigenvalues not converged
     c_bands:  2 eigenvalues not converged
     c_bands:  3 eigenvalues not converged
     c_bands:  5 eigenvalues not converged
     c_bands:  5 eigenvalues not converged
     c_bands:  1 eigenvalues not converged
     c_bands:  1 eigenvalues not converged
     c_bands:  1 eigenvalues not converged
     c_bands:  1 eigenvalues not converged
     c_bands:  2 eigenvalues not converged
     c_bands:  2 eigenvalues not converged
     c_bands:  1 eigenvalues not converged
     c_bands:  2 eigenvalues not converged
     c_bands:  3 eigenvalues not converged
     c_bands:  1 eigenvalues not converged
     c_bands:  1 eigenvalues not converged
     c_bands:  1 eigenvalues not converged
     c_bands:  3 eigenvalues not converged
     c_bands:  3 eigenvalues not converged
     c_bands:  1 eigenvalues not converged
     c_bands:  1 eigenvalues not converged
     c_bands:  1 eigenvalues not converged
     c_bands:  1 eigenvalues not converged
     c_bands:  1 eigenvalues not converged
     c_bands:  2 eigenvalues not converged
     c_bands:  3 eigenvalues not converged
     c_bands:  3 eigenvalues not converged
     c_bands:  2 eigenvalues not converged
     c_bands:  2 eigenvalues not converged
     c_bands:  1 eigenvalues not converged
     c_bands:  1 eigenvalues not converged
     c_bands:  3 eigenvalues not converged
     c_bands:  2 eigenvalues not converged
     c_bands:  3 eigenvalues not converged
     c_bands:  2 eigenvalues not converged
     c_bands:  3 eigenvalues not converged
     c_bands:  1 eigenvalues not converged
     c_bands:  1 eigenvalues not converged
     c_bands:  1 eigenvalues not converged
     c_bands:  1 eigenvalues not converged
     c_bands:  1 eigenvalues not converged
     c_bands:  1 eigenvalues not converged
     c_bands:  1 eigenvalues not converged
     c_bands:  1 eigenvalues not converged
     c_bands:  1 eigenvalues not converged
     c_bands:  1 eigenvalues not converged
     c_bands:  4 eigenvalues not converged
     c_bands:  1 eigenvalues not converged
     c_bands:  3 eigenvalues not converged
     ethr =  1.24E-05,  avg # of iterations =  4.4

     negative rho (up, down):  4.555E-03 2.996E-03

     total cpu time spent up to now is    16708.1 secs

     total energy              =   -6223.96083995 Ry
     estimated scf accuracy    <       0.03731783 Ry

     total magnetization       =    15.76 Bohr mag/cell
     absolute magnetization    =    23.63 Bohr mag/cell

     iteration #  8     ecut=   124.00 Ry     beta= 0.20
     CG style diagonalization
     c_bands:  1 eigenvalues not converged
     c_bands:  2 eigenvalues not converged
     c_bands:  1 eigenvalues not converged
     c_bands:  1 eigenvalues not converged
     c_bands:  1 eigenvalues not converged
     c_bands:  1 eigenvalues not converged
     c_bands:  1 eigenvalues not converged
     c_bands:  1 eigenvalues not converged
     c_bands:  1 eigenvalues not converged
     c_bands:  1 eigenvalues not converged
     c_bands:  1 eigenvalues not converged
     c_bands:  1 eigenvalues not converged
     c_bands:  1 eigenvalues not converged
     c_bands:  1 eigenvalues not converged
     c_bands:  1 eigenvalues not converged
     c_bands:  1 eigenvalues not converged
     c_bands:  1 eigenvalues not converged
     c_bands:  2 eigenvalues not converged
     c_bands:  1 eigenvalues not converged
     c_bands:  1 eigenvalues not converged
     c_bands:  1 eigenvalues not converged
     c_bands:  1 eigenvalues not converged
     c_bands:  1 eigenvalues not converged
     c_bands:  1 eigenvalues not converged
     c_bands:  2 eigenvalues not converged
     c_bands:  2 eigenvalues not converged
     c_bands:  1 eigenvalues not converged
     c_bands:  1 eigenvalues not converged
     c_bands:  2 eigenvalues not converged
     c_bands:  1 eigenvalues not converged
     c_bands:  1 eigenvalues not converged
     c_bands:  1 eigenvalues not converged
     c_bands:  2 eigenvalues not converged
     c_bands:  1 eigenvalues not converged
     c_bands:  1 eigenvalues not converged
     c_bands:  2 eigenvalues not converged
     c_bands:  1 eigenvalues not converged
     c_bands:  2 eigenvalues not converged
     c_bands:  1 eigenvalues not converged
     c_bands:  1 eigenvalues not converged
     ethr =  1.06E-05,  avg # of iterations =  3.3

     negative rho (up, down):  4.709E-03 2.502E-03

     total cpu time spent up to now is    18575.0 secs

     total energy              =   -6223.97079572 Ry
     estimated scf accuracy    <       0.03118486 Ry

     total magnetization       =    16.10 Bohr mag/cell
     absolute magnetization    =    24.14 Bohr mag/cell

     iteration #  9     ecut=   124.00 Ry     beta= 0.20
     CG style diagonalization
     c_bands:  1 eigenvalues not converged
     c_bands:  1 eigenvalues not converged
     c_bands:  1 eigenvalues not converged
     c_bands:  1 eigenvalues not converged
     c_bands:  1 eigenvalues not converged
     c_bands:  1 eigenvalues not converged
     c_bands:  1 eigenvalues not converged
     c_bands:  1 eigenvalues not converged
     c_bands:  1 eigenvalues not converged
     c_bands:  2 eigenvalues not converged
     c_bands:  1 eigenvalues not converged
     c_bands:  1 eigenvalues not converged
     c_bands:  1 eigenvalues not converged
     ethr =  8.83E-06,  avg # of iterations =  3.5

     negative rho (up, down):  4.789E-03 2.483E-03

     total cpu time spent up to now is    20611.2 secs

     total energy              =   -6223.98245682 Ry
     estimated scf accuracy    <       0.01640656 Ry

     total magnetization       =    17.54 Bohr mag/cell
     absolute magnetization    =    26.76 Bohr mag/cell

     iteration # 10     ecut=   124.00 Ry     beta= 0.20
     CG style diagonalization
     c_bands:  2 eigenvalues not converged
     c_bands:  2 eigenvalues not converged
     c_bands:  2 eigenvalues not converged
     c_bands:  2 eigenvalues not converged
     c_bands:  1 eigenvalues not converged
     c_bands:  2 eigenvalues not converged
     c_bands:  1 eigenvalues not converged
     c_bands:  1 eigenvalues not converged
     c_bands:  1 eigenvalues not converged
     c_bands:  1 eigenvalues not converged
     c_bands:  1 eigenvalues not converged
     c_bands:  1 eigenvalues not converged
     c_bands:  1 eigenvalues not converged
     c_bands:  2 eigenvalues not converged
     c_bands:  1 eigenvalues not converged
     c_bands:  1 eigenvalues not converged
     c_bands:  1 eigenvalues not converged
     c_bands:  1 eigenvalues not converged
     c_bands:  1 eigenvalues not converged
     c_bands:  1 eigenvalues not converged
     c_bands:  1 eigenvalues not converged
     c_bands:  1 eigenvalues not converged
     c_bands:  1 eigenvalues not converged
     c_bands:  1 eigenvalues not converged
     c_bands:  1 eigenvalues not converged
     c_bands:  1 eigenvalues not converged
     c_bands:  1 eigenvalues not converged
     c_bands:  1 eigenvalues not converged
     c_bands:  1 eigenvalues not converged
     c_bands:  1 eigenvalues not converged
     c_bands:  1 eigenvalues not converged
     ethr =  4.65E-06,  avg # of iterations =  3.3

     negative rho (up, down):  4.983E-03 2.261E-03

     total cpu time spent up to now is    22490.8 secs

     total energy              =   -6223.98888885 Ry
     estimated scf accuracy    <       0.01224722 Ry

     total magnetization       =    17.78 Bohr mag/cell
     absolute magnetization    =    27.23 Bohr mag/cell

     iteration # 11     ecut=   124.00 Ry     beta= 0.20
     CG style diagonalization
     c_bands:  2 eigenvalues not converged
     c_bands:  2 eigenvalues not converged
     c_bands:  1 eigenvalues not converged
     c_bands:  1 eigenvalues not converged
     c_bands:  1 eigenvalues not converged
     c_bands:  1 eigenvalues not converged
     c_bands:  1 eigenvalues not converged
     c_bands:  1 eigenvalues not converged
     c_bands:  3 eigenvalues not converged
     c_bands:  1 eigenvalues not converged
     c_bands:  1 eigenvalues not converged
     c_bands:  1 eigenvalues not converged
     c_bands:  1 eigenvalues not converged
     c_bands:  1 eigenvalues not converged
     c_bands:  1 eigenvalues not converged
     c_bands:  2 eigenvalues not converged
     c_bands:  1 eigenvalues not converged
     c_bands:  1 eigenvalues not converged
     c_bands:  1 eigenvalues not converged
     c_bands:  1 eigenvalues not converged
     c_bands:  1 eigenvalues not converged
     c_bands:  1 eigenvalues not converged
     c_bands:  2 eigenvalues not converged
     c_bands:  1 eigenvalues not converged
     c_bands:  1 eigenvalues not converged
     c_bands:  1 eigenvalues not converged
     c_bands:  1 eigenvalues not converged
     c_bands:  3 eigenvalues not converged
     c_bands:  1 eigenvalues not converged
     c_bands:  1 eigenvalues not converged
     c_bands:  2 eigenvalues not converged
     c_bands:  1 eigenvalues not converged
     c_bands:  1 eigenvalues not converged
     c_bands:  1 eigenvalues not converged
     c_bands:  1 eigenvalues not converged
     c_bands:  1 eigenvalues not converged
     c_bands:  1 eigenvalues not converged
     c_bands:  1 eigenvalues not converged
     c_bands:  1 eigenvalues not converged
     c_bands:  1 eigenvalues not converged
     c_bands:  2 eigenvalues not converged
     c_bands:  1 eigenvalues not converged
     c_bands:  2 eigenvalues not converged
     ethr =  3.47E-06,  avg # of iterations =  3.8

     negative rho (up, down):  4.910E-03 2.351E-03

     total cpu time spent up to now is    24792.8 secs

     total energy              =   -6223.98970078 Ry
     estimated scf accuracy    <       0.00973333 Ry

     total magnetization       =    19.29 Bohr mag/cell
     absolute magnetization    =    29.69 Bohr mag/cell

     iteration # 12     ecut=   124.00 Ry     beta= 0.20
     CG style diagonalization
     c_bands:  1 eigenvalues not converged
     c_bands:  3 eigenvalues not converged
     c_bands:  1 eigenvalues not converged
     c_bands:  1 eigenvalues not converged
     c_bands:  1 eigenvalues not converged
     c_bands:  1 eigenvalues not converged
     c_bands:  1 eigenvalues not converged
     c_bands:  2 eigenvalues not converged
     c_bands:  1 eigenvalues not converged
     c_bands:  1 eigenvalues not converged
     c_bands:  1 eigenvalues not converged
     c_bands:  1 eigenvalues not converged
     c_bands:  1 eigenvalues not converged
     c_bands:  1 eigenvalues not converged
     c_bands:  1 eigenvalues not converged
     c_bands:  1 eigenvalues not converged
     ethr =  2.76E-06,  avg # of iterations =  3.3

     negative rho (up, down):  5.014E-03 2.303E-03

     total cpu time spent up to now is    26652.1 secs

     total energy              =   -6223.99520221 Ry
     estimated scf accuracy    <       0.01029082 Ry

     total magnetization       =    18.54 Bohr mag/cell
     absolute magnetization    =    28.59 Bohr mag/cell

     iteration # 13     ecut=   124.00 Ry     beta= 0.20
     CG style diagonalization
     c_bands:  1 eigenvalues not converged
     c_bands:  1 eigenvalues not converged
     c_bands:  1 eigenvalues not converged
     c_bands:  1 eigenvalues not converged
     c_bands:  1 eigenvalues not converged
     c_bands:  1 eigenvalues not converged
     c_bands:  1 eigenvalues not converged
     c_bands:  2 eigenvalues not converged
     c_bands:  1 eigenvalues not converged
     c_bands:  1 eigenvalues not converged
     c_bands:  1 eigenvalues not converged
     c_bands:  1 eigenvalues not converged
     c_bands:  1 eigenvalues not converged
     ethr =  2.76E-06,  avg # of iterations =  3.5

     negative rho (up, down):  5.185E-03 2.190E-03

     total cpu time spent up to now is    28706.3 secs

     total energy              =   -6224.00425677 Ry
     estimated scf accuracy    <       0.00651823 Ry

     total magnetization       =    20.52 Bohr mag/cell
     absolute magnetization    =    31.13 Bohr mag/cell

     iteration # 14     ecut=   124.00 Ry     beta= 0.20
     CG style diagonalization
     c_bands:  1 eigenvalues not converged
     c_bands:  1 eigenvalues not converged
     c_bands:  1 eigenvalues not converged
     c_bands:  2 eigenvalues not converged
     c_bands:  1 eigenvalues not converged
     c_bands:  3 eigenvalues not converged
     c_bands:  1 eigenvalues not converged
     c_bands:  1 eigenvalues not converged
     c_bands:  1 eigenvalues not converged
     c_bands:  1 eigenvalues not converged
     c_bands:  2 eigenvalues not converged
     c_bands:  3 eigenvalues not converged
     c_bands:  1 eigenvalues not converged
     c_bands:  1 eigenvalues not converged
     c_bands:  1 eigenvalues not converged
     c_bands:  1 eigenvalues not converged
     c_bands:  2 eigenvalues not converged
     c_bands:  2 eigenvalues not converged
     c_bands:  1 eigenvalues not converged
     c_bands:  1 eigenvalues not converged
     c_bands:  2 eigenvalues not converged
     c_bands:  2 eigenvalues not converged
     c_bands:  1 eigenvalues not converged
     c_bands:  1 eigenvalues not converged
     c_bands:  2 eigenvalues not converged
     c_bands:  1 eigenvalues not converged
     c_bands:  1 eigenvalues not converged
     c_bands:  2 eigenvalues not converged
     c_bands:  1 eigenvalues not converged
     c_bands:  2 eigenvalues not converged
     c_bands:  1 eigenvalues not converged
     c_bands:  1 eigenvalues not converged
     c_bands:  1 eigenvalues not converged
     ethr =  1.85E-06,  avg # of iterations =  4.2

     negative rho (up, down):  5.170E-03 2.280E-03

     total cpu time spent up to now is    31275.1 secs

     total energy              =   -6224.00912627 Ry
     estimated scf accuracy    <       0.00245520 Ry

     total magnetization       =    21.88 Bohr mag/cell
     absolute magnetization    =    33.40 Bohr mag/cell

     iteration # 15     ecut=   124.00 Ry     beta= 0.20
     CG style diagonalization
     c_bands:  2 eigenvalues not converged
     c_bands:  4 eigenvalues not converged
     c_bands:  1 eigenvalues not converged
     c_bands:  1 eigenvalues not converged
     c_bands:  1 eigenvalues not converged
     c_bands:  1 eigenvalues not converged
     c_bands:  1 eigenvalues not converged
     c_bands:  1 eigenvalues not converged
     c_bands:  1 eigenvalues not converged
     c_bands:  1 eigenvalues not converged
     ethr =  6.96E-07,  avg # of iterations =  3.6

     negative rho (up, down):  5.213E-03 2.284E-03

     total cpu time spent up to now is    33408.8 secs

     total energy              =   -6224.01179590 Ry
     estimated scf accuracy    <       0.00306778 Ry

     total magnetization       =    21.49 Bohr mag/cell
     absolute magnetization    =    32.65 Bohr mag/cell

     iteration # 16     ecut=   124.00 Ry     beta= 0.20
     CG style diagonalization
     c_bands:  1 eigenvalues not converged
     c_bands:  1 eigenvalues not converged
     c_bands:  1 eigenvalues not converged
     c_bands:  1 eigenvalues not converged
     c_bands:  1 eigenvalues not converged
     c_bands:  1 eigenvalues not converged
     ethr =  6.96E-07,  avg # of iterations =  3.2

     negative rho (up, down):  5.274E-03 2.200E-03

     total cpu time spent up to now is    35201.2 secs

     total energy              =   -6224.01330698 Ry
     estimated scf accuracy    <       0.00219126 Ry

     total magnetization       =    21.81 Bohr mag/cell
     absolute magnetization    =    33.05 Bohr mag/cell

     iteration # 17     ecut=   124.00 Ry     beta= 0.20
     CG style diagonalization
     c_bands:  1 eigenvalues not converged
     c_bands:  1 eigenvalues not converged
     c_bands:  1 eigenvalues not converged
     ethr =  6.21E-07,  avg # of iterations =  3.5

     negative rho (up, down):  5.329E-03 2.141E-03

     total cpu time spent up to now is    37201.0 secs

     total energy              =   -6224.01448678 Ry
     estimated scf accuracy    <       0.00085173 Ry

     total magnetization       =    22.27 Bohr mag/cell
     absolute magnetization    =    33.80 Bohr mag/cell

     iteration # 18     ecut=   124.00 Ry     beta= 0.20
     CG style diagonalization
     c_bands:  1 eigenvalues not converged
     c_bands:  1 eigenvalues not converged
     ethr =  2.41E-07,  avg # of iterations =  3.9

     negative rho (up, down):  5.368E-03 2.111E-03

     total cpu time spent up to now is    39522.9 secs

     total energy              =   -6224.01512518 Ry
     estimated scf accuracy    <       0.00014218 Ry

     total magnetization       =    22.64 Bohr mag/cell
     absolute magnetization    =    34.41 Bohr mag/cell

     iteration # 19     ecut=   124.00 Ry     beta= 0.20
     CG style diagonalization
     ethr =  4.03E-08,  avg # of iterations =  5.3

     negative rho (up, down):  5.361E-03 2.117E-03

     total cpu time spent up to now is    43058.2 secs

     total energy              =   -6224.01539613 Ry
     estimated scf accuracy    <       0.00003827 Ry

     total magnetization       =    22.80 Bohr mag/cell
     absolute magnetization    =    34.72 Bohr mag/cell

     iteration # 20     ecut=   124.00 Ry     beta= 0.20
     CG style diagonalization
     c_bands:  1 eigenvalues not converged
     ethr =  1.08E-08,  avg # of iterations =  4.8

     negative rho (up, down):  5.385E-03 2.098E-03

     total cpu time spent up to now is    46151.0 secs

     total energy              =   -6224.01543928 Ry
     estimated scf accuracy    <       0.00002308 Ry

     total magnetization       =    22.76 Bohr mag/cell
     absolute magnetization    =    34.67 Bohr mag/cell

     iteration # 21     ecut=   124.00 Ry     beta= 0.20
     CG style diagonalization
     ethr =  6.54E-09,  avg # of iterations =  4.1

     negative rho (up, down):  5.391E-03 2.097E-03

     total cpu time spent up to now is    48664.3 secs

     total energy              =   -6224.01546470 Ry
     estimated scf accuracy    <       0.00000641 Ry

     total magnetization       =    22.79 Bohr mag/cell
     absolute magnetization    =    34.77 Bohr mag/cell

     iteration # 22     ecut=   124.00 Ry     beta= 0.20
     CG style diagonalization
     ethr =  1.82E-09,  avg # of iterations =  4.9

     negative rho (up, down):  5.396E-03 2.094E-03

     total cpu time spent up to now is    51779.1 secs

     total energy              =   -6224.01547224 Ry
     estimated scf accuracy    <       0.00000217 Ry

     total magnetization       =    22.77 Bohr mag/cell
     absolute magnetization    =    34.77 Bohr mag/cell

     iteration # 23     ecut=   124.00 Ry     beta= 0.20
     CG style diagonalization
     ethr =  6.14E-10,  avg # of iterations =  4.9

     negative rho (up, down):  5.399E-03 2.092E-03

     total cpu time spent up to now is    54839.3 secs

     total energy              =   -6224.01547513 Ry
     estimated scf accuracy    <       0.00000117 Ry

     total magnetization       =    22.77 Bohr mag/cell
     absolute magnetization    =    34.79 Bohr mag/cell

     iteration # 24     ecut=   124.00 Ry     beta= 0.20
     CG style diagonalization
     ethr =  3.30E-10,  avg # of iterations =  3.8

     negative rho (up, down):  5.401E-03 2.092E-03

     total cpu time spent up to now is    57121.1 secs

     total energy              =   -6224.01547632 Ry
     estimated scf accuracy    <       0.00000070 Ry

     total magnetization       =    22.77 Bohr mag/cell
     absolute magnetization    =    34.80 Bohr mag/cell

     iteration # 25     ecut=   124.00 Ry     beta= 0.20
     CG style diagonalization
     c_bands:  1 eigenvalues not converged
     ethr =  1.99E-10,  avg # of iterations =  3.9

     negative rho (up, down):  5.403E-03 2.092E-03

     total cpu time spent up to now is    59437.4 secs

     total energy              =   -6224.01547690 Ry
     estimated scf accuracy    <       0.00000029 Ry

     total magnetization       =    22.77 Bohr mag/cell
     absolute magnetization    =    34.80 Bohr mag/cell

     iteration # 26     ecut=   124.00 Ry     beta= 0.20
     CG style diagonalization
     c_bands:  2 eigenvalues not converged
     ethr =  8.10E-11,  avg # of iterations =  4.4

     negative rho (up, down):  5.404E-03 2.091E-03

     total cpu time spent up to now is    62178.1 secs

     total energy              =   -6224.01547724 Ry
     estimated scf accuracy    <       0.00000010 Ry

     total magnetization       =    22.77 Bohr mag/cell
     absolute magnetization    =    34.81 Bohr mag/cell

     iteration # 27     ecut=   124.00 Ry     beta= 0.20
     CG style diagonalization
     c_bands:  2 eigenvalues not converged
     ethr =  2.84E-11,  avg # of iterations =  4.9

     negative rho (up, down):  5.405E-03 2.091E-03

     total cpu time spent up to now is    65253.2 secs

     total energy              =   -6224.01547735 Ry
     estimated scf accuracy    <       0.00000006 Ry

     total magnetization       =    22.77 Bohr mag/cell
     absolute magnetization    =    34.81 Bohr mag/cell

     iteration # 28     ecut=   124.00 Ry     beta= 0.20
     CG style diagonalization
     c_bands:  1 eigenvalues not converged
     ethr =  1.67E-11,  avg # of iterations =  4.1

     negative rho (up, down):  5.405E-03 2.090E-03

     total cpu time spent up to now is    67737.5 secs

     total energy              =   -6224.01547742 Ry
     estimated scf accuracy    <       0.00000003 Ry

     total magnetization       =    22.77 Bohr mag/cell
     absolute magnetization    =    34.81 Bohr mag/cell

     iteration # 29     ecut=   124.00 Ry     beta= 0.20
     CG style diagonalization
     ethr =  7.47E-12,  avg # of iterations =  3.9

     negative rho (up, down):  5.405E-03 2.090E-03

     Magnetic moment per site  (integrated on atomic sphere of radius R)
     atom   1 (R=0.084)  charge= 10.6609  magn=  1.3305
     atom   2 (R=0.084)  charge= 10.6633  magn=  1.3516
     atom   3 (R=0.084)  charge= 10.6597  magn=  1.3268
     atom   4 (R=0.084)  charge= 10.6614  magn=  1.3301
     atom   5 (R=0.084)  charge= 10.6596  magn=  1.3203
     atom   6 (R=0.084)  charge= 10.6601  magn=  1.3165
     atom   7 (R=0.084)  charge= 10.6603  magn=  1.3258
     atom   8 (R=0.084)  charge= 10.6728  magn=  1.0823
     atom   9 (R=0.084)  charge= 10.6592  magn=  1.3022
     atom  10 (R=0.084)  charge= 10.6605  magn=  1.3222
     atom  11 (R=0.084)  charge= 10.6603  magn=  1.3266
     atom  12 (R=0.084)  charge= 10.6600  magn=  1.3154
     atom  13 (R=0.084)  charge= 10.6604  magn=  1.3239
     atom  14 (R=0.084)  charge= 10.6593  magn=  1.3173
     atom  15 (R=0.084)  charge= 10.6602  magn=  1.3189
     atom  16 (R=0.084)  charge= 10.6651  magn=  1.3267
     atom  17 (R=0.106)  charge=  7.9175  magn= -0.2979
     atom  18 (R=0.106)  charge=  7.9179  magn= -0.3056
     atom  19 (R=0.106)  charge=  7.9323  magn= -0.2480
     atom  20 (R=0.106)  charge=  7.9177  magn= -0.2986
     atom  21 (R=0.106)  charge=  7.9181  magn= -0.3094
     atom  22 (R=0.106)  charge=  7.9176  magn= -0.2932
     atom  23 (R=0.106)  charge=  7.9273  magn= -0.2553
     atom  24 (R=0.106)  charge=  7.9176  magn= -0.2925
     atom  25 (R=0.084)  charge=  0.8142  magn=  0.0037

     total cpu time spent up to now is    70015.4 secs

     End of self-consistent calculation

     Number of k-points >= 100: set verbosity='high' to print the bands.

     the Fermi energy is    17.0649 ev

!    total energy              =   -6224.01547750 Ry
     estimated scf accuracy    <          8.4E-09 Ry
     smearing contrib. (-TS)   =      -0.00050373 Ry
     internal energy E=F+TS    =   -6224.01497377 Ry

     The total energy is F=E-TS. E is the sum of the following terms:
     one-electron contribution =   -2356.86923570 Ry
     hartree contribution      =    1377.99254032 Ry
     xc contribution           =    -701.88938798 Ry
     ewald contribution        =   -3324.72751671 Ry
     one-center paw contrib.   =   -1218.52137369 Ry

     total magnetization       =    22.77 Bohr mag/cell
     absolute magnetization    =    34.81 Bohr mag/cell

     convergence has been achieved in  29 iterations

     negative rho (up, down):  5.405E-03 2.090E-03

     Forces acting on atoms (cartesian axes, Ry/au):

     atom    1 type  1   force =    -0.00247365    0.00507473    0.00315246
     atom    2 type  1   force =     0.01112846   -0.00712046    0.00557373
     atom    3 type  1   force =    -0.00101730    0.00058339   -0.00070631
     atom    4 type  1   force =    -0.00002666    0.00126690   -0.00987406
     atom    5 type  1   force =    -0.00176919   -0.00160832   -0.00316005
     atom    6 type  1   force =    -0.00026511    0.00089814   -0.00052372
     atom    7 type  1   force =     0.00001996    0.00001155   -0.00002066
     atom    8 type  1   force =     0.01727262   -0.11904030   -0.09092842
     atom    9 type  1   force =     0.00092700   -0.00160268   -0.00093639
     atom   10 type  1   force =     0.00094598    0.00184193    0.00189145
     atom   11 type  1   force =     0.00023205   -0.00017432    0.00032365
     atom   12 type  1   force =    -0.00104461    0.00067321    0.00087564
     atom   13 type  1   force =     0.00101911   -0.00435022    0.00099365
     atom   14 type  1   force =     0.00166419   -0.00109275    0.00019429
     atom   15 type  1   force =     0.00032359   -0.00077955    0.00072051
     atom   16 type  1   force =    -0.01534880    0.00765053   -0.00768332
     atom   17 type  2   force =    -0.00006207   -0.00147840    0.00257877
     atom   18 type  2   force =     0.00389495    0.00161337   -0.00164957
     atom   19 type  2   force =     0.03043136    0.04321508   -0.00112435
     atom   20 type  2   force =     0.00050187    0.00214012   -0.00128817
     atom   21 type  2   force =    -0.00384203   -0.00329163    0.00097075
     atom   22 type  2   force =     0.00189701    0.00174682   -0.00062828
     atom   23 type  2   force =    -0.01083599   -0.00437012    0.02516993
     atom   24 type  2   force =    -0.00170813   -0.00064293    0.00179853
     atom   25 type  3   force =    -0.03186458    0.07883591    0.07427994

     Total force =     0.199712     Total SCF correction =     0.000146


     Computing stress (Cartesian axis) and pressure


     negative rho (up, down):  5.405E-03 2.090E-03
          total   stress  (Ry/bohr**3)                   (kbar)     P=       22.12
   0.00008616   0.00001019  -0.00001563           12.67        1.50       -2.30
   0.00001019   0.00021437   0.00007290            1.50       31.54       10.72
  -0.00001563   0.00007290   0.00015054           -2.30       10.72       22.14

     Energy error            =      2.2E-02 Ry
     Gradient error          =      1.2E-01 Ry/Bohr
     Cell gradient error     =      3.2E+01 kbar

     number of scf cycles    =   2
     number of bfgs steps    =   1

     enthalpy           old  =   -6224.0371960746 Ry
     enthalpy           new  =   -6224.0154774977 Ry

     CASE: enthalpy          _new > enthalpy          _old


 %%%%%%%%%%%%%%%%%%%%%%%%%%%%%%%%%%%%%%%%%%%%%%%%%%%%%%%%%%%%%%%%%%%%%%%%%%%%%%
     Error in routine bfgs (1):
     dE0s is positive which should never happen
 %%%%%%%%%%%%%%%%%%%%%%%%%%%%%%%%%%%%%%%%%%%%%%%%%%%%%%%%%%%%%%%%%%%%%%%%%%%%%%

     stopping ...
