
     Program PWSCF v.7.4 starts on 30Nov2025 at  1:20:43 

     This program is part of the open-source Quantum ESPRESSO suite
     for quantum simulation of materials; please cite
         "P. Giannozzi et al., J. Phys.:Condens. Matter 21 395502 (2009);
         "P. Giannozzi et al., J. Phys.:Condens. Matter 29 465901 (2017);
         "P. Giannozzi et al., J. Chem. Phys. 152 154105 (2020);
          URL http://www.quantum-espresso.org", 
     in publications or presentations arising from this work. More details at
     http://www.quantum-espresso.org/quote

     Parallel version (MPI & OpenMP), running on      16 processor cores
     Number of MPI processes:                16
     Threads/MPI process:                     1

     MPI processes distributed on     1 nodes
     883171 MiB available memory on the printing compute node when the environment starts

     Reading input from H.in

     Current dimensions of program PWSCF are:
     Max number of different atomic species (ntypx) = 10
     Max number of k-points (npk) =  40000
     Max angular momentum in pseudopotentials (lmaxx) =  4

     IMPORTANT: XC functional enforced from input :
     Exchange-correlation= PBE
                           (   1   4   3   4   0   0   0)
     Any further DFT definition will be discarded
     Please, verify this is what you really want

     Message from routine setup:
     using ibrav=0 with symmetry is DISCOURAGED, use correct ibrav instead

     R & G space division:  proc/nbgrp/npool/nimage =      16
     Subspace diagonalization in iterative solution of the eigenvalue problem:
     a serial algorithm will be used


     Parallelization info
     --------------------
     sticks:   dense  smooth     PW     G-vecs:    dense   smooth      PW
     Min       10683    3049    760              4690607   716306   89504
     Max       10684    3051    761              4690612   716309   89511
     Sum      170929   48793  12175             75049739 11460917 1432131

     Using Slab Decomposition



     bravais-lattice index     =            0
     lattice parameter (alat)  =      37.7945  a.u.
     unit-cell volume          =   61443.4263 (a.u.)^3
     number of atoms/cell      =            2
     number of atomic types    =            1
     number of electrons       =         2.00
     number of Kohn-Sham states=            5
     kinetic-energy cutoff     =     124.0000  Ry
     charge density cutoff     =    1736.0000  Ry
     scf convergence threshold =      1.0E-08
     mixing beta               =       0.7000
     number of iterations used =            8  plain     mixing
     Exchange-correlation= PBE
                           (   1   4   3   4   0   0   0)

     celldm(1)=  37.794522  celldm(2)=   0.000000  celldm(3)=   0.000000
     celldm(4)=   0.000000  celldm(5)=   0.000000  celldm(6)=   0.000000

     crystal axes: (cart. coord. in units of alat)
               a(1) = (   0.866025  -0.500000   0.000000 )  
               a(2) = (   0.000000   1.000000   0.000000 )  
               a(3) = (   0.000000   0.000000   1.314190 )  

     reciprocal axes: (cart. coord. in units 2 pi/alat)
               b(1) = (  1.154701  0.000000  0.000000 )  
               b(2) = (  0.577350  1.000000 -0.000000 )  
               b(3) = ( -0.000000  0.000000  0.760925 )  


     PseudoPot. # 1 for H  read from file:
     ../../pseudos/H.pbe-rrkjus_psl.1.0.0.UPF
     MD5 check sum: f52b6d4d1c606e5624b1dc7b2218f220
     Pseudo is Ultrasoft, Zval =  1.0
     Generated using "atomic" code by A. Dal Corso  v.5.1
     Using radial grid of  929 points,  2 beta functions with: 
                l(1) =   0
                l(2) =   0
     Q(r) pseudized with 0 coefficients 


     atomic species   valence    mass     pseudopotential
     H                 1.00     1.00750     H ( 1.00)

     Starting magnetic structure 
     atomic species   magnetization
     H               1.000

     12 Sym. Ops., with inversion, found



   Cartesian axes

     site n.     atom                  positions (alat units)
         1        H      tau(   1) = (   0.2886751   0.5000000   0.4380634  )
         2        H      tau(   2) = (   0.5773503  -0.0000000   0.8761268  )

     number of k points=     1  Marzari-Vanderbilt smearing, width (Ry)=  0.0050
                       cart. coord. in units 2pi/alat
        k(    1) = (   0.0000000   0.0000000   0.0000000), wk =   1.0000000

     Dense  grid: 75049739 G-vectors     FFT dimensions: ( 512, 512, 675)

     Smooth grid: 11460917 G-vectors     FFT dimensions: ( 270, 270, 360)

     Estimated max dynamical RAM per process >       1.24 GB

     Estimated total dynamical RAM >      19.89 GB
     Generating pointlists ...
     new r_m :   0.2990 (alat units) 11.2987 (a.u.) for type    1

     Initial potential from superposition of free atoms

     starting charge       2.0000, renormalised to       2.0000

     negative rho (up, down):  9.744E-04 0.000E+00
     Starting wfcs are    2 randomized atomic wfcs +    3 random wfcs

     total cpu time spent up to now is      105.5 secs

     per-process dynamical memory:  2551.0 Mb

     Self-consistent Calculation

     iteration #  1     ecut=   124.00 Ry     beta= 0.70
     Davidson diagonalization with overlap
     ethr =  1.00E-02,  avg # of iterations =  7.5

     Threshold (ethr) on eigenvalues was too large:
     Diagonalizing with lowered threshold

     Davidson diagonalization with overlap
     ethr =  1.35E-04,  avg # of iterations = 18.5

     negative rho (up, down):  2.705E-04 0.000E+00

     total cpu time spent up to now is      191.9 secs

     total energy              =      -1.99966128 Ry
     estimated scf accuracy    <       0.00291181 Ry

     total magnetization       =     2.00 Bohr mag/cell
     absolute magnetization    =     2.00 Bohr mag/cell

     iteration #  2     ecut=   124.00 Ry     beta= 0.70
     Davidson diagonalization with overlap
     ethr =  1.46E-04,  avg # of iterations =  1.0

     negative rho (up, down):  7.280E-05 0.000E+00

     total cpu time spent up to now is      234.1 secs

     total energy              =      -1.99967720 Ry
     estimated scf accuracy    <       0.00014303 Ry

     total magnetization       =     2.00 Bohr mag/cell
     absolute magnetization    =     2.00 Bohr mag/cell

     iteration #  3     ecut=   124.00 Ry     beta= 0.70
     Davidson diagonalization with overlap
     c_bands:  3 eigenvalues not converged
     ethr =  7.15E-06,  avg # of iterations = 17.0

     negative rho (up, down):  1.907E-05 0.000E+00

     total cpu time spent up to now is      297.6 secs

     total energy              =      -1.99968813 Ry
     estimated scf accuracy    <       0.00000090 Ry

     total magnetization       =     2.00 Bohr mag/cell
     absolute magnetization    =     2.00 Bohr mag/cell

     iteration #  4     ecut=   124.00 Ry     beta= 0.70
     Davidson diagonalization with overlap
     ethr =  4.52E-08,  avg # of iterations = 11.5

     negative rho (up, down):  4.925E-06 0.000E+00

     total cpu time spent up to now is      354.5 secs

     total energy              =      -1.99968932 Ry
     estimated scf accuracy    <       0.00000006 Ry

     total magnetization       =     2.00 Bohr mag/cell
     absolute magnetization    =     2.00 Bohr mag/cell

     iteration #  5     ecut=   124.00 Ry     beta= 0.70
     Davidson diagonalization with overlap
     ethr =  2.82E-09,  avg # of iterations =  3.5

     negative rho (up, down):  9.241E-07 0.000E+00

     total cpu time spent up to now is      395.8 secs

     total energy              =      -1.99968933 Ry
     estimated scf accuracy    <       0.00000005 Ry

     total magnetization       =     2.00 Bohr mag/cell
     absolute magnetization    =     2.00 Bohr mag/cell

     iteration #  6     ecut=   124.00 Ry     beta= 0.70
     Davidson diagonalization with overlap
     ethr =  2.28E-09,  avg # of iterations =  1.5

     negative rho (up, down):  5.465E-07 0.000E+00

     Magnetic moment per site  (integrated on atomic sphere of radius R)
     atom   1 (R=0.299)  charge=  1.0000  magn=  1.0000
     atom   2 (R=0.299)  charge=  1.0000  magn=  1.0000

     total cpu time spent up to now is      429.1 secs

     End of self-consistent calculation

 ------ SPIN UP ------------


          k = 0.0000 0.0000 0.0000 (****** PWs)   bands (ev):

    -7.5884  -7.5884  -0.1110   0.0497   0.1315

 ------ SPIN DOWN ----------


          k = 0.0000 0.0000 0.0000 (****** PWs)   bands (ev):

    -0.0043   0.2114   0.2154   0.5065   0.5119

     the Fermi energy is    -3.5382 ev

!    total energy              =      -1.99968935 Ry
     estimated scf accuracy    <          3.7E-12 Ry
     smearing contrib. (-TS)   =      -0.00000000 Ry
     internal energy E=F+TS    =      -1.99968935 Ry

     The total energy is F=E-TS. E is the sum of the following terms:
     one-electron contribution =      -1.65213356 Ry
     hartree contribution      =       1.05473792 Ry
     xc contribution           =      -1.22913899 Ry
     ewald contribution        =      -0.17315472 Ry

     total magnetization       =     2.00 Bohr mag/cell
     absolute magnetization    =     2.00 Bohr mag/cell

     convergence has been achieved in   6 iterations

     Forces acting on atoms (cartesian axes, Ry/au):

     atom    1 type  1   force =    -0.00000000   -0.00000000    0.00000055
     atom    2 type  1   force =     0.00000000    0.00000000   -0.00000055

     Total force =     0.000001     Total SCF correction =     0.000001
     SCF correction compared to forces is large: reduce conv_thr to get better values


     Computing stress (Cartesian axis) and pressure

          total   stress  (Ry/bohr**3)                   (kbar)     P=       -0.00
  -0.00000000   0.00000000   0.00000000           -0.00        0.00        0.00
   0.00000000  -0.00000000   0.00000000            0.00       -0.00        0.00
   0.00000000   0.00000000  -0.00000000            0.00        0.00       -0.00


     Writing all to output data dir ./H_hex.save/ :
     XML data file
     init_run     :     99.87s CPU    105.40s WALL (       1 calls)
     electrons    :    299.53s CPU    323.68s WALL (       1 calls)
     forces       :      5.58s CPU      6.42s WALL (       1 calls)
     stress       :     17.07s CPU     19.39s WALL (       1 calls)

     Called by init_run:
     wfcinit      :      1.78s CPU      1.91s WALL (       1 calls)
     potinit      :     25.21s CPU     28.60s WALL (       1 calls)
     hinit0       :      2.38s CPU      2.71s WALL (       1 calls)

     Called by electrons:
     c_bands      :     97.75s CPU    100.74s WALL (       7 calls)
     sum_band     :     33.67s CPU     37.31s WALL (       7 calls)
     v_of_rho     :    133.91s CPU    150.57s WALL (       7 calls)
     newd         :     17.25s CPU     19.03s WALL (       7 calls)
     mix_rho      :     21.30s CPU     22.63s WALL (       7 calls)

     Called by c_bands:
     init_us_2    :      0.21s CPU      0.23s WALL (      34 calls)
     cegterg      :     96.96s CPU     99.94s WALL (      14 calls)

     Called by *egterg:
     cdiaghg      :      0.02s CPU      0.02s WALL (     133 calls)
     h_psi        :     91.14s CPU     94.14s WALL (     137 calls)
     s_psi        :      0.20s CPU      0.20s WALL (     137 calls)
     g_psi        :      0.11s CPU      0.11s WALL (     121 calls)

     Called by h_psi:
     h_psi:calbec :      0.73s CPU      0.74s WALL (     137 calls)
     vloc_psi     :     89.81s CPU     92.78s WALL (     137 calls)
     add_vuspsi   :      0.37s CPU      0.38s WALL (     137 calls)

     General routines
     calbec       :      1.09s CPU      1.10s WALL (     173 calls)
     fft          :    141.81s CPU    154.58s WALL (     184 calls)
     ffts         :      4.03s CPU      4.24s WALL (      28 calls)
     fftw         :     59.47s CPU     62.18s WALL (    1150 calls)
     interpolate  :     14.08s CPU     15.07s WALL (      14 calls)

     Parallel routines

     PWSCF        :    422.17s CPU    455.17s WALL


   This run was terminated on:   1:28:18  30Nov2025            

=------------------------------------------------------------------------------=
   JOB DONE.
=------------------------------------------------------------------------------=
