
     Program PWSCF v.7.4 starts on 30Nov2025 at 18:21:44 

     This program is part of the open-source Quantum ESPRESSO suite
     for quantum simulation of materials; please cite
         "P. Giannozzi et al., J. Phys.:Condens. Matter 21 395502 (2009);
         "P. Giannozzi et al., J. Phys.:Condens. Matter 29 465901 (2017);
         "P. Giannozzi et al., J. Chem. Phys. 152 154105 (2020);
          URL http://www.quantum-espresso.org", 
     in publications or presentations arising from this work. More details at
     http://www.quantum-espresso.org/quote

     Parallel version (MPI & OpenMP), running on      16 processor cores
     Number of MPI processes:                16
     Threads/MPI process:                     1

     MPI processes distributed on     1 nodes
     870765 MiB available memory on the printing compute node when the environment starts

     Reading input from TiFeH.in

     Current dimensions of program PWSCF are:
     Max number of different atomic species (ntypx) = 10
     Max number of k-points (npk) =  40000
     Max angular momentum in pseudopotentials (lmaxx) =  4
     file Fe.pbe-spn-kjpaw_psl.0.2.1.UPF: wavefunction(s)  3D renormalized

     IMPORTANT: XC functional enforced from input :
     Exchange-correlation= PBE
                           (   1   4   3   4   0   0   0)
     Any further DFT definition will be discarded
     Please, verify this is what you really want

     Message from routine setup:
     using ibrav=0 with symmetry is DISCOURAGED, use correct ibrav instead

     R & G space division:  proc/nbgrp/npool/nimage =      16
     Subspace diagonalization in iterative solution of the eigenvalue problem:
     a serial algorithm will be used


     Parallelization info
     --------------------
     sticks:   dense  smooth     PW     G-vecs:    dense   smooth      PW
     Min         383     109     31                29197     4457     675
     Max         384     110     32                29202     4462     678
     Sum        6131    1755    503               467189    71347   10823

     Using Slab Decomposition



     bravais-lattice index     =            0
     lattice parameter (alat)  =       8.0851  a.u.
     unit-cell volume          =     382.3554 (a.u.)^3
     number of atoms/cell      =            6
     number of atomic types    =            3
     number of electrons       =        58.00
     number of Kohn-Sham states=           35
     kinetic-energy cutoff     =     124.0000  Ry
     charge density cutoff     =    1736.0000  Ry
     scf convergence threshold =      1.0E-08
     mixing beta               =       0.7000
     number of iterations used =            8  plain     mixing
     Exchange-correlation= PBE
                           (   1   4   3   4   0   0   0)

     celldm(1)=   8.085118  celldm(2)=   0.000000  celldm(3)=   0.000000
     celldm(4)=   0.000000  celldm(5)=   0.000000  celldm(6)=   0.000000

     crystal axes: (cart. coord. in units of alat)
               a(1) = (   1.000000   0.000000   0.000000 )  
               a(2) = (   0.000000   0.679058   0.000000 )  
               a(3) = (   0.000000   0.000000   1.065372 )  

     reciprocal axes: (cart. coord. in units 2 pi/alat)
               b(1) = (  1.000000  0.000000  0.000000 )  
               b(2) = (  0.000000  1.472628  0.000000 )  
               b(3) = (  0.000000  0.000000  0.938639 )  


     PseudoPot. # 1 for Fe read from file:
     ../../pseudos/Fe.pbe-spn-kjpaw_psl.0.2.1.UPF
     MD5 check sum: e86618425769142926afa95317d90200
     Pseudo is Projector augmented-wave + core cor, Zval = 16.0
     Generated using "atomic" code by A. Dal Corso  v.5.0.99 svn rev. 10869
     Shape of augmentation charge: PSQ
     Using radial grid of 1191 points,  6 beta functions with: 
                l(1) =   0
                l(2) =   0
                l(3) =   1
                l(4) =   1
                l(5) =   2
                l(6) =   2
     Q(r) pseudized with 0 coefficients 


     PseudoPot. # 2 for H  read from file:
     ../../pseudos/H.pbe-rrkjus_psl.1.0.0.UPF
     MD5 check sum: f52b6d4d1c606e5624b1dc7b2218f220
     Pseudo is Ultrasoft, Zval =  1.0
     Generated using "atomic" code by A. Dal Corso  v.5.1
     Using radial grid of  929 points,  2 beta functions with: 
                l(1) =   0
                l(2) =   0
     Q(r) pseudized with 0 coefficients 


     PseudoPot. # 3 for Ti read from file:
     ../../pseudos/ti_pbe_v1.4.uspp.F.UPF
     MD5 check sum: 88a00a6731bd790ddea75d31a80cb452
     Pseudo is Ultrasoft + core correction, Zval = 12.0
     Generated by new atomic code, or converted to UPF format
     Using radial grid of  851 points,  6 beta functions with: 
                l(1) =   0
                l(2) =   0
                l(3) =   1
                l(4) =   1
                l(5) =   2
                l(6) =   2
     Q(r) pseudized with  6 coefficients,  rinner =    1.000   1.000   1.000
                                                       1.000   1.000

     atomic species   valence    mass     pseudopotential
     Fe               16.00    55.84500     Fe( 1.00)
     H                 1.00     1.00750     H ( 1.00)
     Ti               12.00    47.86700     Ti( 1.00)

      8 Sym. Ops., with inversion, found ( 4 have fractional translation)



   Cartesian axes

     site n.     atom                  positions (alat units)
         1        Fe     tau(   1) = (   0.2500000   0.0000000   0.7427272  )
         2        Fe     tau(   2) = (   0.7500000   0.0000000   0.3226447  )
         3        Ti     tau(   3) = (   0.2500000   0.3395291   0.2675735  )
         4        Ti     tau(   4) = (   0.7500000   0.3395291   0.7977984  )
         5        H      tau(   5) = (   0.0000000   0.0000000   0.0000000  )
         6        H      tau(   6) = (   0.5000000   0.0000000   0.0000000  )

     number of k points=   512  Marzari-Vanderbilt smearing, width (Ry)=  0.0050

     Number of k-points >= 100: set verbosity='high' to print them.

     Dense  grid:   467189 G-vectors     FFT dimensions: ( 108,  75, 120)

     Smooth grid:    71347 G-vectors     FFT dimensions: (  60,  40,  64)

     Estimated max dynamical RAM per process >     271.01 MB

     Estimated total dynamical RAM >       4.23 GB

     Check: negative core charge=   -0.000001

     Initial potential from superposition of free atoms

     starting charge      55.9990, renormalised to      58.0000

     negative rho (up, down):  2.678E-03 0.000E+00
     Starting wfcs are   48 randomized atomic wfcs
     Checking if some PAW data can be deallocated... 

     total cpu time spent up to now is        9.5 secs

     per-process dynamical memory:   298.5 Mb

     Self-consistent Calculation

     iteration #  1     ecut=   124.00 Ry     beta= 0.70
     Davidson diagonalization with overlap
     ethr =  1.00E-02,  avg # of iterations =  2.3

     negative rho (up, down):  1.894E-04 0.000E+00

     total cpu time spent up to now is       28.2 secs

     total energy              =    -870.11795628 Ry
     estimated scf accuracy    <      37.02465337 Ry

     iteration #  2     ecut=   124.00 Ry     beta= 0.70
     Davidson diagonalization with overlap
     ethr =  1.00E-02,  avg # of iterations =  6.5

     negative rho (up, down):  2.980E-05 0.000E+00

     total cpu time spent up to now is       65.2 secs

     total energy              =    -897.28495700 Ry
     estimated scf accuracy    <     149.07362528 Ry

     iteration #  3     ecut=   124.00 Ry     beta= 0.70
     Davidson diagonalization with overlap
     ethr =  1.00E-02,  avg # of iterations =  3.0

     negative rho (up, down):  2.563E-04 0.000E+00

     total cpu time spent up to now is       88.4 secs

     total energy              =    -901.06070021 Ry
     estimated scf accuracy    <      34.88609879 Ry

     iteration #  4     ecut=   124.00 Ry     beta= 0.70
     Davidson diagonalization with overlap
     ethr =  1.00E-02,  avg # of iterations =  2.1

     negative rho (up, down):  4.591E-04 0.000E+00

     total cpu time spent up to now is      106.9 secs

     total energy              =    -900.69246348 Ry
     estimated scf accuracy    <      15.51292507 Ry

     iteration #  5     ecut=   124.00 Ry     beta= 0.70
     Davidson diagonalization with overlap
     ethr =  1.00E-02,  avg # of iterations =  1.1

     negative rho (up, down):  4.963E-04 0.000E+00

     total cpu time spent up to now is      120.8 secs

     total energy              =    -900.74322407 Ry
     estimated scf accuracy    <      10.43427215 Ry

     iteration #  6     ecut=   124.00 Ry     beta= 0.70
     Davidson diagonalization with overlap
     ethr =  1.00E-02,  avg # of iterations =  1.0

     negative rho (up, down):  1.964E-03 0.000E+00

     total cpu time spent up to now is      134.0 secs

     total energy              =    -898.11962468 Ry
     estimated scf accuracy    <      10.32043874 Ry

     iteration #  7     ecut=   124.00 Ry     beta= 0.70
     Davidson diagonalization with overlap
     ethr =  1.00E-02,  avg # of iterations =  4.0

     negative rho (up, down):  1.400E-03 0.000E+00

     total cpu time spent up to now is      152.6 secs

     total energy              =    -899.09476809 Ry
     estimated scf accuracy    <       4.43677381 Ry

     iteration #  8     ecut=   124.00 Ry     beta= 0.70
     Davidson diagonalization with overlap
     ethr =  7.65E-03,  avg # of iterations =  1.7

     negative rho (up, down):  1.474E-03 0.000E+00

     total cpu time spent up to now is      168.4 secs

     total energy              =    -899.54089651 Ry
     estimated scf accuracy    <       0.30886626 Ry

     iteration #  9     ecut=   124.00 Ry     beta= 0.70
     Davidson diagonalization with overlap
     ethr =  5.33E-04,  avg # of iterations =  4.6

     negative rho (up, down):  1.763E-03 0.000E+00

     total cpu time spent up to now is      188.8 secs

     total energy              =    -899.53001014 Ry
     estimated scf accuracy    <       0.49422680 Ry

     iteration # 10     ecut=   124.00 Ry     beta= 0.70
     Davidson diagonalization with overlap
     ethr =  5.33E-04,  avg # of iterations =  1.7

     negative rho (up, down):  2.237E-03 0.000E+00

     total cpu time spent up to now is      203.5 secs

     total energy              =    -899.45149662 Ry
     estimated scf accuracy    <       0.41029513 Ry

     iteration # 11     ecut=   124.00 Ry     beta= 0.70
     Davidson diagonalization with overlap
     ethr =  5.33E-04,  avg # of iterations =  3.8

     negative rho (up, down):  2.325E-03 0.000E+00

     total cpu time spent up to now is      222.5 secs

     total energy              =    -899.59856853 Ry
     estimated scf accuracy    <       0.51253693 Ry

     iteration # 12     ecut=   124.00 Ry     beta= 0.70
     Davidson diagonalization with overlap
     ethr =  5.33E-04,  avg # of iterations =  2.4

     negative rho (up, down):  2.192E-03 0.000E+00

     total cpu time spent up to now is      239.4 secs

     total energy              =    -899.56377628 Ry
     estimated scf accuracy    <       1.96901897 Ry

     iteration # 13     ecut=   124.00 Ry     beta= 0.70
     Davidson diagonalization with overlap
     ethr =  5.33E-04,  avg # of iterations =  1.0

     negative rho (up, down):  1.905E-03 0.000E+00

     total cpu time spent up to now is      254.4 secs

     total energy              =    -899.48388116 Ry
     estimated scf accuracy    <       1.01760115 Ry

     iteration # 14     ecut=   124.00 Ry     beta= 0.70
     Davidson diagonalization with overlap
     ethr =  5.33E-04,  avg # of iterations =  2.1

     negative rho (up, down):  1.796E-03 0.000E+00

     total cpu time spent up to now is      269.4 secs

     total energy              =    -899.51545155 Ry
     estimated scf accuracy    <       0.04214585 Ry

     iteration # 15     ecut=   124.00 Ry     beta= 0.70
     Davidson diagonalization with overlap
     ethr =  7.27E-05,  avg # of iterations =  5.0

     negative rho (up, down):  1.791E-03 0.000E+00

     total cpu time spent up to now is      288.9 secs

     total energy              =    -899.52308936 Ry
     estimated scf accuracy    <       0.00745993 Ry

     iteration # 16     ecut=   124.00 Ry     beta= 0.70
     Davidson diagonalization with overlap
     ethr =  1.29E-05,  avg # of iterations =  2.9

     negative rho (up, down):  1.763E-03 0.000E+00

     total cpu time spent up to now is      306.4 secs

     total energy              =    -899.52335019 Ry
     estimated scf accuracy    <       0.00894668 Ry

     iteration # 17     ecut=   124.00 Ry     beta= 0.70
     Davidson diagonalization with overlap
     ethr =  1.29E-05,  avg # of iterations =  1.0

     negative rho (up, down):  1.722E-03 0.000E+00

     total cpu time spent up to now is      321.3 secs

     total energy              =    -899.52201417 Ry
     estimated scf accuracy    <       0.00996010 Ry

     iteration # 18     ecut=   124.00 Ry     beta= 0.70
     Davidson diagonalization with overlap
     ethr =  1.29E-05,  avg # of iterations =  2.0

     negative rho (up, down):  1.781E-03 0.000E+00

     total cpu time spent up to now is      336.2 secs

     total energy              =    -899.52269019 Ry
     estimated scf accuracy    <       0.00098367 Ry

     iteration # 19     ecut=   124.00 Ry     beta= 0.70
     Davidson diagonalization with overlap
     ethr =  1.70E-06,  avg # of iterations =  4.9

     negative rho (up, down):  1.771E-03 0.000E+00

     total cpu time spent up to now is      355.0 secs

     total energy              =    -899.52286983 Ry
     estimated scf accuracy    <       0.00017123 Ry

     iteration # 20     ecut=   124.00 Ry     beta= 0.70
     Davidson diagonalization with overlap
     ethr =  2.95E-07,  avg # of iterations =  2.8

     negative rho (up, down):  1.765E-03 0.000E+00

     total cpu time spent up to now is      372.6 secs

     total energy              =    -899.52288131 Ry
     estimated scf accuracy    <       0.00005639 Ry

     iteration # 21     ecut=   124.00 Ry     beta= 0.70
     Davidson diagonalization with overlap
     ethr =  9.72E-08,  avg # of iterations =  3.6

     negative rho (up, down):  1.765E-03 0.000E+00

     total cpu time spent up to now is      391.8 secs

     total energy              =    -899.52288975 Ry
     estimated scf accuracy    <       0.00000036 Ry

     iteration # 22     ecut=   124.00 Ry     beta= 0.70
     Davidson diagonalization with overlap
     c_bands:  1 eigenvalues not converged
     ethr =  6.15E-10,  avg # of iterations =  9.2

     negative rho (up, down):  1.765E-03 0.000E+00

     total cpu time spent up to now is      438.3 secs

     total energy              =    -899.52289195 Ry
     estimated scf accuracy    <       0.00000110 Ry

     iteration # 23     ecut=   124.00 Ry     beta= 0.70
     Davidson diagonalization with overlap
     ethr =  6.15E-10,  avg # of iterations =  1.1

     negative rho (up, down):  1.765E-03 0.000E+00

     total cpu time spent up to now is      451.5 secs

     total energy              =    -899.52289170 Ry
     estimated scf accuracy    <       0.00000200 Ry

     iteration # 24     ecut=   124.00 Ry     beta= 0.70
     Davidson diagonalization with overlap
     ethr =  6.15E-10,  avg # of iterations =  3.5

     negative rho (up, down):  1.765E-03 0.000E+00

     total cpu time spent up to now is      470.4 secs

     End of self-consistent calculation

     Number of k-points >= 100: set verbosity='high' to print the bands.

     the Fermi energy is    16.2648 ev

!    total energy              =    -899.52289183 Ry
     estimated scf accuracy    <          3.4E-09 Ry
     smearing contrib. (-TS)   =      -0.00003688 Ry
     internal energy E=F+TS    =    -899.52285495 Ry

     The total energy is F=E-TS. E is the sum of the following terms:
     one-electron contribution =    -328.85869277 Ry
     hartree contribution      =     195.01927536 Ry
     xc contribution           =    -107.24954500 Ry
     ewald contribution        =    -506.12803196 Ry
     one-center paw contrib.   =    -152.30586058 Ry

     convergence has been achieved in  24 iterations

     negative rho (up, down):  1.765E-03 0.000E+00

     Forces acting on atoms (cartesian axes, Ry/au):

     atom    1 type  1   force =     0.00000000    0.00000000    0.00042370
     atom    2 type  1   force =     0.00000000    0.00000000   -0.00042370
     atom    3 type  3   force =     0.00000000    0.00000000    0.00178598
     atom    4 type  3   force =     0.00000000    0.00000000   -0.00178598
     atom    5 type  2   force =     0.00000000    0.00000000    0.00000000
     atom    6 type  2   force =     0.00000000    0.00000000    0.00000000

     Total force =     0.002596     Total SCF correction =     0.000175


     Computing stress (Cartesian axis) and pressure


     negative rho (up, down):  1.765E-03 0.000E+00
          total   stress  (Ry/bohr**3)                   (kbar)     P=       -6.42
  -0.00006064   0.00000000   0.00000000           -8.92        0.00        0.00
   0.00000000  -0.00003414   0.00000000            0.00       -5.02        0.00
   0.00000000   0.00000000  -0.00003615            0.00        0.00       -5.32


     Writing all to output data dir ./TiFe_H_faces_x.save/ :
     XML data file
     init_run     :      8.71s CPU      9.14s WALL (       1 calls)
     electrons    :    441.69s CPU    460.84s WALL (       1 calls)
     forces       :      1.60s CPU      1.66s WALL (       1 calls)
     stress       :      6.49s CPU      6.63s WALL (       1 calls)

     Called by init_run:
     wfcinit      :      7.36s CPU      7.71s WALL (       1 calls)
     potinit      :      0.48s CPU      0.50s WALL (       1 calls)
     hinit0       :      0.59s CPU      0.61s WALL (       1 calls)

     Called by electrons:
     c_bands      :    385.40s CPU    400.20s WALL (      24 calls)
     sum_band     :     50.58s CPU     53.89s WALL (      24 calls)
     v_of_rho     :      0.61s CPU      0.70s WALL (      25 calls)
     newd         :      3.40s CPU      4.09s WALL (      25 calls)
     PAW_pot      :      1.81s CPU      2.07s WALL (      25 calls)
     mix_rho      :      0.07s CPU      0.09s WALL (      24 calls)

     Called by c_bands:
     init_us_2    :      6.31s CPU      6.57s WALL (   26112 calls)
     cegterg      :    371.00s CPU    385.17s WALL (   12288 calls)

     Called by *egterg:
     cdiaghg      :     57.40s CPU     58.34s WALL (   49735 calls)
     h_psi        :    251.21s CPU    263.67s WALL (   50247 calls)
     s_psi        :     13.54s CPU     13.85s WALL (   50247 calls)
     g_psi        :      1.20s CPU      1.22s WALL (   37447 calls)

     Called by h_psi:
     h_psi:calbec :     15.80s CPU     16.52s WALL (   50247 calls)
     vloc_psi     :    220.34s CPU    231.66s WALL (   50247 calls)
     add_vuspsi   :     13.90s CPU     14.33s WALL (   50247 calls)

     General routines
     calbec       :     25.13s CPU     26.17s WALL (   71239 calls)
     fft          :      0.84s CPU      0.98s WALL (     348 calls)
     ffts         :      0.37s CPU      0.37s WALL (      49 calls)
     fftw         :    203.35s CPU    213.19s WALL ( 2686794 calls)
     interpolate  :      0.39s CPU      0.42s WALL (      25 calls)

     Parallel routines

     PWSCF        :    458.77s CPU    478.82s WALL


   This run was terminated on:  18:29:43  30Nov2025            

=------------------------------------------------------------------------------=
   JOB DONE.
=------------------------------------------------------------------------------=
