
     Program PWSCF v.7.4 starts on 30Nov2025 at 18:24:40 

     This program is part of the open-source Quantum ESPRESSO suite
     for quantum simulation of materials; please cite
         "P. Giannozzi et al., J. Phys.:Condens. Matter 21 395502 (2009);
         "P. Giannozzi et al., J. Phys.:Condens. Matter 29 465901 (2017);
         "P. Giannozzi et al., J. Chem. Phys. 152 154105 (2020);
          URL http://www.quantum-espresso.org", 
     in publications or presentations arising from this work. More details at
     http://www.quantum-espresso.org/quote

     Parallel version (MPI & OpenMP), running on      16 processor cores
     Number of MPI processes:                16
     Threads/MPI process:                     1

     MPI processes distributed on     1 nodes
     867096 MiB available memory on the printing compute node when the environment starts

     Reading input from TiFeH_dyn.in

     Current dimensions of program PWSCF are:
     Max number of different atomic species (ntypx) = 10
     Max number of k-points (npk) =  40000
     Max angular momentum in pseudopotentials (lmaxx) =  4
     file Fe.pbe-spn-kjpaw_psl.0.2.1.UPF: wavefunction(s)  3D renormalized

     IMPORTANT: XC functional enforced from input :
     Exchange-correlation= PBE
                           (   1   4   3   4   0   0   0)
     Any further DFT definition will be discarded
     Please, verify this is what you really want

     Message from routine setup:
     using ibrav=0 with symmetry is DISCOURAGED, use correct ibrav instead

     R & G space division:  proc/nbgrp/npool/nimage =      16
     Subspace diagonalization in iterative solution of the eigenvalue problem:
     a serial algorithm will be used


     Parallelization info
     --------------------
     sticks:   dense  smooth     PW     G-vecs:    dense   smooth      PW
     Min         383     109     31                29197     4457     675
     Max         384     110     32                29202     4462     678
     Sum        6131    1755    503               467189    71347   10823

     Using Slab Decomposition



     bravais-lattice index     =            0
     lattice parameter (alat)  =       8.0851  a.u.
     unit-cell volume          =     382.3554 (a.u.)^3
     number of atoms/cell      =            6
     number of atomic types    =            3
     number of electrons       =        58.00
     number of Kohn-Sham states=           35
     kinetic-energy cutoff     =     124.0000  Ry
     charge density cutoff     =    1736.0000  Ry
     scf convergence threshold =      1.0E-08
     mixing beta               =       0.7000
     number of iterations used =            8  plain     mixing
     energy convergence thresh.=      1.0E-04
     force convergence thresh. =      1.0E-03
     press convergence thresh. =      1.0E-01
     Exchange-correlation= PBE
                           (   1   4   3   4   0   0   0)
     nstep                     =           50


     celldm(1)=   8.085118  celldm(2)=   0.000000  celldm(3)=   0.000000
     celldm(4)=   0.000000  celldm(5)=   0.000000  celldm(6)=   0.000000

     crystal axes: (cart. coord. in units of alat)
               a(1) = (   1.000000   0.000000   0.000000 )  
               a(2) = (   0.000000   0.679058   0.000000 )  
               a(3) = (   0.000000   0.000000   1.065372 )  

     reciprocal axes: (cart. coord. in units 2 pi/alat)
               b(1) = (  1.000000  0.000000  0.000000 )  
               b(2) = (  0.000000  1.472628  0.000000 )  
               b(3) = (  0.000000  0.000000  0.938639 )  


     PseudoPot. # 1 for Fe read from file:
     ../../pseudos/Fe.pbe-spn-kjpaw_psl.0.2.1.UPF
     MD5 check sum: e86618425769142926afa95317d90200
     Pseudo is Projector augmented-wave + core cor, Zval = 16.0
     Generated using "atomic" code by A. Dal Corso  v.5.0.99 svn rev. 10869
     Shape of augmentation charge: PSQ
     Using radial grid of 1191 points,  6 beta functions with: 
                l(1) =   0
                l(2) =   0
                l(3) =   1
                l(4) =   1
                l(5) =   2
                l(6) =   2
     Q(r) pseudized with 0 coefficients 


     PseudoPot. # 2 for H  read from file:
     ../../pseudos/H.pbe-rrkjus_psl.1.0.0.UPF
     MD5 check sum: f52b6d4d1c606e5624b1dc7b2218f220
     Pseudo is Ultrasoft, Zval =  1.0
     Generated using "atomic" code by A. Dal Corso  v.5.1
     Using radial grid of  929 points,  2 beta functions with: 
                l(1) =   0
                l(2) =   0
     Q(r) pseudized with 0 coefficients 


     PseudoPot. # 3 for Ti read from file:
     ../../pseudos/ti_pbe_v1.4.uspp.F.UPF
     MD5 check sum: 88a00a6731bd790ddea75d31a80cb452
     Pseudo is Ultrasoft + core correction, Zval = 12.0
     Generated by new atomic code, or converted to UPF format
     Using radial grid of  851 points,  6 beta functions with: 
                l(1) =   0
                l(2) =   0
                l(3) =   1
                l(4) =   1
                l(5) =   2
                l(6) =   2
     Q(r) pseudized with  6 coefficients,  rinner =    1.000   1.000   1.000
                                                       1.000   1.000

     atomic species   valence    mass     pseudopotential
     Fe               16.00    55.84500     Fe( 1.00)
     H                 1.00     1.00750     H ( 1.00)
     Ti               12.00    47.86700     Ti( 1.00)

      8 Sym. Ops., with inversion, found ( 4 have fractional translation)



   Cartesian axes

     site n.     atom                  positions (alat units)
         1        Fe     tau(   1) = (   0.2500000   0.0000000   0.7427272  )
         2        Fe     tau(   2) = (   0.7500000   0.0000000   0.3226447  )
         3        Ti     tau(   3) = (   0.2500000   0.3395291   0.2675735  )
         4        Ti     tau(   4) = (   0.7500000   0.3395291   0.7977984  )
         5        H      tau(   5) = (   0.0000000   0.0000000   0.0000000  )
         6        H      tau(   6) = (   0.5000000   0.0000000   0.0000000  )

     number of k points=   512  Marzari-Vanderbilt smearing, width (Ry)=  0.0050

     Number of k-points >= 100: set verbosity='high' to print them.

     Dense  grid:   467189 G-vectors     FFT dimensions: ( 108,  75, 120)

     Smooth grid:    71347 G-vectors     FFT dimensions: (  60,  40,  64)

     Estimated max dynamical RAM per process >     281.03 MB

     Estimated total dynamical RAM >       4.39 GB

     Check: negative core charge=   -0.000001

     Initial potential from superposition of free atoms

     starting charge      55.9990, renormalised to      58.0000

     negative rho (up, down):  2.678E-03 0.000E+00
     Starting wfcs are   48 randomized atomic wfcs
     Checking if some PAW data can be deallocated... 

     total cpu time spent up to now is        9.4 secs

     per-process dynamical memory:   309.4 Mb

     Self-consistent Calculation

     iteration #  1     ecut=   124.00 Ry     beta= 0.70
     Davidson diagonalization with overlap
     ethr =  1.00E-02,  avg # of iterations =  2.3

     negative rho (up, down):  1.894E-04 0.000E+00

     total cpu time spent up to now is       24.9 secs

     total energy              =    -870.11795628 Ry
     estimated scf accuracy    <      37.02465337 Ry

     iteration #  2     ecut=   124.00 Ry     beta= 0.70
     Davidson diagonalization with overlap
     ethr =  1.00E-02,  avg # of iterations =  6.5

     negative rho (up, down):  2.980E-05 0.000E+00

     total cpu time spent up to now is       55.8 secs

     total energy              =    -897.28495700 Ry
     estimated scf accuracy    <     149.07362528 Ry

     iteration #  3     ecut=   124.00 Ry     beta= 0.70
     Davidson diagonalization with overlap
     ethr =  1.00E-02,  avg # of iterations =  3.0

     negative rho (up, down):  2.563E-04 0.000E+00

     total cpu time spent up to now is       76.4 secs

     total energy              =    -901.06070021 Ry
     estimated scf accuracy    <      34.88609879 Ry

     iteration #  4     ecut=   124.00 Ry     beta= 0.70
     Davidson diagonalization with overlap
     ethr =  1.00E-02,  avg # of iterations =  2.1

     negative rho (up, down):  4.591E-04 0.000E+00

     total cpu time spent up to now is       91.0 secs

     total energy              =    -900.69246348 Ry
     estimated scf accuracy    <      15.51292507 Ry

     iteration #  5     ecut=   124.00 Ry     beta= 0.70
     Davidson diagonalization with overlap
     ethr =  1.00E-02,  avg # of iterations =  1.1

     negative rho (up, down):  4.963E-04 0.000E+00

     total cpu time spent up to now is      102.5 secs

     total energy              =    -900.74322407 Ry
     estimated scf accuracy    <      10.43427215 Ry

     iteration #  6     ecut=   124.00 Ry     beta= 0.70
     Davidson diagonalization with overlap
     ethr =  1.00E-02,  avg # of iterations =  1.0

     negative rho (up, down):  1.964E-03 0.000E+00

     total cpu time spent up to now is      115.2 secs

     total energy              =    -898.11962468 Ry
     estimated scf accuracy    <      10.32043874 Ry

     iteration #  7     ecut=   124.00 Ry     beta= 0.70
     Davidson diagonalization with overlap
     ethr =  1.00E-02,  avg # of iterations =  4.0

     negative rho (up, down):  1.400E-03 0.000E+00

     total cpu time spent up to now is      133.0 secs

     total energy              =    -899.09476809 Ry
     estimated scf accuracy    <       4.43677381 Ry

     iteration #  8     ecut=   124.00 Ry     beta= 0.70
     Davidson diagonalization with overlap
     ethr =  7.65E-03,  avg # of iterations =  1.7

     negative rho (up, down):  1.474E-03 0.000E+00

     total cpu time spent up to now is      146.6 secs

     total energy              =    -899.54089651 Ry
     estimated scf accuracy    <       0.30886626 Ry

     iteration #  9     ecut=   124.00 Ry     beta= 0.70
     Davidson diagonalization with overlap
     ethr =  5.33E-04,  avg # of iterations =  4.6

     negative rho (up, down):  1.763E-03 0.000E+00

     total cpu time spent up to now is      162.4 secs

     total energy              =    -899.53001014 Ry
     estimated scf accuracy    <       0.49422680 Ry

     iteration # 10     ecut=   124.00 Ry     beta= 0.70
     Davidson diagonalization with overlap
     ethr =  5.33E-04,  avg # of iterations =  1.7

     negative rho (up, down):  2.237E-03 0.000E+00

     total cpu time spent up to now is      174.7 secs

     total energy              =    -899.45149662 Ry
     estimated scf accuracy    <       0.41029513 Ry

     iteration # 11     ecut=   124.00 Ry     beta= 0.70
     Davidson diagonalization with overlap
     ethr =  5.33E-04,  avg # of iterations =  3.8

     negative rho (up, down):  2.325E-03 0.000E+00

     total cpu time spent up to now is      190.9 secs

     total energy              =    -899.59856853 Ry
     estimated scf accuracy    <       0.51253693 Ry

     iteration # 12     ecut=   124.00 Ry     beta= 0.70
     Davidson diagonalization with overlap
     ethr =  5.33E-04,  avg # of iterations =  2.4

     negative rho (up, down):  2.192E-03 0.000E+00

     total cpu time spent up to now is      205.3 secs

     total energy              =    -899.56377628 Ry
     estimated scf accuracy    <       1.96901897 Ry

     iteration # 13     ecut=   124.00 Ry     beta= 0.70
     Davidson diagonalization with overlap
     ethr =  5.33E-04,  avg # of iterations =  1.0

     negative rho (up, down):  1.905E-03 0.000E+00

     total cpu time spent up to now is      218.2 secs

     total energy              =    -899.48388116 Ry
     estimated scf accuracy    <       1.01760115 Ry

     iteration # 14     ecut=   124.00 Ry     beta= 0.70
     Davidson diagonalization with overlap
     ethr =  5.33E-04,  avg # of iterations =  2.1

     negative rho (up, down):  1.796E-03 0.000E+00

     total cpu time spent up to now is      231.8 secs

     total energy              =    -899.51545155 Ry
     estimated scf accuracy    <       0.04214585 Ry

     iteration # 15     ecut=   124.00 Ry     beta= 0.70
     Davidson diagonalization with overlap
     ethr =  7.27E-05,  avg # of iterations =  5.0

     negative rho (up, down):  1.791E-03 0.000E+00

     total cpu time spent up to now is      248.0 secs

     total energy              =    -899.52308936 Ry
     estimated scf accuracy    <       0.00745993 Ry

     iteration # 16     ecut=   124.00 Ry     beta= 0.70
     Davidson diagonalization with overlap
     ethr =  1.29E-05,  avg # of iterations =  2.9

     negative rho (up, down):  1.763E-03 0.000E+00

     total cpu time spent up to now is      261.5 secs

     total energy              =    -899.52335019 Ry
     estimated scf accuracy    <       0.00894668 Ry

     iteration # 17     ecut=   124.00 Ry     beta= 0.70
     Davidson diagonalization with overlap
     ethr =  1.29E-05,  avg # of iterations =  1.0

     negative rho (up, down):  1.722E-03 0.000E+00

     total cpu time spent up to now is      273.0 secs

     total energy              =    -899.52201417 Ry
     estimated scf accuracy    <       0.00996010 Ry

     iteration # 18     ecut=   124.00 Ry     beta= 0.70
     Davidson diagonalization with overlap
     ethr =  1.29E-05,  avg # of iterations =  2.0

     negative rho (up, down):  1.781E-03 0.000E+00

     total cpu time spent up to now is      286.4 secs

     total energy              =    -899.52269019 Ry
     estimated scf accuracy    <       0.00098367 Ry

     iteration # 19     ecut=   124.00 Ry     beta= 0.70
     Davidson diagonalization with overlap
     ethr =  1.70E-06,  avg # of iterations =  4.9

     negative rho (up, down):  1.771E-03 0.000E+00

     total cpu time spent up to now is      304.8 secs

     total energy              =    -899.52286983 Ry
     estimated scf accuracy    <       0.00017123 Ry

     iteration # 20     ecut=   124.00 Ry     beta= 0.70
     Davidson diagonalization with overlap
     ethr =  2.95E-07,  avg # of iterations =  2.8

     negative rho (up, down):  1.765E-03 0.000E+00

     total cpu time spent up to now is      320.7 secs

     total energy              =    -899.52288131 Ry
     estimated scf accuracy    <       0.00005639 Ry

     iteration # 21     ecut=   124.00 Ry     beta= 0.70
     Davidson diagonalization with overlap
     ethr =  9.72E-08,  avg # of iterations =  3.6

     negative rho (up, down):  1.765E-03 0.000E+00

     total cpu time spent up to now is      335.7 secs

     total energy              =    -899.52288975 Ry
     estimated scf accuracy    <       0.00000036 Ry

     iteration # 22     ecut=   124.00 Ry     beta= 0.70
     Davidson diagonalization with overlap
     c_bands:  1 eigenvalues not converged
     ethr =  6.15E-10,  avg # of iterations =  9.2

     negative rho (up, down):  1.765E-03 0.000E+00

     total cpu time spent up to now is      379.0 secs

     total energy              =    -899.52289195 Ry
     estimated scf accuracy    <       0.00000110 Ry

     iteration # 23     ecut=   124.00 Ry     beta= 0.70
     Davidson diagonalization with overlap
     ethr =  6.15E-10,  avg # of iterations =  1.1

     negative rho (up, down):  1.765E-03 0.000E+00

     total cpu time spent up to now is      390.9 secs

     total energy              =    -899.52289170 Ry
     estimated scf accuracy    <       0.00000200 Ry

     iteration # 24     ecut=   124.00 Ry     beta= 0.70
     Davidson diagonalization with overlap
     ethr =  6.15E-10,  avg # of iterations =  3.5

     negative rho (up, down):  1.765E-03 0.000E+00

     total cpu time spent up to now is      406.5 secs

     End of self-consistent calculation

     Number of k-points >= 100: set verbosity='high' to print the bands.

     the Fermi energy is    16.2648 ev

!    total energy              =    -899.52289183 Ry
     estimated scf accuracy    <          3.4E-09 Ry
     smearing contrib. (-TS)   =      -0.00003688 Ry
     internal energy E=F+TS    =    -899.52285495 Ry

     The total energy is F=E-TS. E is the sum of the following terms:
     one-electron contribution =    -328.85869277 Ry
     hartree contribution      =     195.01927536 Ry
     xc contribution           =    -107.24954500 Ry
     ewald contribution        =    -506.12803196 Ry
     one-center paw contrib.   =    -152.30586058 Ry

     convergence has been achieved in  24 iterations

     negative rho (up, down):  1.765E-03 0.000E+00

     Forces acting on atoms (cartesian axes, Ry/au):

     atom    1 type  1   force =     0.00000000    0.00000000    0.00042370
     atom    2 type  1   force =     0.00000000    0.00000000   -0.00042370
     atom    3 type  3   force =     0.00000000    0.00000000    0.00178598
     atom    4 type  3   force =     0.00000000    0.00000000   -0.00178598
     atom    5 type  2   force =     0.00000000    0.00000000    0.00000000
     atom    6 type  2   force =     0.00000000    0.00000000    0.00000000

     Total force =     0.002596     Total SCF correction =     0.000175


     Computing stress (Cartesian axis) and pressure


     negative rho (up, down):  1.765E-03 0.000E+00
          total   stress  (Ry/bohr**3)                   (kbar)     P=       -6.42
  -0.00006064   0.00000000   0.00000000           -8.92        0.00        0.00
   0.00000000  -0.00003414   0.00000000            0.00       -5.02        0.00
   0.00000000   0.00000000  -0.00003615            0.00        0.00       -5.32


     BFGS Geometry Optimization
     Energy error            =      6.6E-05 Ry
     Gradient error          =      1.8E-03 Ry/Bohr
     Cell gradient error     =      8.9E+00 kbar

     number of scf cycles    =   1
     number of bfgs steps    =   0

     enthalpy           new  =    -899.5228918323 Ry

     new trust radius        =       0.0059289906 bohr
     new conv_thr            =       0.0000000100 Ry

     new unit-cell volume =    381.10508 a.u.^3 (    56.47395 Ang^3 )
     density =      6.15827 g/cm^3

CELL_PARAMETERS (alat=  8.08511764)
   0.998483937   0.000000000   0.000000000
   0.000000000   0.678478507   0.000000000
   0.000000000   0.000000000   1.064408971

ATOMIC_POSITIONS (crystal)
Fe               0.2500000000        0.0000000000        0.6972021891
Fe               0.7500000000        0.0000000000        0.3027978109
Ti               0.2500000000        0.5000000000        0.2513623430
Ti               0.7500000000        0.5000000000        0.7486376570
H                0.0000000000        0.0000000000        0.0000000000
H                0.5000000000        0.0000000000        0.0000000000



     Writing config-only to output data dir ./TiFe_H_faces_x.save/ :
     XML data file     NEW-OLD atomic charge density approx. for the potential
     New effective cutoffs (rho, wfc): 1740.96  124.38

     Check: negative core charge=   -0.000001

     negative rho (up, down):  1.759E-03 0.000E+00

     total cpu time spent up to now is      414.4 secs

     per-process dynamical memory:   317.5 Mb

     Self-consistent Calculation

     iteration #  1     ecut=   124.00 Ry     beta= 0.70
     Davidson diagonalization with overlap
     ethr =  1.00E-06,  avg # of iterations =  3.0

     Threshold (ethr) on eigenvalues was too large:
     Diagonalizing with lowered threshold

     Davidson diagonalization with overlap
     ethr =  2.37E-08,  avg # of iterations =  5.7

     negative rho (up, down):  1.765E-03 0.000E+00

     total cpu time spent up to now is      458.7 secs

     total energy              =    -899.52290968 Ry
     estimated scf accuracy    <       0.00000893 Ry

     iteration #  2     ecut=   124.00 Ry     beta= 0.70
     Davidson diagonalization with overlap
     ethr =  1.54E-08,  avg # of iterations =  5.8

     negative rho (up, down):  1.764E-03 0.000E+00

     total cpu time spent up to now is      481.6 secs

     total energy              =    -899.52289478 Ry
     estimated scf accuracy    <       0.00060634 Ry

     iteration #  3     ecut=   124.00 Ry     beta= 0.70
     Davidson diagonalization with overlap
     c_bands:  1 eigenvalues not converged
     ethr =  1.54E-08,  avg # of iterations =  5.1

     negative rho (up, down):  1.763E-03 0.000E+00

     total cpu time spent up to now is      502.7 secs

     total energy              =    -899.52292822 Ry
     estimated scf accuracy    <       0.00000854 Ry

     iteration #  4     ecut=   124.00 Ry     beta= 0.70
     Davidson diagonalization with overlap
     ethr =  1.47E-08,  avg # of iterations =  2.0

     negative rho (up, down):  1.763E-03 0.000E+00

     total cpu time spent up to now is      516.1 secs

     total energy              =    -899.52292962 Ry
     estimated scf accuracy    <       0.00000019 Ry

     iteration #  5     ecut=   124.00 Ry     beta= 0.70
     Davidson diagonalization with overlap
     ethr =  3.33E-10,  avg # of iterations =  4.4

     negative rho (up, down):  1.763E-03 0.000E+00

     total cpu time spent up to now is      533.7 secs

     total energy              =    -899.52292970 Ry
     estimated scf accuracy    <       0.00000022 Ry

     iteration #  6     ecut=   124.00 Ry     beta= 0.70
     Davidson diagonalization with overlap
     ethr =  3.33E-10,  avg # of iterations =  1.0

     negative rho (up, down):  1.763E-03 0.000E+00

     total cpu time spent up to now is      545.0 secs

     total energy              =    -899.52292971 Ry
     estimated scf accuracy    <       0.00000004 Ry

     iteration #  7     ecut=   124.00 Ry     beta= 0.70
     Davidson diagonalization with overlap
     ethr =  6.05E-11,  avg # of iterations =  2.1

     negative rho (up, down):  1.763E-03 0.000E+00

     total cpu time spent up to now is      559.0 secs

     End of self-consistent calculation

     Number of k-points >= 100: set verbosity='high' to print the bands.

     the Fermi energy is    16.3293 ev

!    total energy              =    -899.52292972 Ry
     estimated scf accuracy    <          1.3E-09 Ry
     smearing contrib. (-TS)   =      -0.00003632 Ry
     internal energy E=F+TS    =    -899.52289339 Ry

     The total energy is F=E-TS. E is the sum of the following terms:
     one-electron contribution =    -328.05717398 Ry
     hartree contribution      =     194.75477397 Ry
     xc contribution           =    -107.26211578 Ry
     ewald contribution        =    -506.65236527 Ry
     one-center paw contrib.   =    -152.30601233 Ry

     convergence has been achieved in   7 iterations

     negative rho (up, down):  1.763E-03 0.000E+00

     Forces acting on atoms (cartesian axes, Ry/au):

     atom    1 type  1   force =     0.00000000    0.00000000    0.00053875
     atom    2 type  1   force =     0.00000000    0.00000000   -0.00053875
     atom    3 type  3   force =     0.00000000    0.00000000    0.00090182
     atom    4 type  3   force =     0.00000000    0.00000000   -0.00090182
     atom    5 type  2   force =     0.00000000    0.00000000    0.00000000
     atom    6 type  2   force =     0.00000000    0.00000000    0.00000000

     Total force =     0.001486     Total SCF correction =     0.000067


     Computing stress (Cartesian axis) and pressure


     negative rho (up, down):  1.763E-03 0.000E+00
          total   stress  (Ry/bohr**3)                   (kbar)     P=       -0.25
  -0.00001331   0.00000000   0.00000000           -1.96        0.00        0.00
   0.00000000   0.00000144   0.00000000            0.00        0.21        0.00
   0.00000000   0.00000000   0.00000677            0.00        0.00        1.00

     Energy error            =      3.8E-05 Ry
     Gradient error          =      9.0E-04 Ry/Bohr
     Cell gradient error     =      2.0E+00 kbar

     number of scf cycles    =   2
     number of bfgs steps    =   1

     enthalpy           old  =    -899.5228918323 Ry
     enthalpy           new  =    -899.5229297157 Ry

     CASE: enthalpy          _new < enthalpy          _old

     new trust radius        =       0.0018798855 bohr
     new conv_thr            =            1.0E-10 Ry

     new unit-cell volume =    380.96775 a.u.^3 (    56.45360 Ang^3 )
     density =      6.16049 g/cm^3

CELL_PARAMETERS (alat=  8.08511764)
   0.998003186   0.000000000   0.000000000
   0.000000000   0.678468786   0.000000000
   0.000000000   0.000000000   1.064553239

ATOMIC_POSITIONS (crystal)
Fe               0.2500000000        0.0000000000        0.6972772861
Fe               0.7500000000        0.0000000000        0.3027227139
Ti               0.2500000000        0.5000000000        0.2514961902
Ti               0.7500000000        0.5000000000        0.7485038098
H                0.0000000000        0.0000000000        0.0000000000
H                0.5000000000        0.0000000000        0.0000000000



     Writing config-only to output data dir ./TiFe_H_faces_x.save/ :
     XML data file     NEW-OLD atomic charge density approx. for the potential
     New effective cutoffs (rho, wfc): 1742.59  124.49

     Check: negative core charge=   -0.000001

     negative rho (up, down):  1.761E-03 0.000E+00

     total cpu time spent up to now is      566.9 secs

     per-process dynamical memory:   317.5 Mb

     Self-consistent Calculation

     iteration #  1     ecut=   124.00 Ry     beta= 0.70
     Davidson diagonalization with overlap
     ethr =  1.00E-06,  avg # of iterations =  3.0

     Threshold (ethr) on eigenvalues was too large:
     Diagonalizing with lowered threshold

     Davidson diagonalization with overlap
     ethr =  9.28E-09,  avg # of iterations =  5.0

     negative rho (up, down):  1.763E-03 0.000E+00

     total cpu time spent up to now is      609.2 secs

     total energy              =    -899.52292883 Ry
     estimated scf accuracy    <       0.00000603 Ry

     iteration #  2     ecut=   124.00 Ry     beta= 0.70
     Davidson diagonalization with overlap
     ethr =  1.04E-08,  avg # of iterations =  5.9

     negative rho (up, down):  1.762E-03 0.000E+00

     total cpu time spent up to now is      634.0 secs

     total energy              =    -899.52289686 Ry
     estimated scf accuracy    <       0.00075904 Ry

     iteration #  3     ecut=   124.00 Ry     beta= 0.70
     Davidson diagonalization with overlap
     ethr =  1.04E-08,  avg # of iterations =  5.1

     negative rho (up, down):  1.762E-03 0.000E+00

     total cpu time spent up to now is      655.5 secs

     total energy              =    -899.52293380 Ry
     estimated scf accuracy    <       0.00000063 Ry

     iteration #  4     ecut=   124.00 Ry     beta= 0.70
     Davidson diagonalization with overlap
     ethr =  1.09E-09,  avg # of iterations =  3.2

     negative rho (up, down):  1.761E-03 0.000E+00

     total cpu time spent up to now is      671.3 secs

     total energy              =    -899.52293400 Ry
     estimated scf accuracy    <       0.00000001 Ry

     iteration #  5     ecut=   124.00 Ry     beta= 0.70
     Davidson diagonalization with overlap
     ethr =  2.37E-11,  avg # of iterations =  6.4

     negative rho (up, down):  1.762E-03 0.000E+00

     total cpu time spent up to now is      701.8 secs

     total energy              =    -899.52293403 Ry
     estimated scf accuracy    <          9.7E-09 Ry

     iteration #  6     ecut=   124.00 Ry     beta= 0.70
     Davidson diagonalization with overlap
     ethr =  1.67E-11,  avg # of iterations =  1.7

     negative rho (up, down):  1.762E-03 0.000E+00

     total cpu time spent up to now is      714.7 secs

     total energy              =    -899.52293403 Ry
     estimated scf accuracy    <          1.6E-09 Ry

     iteration #  7     ecut=   124.00 Ry     beta= 0.70
     Davidson diagonalization with overlap
     ethr =  2.76E-12,  avg # of iterations =  3.7

     negative rho (up, down):  1.762E-03 0.000E+00

     total cpu time spent up to now is      729.9 secs

     total energy              =    -899.52293403 Ry
     estimated scf accuracy    <          4.2E-10 Ry

     iteration #  8     ecut=   124.00 Ry     beta= 0.70
     Davidson diagonalization with overlap
     ethr =  7.25E-13,  avg # of iterations =  2.2

     negative rho (up, down):  1.762E-03 0.000E+00

     total cpu time spent up to now is      743.7 secs

     End of self-consistent calculation

     Number of k-points >= 100: set verbosity='high' to print the bands.

     the Fermi energy is    16.3369 ev

!    total energy              =    -899.52293403 Ry
     estimated scf accuracy    <          4.4E-11 Ry
     smearing contrib. (-TS)   =      -0.00003635 Ry
     internal energy E=F+TS    =    -899.52289768 Ry

     The total energy is F=E-TS. E is the sum of the following terms:
     one-electron contribution =    -327.99132399 Ry
     hartree contribution      =     194.73718261 Ry
     xc contribution           =    -107.26373846 Ry
     ewald contribution        =    -506.69898134 Ry
     one-center paw contrib.   =    -152.30603650 Ry

     convergence has been achieved in   8 iterations

     negative rho (up, down):  1.762E-03 0.000E+00

     Forces acting on atoms (cartesian axes, Ry/au):

     atom    1 type  1   force =     0.00000000    0.00000000    0.00039750
     atom    2 type  1   force =     0.00000000    0.00000000   -0.00039750
     atom    3 type  3   force =     0.00000000    0.00000000    0.00059262
     atom    4 type  3   force =     0.00000000    0.00000000   -0.00059262
     atom    5 type  2   force =     0.00000000    0.00000000    0.00000000
     atom    6 type  2   force =     0.00000000    0.00000000    0.00000000

     Total force =     0.001009     Total SCF correction =     0.000009


     Computing stress (Cartesian axis) and pressure


     negative rho (up, down):  1.762E-03 0.000E+00
          total   stress  (Ry/bohr**3)                   (kbar)     P=        0.61
  -0.00000374   0.00000000   0.00000000           -0.55        0.00        0.00
   0.00000000   0.00000517   0.00000000            0.00        0.76        0.00
   0.00000000   0.00000000   0.00001104            0.00        0.00        1.62

     Energy error            =      4.3E-06 Ry
     Gradient error          =      5.9E-04 Ry/Bohr
     Cell gradient error     =      1.6E+00 kbar

     number of scf cycles    =   3
     number of bfgs steps    =   2

     enthalpy           old  =    -899.5229297157 Ry
     enthalpy           new  =    -899.5229340328 Ry

     CASE: enthalpy          _new < enthalpy          _old

     new trust radius        =       0.0020684974 bohr
     new conv_thr            =            1.0E-10 Ry

     new unit-cell volume =    380.99501 a.u.^3 (    56.45764 Ang^3 )
     density =      6.16005 g/cm^3

CELL_PARAMETERS (alat=  8.08511764)
   0.997474360   0.000000000   0.000000000
   0.000000000   0.678564134   0.000000000
   0.000000000   0.000000000   1.065044172

ATOMIC_POSITIONS (crystal)
Fe               0.2500000000        0.0000000000        0.6973977284
Fe               0.7500000000        0.0000000000        0.3026022716
Ti               0.2500000000        0.5000000000        0.2516981397
Ti               0.7500000000        0.5000000000        0.7483018603
H                0.0000000000        0.0000000000        0.0000000000
H                0.5000000000        0.0000000000        0.0000000000



     Writing config-only to output data dir ./TiFe_H_faces_x.save/ :
     XML data file     NEW-OLD atomic charge density approx. for the potential
     New effective cutoffs (rho, wfc): 1744.36  124.62

     Check: negative core charge=   -0.000001

     negative rho (up, down):  1.758E-03 0.000E+00

     total cpu time spent up to now is      751.7 secs

     per-process dynamical memory:   317.5 Mb

     Self-consistent Calculation

     iteration #  1     ecut=   124.00 Ry     beta= 0.70
     Davidson diagonalization with overlap
     ethr =  1.00E-06,  avg # of iterations =  3.0

     Threshold (ethr) on eigenvalues was too large:
     Diagonalizing with lowered threshold

     Davidson diagonalization with overlap
     ethr =  1.44E-08,  avg # of iterations =  4.9

     negative rho (up, down):  1.760E-03 0.000E+00

     total cpu time spent up to now is      794.0 secs

     total energy              =    -899.52292935 Ry
     estimated scf accuracy    <       0.00001050 Ry

     iteration #  2     ecut=   124.00 Ry     beta= 0.70
     Davidson diagonalization with overlap
     ethr =  1.81E-08,  avg # of iterations =  5.5

     negative rho (up, down):  1.758E-03 0.000E+00

     total cpu time spent up to now is      814.8 secs

     total energy              =    -899.52287802 Ry
     estimated scf accuracy    <       0.00119462 Ry

     iteration #  3     ecut=   124.00 Ry     beta= 0.70
     Davidson diagonalization with overlap
     ethr =  1.81E-08,  avg # of iterations =  5.1

     negative rho (up, down):  1.758E-03 0.000E+00

     total cpu time spent up to now is      833.8 secs

     total energy              =    -899.52293759 Ry
     estimated scf accuracy    <       0.00000225 Ry

     iteration #  4     ecut=   124.00 Ry     beta= 0.70
     Davidson diagonalization with overlap
     ethr =  3.87E-09,  avg # of iterations =  2.4

     negative rho (up, down):  1.758E-03 0.000E+00

     total cpu time spent up to now is      847.7 secs

     total energy              =    -899.52293806 Ry
     estimated scf accuracy    <       0.00000004 Ry

     iteration #  5     ecut=   124.00 Ry     beta= 0.70
     Davidson diagonalization with overlap
     ethr =  7.51E-11,  avg # of iterations =  5.6

     negative rho (up, down):  1.758E-03 0.000E+00

     total cpu time spent up to now is      872.2 secs

     total energy              =    -899.52293811 Ry
     estimated scf accuracy    <       0.00000002 Ry

     iteration #  6     ecut=   124.00 Ry     beta= 0.70
     Davidson diagonalization with overlap
     ethr =  2.62E-11,  avg # of iterations =  2.0

     negative rho (up, down):  1.758E-03 0.000E+00

     total cpu time spent up to now is      885.2 secs

     total energy              =    -899.52293811 Ry
     estimated scf accuracy    <          1.5E-09 Ry

     iteration #  7     ecut=   124.00 Ry     beta= 0.70
     Davidson diagonalization with overlap
     ethr =  2.56E-12,  avg # of iterations =  4.1

     negative rho (up, down):  1.758E-03 0.000E+00

     total cpu time spent up to now is      902.0 secs

     total energy              =    -899.52293811 Ry
     estimated scf accuracy    <          4.8E-10 Ry

     iteration #  8     ecut=   124.00 Ry     beta= 0.70
     Davidson diagonalization with overlap
     ethr =  8.25E-13,  avg # of iterations =  2.2

     negative rho (up, down):  1.758E-03 0.000E+00

     total cpu time spent up to now is      915.8 secs

     End of self-consistent calculation

     Number of k-points >= 100: set verbosity='high' to print the bands.

     the Fermi energy is    16.3365 ev

!    total energy              =    -899.52293811 Ry
     estimated scf accuracy    <          3.7E-11 Ry
     smearing contrib. (-TS)   =      -0.00003654 Ry
     internal energy E=F+TS    =    -899.52290158 Ry

     The total energy is F=E-TS. E is the sum of the following terms:
     one-electron contribution =    -328.05181494 Ry
     hartree contribution      =     194.76440378 Ry
     xc contribution           =    -107.26374331 Ry
     ewald contribution        =    -506.66571107 Ry
     one-center paw contrib.   =    -152.30603604 Ry

     convergence has been achieved in   8 iterations

     negative rho (up, down):  1.758E-03 0.000E+00

     Forces acting on atoms (cartesian axes, Ry/au):

     atom    1 type  1   force =     0.00000000    0.00000000    0.00017502
     atom    2 type  1   force =     0.00000000    0.00000000   -0.00017502
     atom    3 type  3   force =     0.00000000    0.00000000    0.00020891
     atom    4 type  3   force =     0.00000000    0.00000000   -0.00020891
     atom    5 type  2   force =     0.00000000    0.00000000    0.00000000
     atom    6 type  2   force =     0.00000000    0.00000000    0.00000000

     Total force =     0.000385     Total SCF correction =     0.000009


     Computing stress (Cartesian axis) and pressure


     negative rho (up, down):  1.758E-03 0.000E+00
          total   stress  (Ry/bohr**3)                   (kbar)     P=        0.64
   0.00000183   0.00000000   0.00000000            0.27        0.00        0.00
   0.00000000   0.00000337   0.00000000            0.00        0.50        0.00
   0.00000000   0.00000000   0.00000791            0.00        0.00        1.16

     Energy error            =      4.1E-06 Ry
     Gradient error          =      2.1E-04 Ry/Bohr
     Cell gradient error     =      1.2E+00 kbar

     number of scf cycles    =   4
     number of bfgs steps    =   3

     enthalpy           old  =    -899.5229340328 Ry
     enthalpy           new  =    -899.5229381141 Ry

     CASE: enthalpy          _new < enthalpy          _old

     new trust radius        =       0.0016170366 bohr
     new conv_thr            =            1.0E-10 Ry

     new unit-cell volume =    381.10455 a.u.^3 (    56.47387 Ang^3 )
     density =      6.15828 g/cm^3

CELL_PARAMETERS (alat=  8.08511764)
   0.997225973   0.000000000   0.000000000
   0.000000000   0.678647179   0.000000000
   0.000000000   0.000000000   1.065485334

ATOMIC_POSITIONS (crystal)
Fe               0.2500000000        0.0000000000        0.6974805027
Fe               0.7500000000        0.0000000000        0.3025194973
Ti               0.2500000000        0.5000000000        0.2518287150
Ti               0.7500000000        0.5000000000        0.7481712850
H                0.0000000000        0.0000000000        0.0000000000
H                0.5000000000        0.0000000000        0.0000000000



     Writing config-only to output data dir ./TiFe_H_faces_x.save/ :
     XML data file     NEW-OLD atomic charge density approx. for the potential
     New effective cutoffs (rho, wfc): 1745.18  124.68

     Check: negative core charge=   -0.000001

     negative rho (up, down):  1.755E-03 0.000E+00

     total cpu time spent up to now is      922.9 secs

     per-process dynamical memory:   317.5 Mb

     Self-consistent Calculation

     iteration #  1     ecut=   124.00 Ry     beta= 0.70
     Davidson diagonalization with overlap
     ethr =  1.00E-06,  avg # of iterations =  3.0

     Threshold (ethr) on eigenvalues was too large:
     Diagonalizing with lowered threshold

     Davidson diagonalization with overlap
     ethr =  5.91E-09,  avg # of iterations =  5.2

     negative rho (up, down):  1.756E-03 0.000E+00

     total cpu time spent up to now is      962.7 secs

     total energy              =    -899.52293519 Ry
     estimated scf accuracy    <       0.00000464 Ry

     iteration #  2     ecut=   124.00 Ry     beta= 0.70
     Davidson diagonalization with overlap
     ethr =  8.00E-09,  avg # of iterations =  5.4

     negative rho (up, down):  1.754E-03 0.000E+00

     total cpu time spent up to now is      983.4 secs

     total energy              =    -899.52291261 Ry
     estimated scf accuracy    <       0.00052506 Ry

     iteration #  3     ecut=   124.00 Ry     beta= 0.70
     Davidson diagonalization with overlap
     ethr =  8.00E-09,  avg # of iterations =  5.1

     negative rho (up, down):  1.755E-03 0.000E+00

     total cpu time spent up to now is     1002.5 secs

     total energy              =    -899.52293894 Ry
     estimated scf accuracy    <       0.00000102 Ry

     iteration #  4     ecut=   124.00 Ry     beta= 0.70
     Davidson diagonalization with overlap
     ethr =  1.76E-09,  avg # of iterations =  2.5

     negative rho (up, down):  1.754E-03 0.000E+00

     total cpu time spent up to now is     1016.5 secs

     total energy              =    -899.52293914 Ry
     estimated scf accuracy    <       0.00000003 Ry

     iteration #  5     ecut=   124.00 Ry     beta= 0.70
     Davidson diagonalization with overlap
     ethr =  5.38E-11,  avg # of iterations =  5.2

     negative rho (up, down):  1.754E-03 0.000E+00

     total cpu time spent up to now is     1038.8 secs

     total energy              =    -899.52293916 Ry
     estimated scf accuracy    <          6.7E-09 Ry

     iteration #  6     ecut=   124.00 Ry     beta= 0.70
     Davidson diagonalization with overlap
     ethr =  1.16E-11,  avg # of iterations =  2.2

     negative rho (up, down):  1.754E-03 0.000E+00

     total cpu time spent up to now is     1052.8 secs

     total energy              =    -899.52293916 Ry
     estimated scf accuracy    <          5.7E-10 Ry

     iteration #  7     ecut=   124.00 Ry     beta= 0.70
     Davidson diagonalization with overlap
     ethr =  9.87E-13,  avg # of iterations =  4.2

     negative rho (up, down):  1.754E-03 0.000E+00

     total cpu time spent up to now is     1069.8 secs

     End of self-consistent calculation

     Number of k-points >= 100: set verbosity='high' to print the bands.

     the Fermi energy is    16.3315 ev

!    total energy              =    -899.52293916 Ry
     estimated scf accuracy    <          9.0E-11 Ry
     smearing contrib. (-TS)   =      -0.00003671 Ry
     internal energy E=F+TS    =    -899.52290245 Ry

     The total energy is F=E-TS. E is the sum of the following terms:
     one-electron contribution =    -328.15346693 Ry
     hartree contribution      =     194.80327169 Ry
     xc contribution           =    -107.26284180 Ry
     ewald contribution        =    -506.60384119 Ry
     one-center paw contrib.   =    -152.30602421 Ry

     convergence has been achieved in   7 iterations

     negative rho (up, down):  1.754E-03 0.000E+00

     Forces acting on atoms (cartesian axes, Ry/au):

     atom    1 type  1   force =     0.00000000    0.00000000    0.00001156
     atom    2 type  1   force =     0.00000000    0.00000000   -0.00001156
     atom    3 type  3   force =     0.00000000    0.00000000    0.00000025
     atom    4 type  3   force =     0.00000000    0.00000000   -0.00000025
     atom    5 type  2   force =     0.00000000    0.00000000   -0.00000000
     atom    6 type  2   force =     0.00000000    0.00000000    0.00000000

     Total force =     0.000016     Total SCF correction =     0.000004
     SCF correction compared to forces is large: reduce conv_thr to get better values


     Computing stress (Cartesian axis) and pressure


     negative rho (up, down):  1.754E-03 0.000E+00
          total   stress  (Ry/bohr**3)                   (kbar)     P=        0.23
   0.00000209   0.00000000   0.00000000            0.31        0.00        0.00
   0.00000000   0.00000032   0.00000000            0.00        0.05        0.00
   0.00000000   0.00000000   0.00000219            0.00        0.00        0.32

     Energy error            =      1.0E-06 Ry
     Gradient error          =      1.2E-05 Ry/Bohr
     Cell gradient error     =      3.2E-01 kbar

     number of scf cycles    =   5
     number of bfgs steps    =   4

     enthalpy           old  =    -899.5229381141 Ry
     enthalpy           new  =    -899.5229391619 Ry

     CASE: enthalpy          _new < enthalpy          _old

     new trust radius        =       0.0002480192 bohr
     new conv_thr            =            1.0E-10 Ry

     new unit-cell volume =    381.14231 a.u.^3 (    56.47946 Ang^3 )
     density =      6.15767 g/cm^3

CELL_PARAMETERS (alat=  8.08511764)
   0.997257269   0.000000000   0.000000000
   0.000000000   0.678650013   0.000000000
   0.000000000   0.000000000   1.065553017

ATOMIC_POSITIONS (crystal)
Fe               0.2500000000        0.0000000000        0.6974855928
Fe               0.7500000000        0.0000000000        0.3025144072
Ti               0.2500000000        0.5000000000        0.2518354524
Ti               0.7500000000        0.5000000000        0.7481645476
H                0.0000000000        0.0000000000        0.0000000000
H                0.5000000000        0.0000000000        0.0000000000



     Writing config-only to output data dir ./TiFe_H_faces_x.save/ :
     XML data file     NEW-OLD atomic charge density approx. for the potential
     New effective cutoffs (rho, wfc): 1745.07  124.68

     Check: negative core charge=   -0.000001

     negative rho (up, down):  1.754E-03 0.000E+00

     total cpu time spent up to now is     1076.9 secs

     per-process dynamical memory:   317.5 Mb

     Self-consistent Calculation

     iteration #  1     ecut=   124.00 Ry     beta= 0.70
     Davidson diagonalization with overlap
     ethr =  1.00E-06,  avg # of iterations =  2.0

     Threshold (ethr) on eigenvalues was too large:
     Diagonalizing with lowered threshold

     Davidson diagonalization with overlap
     ethr =  2.23E-11,  avg # of iterations =  7.3

     negative rho (up, down):  1.754E-03 0.000E+00

     total cpu time spent up to now is     1121.1 secs

     total energy              =    -899.52293917 Ry
     estimated scf accuracy    <       0.00000003 Ry

     iteration #  2     ecut=   124.00 Ry     beta= 0.70
     Davidson diagonalization with overlap
     ethr =  4.77E-11,  avg # of iterations =  6.1

     negative rho (up, down):  1.754E-03 0.000E+00

     total cpu time spent up to now is     1141.7 secs

     total energy              =    -899.52293904 Ry
     estimated scf accuracy    <       0.00000310 Ry

     iteration #  3     ecut=   124.00 Ry     beta= 0.70
     Davidson diagonalization with overlap
     ethr =  4.77E-11,  avg # of iterations =  5.2

     negative rho (up, down):  1.754E-03 0.000E+00

     total cpu time spent up to now is     1160.9 secs

     total energy              =    -899.52293920 Ry
     estimated scf accuracy    <          7.1E-09 Ry

     iteration #  4     ecut=   124.00 Ry     beta= 0.70
     Davidson diagonalization with overlap
     ethr =  1.23E-11,  avg # of iterations =  2.4

     negative rho (up, down):  1.754E-03 0.000E+00

     total cpu time spent up to now is     1174.5 secs

     total energy              =    -899.52293920 Ry
     estimated scf accuracy    <          8.9E-10 Ry

     iteration #  5     ecut=   124.00 Ry     beta= 0.70
     Davidson diagonalization with overlap
     ethr =  1.54E-12,  avg # of iterations =  3.9

     negative rho (up, down):  1.754E-03 0.000E+00

     total cpu time spent up to now is     1189.3 secs

     End of self-consistent calculation

     Number of k-points >= 100: set verbosity='high' to print the bands.

     the Fermi energy is    16.3295 ev

!    total energy              =    -899.52293920 Ry
     estimated scf accuracy    <          6.8E-11 Ry
     smearing contrib. (-TS)   =      -0.00003676 Ry
     internal energy E=F+TS    =    -899.52290244 Ry

     The total energy is F=E-TS. E is the sum of the following terms:
     one-electron contribution =    -328.18069371 Ry
     hartree contribution      =     194.81280579 Ry
     xc contribution           =    -107.26247280 Ry
     ewald contribution        =    -506.58652367 Ry
     one-center paw contrib.   =    -152.30601805 Ry

     convergence has been achieved in   5 iterations

     negative rho (up, down):  1.754E-03 0.000E+00

     Forces acting on atoms (cartesian axes, Ry/au):

     atom    1 type  1   force =     0.00000000    0.00000000    0.00000130
     atom    2 type  1   force =     0.00000000    0.00000000   -0.00000130
     atom    3 type  3   force =     0.00000000    0.00000000    0.00000150
     atom    4 type  3   force =     0.00000000    0.00000000   -0.00000150
     atom    5 type  2   force =     0.00000000    0.00000000    0.00000000
     atom    6 type  2   force =     0.00000000    0.00000000    0.00000000

     Total force =     0.000003     Total SCF correction =     0.000020
     SCF correction compared to forces is large: reduce conv_thr to get better values


     Computing stress (Cartesian axis) and pressure


     negative rho (up, down):  1.754E-03 0.000E+00
          total   stress  (Ry/bohr**3)                   (kbar)     P=       -0.00
   0.00000043   0.00000000   0.00000000            0.06        0.00        0.00
   0.00000000  -0.00000063   0.00000000            0.00       -0.09        0.00
   0.00000000   0.00000000   0.00000020            0.00        0.00        0.03

     Energy error            =      3.6E-08 Ry
     Gradient error          =      1.5E-06 Ry/Bohr
     Cell gradient error     =      9.3E-02 kbar

     bfgs converged in   6 scf cycles and   5 bfgs steps
     (criteria: energy <  1.0E-04 Ry, force <  1.0E-03 Ry/Bohr, cell <  1.0E-01 kbar)

     End of BFGS Geometry Optimization

     Final enthalpy           =    -899.5229391980 Ry

     File ./TiFe_H_faces_x.bfgs deleted, as requested
Begin final coordinates
     new unit-cell volume =    381.14231 a.u.^3 (    56.47946 Ang^3 )
     density =      6.15767 g/cm^3

CELL_PARAMETERS (alat=  8.08511764)
   0.997257269   0.000000000   0.000000000
   0.000000000   0.678650013   0.000000000
   0.000000000   0.000000000   1.065553017

ATOMIC_POSITIONS (crystal)
Fe               0.2500000000        0.0000000000        0.6974855928
Fe               0.7500000000        0.0000000000        0.3025144072
Ti               0.2500000000        0.5000000000        0.2518354524
Ti               0.7500000000        0.5000000000        0.7481645476
H                0.0000000000        0.0000000000        0.0000000000
H                0.5000000000        0.0000000000        0.0000000000
End final coordinates



     Writing config-only to output data dir ./TiFe_H_faces_x.save/ :
     XML data file
     Final scf calculation at the relaxed structure.
     The G-vectors are recalculated for the final unit cell
     Results may differ from those at the preceding step.

     Parallelization info
     --------------------
     sticks:   dense  smooth     PW     G-vecs:    dense   smooth      PW
     Min         382     109     31                29098     4445     675
     Max         383     110     32                29102     4448     678
     Sum        6115    1751    499               465609    71131   10807

     Using Slab Decomposition



     bravais-lattice index     =            0
     lattice parameter (alat)  =       8.0851  a.u.
     unit-cell volume          =     381.1423 (a.u.)^3
     number of atoms/cell      =            6
     number of atomic types    =            3
     number of electrons       =        58.00
     number of Kohn-Sham states=           35
     kinetic-energy cutoff     =     124.0000  Ry
     charge density cutoff     =    1736.0000  Ry
     scf convergence threshold =      1.0E-10
     mixing beta               =       0.7000
     number of iterations used =            8  plain     mixing
     press convergence thresh. =      1.0E-01
     Exchange-correlation= PBE
                           (   1   4   3   4   0   0   0)

     celldm(1)=   8.085118  celldm(2)=   0.000000  celldm(3)=   0.000000
     celldm(4)=   0.000000  celldm(5)=   0.000000  celldm(6)=   0.000000

     crystal axes: (cart. coord. in units of alat)
               a(1) = (   0.997257   0.000000   0.000000 )  
               a(2) = (   0.000000   0.678650   0.000000 )  
               a(3) = (   0.000000   0.000000   1.065553 )  

     reciprocal axes: (cart. coord. in units 2 pi/alat)
               b(1) = (  1.002750  0.000000  0.000000 )  
               b(2) = (  0.000000  1.473514  0.000000 )  
               b(3) = (  0.000000  0.000000  0.938480 )  


     PseudoPot. # 1 for Fe read from file:
     ../../pseudos/Fe.pbe-spn-kjpaw_psl.0.2.1.UPF
     MD5 check sum: e86618425769142926afa95317d90200
     Pseudo is Projector augmented-wave + core cor, Zval = 16.0
     Generated using "atomic" code by A. Dal Corso  v.5.0.99 svn rev. 10869
     Shape of augmentation charge: PSQ
     Using radial grid of 1191 points,  6 beta functions with: 
                l(1) =   0
                l(2) =   0
                l(3) =   1
                l(4) =   1
                l(5) =   2
                l(6) =   2
     Q(r) pseudized with 0 coefficients 


     PseudoPot. # 2 for H  read from file:
     ../../pseudos/H.pbe-rrkjus_psl.1.0.0.UPF
     MD5 check sum: f52b6d4d1c606e5624b1dc7b2218f220
     Pseudo is Ultrasoft, Zval =  1.0
     Generated using "atomic" code by A. Dal Corso  v.5.1
     Using radial grid of  929 points,  2 beta functions with: 
                l(1) =   0
                l(2) =   0
     Q(r) pseudized with 0 coefficients 


     PseudoPot. # 3 for Ti read from file:
     ../../pseudos/ti_pbe_v1.4.uspp.F.UPF
     MD5 check sum: 88a00a6731bd790ddea75d31a80cb452
     Pseudo is Ultrasoft + core correction, Zval = 12.0
     Generated by new atomic code, or converted to UPF format
     Using radial grid of  851 points,  6 beta functions with: 
                l(1) =   0
                l(2) =   0
                l(3) =   1
                l(4) =   1
                l(5) =   2
                l(6) =   2
     Q(r) pseudized with  6 coefficients,  rinner =    1.000   1.000   1.000
                                                       1.000   1.000

     atomic species   valence    mass     pseudopotential
     Fe               16.00    55.84500     Fe( 1.00)
     H                 1.00     1.00750     H ( 1.00)
     Ti               12.00    47.86700     Ti( 1.00)

      8 Sym. Ops., with inversion, found ( 4 have fractional translation)



   Cartesian axes

     site n.     atom                  positions (alat units)
         1        Fe     tau(   1) = (   0.2493143   0.0000000   0.7432079  )
         2        Fe     tau(   2) = (   0.7479430   0.0000000   0.3223451  )
         3        Ti     tau(   3) = (   0.2493143   0.3393250   0.2683440  )
         4        Ti     tau(   4) = (   0.7479430   0.3393250   0.7972090  )
         5        H      tau(   5) = (   0.0000000   0.0000000   0.0000000  )
         6        H      tau(   6) = (   0.4986286   0.0000000   0.0000000  )

     number of k points=   512  Marzari-Vanderbilt smearing, width (Ry)=  0.0050

     Number of k-points >= 100: set verbosity='high' to print them.

     Dense  grid:   465609 G-vectors     FFT dimensions: ( 108,  75, 120)

     Smooth grid:    71131 G-vectors     FFT dimensions: (  60,  40,  64)

     Estimated max dynamical RAM per process >     280.81 MB

     Estimated total dynamical RAM >       4.39 GB

     Check: negative core charge=   -0.000001

     Initial potential from superposition of free atoms

     starting charge      55.9990, renormalised to      58.0000

     negative rho (up, down):  2.700E-03 0.000E+00
     Starting wfcs are   48 randomized atomic wfcs
     Checking if some PAW data can be deallocated... 

     total cpu time spent up to now is     1202.7 secs

     per-process dynamical memory:   304.1 Mb

     Self-consistent Calculation

     iteration #  1     ecut=   124.00 Ry     beta= 0.70
     Davidson diagonalization with overlap
     c_bands:  1 eigenvalues not converged
     c_bands:  1 eigenvalues not converged
     c_bands:  1 eigenvalues not converged
     c_bands:  2 eigenvalues not converged
     c_bands:  1 eigenvalues not converged
     c_bands:  1 eigenvalues not converged
     c_bands:  1 eigenvalues not converged
     c_bands:  1 eigenvalues not converged
     c_bands:  2 eigenvalues not converged
     c_bands:  1 eigenvalues not converged
     c_bands:  1 eigenvalues not converged
     c_bands:  1 eigenvalues not converged
     c_bands:  1 eigenvalues not converged
     c_bands:  2 eigenvalues not converged
     c_bands:  2 eigenvalues not converged
     c_bands:  1 eigenvalues not converged
     c_bands:  2 eigenvalues not converged
     c_bands:  1 eigenvalues not converged
     c_bands:  2 eigenvalues not converged
     c_bands:  2 eigenvalues not converged
     c_bands:  2 eigenvalues not converged
     c_bands:  1 eigenvalues not converged
     c_bands:  1 eigenvalues not converged
     c_bands:  2 eigenvalues not converged
     c_bands:  2 eigenvalues not converged
     c_bands:  1 eigenvalues not converged
     c_bands:  1 eigenvalues not converged
     c_bands:  1 eigenvalues not converged
     c_bands:  1 eigenvalues not converged
     c_bands:  1 eigenvalues not converged
     c_bands:  1 eigenvalues not converged
     c_bands:  1 eigenvalues not converged
     c_bands:  1 eigenvalues not converged
     c_bands:  1 eigenvalues not converged
     c_bands:  1 eigenvalues not converged
     c_bands:  2 eigenvalues not converged
     c_bands:  1 eigenvalues not converged
     c_bands:  1 eigenvalues not converged
     c_bands:  1 eigenvalues not converged
     c_bands:  1 eigenvalues not converged
     c_bands:  3 eigenvalues not converged
     c_bands:  2 eigenvalues not converged
     c_bands:  2 eigenvalues not converged
     c_bands:  2 eigenvalues not converged
     c_bands:  1 eigenvalues not converged
     c_bands:  1 eigenvalues not converged
     c_bands:  2 eigenvalues not converged
     c_bands:  3 eigenvalues not converged
     c_bands:  3 eigenvalues not converged
     c_bands:  3 eigenvalues not converged
     c_bands:  1 eigenvalues not converged
     c_bands:  2 eigenvalues not converged
     c_bands:  3 eigenvalues not converged
     c_bands:  1 eigenvalues not converged
     c_bands:  1 eigenvalues not converged
     c_bands:  1 eigenvalues not converged
     c_bands:  1 eigenvalues not converged
     c_bands:  1 eigenvalues not converged
     c_bands:  3 eigenvalues not converged
     c_bands:  1 eigenvalues not converged
     c_bands:  1 eigenvalues not converged
     c_bands:  2 eigenvalues not converged
     c_bands:  2 eigenvalues not converged
     c_bands:  1 eigenvalues not converged
     c_bands:  2 eigenvalues not converged
     c_bands:  1 eigenvalues not converged
     c_bands:  2 eigenvalues not converged
     c_bands:  1 eigenvalues not converged
     c_bands:  1 eigenvalues not converged
     c_bands:  2 eigenvalues not converged
     c_bands:  2 eigenvalues not converged
     c_bands:  1 eigenvalues not converged
     c_bands:  1 eigenvalues not converged
     c_bands:  2 eigenvalues not converged
     c_bands:  2 eigenvalues not converged
     c_bands:  1 eigenvalues not converged
     c_bands:  1 eigenvalues not converged
     c_bands:  1 eigenvalues not converged
     c_bands:  1 eigenvalues not converged
     c_bands:  4 eigenvalues not converged
     c_bands:  4 eigenvalues not converged
     c_bands:  3 eigenvalues not converged
     c_bands:  3 eigenvalues not converged
     c_bands:  2 eigenvalues not converged
     c_bands:  1 eigenvalues not converged
     c_bands:  1 eigenvalues not converged
     c_bands:  1 eigenvalues not converged
     c_bands:  2 eigenvalues not converged
     c_bands:  3 eigenvalues not converged
     c_bands:  4 eigenvalues not converged
     c_bands:  3 eigenvalues not converged
     c_bands:  1 eigenvalues not converged
     c_bands:  1 eigenvalues not converged
     c_bands:  1 eigenvalues not converged
     c_bands:  2 eigenvalues not converged
     c_bands:  1 eigenvalues not converged
     c_bands:  1 eigenvalues not converged
     c_bands:  1 eigenvalues not converged
     c_bands:  2 eigenvalues not converged
     c_bands:  1 eigenvalues not converged
     c_bands:  2 eigenvalues not converged
     c_bands:  2 eigenvalues not converged
     c_bands:  1 eigenvalues not converged
     c_bands:  1 eigenvalues not converged
     c_bands:  1 eigenvalues not converged
     c_bands:  1 eigenvalues not converged
     c_bands:  1 eigenvalues not converged
     c_bands:  2 eigenvalues not converged
     c_bands:  2 eigenvalues not converged
     c_bands:  2 eigenvalues not converged
     c_bands:  1 eigenvalues not converged
     c_bands:  2 eigenvalues not converged
     c_bands:  2 eigenvalues not converged
     c_bands:  1 eigenvalues not converged
     c_bands:  1 eigenvalues not converged
     c_bands:  3 eigenvalues not converged
     c_bands:  2 eigenvalues not converged
     c_bands:  1 eigenvalues not converged
     c_bands:  1 eigenvalues not converged
     c_bands:  1 eigenvalues not converged
     c_bands:  1 eigenvalues not converged
     c_bands:  1 eigenvalues not converged
     c_bands:  1 eigenvalues not converged
     c_bands:  3 eigenvalues not converged
     c_bands:  2 eigenvalues not converged
     c_bands:  1 eigenvalues not converged
     c_bands:  1 eigenvalues not converged
     c_bands:  1 eigenvalues not converged
     c_bands:  1 eigenvalues not converged
     c_bands:  1 eigenvalues not converged
     c_bands:  2 eigenvalues not converged
     c_bands:  2 eigenvalues not converged
     c_bands:  2 eigenvalues not converged
     c_bands:  1 eigenvalues not converged
     c_bands:  1 eigenvalues not converged
     c_bands:  1 eigenvalues not converged
     c_bands:  1 eigenvalues not converged
     c_bands:  1 eigenvalues not converged
     c_bands:  1 eigenvalues not converged
     c_bands:  1 eigenvalues not converged
     c_bands:  1 eigenvalues not converged
     c_bands:  1 eigenvalues not converged
     c_bands:  2 eigenvalues not converged
     c_bands:  1 eigenvalues not converged
     c_bands:  2 eigenvalues not converged
     c_bands:  2 eigenvalues not converged
     c_bands:  2 eigenvalues not converged
     c_bands:  2 eigenvalues not converged
     c_bands:  1 eigenvalues not converged
     c_bands:  2 eigenvalues not converged
     c_bands:  2 eigenvalues not converged
     c_bands:  2 eigenvalues not converged
     c_bands:  2 eigenvalues not converged
     c_bands:  3 eigenvalues not converged
     c_bands:  2 eigenvalues not converged
     c_bands:  1 eigenvalues not converged
     c_bands:  1 eigenvalues not converged
     c_bands:  1 eigenvalues not converged
     c_bands:  1 eigenvalues not converged
     c_bands:  1 eigenvalues not converged
     c_bands:  1 eigenvalues not converged
     c_bands:  1 eigenvalues not converged
     c_bands:  1 eigenvalues not converged
     c_bands:  1 eigenvalues not converged
     c_bands:  1 eigenvalues not converged
     c_bands:  1 eigenvalues not converged
     c_bands:  1 eigenvalues not converged
     c_bands:  1 eigenvalues not converged
     c_bands:  1 eigenvalues not converged
     c_bands:  1 eigenvalues not converged
     c_bands:  1 eigenvalues not converged
     c_bands:  1 eigenvalues not converged
     c_bands:  1 eigenvalues not converged
     c_bands:  1 eigenvalues not converged
     c_bands:  1 eigenvalues not converged
     c_bands:  1 eigenvalues not converged
     c_bands:  1 eigenvalues not converged
     c_bands:  1 eigenvalues not converged
     c_bands:  2 eigenvalues not converged
     c_bands:  2 eigenvalues not converged
     c_bands:  1 eigenvalues not converged
     c_bands:  1 eigenvalues not converged
     c_bands:  2 eigenvalues not converged
     c_bands:  1 eigenvalues not converged
     c_bands:  1 eigenvalues not converged
     c_bands:  2 eigenvalues not converged
     c_bands:  2 eigenvalues not converged
     c_bands:  1 eigenvalues not converged
     c_bands:  1 eigenvalues not converged
     c_bands:  1 eigenvalues not converged
     c_bands:  1 eigenvalues not converged
     c_bands:  1 eigenvalues not converged
     c_bands:  1 eigenvalues not converged
     c_bands:  1 eigenvalues not converged
     c_bands:  2 eigenvalues not converged
     c_bands:  3 eigenvalues not converged
     c_bands:  2 eigenvalues not converged
     c_bands:  1 eigenvalues not converged
     c_bands:  1 eigenvalues not converged
     c_bands:  1 eigenvalues not converged
     c_bands:  1 eigenvalues not converged
     c_bands:  1 eigenvalues not converged
     c_bands:  1 eigenvalues not converged
     c_bands:  1 eigenvalues not converged
     c_bands:  1 eigenvalues not converged
     c_bands:  1 eigenvalues not converged
     c_bands:  1 eigenvalues not converged
     c_bands:  1 eigenvalues not converged
     c_bands:  1 eigenvalues not converged
     c_bands:  1 eigenvalues not converged
     c_bands:  1 eigenvalues not converged
     c_bands:  1 eigenvalues not converged
     c_bands:  1 eigenvalues not converged
     c_bands:  1 eigenvalues not converged
     c_bands:  1 eigenvalues not converged
     c_bands:  1 eigenvalues not converged
     c_bands:  1 eigenvalues not converged
     c_bands:  1 eigenvalues not converged
     c_bands:  1 eigenvalues not converged
     c_bands:  3 eigenvalues not converged
     c_bands:  2 eigenvalues not converged
     c_bands:  1 eigenvalues not converged
     c_bands:  1 eigenvalues not converged
     c_bands:  1 eigenvalues not converged
     c_bands:  1 eigenvalues not converged
     c_bands:  2 eigenvalues not converged
     c_bands:  2 eigenvalues not converged
     c_bands:  2 eigenvalues not converged
     c_bands:  1 eigenvalues not converged
     c_bands:  1 eigenvalues not converged
     c_bands:  2 eigenvalues not converged
     c_bands:  2 eigenvalues not converged
     c_bands:  1 eigenvalues not converged
     c_bands:  1 eigenvalues not converged
     c_bands:  1 eigenvalues not converged
     c_bands:  1 eigenvalues not converged
     c_bands:  2 eigenvalues not converged
     c_bands:  1 eigenvalues not converged
     c_bands:  1 eigenvalues not converged
     c_bands:  1 eigenvalues not converged
     c_bands:  1 eigenvalues not converged
     c_bands:  1 eigenvalues not converged
     c_bands:  1 eigenvalues not converged
     c_bands:  1 eigenvalues not converged
     c_bands:  1 eigenvalues not converged
     c_bands:  1 eigenvalues not converged
     c_bands:  1 eigenvalues not converged
     c_bands:  1 eigenvalues not converged
     c_bands:  1 eigenvalues not converged
     c_bands:  1 eigenvalues not converged
     c_bands:  1 eigenvalues not converged
     c_bands:  1 eigenvalues not converged
     c_bands:  1 eigenvalues not converged
     c_bands:  1 eigenvalues not converged
     c_bands:  1 eigenvalues not converged
     c_bands:  1 eigenvalues not converged
     c_bands:  2 eigenvalues not converged
     c_bands:  2 eigenvalues not converged
     c_bands:  1 eigenvalues not converged
     c_bands:  1 eigenvalues not converged
     c_bands:  1 eigenvalues not converged
     c_bands:  2 eigenvalues not converged
     c_bands:  3 eigenvalues not converged
     c_bands:  1 eigenvalues not converged
     c_bands:  1 eigenvalues not converged
     c_bands:  1 eigenvalues not converged
     c_bands:  1 eigenvalues not converged
     c_bands:  1 eigenvalues not converged
     c_bands:  2 eigenvalues not converged
     c_bands:  2 eigenvalues not converged
     c_bands:  2 eigenvalues not converged
     c_bands:  1 eigenvalues not converged
     c_bands:  1 eigenvalues not converged
     c_bands:  1 eigenvalues not converged
     c_bands:  2 eigenvalues not converged
     c_bands:  2 eigenvalues not converged
     c_bands:  1 eigenvalues not converged
     c_bands:  1 eigenvalues not converged
     c_bands:  1 eigenvalues not converged
     c_bands:  1 eigenvalues not converged
     c_bands:  1 eigenvalues not converged
     c_bands:  1 eigenvalues not converged
     c_bands:  2 eigenvalues not converged
     c_bands:  1 eigenvalues not converged
     c_bands:  1 eigenvalues not converged
     c_bands:  1 eigenvalues not converged
     c_bands:  1 eigenvalues not converged
     c_bands:  1 eigenvalues not converged
     c_bands:  1 eigenvalues not converged
     c_bands:  1 eigenvalues not converged
     c_bands:  1 eigenvalues not converged
     c_bands:  1 eigenvalues not converged
     c_bands:  1 eigenvalues not converged
     c_bands:  1 eigenvalues not converged
     c_bands:  1 eigenvalues not converged
     c_bands:  1 eigenvalues not converged
     c_bands:  1 eigenvalues not converged
     c_bands:  1 eigenvalues not converged
     c_bands:  1 eigenvalues not converged
     c_bands:  1 eigenvalues not converged
     c_bands:  1 eigenvalues not converged
     c_bands:  1 eigenvalues not converged
     c_bands:  1 eigenvalues not converged
     c_bands:  2 eigenvalues not converged
     c_bands:  2 eigenvalues not converged
     c_bands:  1 eigenvalues not converged
     c_bands:  3 eigenvalues not converged
     c_bands:  2 eigenvalues not converged
     c_bands:  1 eigenvalues not converged
     c_bands:  2 eigenvalues not converged
     c_bands:  4 eigenvalues not converged
     c_bands:  1 eigenvalues not converged
     c_bands:  1 eigenvalues not converged
     c_bands:  2 eigenvalues not converged
     c_bands:  1 eigenvalues not converged
     c_bands:  3 eigenvalues not converged
     c_bands:  3 eigenvalues not converged
     c_bands:  2 eigenvalues not converged
     c_bands:  1 eigenvalues not converged
     c_bands:  1 eigenvalues not converged
     c_bands:  1 eigenvalues not converged
     c_bands:  1 eigenvalues not converged
     c_bands:  1 eigenvalues not converged
     c_bands:  1 eigenvalues not converged
     c_bands:  1 eigenvalues not converged
     c_bands:  1 eigenvalues not converged
     c_bands:  1 eigenvalues not converged
     c_bands:  1 eigenvalues not converged
     c_bands:  1 eigenvalues not converged
     c_bands:  1 eigenvalues not converged
     c_bands:  1 eigenvalues not converged
     c_bands:  1 eigenvalues not converged
     c_bands:  1 eigenvalues not converged
     c_bands:  1 eigenvalues not converged
     c_bands:  1 eigenvalues not converged
     c_bands:  1 eigenvalues not converged
     c_bands:  1 eigenvalues not converged
     c_bands:  1 eigenvalues not converged
     c_bands:  1 eigenvalues not converged
     c_bands:  1 eigenvalues not converged
     c_bands:  1 eigenvalues not converged
     c_bands:  1 eigenvalues not converged
     c_bands:  1 eigenvalues not converged
     c_bands:  1 eigenvalues not converged
     c_bands:  1 eigenvalues not converged
     c_bands:  1 eigenvalues not converged
     c_bands:  1 eigenvalues not converged
     c_bands:  1 eigenvalues not converged
     c_bands:  1 eigenvalues not converged
     c_bands:  1 eigenvalues not converged
     c_bands:  1 eigenvalues not converged
     c_bands:  1 eigenvalues not converged
     c_bands:  1 eigenvalues not converged
     c_bands:  1 eigenvalues not converged
     c_bands:  1 eigenvalues not converged
     ethr =  1.00E-06,  avg # of iterations = 19.4

     negative rho (up, down):  1.756E-04 0.000E+00

     total cpu time spent up to now is     1285.2 secs

     total energy              =    -871.28060611 Ry
     estimated scf accuracy    <      35.73697974 Ry

     iteration #  2     ecut=   124.00 Ry     beta= 0.70
     Davidson diagonalization with overlap
     ethr =  1.00E-02,  avg # of iterations =  6.8

     negative rho (up, down):  8.126E-05 0.000E+00

     total cpu time spent up to now is     1314.0 secs

     total energy              =    -898.50165155 Ry
     estimated scf accuracy    <     141.17018051 Ry

     iteration #  3     ecut=   124.00 Ry     beta= 0.70
     Davidson diagonalization with overlap
     ethr =  1.00E-02,  avg # of iterations =  3.0

     negative rho (up, down):  4.009E-04 0.000E+00

     total cpu time spent up to now is     1331.9 secs

     total energy              =    -900.88543077 Ry
     estimated scf accuracy    <      34.67480534 Ry

     iteration #  4     ecut=   124.00 Ry     beta= 0.70
     Davidson diagonalization with overlap
     ethr =  1.00E-02,  avg # of iterations =  2.1

     negative rho (up, down):  5.934E-04 0.000E+00

     total cpu time spent up to now is     1345.8 secs

     total energy              =    -900.75304473 Ry
     estimated scf accuracy    <      15.27399652 Ry

     iteration #  5     ecut=   124.00 Ry     beta= 0.70
     Davidson diagonalization with overlap
     ethr =  1.00E-02,  avg # of iterations =  1.1

     negative rho (up, down):  6.272E-04 0.000E+00

     total cpu time spent up to now is     1357.2 secs

     total energy              =    -900.79237424 Ry
     estimated scf accuracy    <      11.09951945 Ry

     iteration #  6     ecut=   124.00 Ry     beta= 0.70
     Davidson diagonalization with overlap
     ethr =  1.00E-02,  avg # of iterations =  1.0

     negative rho (up, down):  2.250E-03 0.000E+00

     total cpu time spent up to now is     1368.5 secs

     total energy              =    -897.88760398 Ry
     estimated scf accuracy    <      11.01253262 Ry

     iteration #  7     ecut=   124.00 Ry     beta= 0.70
     Davidson diagonalization with overlap
     ethr =  1.00E-02,  avg # of iterations =  4.4

     negative rho (up, down):  1.443E-03 0.000E+00

     total cpu time spent up to now is     1384.9 secs

     total energy              =    -898.86870451 Ry
     estimated scf accuracy    <       9.28012284 Ry

     iteration #  8     ecut=   124.00 Ry     beta= 0.70
     Davidson diagonalization with overlap
     ethr =  1.00E-02,  avg # of iterations =  1.8

     negative rho (up, down):  1.392E-03 0.000E+00

     total cpu time spent up to now is     1397.0 secs

     total energy              =    -899.49507288 Ry
     estimated scf accuracy    <       0.06888325 Ry

     iteration #  9     ecut=   124.00 Ry     beta= 0.70
     Davidson diagonalization with overlap
     ethr =  1.19E-04,  avg # of iterations =  6.7

     negative rho (up, down):  1.463E-03 0.000E+00

     total cpu time spent up to now is     1419.2 secs

     total energy              =    -899.54857627 Ry
     estimated scf accuracy    <       0.23069190 Ry

     iteration # 10     ecut=   124.00 Ry     beta= 0.70
     Davidson diagonalization with overlap
     ethr =  1.19E-04,  avg # of iterations =  1.0

     negative rho (up, down):  1.628E-03 0.000E+00

     total cpu time spent up to now is     1430.6 secs

     total energy              =    -899.58106072 Ry
     estimated scf accuracy    <       0.15994985 Ry

     iteration # 11     ecut=   124.00 Ry     beta= 0.70
     Davidson diagonalization with overlap
     ethr =  1.19E-04,  avg # of iterations =  4.5

     negative rho (up, down):  1.843E-03 0.000E+00

     total cpu time spent up to now is     1447.4 secs

     total energy              =    -899.49484973 Ry
     estimated scf accuracy    <       1.90405641 Ry

     iteration # 12     ecut=   124.00 Ry     beta= 0.70
     Davidson diagonalization with overlap
     ethr =  1.19E-04,  avg # of iterations =  4.4

     negative rho (up, down):  2.012E-03 0.000E+00

     total cpu time spent up to now is     1463.9 secs

     total energy              =    -899.49627291 Ry
     estimated scf accuracy    <       0.27897525 Ry

     iteration # 13     ecut=   124.00 Ry     beta= 0.70
     Davidson diagonalization with overlap
     ethr =  1.19E-04,  avg # of iterations =  4.5

     negative rho (up, down):  1.965E-03 0.000E+00

     total cpu time spent up to now is     1479.9 secs

     total energy              =    -899.52311632 Ry
     estimated scf accuracy    <       0.06633644 Ry

     iteration # 14     ecut=   124.00 Ry     beta= 0.70
     Davidson diagonalization with overlap
     ethr =  1.14E-04,  avg # of iterations =  1.0

     negative rho (up, down):  1.546E-03 0.000E+00

     total cpu time spent up to now is     1491.2 secs

     total energy              =    -899.51275766 Ry
     estimated scf accuracy    <       0.02409425 Ry

     iteration # 15     ecut=   124.00 Ry     beta= 0.70
     Davidson diagonalization with overlap
     ethr =  4.15E-05,  avg # of iterations =  5.2

     negative rho (up, down):  1.571E-03 0.000E+00

     total cpu time spent up to now is     1511.4 secs

     total energy              =    -899.54272363 Ry
     estimated scf accuracy    <       0.55406783 Ry

     iteration # 16     ecut=   124.00 Ry     beta= 0.70
     Davidson diagonalization with overlap
     ethr =  4.15E-05,  avg # of iterations =  1.2

     negative rho (up, down):  1.592E-03 0.000E+00

     total cpu time spent up to now is     1523.0 secs

     total energy              =    -899.53309188 Ry
     estimated scf accuracy    <       0.34720048 Ry

     iteration # 17     ecut=   124.00 Ry     beta= 0.70
     Davidson diagonalization with overlap
     ethr =  4.15E-05,  avg # of iterations =  2.0

     negative rho (up, down):  1.645E-03 0.000E+00

     total cpu time spent up to now is     1535.4 secs

     total energy              =    -899.52401223 Ry
     estimated scf accuracy    <       0.19965828 Ry

     iteration # 18     ecut=   124.00 Ry     beta= 0.70
     Davidson diagonalization with overlap
     ethr =  4.15E-05,  avg # of iterations =  2.5

     negative rho (up, down):  1.637E-03 0.000E+00

     total cpu time spent up to now is     1548.3 secs

     total energy              =    -899.52693727 Ry
     estimated scf accuracy    <       0.06417835 Ry

     iteration # 19     ecut=   124.00 Ry     beta= 0.70
     Davidson diagonalization with overlap
     ethr =  4.15E-05,  avg # of iterations =  1.0

     negative rho (up, down):  1.655E-03 0.000E+00

     total cpu time spent up to now is     1559.6 secs

     total energy              =    -899.52584387 Ry
     estimated scf accuracy    <       0.06857922 Ry

     iteration # 20     ecut=   124.00 Ry     beta= 0.70
     Davidson diagonalization with overlap
     ethr =  4.15E-05,  avg # of iterations =  1.0

     negative rho (up, down):  1.781E-03 0.000E+00

     total cpu time spent up to now is     1571.1 secs

     total energy              =    -899.51897780 Ry
     estimated scf accuracy    <       0.05292641 Ry

     iteration # 21     ecut=   124.00 Ry     beta= 0.70
     Davidson diagonalization with overlap
     ethr =  4.15E-05,  avg # of iterations =  2.7

     negative rho (up, down):  1.774E-03 0.000E+00

     total cpu time spent up to now is     1584.5 secs

     total energy              =    -899.52263140 Ry
     estimated scf accuracy    <       0.00004496 Ry

     iteration # 22     ecut=   124.00 Ry     beta= 0.70
     Davidson diagonalization with overlap
     c_bands:  1 eigenvalues not converged
     c_bands:  1 eigenvalues not converged
     c_bands:  1 eigenvalues not converged
     c_bands:  1 eigenvalues not converged
     c_bands:  1 eigenvalues not converged
     c_bands:  1 eigenvalues not converged
     c_bands:  1 eigenvalues not converged
     c_bands:  1 eigenvalues not converged
     c_bands:  2 eigenvalues not converged
     c_bands:  1 eigenvalues not converged
     c_bands:  1 eigenvalues not converged
     c_bands:  1 eigenvalues not converged
     c_bands:  1 eigenvalues not converged
     ethr =  7.75E-08,  avg # of iterations =  8.5

     negative rho (up, down):  1.774E-03 0.000E+00

     total cpu time spent up to now is     1615.5 secs

     total energy              =    -899.52300658 Ry
     estimated scf accuracy    <       0.00097137 Ry

     iteration # 23     ecut=   124.00 Ry     beta= 0.70
     Davidson diagonalization with overlap
     ethr =  7.75E-08,  avg # of iterations =  1.2

     negative rho (up, down):  1.774E-03 0.000E+00

     total cpu time spent up to now is     1627.0 secs

     total energy              =    -899.52303222 Ry
     estimated scf accuracy    <       0.00120935 Ry

     iteration # 24     ecut=   124.00 Ry     beta= 0.70
     Davidson diagonalization with overlap
     ethr =  7.75E-08,  avg # of iterations =  1.8

     negative rho (up, down):  1.772E-03 0.000E+00

     total cpu time spent up to now is     1639.1 secs

     total energy              =    -899.52303037 Ry
     estimated scf accuracy    <       0.00150234 Ry

     iteration # 25     ecut=   124.00 Ry     beta= 0.70
     Davidson diagonalization with overlap
     ethr =  7.75E-08,  avg # of iterations =  1.0

     negative rho (up, down):  1.772E-03 0.000E+00

     total cpu time spent up to now is     1650.5 secs

     total energy              =    -899.52302843 Ry
     estimated scf accuracy    <       0.00145459 Ry

     iteration # 26     ecut=   124.00 Ry     beta= 0.70
     Davidson diagonalization with overlap
     ethr =  7.75E-08,  avg # of iterations =  1.0

     negative rho (up, down):  1.774E-03 0.000E+00

     total cpu time spent up to now is     1661.9 secs

     total energy              =    -899.52305297 Ry
     estimated scf accuracy    <       0.00142433 Ry

     iteration # 27     ecut=   124.00 Ry     beta= 0.70
     Davidson diagonalization with overlap
     ethr =  7.75E-08,  avg # of iterations =  1.1

     negative rho (up, down):  1.764E-03 0.000E+00

     total cpu time spent up to now is     1673.3 secs

     total energy              =    -899.52294468 Ry
     estimated scf accuracy    <       0.00173975 Ry

     iteration # 28     ecut=   124.00 Ry     beta= 0.70
     Davidson diagonalization with overlap
     ethr =  7.75E-08,  avg # of iterations =  4.1

     negative rho (up, down):  1.762E-03 0.000E+00

     total cpu time spent up to now is     1688.7 secs

     total energy              =    -899.52294843 Ry
     estimated scf accuracy    <       0.00055740 Ry

     iteration # 29     ecut=   124.00 Ry     beta= 0.70
     Davidson diagonalization with overlap
     ethr =  7.75E-08,  avg # of iterations =  1.4

     negative rho (up, down):  1.752E-03 0.000E+00

     total cpu time spent up to now is     1700.4 secs

     total energy              =    -899.52288651 Ry
     estimated scf accuracy    <       0.00039035 Ry

     iteration # 30     ecut=   124.00 Ry     beta= 0.70
     Davidson diagonalization with overlap
     ethr =  7.75E-08,  avg # of iterations =  4.9

     negative rho (up, down):  1.754E-03 0.000E+00

     total cpu time spent up to now is     1719.0 secs

     total energy              =    -899.52292460 Ry
     estimated scf accuracy    <       0.00004750 Ry

     iteration # 31     ecut=   124.00 Ry     beta= 0.70
     Davidson diagonalization with overlap
     ethr =  7.75E-08,  avg # of iterations =  1.2

     negative rho (up, down):  1.754E-03 0.000E+00

     total cpu time spent up to now is     1730.6 secs

     total energy              =    -899.52292695 Ry
     estimated scf accuracy    <       0.00000164 Ry

     iteration # 32     ecut=   124.00 Ry     beta= 0.70
     Davidson diagonalization with overlap
     ethr =  2.83E-09,  avg # of iterations =  4.7

     negative rho (up, down):  1.754E-03 0.000E+00

     total cpu time spent up to now is     1747.8 secs

     total energy              =    -899.52292764 Ry
     estimated scf accuracy    <       0.00000121 Ry

     iteration # 33     ecut=   124.00 Ry     beta= 0.70
     Davidson diagonalization with overlap
     ethr =  2.08E-09,  avg # of iterations =  1.0

     negative rho (up, down):  1.754E-03 0.000E+00

     total cpu time spent up to now is     1759.0 secs

     total energy              =    -899.52292762 Ry
     estimated scf accuracy    <       0.00000059 Ry

     iteration # 34     ecut=   124.00 Ry     beta= 0.70
     Davidson diagonalization with overlap
     ethr =  1.02E-09,  avg # of iterations =  1.0

     negative rho (up, down):  1.754E-03 0.000E+00

     total cpu time spent up to now is     1770.4 secs

     total energy              =    -899.52292762 Ry
     estimated scf accuracy    <       0.00000017 Ry

     iteration # 35     ecut=   124.00 Ry     beta= 0.70
     Davidson diagonalization with overlap
     ethr =  2.91E-10,  avg # of iterations =  1.9

     negative rho (up, down):  1.754E-03 0.000E+00

     total cpu time spent up to now is     1782.6 secs

     total energy              =    -899.52292762 Ry
     estimated scf accuracy    <       0.00000004 Ry

     iteration # 36     ecut=   124.00 Ry     beta= 0.70
     Davidson diagonalization with overlap
     ethr =  6.07E-11,  avg # of iterations =  4.2

     negative rho (up, down):  1.754E-03 0.000E+00

     total cpu time spent up to now is     1797.9 secs

     total energy              =    -899.52292763 Ry
     estimated scf accuracy    <          7.4E-09 Ry

     iteration # 37     ecut=   124.00 Ry     beta= 0.70
     Davidson diagonalization with overlap
     ethr =  1.28E-11,  avg # of iterations =  3.2

     negative rho (up, down):  1.754E-03 0.000E+00

     total cpu time spent up to now is     1811.4 secs

     total energy              =    -899.52292763 Ry
     estimated scf accuracy    <          4.6E-09 Ry

     iteration # 38     ecut=   124.00 Ry     beta= 0.70
     Davidson diagonalization with overlap
     ethr =  7.95E-12,  avg # of iterations =  1.2

     negative rho (up, down):  1.754E-03 0.000E+00

     total cpu time spent up to now is     1822.7 secs

     total energy              =    -899.52292763 Ry
     estimated scf accuracy    <          2.1E-09 Ry

     iteration # 39     ecut=   124.00 Ry     beta= 0.70
     Davidson diagonalization with overlap
     ethr =  3.64E-12,  avg # of iterations =  2.0

     negative rho (up, down):  1.754E-03 0.000E+00

     total cpu time spent up to now is     1835.2 secs

     End of self-consistent calculation

     Number of k-points >= 100: set verbosity='high' to print the bands.

     the Fermi energy is    16.3295 ev

!    total energy              =    -899.52292763 Ry
     estimated scf accuracy    <          2.6E-11 Ry
     smearing contrib. (-TS)   =      -0.00003676 Ry
     internal energy E=F+TS    =    -899.52289087 Ry

     The total energy is F=E-TS. E is the sum of the following terms:
     one-electron contribution =    -328.18062342 Ry
     hartree contribution      =     194.81272417 Ry
     xc contribution           =    -107.26244997 Ry
     ewald contribution        =    -506.58652367 Ry
     one-center paw contrib.   =    -152.30601799 Ry

     convergence has been achieved in  39 iterations

     negative rho (up, down):  1.754E-03 0.000E+00

     Forces acting on atoms (cartesian axes, Ry/au):

     atom    1 type  1   force =     0.00000000    0.00000000    0.00000147
     atom    2 type  1   force =     0.00000000    0.00000000   -0.00000147
     atom    3 type  3   force =     0.00000000    0.00000000    0.00000452
     atom    4 type  3   force =     0.00000000    0.00000000   -0.00000452
     atom    5 type  2   force =     0.00000000    0.00000000    0.00000000
     atom    6 type  2   force =     0.00000000    0.00000000   -0.00000000

     Total force =     0.000007     Total SCF correction =     0.000003
     SCF correction compared to forces is large: reduce conv_thr to get better values


     Computing stress (Cartesian axis) and pressure


     negative rho (up, down):  1.754E-03 0.000E+00
          total   stress  (Ry/bohr**3)                   (kbar)     P=       -0.03
   0.00000008   0.00000000   0.00000000            0.01        0.00        0.00
   0.00000000  -0.00000081   0.00000000            0.00       -0.12        0.00
   0.00000000   0.00000000   0.00000005            0.00        0.00        0.01


     Writing all to output data dir ./TiFe_H_faces_x.save/ :
     XML data file
     init_run     :     15.26s CPU     16.01s WALL (       2 calls)
     electrons    :   1709.37s CPU   1774.57s WALL (       7 calls)
     update_pot   :      0.52s CPU      0.62s WALL (       5 calls)
     forces       :      9.02s CPU      9.32s WALL (       7 calls)
     stress       :     36.13s CPU     36.92s WALL (       7 calls)

     Called by init_run:
     wfcinit      :     13.45s CPU     14.09s WALL (       2 calls)
     potinit      :      0.63s CPU      0.66s WALL (       2 calls)
     hinit0       :      0.69s CPU      0.71s WALL (       2 calls)

     Called by electrons:
     c_bands      :   1508.59s CPU   1561.63s WALL (     103 calls)
     sum_band     :    179.74s CPU    189.78s WALL (     103 calls)
     v_of_rho     :      2.17s CPU      2.44s WALL (     105 calls)
     newd         :     13.29s CPU     15.10s WALL (     105 calls)
     PAW_pot      :      6.92s CPU      7.11s WALL (     110 calls)
     mix_rho      :      0.23s CPU      0.27s WALL (     103 calls)

     Called by c_bands:
     init_us_2    :     22.98s CPU     23.71s WALL (  116224 calls)
     cegterg      :   1458.44s CPU   1510.10s WALL (   52736 calls)

     Called by *egterg:
     cdiaghg      :    235.51s CPU    239.25s WALL (  229527 calls)
     h_psi        :    973.71s CPU   1017.92s WALL (  235671 calls)
     s_psi        :     48.51s CPU     49.88s WALL (  235671 calls)
     g_psi        :      5.08s CPU      5.16s WALL (  181911 calls)

     Called by h_psi:
     h_psi:calbec :     57.38s CPU     59.88s WALL (  235671 calls)
     vloc_psi     :    863.37s CPU    903.35s WALL (  235671 calls)
     add_vuspsi   :     48.77s CPU     50.52s WALL (  235671 calls)

     General routines
     calbec       :     98.13s CPU    101.92s WALL (  351895 calls)
     fft          :      1.92s CPU      2.32s WALL (    1536 calls)
     ffts         :      0.44s CPU      0.45s WALL (     208 calls)
     fftw         :    795.50s CPU    830.99s WALL (12383636 calls)
     interpolate  :      0.57s CPU      0.61s WALL (     105 calls)

     Parallel routines

     PWSCF        :   1773.73s CPU   1841.55s WALL


   This run was terminated on:  18:55:21  30Nov2025            

=------------------------------------------------------------------------------=
   JOB DONE.
=------------------------------------------------------------------------------=
