
     Program PWSCF v.7.4 starts on 19Nov2025 at 23:26:28 

     This program is part of the open-source Quantum ESPRESSO suite
     for quantum simulation of materials; please cite
         "P. Giannozzi et al., J. Phys.:Condens. Matter 21 395502 (2009);
         "P. Giannozzi et al., J. Phys.:Condens. Matter 29 465901 (2017);
         "P. Giannozzi et al., J. Chem. Phys. 152 154105 (2020);
          URL http://www.quantum-espresso.org", 
     in publications or presentations arising from this work. More details at
     http://www.quantum-espresso.org/quote

     Parallel version (MPI & OpenMP), running on      16 processor cores
     Number of MPI processes:                16
     Threads/MPI process:                     1

     MPI processes distributed on     1 nodes
     193554 MiB available memory on the printing compute node when the environment starts

     Reading input from TiFeH.in

     Current dimensions of program PWSCF are:
     Max number of different atomic species (ntypx) = 10
     Max number of k-points (npk) =  40000
     Max angular momentum in pseudopotentials (lmaxx) =  4
     file Fe.pbe-spn-kjpaw_psl.0.2.1.UPF: wavefunction(s)  3D renormalized

     IMPORTANT: XC functional enforced from input :
     Exchange-correlation= PBE
                           (   1   4   3   4   0   0   0)
     Any further DFT definition will be discarded
     Please, verify this is what you really want


     R & G space division:  proc/nbgrp/npool/nimage =      16
     Subspace diagonalization in iterative solution of the eigenvalue problem:
     a serial algorithm will be used


     Parallelization info
     --------------------
     sticks:   dense  smooth     PW     G-vecs:    dense   smooth      PW
     Min         269      76     22                13288     2024     320
     Max         271      77     23                13289     2027     323
     Sum        4309    1225    357               212623    32423    5137

     Using Slab Decomposition



     bravais-lattice index     =            0
     lattice parameter (alat)  =       5.5824  a.u.
     unit-cell volume          =     173.9675 (a.u.)^3
     number of atoms/cell      =            3
     number of atomic types    =            3
     number of electrons       =        29.00
     number of Kohn-Sham states=           19
     kinetic-energy cutoff     =     124.0000  Ry
     charge density cutoff     =    1736.0000  Ry
     scf convergence threshold =      1.0E-08
     mixing beta               =       0.7000
     number of iterations used =            8  plain     mixing
     energy convergence thresh.=      1.0E-04
     force convergence thresh. =      1.0E-03
     press convergence thresh. =      1.0E-01
     Exchange-correlation= PBE
                           (   1   4   3   4   0   0   0)
     nstep                     =           50


     celldm(1)=   5.582423  celldm(2)=   0.000000  celldm(3)=   0.000000
     celldm(4)=   0.000000  celldm(5)=   0.000000  celldm(6)=   0.000000

     crystal axes: (cart. coord. in units of alat)
               a(1) = (   1.000000   0.000000   0.000000 )  
               a(2) = (   0.000000   1.000000   0.000000 )  
               a(3) = (   0.000000   0.000000   1.000000 )  

     reciprocal axes: (cart. coord. in units 2 pi/alat)
               b(1) = (  1.000000  0.000000  0.000000 )  
               b(2) = (  0.000000  1.000000  0.000000 )  
               b(3) = (  0.000000  0.000000  1.000000 )  


     PseudoPot. # 1 for Fe read from file:
     ../../pseudos/Fe.pbe-spn-kjpaw_psl.0.2.1.UPF
     MD5 check sum: e86618425769142926afa95317d90200
     Pseudo is Projector augmented-wave + core cor, Zval = 16.0
     Generated using "atomic" code by A. Dal Corso  v.5.0.99 svn rev. 10869
     Shape of augmentation charge: PSQ
     Using radial grid of 1191 points,  6 beta functions with: 
                l(1) =   0
                l(2) =   0
                l(3) =   1
                l(4) =   1
                l(5) =   2
                l(6) =   2
     Q(r) pseudized with 0 coefficients 


     PseudoPot. # 2 for Ti read from file:
     ../../pseudos/ti_pbe_v1.4.uspp.F.UPF
     MD5 check sum: 88a00a6731bd790ddea75d31a80cb452
     Pseudo is Ultrasoft + core correction, Zval = 12.0
     Generated by new atomic code, or converted to UPF format
     Using radial grid of  851 points,  6 beta functions with: 
                l(1) =   0
                l(2) =   0
                l(3) =   1
                l(4) =   1
                l(5) =   2
                l(6) =   2
     Q(r) pseudized with  6 coefficients,  rinner =    1.000   1.000   1.000
                                                       1.000   1.000

     PseudoPot. # 3 for H  read from file:
     ../../pseudos/H.pbe-rrkjus_psl.1.0.0.UPF
     MD5 check sum: f52b6d4d1c606e5624b1dc7b2218f220
     Pseudo is Ultrasoft, Zval =  1.0
     Generated using "atomic" code by A. Dal Corso  v.5.1
     Using radial grid of  929 points,  2 beta functions with: 
                l(1) =   0
                l(2) =   0
     Q(r) pseudized with 0 coefficients 


     atomic species   valence    mass     pseudopotential
     Fe               16.00    55.84500     Fe( 1.00)
     Ti               12.00    47.86700     Ti( 1.00)
     H                 1.00     1.00784     H ( 1.00)

     No symmetry found



   Cartesian axes

     site n.     atom                  positions (alat units)
         1        Fe     tau(   1) = (   0.5000000   0.5000000   0.5000000  )
         2        Ti     tau(   2) = (   0.0000000   0.0000000   0.0000000  )
         3        H      tau(   3) = (   0.5000000   0.5000000   0.0000000  )

     number of k points=  1688  Marzari-Vanderbilt smearing, width (Ry)=  0.0050

     Number of k-points >= 100: set verbosity='high' to print them.

     Dense  grid:   212623 G-vectors     FFT dimensions: (  75,  75,  75)

     Smooth grid:    32423 G-vectors     FFT dimensions: (  40,  40,  40)

     Estimated max dynamical RAM per process >     193.02 MB

     Estimated total dynamical RAM >       3.02 GB

     Check: negative core charge=   -0.000001

     Initial potential from superposition of free atoms

     starting charge      27.9995, renormalised to      29.0000

     negative rho (up, down):  1.342E-03 0.000E+00
     Starting wfcs are   24 randomized atomic wfcs
     Checking if some PAW data can be deallocated... 

     total cpu time spent up to now is        9.1 secs

     per-process dynamical memory:   271.2 Mb

     Self-consistent Calculation

     iteration #  1     ecut=   124.00 Ry     beta= 0.70
     Davidson diagonalization with overlap
     ethr =  1.00E-02,  avg # of iterations =  2.2

     negative rho (up, down):  1.701E-05 0.000E+00

     total cpu time spent up to now is       25.5 secs

     total energy              =    -438.28450356 Ry
     estimated scf accuracy    <      14.59112323 Ry

     iteration #  2     ecut=   124.00 Ry     beta= 0.70
     Davidson diagonalization with overlap
     ethr =  1.00E-02,  avg # of iterations =  5.9

     negative rho (up, down):  7.786E-05 0.000E+00

     total cpu time spent up to now is       54.6 secs

     total energy              =    -449.74057141 Ry
     estimated scf accuracy    <      57.30802141 Ry

     iteration #  3     ecut=   124.00 Ry     beta= 0.70
     Davidson diagonalization with overlap
     ethr =  1.00E-02,  avg # of iterations =  2.9

     negative rho (up, down):  3.167E-04 0.000E+00

     total cpu time spent up to now is       74.4 secs

     total energy              =    -449.69319926 Ry
     estimated scf accuracy    <      14.57231775 Ry

     iteration #  4     ecut=   124.00 Ry     beta= 0.70
     Davidson diagonalization with overlap
     ethr =  1.00E-02,  avg # of iterations =  2.5

     negative rho (up, down):  3.057E-04 0.000E+00

     total cpu time spent up to now is       90.7 secs

     total energy              =    -450.20793844 Ry
     estimated scf accuracy    <       3.98686538 Ry

     iteration #  5     ecut=   124.00 Ry     beta= 0.70
     Davidson diagonalization with overlap
     ethr =  1.00E-02,  avg # of iterations =  1.0

     negative rho (up, down):  4.840E-04 0.000E+00

     total cpu time spent up to now is      103.5 secs

     total energy              =    -449.65493547 Ry
     estimated scf accuracy    <       3.76946549 Ry

     iteration #  6     ecut=   124.00 Ry     beta= 0.70
     Davidson diagonalization with overlap
     ethr =  1.00E-02,  avg # of iterations =  1.4

     negative rho (up, down):  5.716E-04 0.000E+00

     total cpu time spent up to now is      116.9 secs

     total energy              =    -449.77335881 Ry
     estimated scf accuracy    <       0.62408606 Ry

     iteration #  7     ecut=   124.00 Ry     beta= 0.70
     Davidson diagonalization with overlap
     ethr =  2.15E-03,  avg # of iterations =  2.1

     negative rho (up, down):  8.697E-04 0.000E+00

     total cpu time spent up to now is      131.0 secs

     total energy              =    -449.72401131 Ry
     estimated scf accuracy    <       0.30464548 Ry

     iteration #  8     ecut=   124.00 Ry     beta= 0.70
     Davidson diagonalization with overlap
     ethr =  1.05E-03,  avg # of iterations =  2.5

     negative rho (up, down):  1.116E-03 0.000E+00

     total cpu time spent up to now is      146.9 secs

     total energy              =    -449.66450319 Ry
     estimated scf accuracy    <       0.25819032 Ry

     iteration #  9     ecut=   124.00 Ry     beta= 0.70
     Davidson diagonalization with overlap
     ethr =  8.90E-04,  avg # of iterations =  3.5

     negative rho (up, down):  1.104E-03 0.000E+00

     total cpu time spent up to now is      164.1 secs

     total energy              =    -449.77562890 Ry
     estimated scf accuracy    <       1.10465454 Ry

     iteration # 10     ecut=   124.00 Ry     beta= 0.70
     Davidson diagonalization with overlap
     ethr =  8.90E-04,  avg # of iterations =  1.1

     negative rho (up, down):  1.364E-03 0.000E+00

     total cpu time spent up to now is      177.2 secs

     total energy              =    -449.89660437 Ry
     estimated scf accuracy    <       1.03834756 Ry

     iteration # 11     ecut=   124.00 Ry     beta= 0.70
     Davidson diagonalization with overlap
     ethr =  8.90E-04,  avg # of iterations =  2.4

     negative rho (up, down):  1.345E-03 0.000E+00

     total cpu time spent up to now is      192.0 secs

     total energy              =    -449.89815399 Ry
     estimated scf accuracy    <       5.55344745 Ry

     iteration # 12     ecut=   124.00 Ry     beta= 0.70
     Davidson diagonalization with overlap
     ethr =  8.90E-04,  avg # of iterations =  1.0

     negative rho (up, down):  1.210E-03 0.000E+00

     total cpu time spent up to now is      204.9 secs

     total energy              =    -449.85566400 Ry
     estimated scf accuracy    <       3.74091525 Ry

     iteration # 13     ecut=   124.00 Ry     beta= 0.70
     Davidson diagonalization with overlap
     ethr =  8.90E-04,  avg # of iterations =  1.0

     negative rho (up, down):  6.582E-04 0.000E+00

     total cpu time spent up to now is      217.7 secs

     total energy              =    -449.46332503 Ry
     estimated scf accuracy    <       3.00423593 Ry

     iteration # 14     ecut=   124.00 Ry     beta= 0.70
     Davidson diagonalization with overlap
     ethr =  8.90E-04,  avg # of iterations =  3.3

     negative rho (up, down):  6.801E-04 0.000E+00

     total cpu time spent up to now is      235.2 secs

     total energy              =    -449.72152058 Ry
     estimated scf accuracy    <       0.18909523 Ry

     iteration # 15     ecut=   124.00 Ry     beta= 0.70
     Davidson diagonalization with overlap
     ethr =  6.52E-04,  avg # of iterations =  1.0

     negative rho (up, down):  7.224E-04 0.000E+00

     total cpu time spent up to now is      248.1 secs

     total energy              =    -449.72148932 Ry
     estimated scf accuracy    <       0.11458045 Ry

     iteration # 16     ecut=   124.00 Ry     beta= 0.70
     Davidson diagonalization with overlap
     ethr =  3.95E-04,  avg # of iterations =  1.0

     negative rho (up, down):  7.742E-04 0.000E+00

     total cpu time spent up to now is      261.0 secs

     total energy              =    -449.71680340 Ry
     estimated scf accuracy    <       0.10329501 Ry

     iteration # 17     ecut=   124.00 Ry     beta= 0.70
     Davidson diagonalization with overlap
     ethr =  3.56E-04,  avg # of iterations =  1.0

     negative rho (up, down):  8.294E-04 0.000E+00

     total cpu time spent up to now is      273.9 secs

     total energy              =    -449.71347345 Ry
     estimated scf accuracy    <       0.05915618 Ry

     iteration # 18     ecut=   124.00 Ry     beta= 0.70
     Davidson diagonalization with overlap
     ethr =  2.04E-04,  avg # of iterations =  1.0

     negative rho (up, down):  8.408E-04 0.000E+00

     total cpu time spent up to now is      286.8 secs

     total energy              =    -449.71331962 Ry
     estimated scf accuracy    <       0.02668674 Ry

     iteration # 19     ecut=   124.00 Ry     beta= 0.70
     Davidson diagonalization with overlap
     ethr =  9.20E-05,  avg # of iterations =  1.0

     negative rho (up, down):  9.295E-04 0.000E+00

     total cpu time spent up to now is      299.7 secs

     total energy              =    -449.71020731 Ry
     estimated scf accuracy    <       0.01839074 Ry

     iteration # 20     ecut=   124.00 Ry     beta= 0.70
     Davidson diagonalization with overlap
     ethr =  6.34E-05,  avg # of iterations =  1.5

     negative rho (up, down):  9.436E-04 0.000E+00

     total cpu time spent up to now is      313.2 secs

     total energy              =    -449.71173995 Ry
     estimated scf accuracy    <       0.00014898 Ry

     iteration # 21     ecut=   124.00 Ry     beta= 0.70
     Davidson diagonalization with overlap
     ethr =  5.14E-07,  avg # of iterations =  6.2

     negative rho (up, down):  9.322E-04 0.000E+00

     total cpu time spent up to now is      341.5 secs

     total energy              =    -449.71185438 Ry
     estimated scf accuracy    <       0.00082598 Ry

     iteration # 22     ecut=   124.00 Ry     beta= 0.70
     Davidson diagonalization with overlap
     ethr =  5.14E-07,  avg # of iterations =  2.0

     negative rho (up, down):  9.300E-04 0.000E+00

     total cpu time spent up to now is      355.7 secs

     total energy              =    -449.71189100 Ry
     estimated scf accuracy    <       0.00002360 Ry

     iteration # 23     ecut=   124.00 Ry     beta= 0.70
     Davidson diagonalization with overlap
     ethr =  8.14E-08,  avg # of iterations =  3.0

     negative rho (up, down):  9.295E-04 0.000E+00

     total cpu time spent up to now is      371.6 secs

     total energy              =    -449.71189314 Ry
     estimated scf accuracy    <       0.00000356 Ry

     iteration # 24     ecut=   124.00 Ry     beta= 0.70
     Davidson diagonalization with overlap
     ethr =  1.23E-08,  avg # of iterations =  2.9

     negative rho (up, down):  9.297E-04 0.000E+00

     total cpu time spent up to now is      386.8 secs

     total energy              =    -449.71189333 Ry
     estimated scf accuracy    <       0.00000097 Ry

     iteration # 25     ecut=   124.00 Ry     beta= 0.70
     Davidson diagonalization with overlap
     ethr =  3.35E-09,  avg # of iterations =  2.0

     negative rho (up, down):  9.297E-04 0.000E+00

     total cpu time spent up to now is      401.3 secs

     total energy              =    -449.71189330 Ry
     estimated scf accuracy    <       0.00000085 Ry

     iteration # 26     ecut=   124.00 Ry     beta= 0.70
     Davidson diagonalization with overlap
     ethr =  2.92E-09,  avg # of iterations =  1.3

     negative rho (up, down):  9.295E-04 0.000E+00

     total cpu time spent up to now is      414.5 secs

     total energy              =    -449.71189320 Ry
     estimated scf accuracy    <       0.00000052 Ry

     iteration # 27     ecut=   124.00 Ry     beta= 0.70
     Davidson diagonalization with overlap
     ethr =  1.79E-09,  avg # of iterations =  2.4

     negative rho (up, down):  9.296E-04 0.000E+00

     total cpu time spent up to now is      429.9 secs

     End of self-consistent calculation

     Number of k-points >= 100: set verbosity='high' to print the bands.

     the Fermi energy is    18.4342 ev

!    total energy              =    -449.71189328 Ry
     estimated scf accuracy    <          3.8E-09 Ry
     smearing contrib. (-TS)   =      -0.00012957 Ry
     internal energy E=F+TS    =    -449.71176371 Ry

     The total energy is F=E-TS. E is the sum of the following terms:
     one-electron contribution =    -149.89031201 Ry
     hartree contribution      =      92.22520897 Ry
     xc contribution           =     -53.86437902 Ry
     ewald contribution        =    -262.02782464 Ry
     one-center paw contrib.   =     -76.15445701 Ry

     convergence has been achieved in  27 iterations

     negative rho (up, down):  9.296E-04 0.000E+00

     Forces acting on atoms (cartesian axes, Ry/au):

     atom    1 type  1   force =    -0.00000034    0.00000009   -0.00000001
     atom    2 type  2   force =     0.00000022   -0.00000006    0.00000003
     atom    3 type  3   force =     0.00000013   -0.00000003   -0.00000002

     Total force =     0.000000     Total SCF correction =     0.000001
     SCF correction compared to forces is large: reduce conv_thr to get better values


     Computing stress (Cartesian axis) and pressure


     negative rho (up, down):  9.296E-04 0.000E+00
          total   stress  (Ry/bohr**3)                   (kbar)     P=      282.00
   0.00079784  -0.00000000  -0.00000000          117.37       -0.00       -0.00
  -0.00000000   0.00079807  -0.00000000           -0.00      117.40       -0.00
  -0.00000000  -0.00000000   0.00415510           -0.00       -0.00      611.24


     BFGS Geometry Optimization
     Energy error            =      7.3E-02 Ry
     Gradient error          =      3.4E-07 Ry/Bohr
     Cell gradient error     =      6.1E+02 kbar

     number of scf cycles    =   1
     number of bfgs steps    =   0

     enthalpy           new  =    -449.7118932804 Ry

     new trust radius        =       0.2740223097 bohr
     new conv_thr            =       0.0000000100 Ry

     new unit-cell volume =    199.77715 a.u.^3 (    29.60392 Ang^3 )
     density =      5.87393 g/cm^3

CELL_PARAMETERS (alat=  5.58242261)
   1.019945904  -0.000000083  -0.000000004
  -0.000000083   1.019951771  -0.000000056
  -0.000000004  -0.000000056   1.103877589

ATOMIC_POSITIONS (crystal)
Fe               0.4999999388        0.5000000161        0.4999999988
Ti               0.0000000387       -0.0000000113        0.0000000052
H                0.5000000225        0.4999999952       -0.0000000040



     Writing config-only to output data dir ./TiFeH.save/ :
     XML data file     NEW-OLD atomic charge density approx. for the potential
     New effective cutoffs (rho, wfc): 1668.32  119.19

     Check: negative core charge=   -0.000001

     negative rho (up, down):  1.018E-03 0.000E+00

     total cpu time spent up to now is      435.5 secs

     per-process dynamical memory:   275.4 Mb

     Self-consistent Calculation

     iteration #  1     ecut=   124.00 Ry     beta= 0.70
     Davidson diagonalization with overlap
     c_bands:  1 eigenvalues not converged
     c_bands:  1 eigenvalues not converged
     c_bands:  1 eigenvalues not converged
     c_bands:  1 eigenvalues not converged
     c_bands:  1 eigenvalues not converged
     c_bands:  1 eigenvalues not converged
     c_bands:  1 eigenvalues not converged
     c_bands:  1 eigenvalues not converged
     c_bands:  1 eigenvalues not converged
     c_bands:  1 eigenvalues not converged
     c_bands:  1 eigenvalues not converged
     c_bands:  1 eigenvalues not converged
     ethr =  1.00E-06,  avg # of iterations = 12.8

     negative rho (up, down):  8.741E-04 0.000E+00

     total cpu time spent up to now is      497.1 secs

     total energy              =    -449.74335886 Ry
     estimated scf accuracy    <       0.00734944 Ry

     iteration #  2     ecut=   124.00 Ry     beta= 0.70
     Davidson diagonalization with overlap
     ethr =  2.53E-05,  avg # of iterations =  5.1

     negative rho (up, down):  9.135E-04 0.000E+00

     total cpu time spent up to now is      520.3 secs

     total energy              =    -449.72398565 Ry
     estimated scf accuracy    <       0.40858951 Ry

     iteration #  3     ecut=   124.00 Ry     beta= 0.70
     Davidson diagonalization with overlap
     ethr =  2.53E-05,  avg # of iterations =  4.2

     negative rho (up, down):  9.425E-04 0.000E+00

     total cpu time spent up to now is      540.6 secs

     total energy              =    -449.74702309 Ry
     estimated scf accuracy    <       0.00799020 Ry

     iteration #  4     ecut=   124.00 Ry     beta= 0.70
     Davidson diagonalization with overlap
     ethr =  2.53E-05,  avg # of iterations =  2.0

     negative rho (up, down):  9.433E-04 0.000E+00

     total cpu time spent up to now is      555.7 secs

     total energy              =    -449.74804359 Ry
     estimated scf accuracy    <       0.00013583 Ry

     iteration #  5     ecut=   124.00 Ry     beta= 0.70
     Davidson diagonalization with overlap
     ethr =  4.68E-07,  avg # of iterations =  4.6

     negative rho (up, down):  9.338E-04 0.000E+00

     total cpu time spent up to now is      576.1 secs

     total energy              =    -449.74809178 Ry
     estimated scf accuracy    <       0.00006811 Ry

     iteration #  6     ecut=   124.00 Ry     beta= 0.70
     Davidson diagonalization with overlap
     ethr =  2.35E-07,  avg # of iterations =  2.7

     negative rho (up, down):  9.325E-04 0.000E+00

     total cpu time spent up to now is      592.6 secs

     total energy              =    -449.74810752 Ry
     estimated scf accuracy    <       0.00000085 Ry

     iteration #  7     ecut=   124.00 Ry     beta= 0.70
     Davidson diagonalization with overlap
     ethr =  2.93E-09,  avg # of iterations =  5.3

     negative rho (up, down):  9.331E-04 0.000E+00

     total cpu time spent up to now is      616.5 secs

     total energy              =    -449.74810815 Ry
     estimated scf accuracy    <       0.00000094 Ry

     iteration #  8     ecut=   124.00 Ry     beta= 0.70
     Davidson diagonalization with overlap
     ethr =  2.93E-09,  avg # of iterations =  2.0

     negative rho (up, down):  9.333E-04 0.000E+00

     total cpu time spent up to now is      631.9 secs

     total energy              =    -449.74810825 Ry
     estimated scf accuracy    <       0.00000004 Ry

     iteration #  9     ecut=   124.00 Ry     beta= 0.70
     Davidson diagonalization with overlap
     ethr =  1.49E-10,  avg # of iterations =  4.3

     negative rho (up, down):  9.331E-04 0.000E+00

     total cpu time spent up to now is      652.7 secs

     total energy              =    -449.74810828 Ry
     estimated scf accuracy    <       0.00000001 Ry

     iteration # 10     ecut=   124.00 Ry     beta= 0.70
     Davidson diagonalization with overlap
     ethr =  4.85E-11,  avg # of iterations =  2.5

     negative rho (up, down):  9.331E-04 0.000E+00

     total cpu time spent up to now is      668.6 secs

     End of self-consistent calculation

     Number of k-points >= 100: set verbosity='high' to print the bands.

     the Fermi energy is    15.5716 ev

!    total energy              =    -449.74810828 Ry
     estimated scf accuracy    <          1.9E-11 Ry
     smearing contrib. (-TS)   =      -0.00007077 Ry
     internal energy E=F+TS    =    -449.74803751 Ry

     The total energy is F=E-TS. E is the sum of the following terms:
     one-electron contribution =    -167.29495701 Ry
     hartree contribution      =      97.97450454 Ry
     xc contribution           =     -53.56346472 Ry
     ewald contribution        =    -250.71279103 Ry
     one-center paw contrib.   =     -76.15132929 Ry

     convergence has been achieved in  10 iterations

     negative rho (up, down):  9.331E-04 0.000E+00

     Forces acting on atoms (cartesian axes, Ry/au):

     atom    1 type  1   force =     0.00000002   -0.00000002   -0.00000000
     atom    2 type  2   force =    -0.00000002    0.00000001   -0.00000000
     atom    3 type  3   force =    -0.00000000    0.00000000    0.00000001

     Total force =     0.000000     Total SCF correction =     0.000000
     SCF correction compared to forces is large: reduce conv_thr to get better values


     Computing stress (Cartesian axis) and pressure


     negative rho (up, down):  9.331E-04 0.000E+00
          total   stress  (Ry/bohr**3)                   (kbar)     P=      -61.08
  -0.00071431   0.00000000  -0.00000000         -105.08        0.00       -0.00
   0.00000000  -0.00071439   0.00000000            0.00     -105.09        0.00
  -0.00000000   0.00000000   0.00018303           -0.00        0.00       26.93

     Energy error            =      3.6E-02 Ry
     Gradient error          =      1.9E-08 Ry/Bohr
     Cell gradient error     =      1.1E+02 kbar

     number of scf cycles    =   2
     number of bfgs steps    =   1

     enthalpy           old  =    -449.7118932804 Ry
     enthalpy           new  =    -449.7481082800 Ry

     CASE: enthalpy          _new < enthalpy          _old

     new trust radius        =       0.0505615553 bohr
     new conv_thr            =            1.0E-10 Ry

     new unit-cell volume =    194.72669 a.u.^3 (    28.85552 Ang^3 )
     density =      6.02628 g/cm^3

CELL_PARAMETERS (alat=  5.58242261)
   1.001704678  -0.000000069  -0.000000009
  -0.000000069   1.001708733  -0.000000050
  -0.000000009  -0.000000052   1.115516986

ATOMIC_POSITIONS (crystal)
Fe               0.4999999381        0.5000000142        0.4999999980
Ti               0.0000000385       -0.0000000095        0.0000000052
H                0.5000000234        0.4999999952       -0.0000000032



     Writing config-only to output data dir ./TiFeH.save/ :
     XML data file     NEW-OLD atomic charge density approx. for the potential
     New effective cutoffs (rho, wfc): 1729.64  123.57

     Check: negative core charge=   -0.000002

     negative rho (up, down):  9.147E-04 0.000E+00

     total cpu time spent up to now is      674.1 secs

     per-process dynamical memory:   275.6 Mb

     Self-consistent Calculation

     iteration #  1     ecut=   124.00 Ry     beta= 0.70
     Davidson diagonalization with overlap
     ethr =  1.00E-06,  avg # of iterations =  8.4

     negative rho (up, down):  9.039E-04 0.000E+00

     total cpu time spent up to now is      716.0 secs

     total energy              =    -449.75073479 Ry
     estimated scf accuracy    <       0.00144062 Ry

     iteration #  2     ecut=   124.00 Ry     beta= 0.70
     Davidson diagonalization with overlap
     ethr =  4.97E-06,  avg # of iterations =  5.1

     negative rho (up, down):  9.245E-04 0.000E+00

     total cpu time spent up to now is      739.2 secs

     total energy              =    -449.74348778 Ry
     estimated scf accuracy    <       0.15878816 Ry

     iteration #  3     ecut=   124.00 Ry     beta= 0.70
     Davidson diagonalization with overlap
     ethr =  4.97E-06,  avg # of iterations =  4.7

     negative rho (up, down):  9.288E-04 0.000E+00

     total cpu time spent up to now is      761.2 secs

     total energy              =    -449.75207433 Ry
     estimated scf accuracy    <       0.00022855 Ry

     iteration #  4     ecut=   124.00 Ry     beta= 0.70
     Davidson diagonalization with overlap
     ethr =  7.88E-07,  avg # of iterations =  1.6

     negative rho (up, down):  9.291E-04 0.000E+00

     total cpu time spent up to now is      774.6 secs

     total energy              =    -449.75209158 Ry
     estimated scf accuracy    <       0.00001806 Ry

     iteration #  5     ecut=   124.00 Ry     beta= 0.70
     Davidson diagonalization with overlap
     ethr =  6.23E-08,  avg # of iterations =  4.4

     negative rho (up, down):  9.296E-04 0.000E+00

     total cpu time spent up to now is      794.0 secs

     total energy              =    -449.75209709 Ry
     estimated scf accuracy    <       0.00000221 Ry

     iteration #  6     ecut=   124.00 Ry     beta= 0.70
     Davidson diagonalization with overlap
     ethr =  7.62E-09,  avg # of iterations =  2.8

     negative rho (up, down):  9.297E-04 0.000E+00

     total cpu time spent up to now is      810.3 secs

     total energy              =    -449.75209731 Ry
     estimated scf accuracy    <       0.00000048 Ry

     iteration #  7     ecut=   124.00 Ry     beta= 0.70
     Davidson diagonalization with overlap
     ethr =  1.66E-09,  avg # of iterations =  2.1

     negative rho (up, down):  9.299E-04 0.000E+00

     total cpu time spent up to now is      825.2 secs

     total energy              =    -449.75209738 Ry
     estimated scf accuracy    <       0.00000005 Ry

     iteration #  8     ecut=   124.00 Ry     beta= 0.70
     Davidson diagonalization with overlap
     ethr =  1.86E-10,  avg # of iterations =  4.8

     negative rho (up, down):  9.299E-04 0.000E+00

     total cpu time spent up to now is      846.1 secs

     total energy              =    -449.75209739 Ry
     estimated scf accuracy    <       0.00000001 Ry

     iteration #  9     ecut=   124.00 Ry     beta= 0.70
     Davidson diagonalization with overlap
     ethr =  3.83E-11,  avg # of iterations =  2.2

     negative rho (up, down):  9.299E-04 0.000E+00

     total cpu time spent up to now is      861.5 secs

     total energy              =    -449.75209740 Ry
     estimated scf accuracy    <          1.1E-10 Ry

     iteration # 10     ecut=   124.00 Ry     beta= 0.70
     Davidson diagonalization with overlap
     ethr =  3.86E-13,  avg # of iterations =  6.3

     negative rho (up, down):  9.299E-04 0.000E+00

     total cpu time spent up to now is      887.8 secs

     total energy              =    -449.75209740 Ry
     estimated scf accuracy    <          1.3E-10 Ry

     iteration # 11     ecut=   124.00 Ry     beta= 0.70
     Davidson diagonalization with overlap
     ethr =  3.86E-13,  avg # of iterations =  2.0

     negative rho (up, down):  9.299E-04 0.000E+00

     total cpu time spent up to now is      902.9 secs

     End of self-consistent calculation

     Number of k-points >= 100: set verbosity='high' to print the bands.

     the Fermi energy is    15.9655 ev

!    total energy              =    -449.75209740 Ry
     estimated scf accuracy    <          1.4E-12 Ry
     smearing contrib. (-TS)   =      -0.00001838 Ry
     internal energy E=F+TS    =    -449.75207901 Ry

     The total energy is F=E-TS. E is the sum of the following terms:
     one-electron contribution =    -163.68278780 Ry
     hartree contribution      =      96.69060644 Ry
     xc contribution           =     -53.60316137 Ry
     ewald contribution        =    -253.00482349 Ry
     one-center paw contrib.   =     -76.15191280 Ry

     convergence has been achieved in  11 iterations

     negative rho (up, down):  9.299E-04 0.000E+00

     Forces acting on atoms (cartesian axes, Ry/au):

     atom    1 type  1   force =     0.00000001   -0.00000001    0.00000000
     atom    2 type  2   force =    -0.00000001    0.00000001   -0.00000000
     atom    3 type  3   force =     0.00000000   -0.00000000    0.00000000

     Total force =     0.000000     Total SCF correction =     0.000000


     Computing stress (Cartesian axis) and pressure


     negative rho (up, down):  9.299E-04 0.000E+00
          total   stress  (Ry/bohr**3)                   (kbar)     P=      -26.16
  -0.00032430   0.00000000   0.00000000          -47.71        0.00        0.00
   0.00000000  -0.00032437   0.00000000            0.00      -47.72        0.00
   0.00000000   0.00000000   0.00011515            0.00        0.00       16.94

     Energy error            =      4.0E-03 Ry
     Gradient error          =      1.4E-08 Ry/Bohr
     Cell gradient error     =      4.8E+01 kbar

     number of scf cycles    =   3
     number of bfgs steps    =   2

     enthalpy           old  =    -449.7481082800 Ry
     enthalpy           new  =    -449.7520973967 Ry

     CASE: enthalpy          _new < enthalpy          _old

     new trust radius        =       0.0432431240 bohr
     new conv_thr            =            1.0E-10 Ry

     new unit-cell volume =    190.66592 a.u.^3 (    28.25377 Ang^3 )
     density =      6.15463 g/cm^3

CELL_PARAMETERS (alat=  5.58242261)
   0.986186795  -0.000000048  -0.000000007
  -0.000000048   0.986187873  -0.000000039
  -0.000000007  -0.000000043   1.126901864

ATOMIC_POSITIONS (crystal)
Fe               0.4999999389        0.5000000121        0.4999999982
Ti               0.0000000361       -0.0000000069        0.0000000044
H                0.5000000250        0.4999999949       -0.0000000026



     Writing config-only to output data dir ./TiFeH.save/ :
     XML data file     NEW-OLD atomic charge density approx. for the potential
     New effective cutoffs (rho, wfc): 1784.50  127.49

     Check: negative core charge=   -0.000002

     negative rho (up, down):  9.132E-04 0.000E+00

     total cpu time spent up to now is      908.5 secs

     per-process dynamical memory:   275.4 Mb

     Self-consistent Calculation

     iteration #  1     ecut=   124.00 Ry     beta= 0.70
     Davidson diagonalization with overlap
     ethr =  1.00E-06,  avg # of iterations =  7.5

     negative rho (up, down):  8.974E-04 0.000E+00

     total cpu time spent up to now is      947.6 secs

     total energy              =    -449.75166928 Ry
     estimated scf accuracy    <       0.00147343 Ry

     iteration #  2     ecut=   124.00 Ry     beta= 0.70
     Davidson diagonalization with overlap
     ethr =  5.08E-06,  avg # of iterations =  5.1

     negative rho (up, down):  9.182E-04 0.000E+00

     total cpu time spent up to now is      971.4 secs

     total energy              =    -449.74427060 Ry
     estimated scf accuracy    <       0.16045418 Ry

     iteration #  3     ecut=   124.00 Ry     beta= 0.70
     Davidson diagonalization with overlap
     ethr =  5.08E-06,  avg # of iterations =  4.8

     negative rho (up, down):  9.233E-04 0.000E+00

     total cpu time spent up to now is      993.4 secs

     total energy              =    -449.75308706 Ry
     estimated scf accuracy    <       0.00016950 Ry

     iteration #  4     ecut=   124.00 Ry     beta= 0.70
     Davidson diagonalization with overlap
     ethr =  5.84E-07,  avg # of iterations =  2.2

     negative rho (up, down):  9.232E-04 0.000E+00

     total cpu time spent up to now is     1007.9 secs

     total energy              =    -449.75310442 Ry
     estimated scf accuracy    <       0.00002335 Ry

     iteration #  5     ecut=   124.00 Ry     beta= 0.70
     Davidson diagonalization with overlap
     ethr =  8.05E-08,  avg # of iterations =  3.8

     negative rho (up, down):  9.237E-04 0.000E+00

     total cpu time spent up to now is     1025.5 secs

     total energy              =    -449.75310921 Ry
     estimated scf accuracy    <       0.00000218 Ry

     iteration #  6     ecut=   124.00 Ry     beta= 0.70
     Davidson diagonalization with overlap
     ethr =  7.50E-09,  avg # of iterations =  3.9

     negative rho (up, down):  9.237E-04 0.000E+00

     total cpu time spent up to now is     1044.2 secs

     total energy              =    -449.75310975 Ry
     estimated scf accuracy    <       0.00000031 Ry

     iteration #  7     ecut=   124.00 Ry     beta= 0.70
     Davidson diagonalization with overlap
     ethr =  1.07E-09,  avg # of iterations =  2.7

     negative rho (up, down):  9.238E-04 0.000E+00

     total cpu time spent up to now is     1060.2 secs

     total energy              =    -449.75310981 Ry
     estimated scf accuracy    <       0.00000002 Ry

     iteration #  8     ecut=   124.00 Ry     beta= 0.70
     Davidson diagonalization with overlap
     ethr =  5.76E-11,  avg # of iterations =  4.7

     negative rho (up, down):  9.238E-04 0.000E+00

     total cpu time spent up to now is     1081.2 secs

     total energy              =    -449.75310982 Ry
     estimated scf accuracy    <          7.4E-09 Ry

     iteration #  9     ecut=   124.00 Ry     beta= 0.70
     Davidson diagonalization with overlap
     ethr =  2.57E-11,  avg # of iterations =  2.1

     negative rho (up, down):  9.238E-04 0.000E+00

     total cpu time spent up to now is     1096.3 secs

     total energy              =    -449.75310982 Ry
     estimated scf accuracy    <          1.4E-10 Ry

     iteration # 10     ecut=   124.00 Ry     beta= 0.70
     Davidson diagonalization with overlap
     ethr =  4.86E-13,  avg # of iterations =  5.3

     negative rho (up, down):  9.238E-04 0.000E+00

     total cpu time spent up to now is     1119.5 secs

     End of self-consistent calculation

     Number of k-points >= 100: set verbosity='high' to print the bands.

     the Fermi energy is    16.2849 ev

!    total energy              =    -449.75310982 Ry
     estimated scf accuracy    <          8.2E-11 Ry
     smearing contrib. (-TS)   =       0.00004966 Ry
     internal energy E=F+TS    =    -449.75315948 Ry

     The total energy is F=E-TS. E is the sum of the following terms:
     one-electron contribution =    -160.69858121 Ry
     hartree contribution      =      95.64005160 Ry
     xc contribution           =     -53.63778940 Ry
     ewald contribution        =    -254.90448589 Ry
     one-center paw contrib.   =     -76.15235459 Ry

     convergence has been achieved in  10 iterations

     negative rho (up, down):  9.238E-04 0.000E+00

     Forces acting on atoms (cartesian axes, Ry/au):

     atom    1 type  1   force =     0.00000002   -0.00000001    0.00000000
     atom    2 type  2   force =    -0.00000001    0.00000001   -0.00000000
     atom    3 type  3   force =    -0.00000000    0.00000000    0.00000000

     Total force =     0.000000     Total SCF correction =     0.000000


     Computing stress (Cartesian axis) and pressure


     negative rho (up, down):  9.238E-04 0.000E+00
          total   stress  (Ry/bohr**3)                   (kbar)     P=        6.36
   0.00005654   0.00000000   0.00000000            8.32        0.00        0.00
   0.00000000   0.00005652   0.00000000            0.00        8.31        0.00
   0.00000000   0.00000000   0.00001667            0.00        0.00        2.45

     Energy error            =      1.0E-03 Ry
     Gradient error          =      1.6E-08 Ry/Bohr
     Cell gradient error     =      8.3E+00 kbar

     number of scf cycles    =   4
     number of bfgs steps    =   3

     enthalpy           old  =    -449.7520973967 Ry
     enthalpy           new  =    -449.7531098180 Ry

     CASE: enthalpy          _new < enthalpy          _old

     new trust radius        =       0.0056071864 bohr
     new conv_thr            =            1.0E-10 Ry

     new unit-cell volume =    191.33390 a.u.^3 (    28.35276 Ang^3 )
     density =      6.13314 g/cm^3

CELL_PARAMETERS (alat=  5.58242261)
   0.988189134  -0.000000036  -0.000000006
  -0.000000036   0.988189847  -0.000000033
  -0.000000006  -0.000000038   1.126272087

ATOMIC_POSITIONS (crystal)
Fe               0.4999999415        0.5000000106        0.4999999983
Ti               0.0000000339       -0.0000000057        0.0000000040
H                0.5000000246        0.4999999951       -0.0000000024



     Writing config-only to output data dir ./TiFeH.save/ :
     XML data file     NEW-OLD atomic charge density approx. for the potential
     New effective cutoffs (rho, wfc): 1777.28  126.97

     Check: negative core charge=   -0.000002

     negative rho (up, down):  9.251E-04 0.000E+00

     total cpu time spent up to now is     1125.1 secs

     per-process dynamical memory:   275.4 Mb

     Self-consistent Calculation

     iteration #  1     ecut=   124.00 Ry     beta= 0.70
     Davidson diagonalization with overlap
     ethr =  1.00E-06,  avg # of iterations =  3.0

     Threshold (ethr) on eigenvalues was too large:
     Diagonalizing with lowered threshold

     Davidson diagonalization with overlap
     ethr =  8.89E-08,  avg # of iterations =  4.0

     negative rho (up, down):  9.267E-04 0.000E+00

     total cpu time spent up to now is     1163.1 secs

     total energy              =    -449.75309370 Ry
     estimated scf accuracy    <       0.00002988 Ry

     iteration #  2     ecut=   124.00 Ry     beta= 0.70
     Davidson diagonalization with overlap
     ethr =  1.03E-07,  avg # of iterations =  4.2

     negative rho (up, down):  9.240E-04 0.000E+00

     total cpu time spent up to now is     1183.3 secs

     total energy              =    -449.75294020 Ry
     estimated scf accuracy    <       0.00356227 Ry

     iteration #  3     ecut=   124.00 Ry     beta= 0.70
     Davidson diagonalization with overlap
     ethr =  1.03E-07,  avg # of iterations =  4.3

     negative rho (up, down):  9.246E-04 0.000E+00

     total cpu time spent up to now is     1203.2 secs

     total energy              =    -449.75312847 Ry
     estimated scf accuracy    <       0.00000215 Ry

     iteration #  4     ecut=   124.00 Ry     beta= 0.70
     Davidson diagonalization with overlap
     ethr =  7.43E-09,  avg # of iterations =  3.9

     negative rho (up, down):  9.244E-04 0.000E+00

     total cpu time spent up to now is     1221.9 secs

     total energy              =    -449.75312910 Ry
     estimated scf accuracy    <       0.00000044 Ry

     iteration #  5     ecut=   124.00 Ry     beta= 0.70
     Davidson diagonalization with overlap
     ethr =  1.50E-09,  avg # of iterations =  2.2

     negative rho (up, down):  9.242E-04 0.000E+00

     total cpu time spent up to now is     1236.6 secs

     total energy              =    -449.75312913 Ry
     estimated scf accuracy    <       0.00000008 Ry

     iteration #  6     ecut=   124.00 Ry     beta= 0.70
     Davidson diagonalization with overlap
     ethr =  2.75E-10,  avg # of iterations =  2.7

     negative rho (up, down):  9.242E-04 0.000E+00

     total cpu time spent up to now is     1253.2 secs

     total energy              =    -449.75312915 Ry
     estimated scf accuracy    <          9.4E-10 Ry

     iteration #  7     ecut=   124.00 Ry     beta= 0.70
     Davidson diagonalization with overlap
     ethr =  3.23E-12,  avg # of iterations =  6.1

     negative rho (up, down):  9.242E-04 0.000E+00

     total cpu time spent up to now is     1279.6 secs

     total energy              =    -449.75312915 Ry
     estimated scf accuracy    <          3.2E-10 Ry

     iteration #  8     ecut=   124.00 Ry     beta= 0.70
     Davidson diagonalization with overlap
     ethr =  1.11E-12,  avg # of iterations =  2.1

     negative rho (up, down):  9.242E-04 0.000E+00

     total cpu time spent up to now is     1294.7 secs

     End of self-consistent calculation

     Number of k-points >= 100: set verbosity='high' to print the bands.

     the Fermi energy is    16.2281 ev

!    total energy              =    -449.75312915 Ry
     estimated scf accuracy    <          1.9E-12 Ry
     smearing contrib. (-TS)   =       0.00004347 Ry
     internal energy E=F+TS    =    -449.75317262 Ry

     The total energy is F=E-TS. E is the sum of the following terms:
     one-electron contribution =    -161.18174163 Ry
     hartree contribution      =      95.80911621 Ry
     xc contribution           =     -53.63185991 Ry
     ewald contribution        =    -254.59642134 Ry
     one-center paw contrib.   =     -76.15226595 Ry

     convergence has been achieved in   8 iterations

     negative rho (up, down):  9.242E-04 0.000E+00

     Forces acting on atoms (cartesian axes, Ry/au):

     atom    1 type  1   force =     0.00000001   -0.00000001    0.00000000
     atom    2 type  2   force =    -0.00000001    0.00000001   -0.00000000
     atom    3 type  3   force =    -0.00000000    0.00000000    0.00000000

     Total force =     0.000000     Total SCF correction =     0.000000


     Computing stress (Cartesian axis) and pressure


     negative rho (up, down):  9.242E-04 0.000E+00
          total   stress  (Ry/bohr**3)                   (kbar)     P=        0.21
  -0.00000285   0.00000000   0.00000000           -0.42        0.00        0.00
   0.00000000  -0.00000287   0.00000000            0.00       -0.42        0.00
   0.00000000   0.00000000   0.00000996            0.00        0.00        1.46

     Energy error            =      1.9E-05 Ry
     Gradient error          =      1.4E-08 Ry/Bohr
     Cell gradient error     =      1.5E+00 kbar

     number of scf cycles    =   5
     number of bfgs steps    =   4

     enthalpy           old  =    -449.7531098180 Ry
     enthalpy           new  =    -449.7531291476 Ry

     CASE: enthalpy          _new < enthalpy          _old

     new trust radius        =       0.0008710788 bohr
     new conv_thr            =            1.0E-10 Ry

     new unit-cell volume =    191.33204 a.u.^3 (    28.35248 Ang^3 )
     density =      6.13320 g/cm^3

CELL_PARAMETERS (alat=  5.58242261)
   0.988028984  -0.000000026  -0.000000004
  -0.000000026   0.988029325  -0.000000028
  -0.000000005  -0.000000034   1.126626716

ATOMIC_POSITIONS (crystal)
Fe               0.4999999439        0.5000000094        0.4999999985
Ti               0.0000000318       -0.0000000046        0.0000000036
H                0.5000000243        0.4999999952       -0.0000000021



     Writing config-only to output data dir ./TiFeH.save/ :
     XML data file     NEW-OLD atomic charge density approx. for the potential
     New effective cutoffs (rho, wfc): 1777.85  127.01

     Check: negative core charge=   -0.000002

     negative rho (up, down):  9.242E-04 0.000E+00

     total cpu time spent up to now is     1300.3 secs

     per-process dynamical memory:   275.4 Mb

     Self-consistent Calculation

     iteration #  1     ecut=   124.00 Ry     beta= 0.70
     Davidson diagonalization with overlap
     ethr =  1.00E-06,  avg # of iterations =  2.0

     Threshold (ethr) on eigenvalues was too large:
     Diagonalizing with lowered threshold

     Davidson diagonalization with overlap
     ethr =  2.26E-09,  avg # of iterations =  3.2

     negative rho (up, down):  9.237E-04 0.000E+00

     total cpu time spent up to now is     1334.1 secs

     total energy              =    -449.75312902 Ry
     estimated scf accuracy    <       0.00000064 Ry

     iteration #  2     ecut=   124.00 Ry     beta= 0.70
     Davidson diagonalization with overlap
     ethr =  2.21E-09,  avg # of iterations =  4.5

     negative rho (up, down):  9.241E-04 0.000E+00

     total cpu time spent up to now is     1354.9 secs

     total energy              =    -449.75312567 Ry
     estimated scf accuracy    <       0.00007589 Ry

     iteration #  3     ecut=   124.00 Ry     beta= 0.70
     Davidson diagonalization with overlap
     ethr =  2.21E-09,  avg # of iterations =  4.2

     negative rho (up, down):  9.241E-04 0.000E+00

     total cpu time spent up to now is     1374.7 secs

     total energy              =    -449.75312959 Ry
     estimated scf accuracy    <          4.8E-09 Ry

     iteration #  4     ecut=   124.00 Ry     beta= 0.70
     Davidson diagonalization with overlap
     ethr =  1.66E-11,  avg # of iterations =  5.8

     negative rho (up, down):  9.241E-04 0.000E+00

     total cpu time spent up to now is     1400.2 secs

     total energy              =    -449.75312960 Ry
     estimated scf accuracy    <          2.2E-09 Ry

     iteration #  5     ecut=   124.00 Ry     beta= 0.70
     Davidson diagonalization with overlap
     ethr =  7.69E-12,  avg # of iterations =  1.3

     negative rho (up, down):  9.241E-04 0.000E+00

     total cpu time spent up to now is     1413.4 secs

     total energy              =    -449.75312960 Ry
     estimated scf accuracy    <          1.0E-10 Ry

     iteration #  6     ecut=   124.00 Ry     beta= 0.70
     Davidson diagonalization with overlap
     ethr =  3.52E-13,  avg # of iterations =  3.2

     negative rho (up, down):  9.241E-04 0.000E+00

     total cpu time spent up to now is     1431.3 secs

     End of self-consistent calculation

     Number of k-points >= 100: set verbosity='high' to print the bands.

     the Fermi energy is    16.2265 ev

!    total energy              =    -449.75312960 Ry
     estimated scf accuracy    <          1.6E-11 Ry
     smearing contrib. (-TS)   =       0.00004449 Ry
     internal energy E=F+TS    =    -449.75317409 Ry

     The total energy is F=E-TS. E is the sum of the following terms:
     one-electron contribution =    -161.17658329 Ry
     hartree contribution      =      95.80674535 Ry
     xc contribution           =     -53.63177217 Ry
     ewald contribution        =    -254.59929805 Ry
     one-center paw contrib.   =     -76.15226594 Ry

     convergence has been achieved in   6 iterations

     negative rho (up, down):  9.241E-04 0.000E+00

     Forces acting on atoms (cartesian axes, Ry/au):

     atom    1 type  1   force =     0.00000001   -0.00000001    0.00000000
     atom    2 type  2   force =    -0.00000001    0.00000000   -0.00000000
     atom    3 type  3   force =    -0.00000000    0.00000000    0.00000000

     Total force =     0.000000     Total SCF correction =     0.000000
     SCF correction compared to forces is large: reduce conv_thr to get better values


     Computing stress (Cartesian axis) and pressure


     negative rho (up, down):  9.241E-04 0.000E+00
          total   stress  (Ry/bohr**3)                   (kbar)     P=        0.11
   0.00000009   0.00000000   0.00000000            0.01        0.00        0.00
   0.00000000   0.00000008   0.00000000            0.00        0.01        0.00
   0.00000000   0.00000000   0.00000210            0.00        0.00        0.31

     Energy error            =      4.5E-07 Ry
     Gradient error          =      1.1E-08 Ry/Bohr
     Cell gradient error     =      3.1E-01 kbar

     number of scf cycles    =   6
     number of bfgs steps    =   5

     enthalpy           old  =    -449.7531291476 Ry
     enthalpy           new  =    -449.7531295967 Ry

     CASE: enthalpy          _new < enthalpy          _old

     new trust radius        =       0.0001948524 bohr
     new conv_thr            =            1.0E-10 Ry

     new unit-cell volume =    191.34049 a.u.^3 (    28.35373 Ang^3 )
     density =      6.13293 g/cm^3

CELL_PARAMETERS (alat=  5.58242261)
   0.988016108  -0.000000017  -0.000000004
  -0.000000017   0.988016234  -0.000000023
  -0.000000004  -0.000000029   1.126706069

ATOMIC_POSITIONS (crystal)
Fe               0.4999999461        0.5000000083        0.4999999988
Ti               0.0000000299       -0.0000000036        0.0000000031
H                0.5000000240        0.4999999953       -0.0000000018



     Writing config-only to output data dir ./TiFeH.save/ :
     XML data file     NEW-OLD atomic charge density approx. for the potential
     New effective cutoffs (rho, wfc): 1777.90  127.02

     Check: negative core charge=   -0.000002

     negative rho (up, down):  9.242E-04 0.000E+00

     total cpu time spent up to now is     1436.9 secs

     per-process dynamical memory:   275.4 Mb

     Self-consistent Calculation

     iteration #  1     ecut=   124.00 Ry     beta= 0.70
     Davidson diagonalization with overlap
     ethr =  1.00E-06,  avg # of iterations =  2.0

     Threshold (ethr) on eigenvalues was too large:
     Diagonalizing with lowered threshold

     Davidson diagonalization with overlap
     ethr =  6.62E-11,  avg # of iterations =  3.6

     negative rho (up, down):  9.240E-04 0.000E+00

     total cpu time spent up to now is     1471.9 secs

     total energy              =    -449.75312960 Ry
     estimated scf accuracy    <       0.00000002 Ry

     iteration #  2     ecut=   124.00 Ry     beta= 0.70
     Davidson diagonalization with overlap
     ethr =  5.84E-11,  avg # of iterations =  4.5

     negative rho (up, down):  9.241E-04 0.000E+00

     total cpu time spent up to now is     1493.4 secs

     total energy              =    -449.75312951 Ry
     estimated scf accuracy    <       0.00000190 Ry

     iteration #  3     ecut=   124.00 Ry     beta= 0.70
     Davidson diagonalization with overlap
     ethr =  5.84E-11,  avg # of iterations =  4.2

     negative rho (up, down):  9.241E-04 0.000E+00

     total cpu time spent up to now is     1512.7 secs

     total energy              =    -449.75312961 Ry
     estimated scf accuracy    <          6.1E-10 Ry

     iteration #  4     ecut=   124.00 Ry     beta= 0.70
     Davidson diagonalization with overlap
     ethr =  2.09E-12,  avg # of iterations =  4.0

     negative rho (up, down):  9.241E-04 0.000E+00

     total cpu time spent up to now is     1533.5 secs

     End of self-consistent calculation

     Number of k-points >= 100: set verbosity='high' to print the bands.

     the Fermi energy is    16.2254 ev

!    total energy              =    -449.75312961 Ry
     estimated scf accuracy    <          4.0E-11 Ry
     smearing contrib. (-TS)   =       0.00004466 Ry
     internal energy E=F+TS    =    -449.75317428 Ry

     The total energy is F=E-TS. E is the sum of the following terms:
     one-electron contribution =    -161.18181845 Ry
     hartree contribution      =      95.80850955 Ry
     xc contribution           =     -53.63168943 Ry
     ewald contribution        =    -254.59591036 Ry
     one-center paw contrib.   =     -76.15226558 Ry

     convergence has been achieved in   4 iterations

     negative rho (up, down):  9.241E-04 0.000E+00

     Forces acting on atoms (cartesian axes, Ry/au):

     atom    1 type  1   force =    -0.00000028    0.00000013   -0.00000001
     atom    2 type  2   force =     0.00000014   -0.00000006    0.00000001
     atom    3 type  3   force =     0.00000014   -0.00000007    0.00000001

     Total force =     0.000000     Total SCF correction =     0.000000
     SCF correction compared to forces is large: reduce conv_thr to get better values


     Computing stress (Cartesian axis) and pressure


     negative rho (up, down):  9.241E-04 0.000E+00
          total   stress  (Ry/bohr**3)                   (kbar)     P=        0.08
   0.00000057   0.00000000   0.00000000            0.08        0.00        0.00
   0.00000000   0.00000057   0.00000000            0.00        0.08        0.00
   0.00000000   0.00000000   0.00000054            0.00        0.00        0.08

     Energy error            =      1.5E-08 Ry
     Gradient error          =      2.8E-07 Ry/Bohr
     Cell gradient error     =      8.4E-02 kbar

     bfgs converged in   7 scf cycles and   6 bfgs steps
     (criteria: energy <  1.0E-04 Ry, force <  1.0E-03 Ry/Bohr, cell <  1.0E-01 kbar)

     End of BFGS Geometry Optimization

     Final enthalpy           =    -449.7531296120 Ry

     File ./TiFeH.bfgs deleted, as requested
Begin final coordinates
     new unit-cell volume =    191.34049 a.u.^3 (    28.35373 Ang^3 )
     density =      6.13293 g/cm^3

CELL_PARAMETERS (alat=  5.58242261)
   0.988016108  -0.000000017  -0.000000004
  -0.000000017   0.988016234  -0.000000023
  -0.000000004  -0.000000029   1.126706069

ATOMIC_POSITIONS (crystal)
Fe               0.4999999461        0.5000000083        0.4999999988
Ti               0.0000000299       -0.0000000036        0.0000000031
H                0.5000000240        0.4999999953       -0.0000000018
End final coordinates



     Writing config-only to output data dir ./TiFeH.save/ :
     XML data file
     Final scf calculation at the relaxed structure.
     The G-vectors are recalculated for the final unit cell
     Results may differ from those at the preceding step.

     Parallelization info
     --------------------
     sticks:   dense  smooth     PW     G-vecs:    dense   smooth      PW
     Min         262      75     21                14614     2233     347
     Max         263      76     22                14619     2238     352
     Sum        4197    1201    349               233847    35757    5605

     Using Slab Decomposition



     bravais-lattice index     =            0
     lattice parameter (alat)  =       5.5824  a.u.
     unit-cell volume          =     191.3405 (a.u.)^3
     number of atoms/cell      =            3
     number of atomic types    =            3
     number of electrons       =        29.00
     number of Kohn-Sham states=           19
     kinetic-energy cutoff     =     124.0000  Ry
     charge density cutoff     =    1736.0000  Ry
     scf convergence threshold =      1.0E-10
     mixing beta               =       0.7000
     number of iterations used =            8  plain     mixing
     press convergence thresh. =      1.0E-01
     Exchange-correlation= PBE
                           (   1   4   3   4   0   0   0)

     celldm(1)=   5.582423  celldm(2)=   0.000000  celldm(3)=   0.000000
     celldm(4)=   0.000000  celldm(5)=   0.000000  celldm(6)=   0.000000

     crystal axes: (cart. coord. in units of alat)
               a(1) = (   0.988016  -0.000000  -0.000000 )  
               a(2) = (  -0.000000   0.988016  -0.000000 )  
               a(3) = (  -0.000000  -0.000000   1.126706 )  

     reciprocal axes: (cart. coord. in units 2 pi/alat)
               b(1) = (  1.012129  0.000000  0.000000 )  
               b(2) = (  0.000000  1.012129  0.000000 )  
               b(3) = (  0.000000  0.000000  0.887543 )  


     PseudoPot. # 1 for Fe read from file:
     ../../pseudos/Fe.pbe-spn-kjpaw_psl.0.2.1.UPF
     MD5 check sum: e86618425769142926afa95317d90200
     Pseudo is Projector augmented-wave + core cor, Zval = 16.0
     Generated using "atomic" code by A. Dal Corso  v.5.0.99 svn rev. 10869
     Shape of augmentation charge: PSQ
     Using radial grid of 1191 points,  6 beta functions with: 
                l(1) =   0
                l(2) =   0
                l(3) =   1
                l(4) =   1
                l(5) =   2
                l(6) =   2
     Q(r) pseudized with 0 coefficients 


     PseudoPot. # 2 for Ti read from file:
     ../../pseudos/ti_pbe_v1.4.uspp.F.UPF
     MD5 check sum: 88a00a6731bd790ddea75d31a80cb452
     Pseudo is Ultrasoft + core correction, Zval = 12.0
     Generated by new atomic code, or converted to UPF format
     Using radial grid of  851 points,  6 beta functions with: 
                l(1) =   0
                l(2) =   0
                l(3) =   1
                l(4) =   1
                l(5) =   2
                l(6) =   2
     Q(r) pseudized with  6 coefficients,  rinner =    1.000   1.000   1.000
                                                       1.000   1.000

     PseudoPot. # 3 for H  read from file:
     ../../pseudos/H.pbe-rrkjus_psl.1.0.0.UPF
     MD5 check sum: f52b6d4d1c606e5624b1dc7b2218f220
     Pseudo is Ultrasoft, Zval =  1.0
     Generated using "atomic" code by A. Dal Corso  v.5.1
     Using radial grid of  929 points,  2 beta functions with: 
                l(1) =   0
                l(2) =   0
     Q(r) pseudized with 0 coefficients 


     atomic species   valence    mass     pseudopotential
     Fe               16.00    55.84500     Fe( 1.00)
     Ti               12.00    47.86700     Ti( 1.00)
     H                 1.00     1.00784     H ( 1.00)

     No symmetry found



   Cartesian axes

     site n.     atom                  positions (alat units)
         1        Fe     tau(   1) = (   0.4940080   0.4940081   0.5633530  )
         2        Ti     tau(   2) = (   0.0000000  -0.0000000   0.0000000  )
         3        H      tau(   3) = (   0.4940081   0.4940081  -0.0000000  )

     number of k points=  1688  Marzari-Vanderbilt smearing, width (Ry)=  0.0050

     Number of k-points >= 100: set verbosity='high' to print them.

     Dense  grid:   233847 G-vectors     FFT dimensions: (  75,  75,  90)

     Smooth grid:    35757 G-vectors     FFT dimensions: (  40,  40,  45)

     Estimated max dynamical RAM per process >     210.66 MB

     Estimated total dynamical RAM >       3.29 GB

     Check: negative core charge=   -0.000001

     Initial potential from superposition of free atoms

     starting charge      27.9995, renormalised to      29.0000

     negative rho (up, down):  1.330E-03 0.000E+00
     Starting wfcs are   24 randomized atomic wfcs
     Checking if some PAW data can be deallocated... 

     total cpu time spent up to now is     1545.9 secs

     per-process dynamical memory:   287.5 Mb

     Self-consistent Calculation

     iteration #  1     ecut=   124.00 Ry     beta= 0.70
     Davidson diagonalization with overlap
     c_bands:  1 eigenvalues not converged
     c_bands:  1 eigenvalues not converged
     c_bands:  1 eigenvalues not converged
     c_bands:  1 eigenvalues not converged
     c_bands:  1 eigenvalues not converged
     c_bands:  1 eigenvalues not converged
     c_bands:  2 eigenvalues not converged
     c_bands:  1 eigenvalues not converged
     c_bands:  1 eigenvalues not converged
     c_bands:  1 eigenvalues not converged
     c_bands:  1 eigenvalues not converged
     c_bands:  1 eigenvalues not converged
     c_bands:  1 eigenvalues not converged
     c_bands:  1 eigenvalues not converged
     c_bands:  1 eigenvalues not converged
     c_bands:  1 eigenvalues not converged
     c_bands:  1 eigenvalues not converged
     c_bands:  1 eigenvalues not converged
     c_bands:  1 eigenvalues not converged
     c_bands:  1 eigenvalues not converged
     c_bands:  1 eigenvalues not converged
     c_bands:  1 eigenvalues not converged
     c_bands:  1 eigenvalues not converged
     c_bands:  2 eigenvalues not converged
     c_bands:  1 eigenvalues not converged
     c_bands:  1 eigenvalues not converged
     c_bands:  1 eigenvalues not converged
     c_bands:  1 eigenvalues not converged
     c_bands:  1 eigenvalues not converged
     c_bands:  1 eigenvalues not converged
     c_bands:  1 eigenvalues not converged
     c_bands:  1 eigenvalues not converged
     c_bands:  1 eigenvalues not converged
     c_bands:  1 eigenvalues not converged
     c_bands:  1 eigenvalues not converged
     c_bands:  1 eigenvalues not converged
     c_bands:  1 eigenvalues not converged
     c_bands:  1 eigenvalues not converged
     c_bands:  1 eigenvalues not converged
     c_bands:  1 eigenvalues not converged
     c_bands:  1 eigenvalues not converged
     c_bands:  1 eigenvalues not converged
     c_bands:  1 eigenvalues not converged
     c_bands:  1 eigenvalues not converged
     c_bands:  1 eigenvalues not converged
     c_bands:  1 eigenvalues not converged
     c_bands:  1 eigenvalues not converged
     c_bands:  1 eigenvalues not converged
     c_bands:  1 eigenvalues not converged
     c_bands:  1 eigenvalues not converged
     c_bands:  1 eigenvalues not converged
     c_bands:  1 eigenvalues not converged
     c_bands:  1 eigenvalues not converged
     c_bands:  1 eigenvalues not converged
     c_bands:  1 eigenvalues not converged
     c_bands:  1 eigenvalues not converged
     c_bands:  1 eigenvalues not converged
     c_bands:  1 eigenvalues not converged
     c_bands:  1 eigenvalues not converged
     c_bands:  1 eigenvalues not converged
     c_bands:  1 eigenvalues not converged
     c_bands:  1 eigenvalues not converged
     c_bands:  1 eigenvalues not converged
     c_bands:  2 eigenvalues not converged
     c_bands:  1 eigenvalues not converged
     c_bands:  2 eigenvalues not converged
     c_bands:  1 eigenvalues not converged
     c_bands:  1 eigenvalues not converged
     c_bands:  2 eigenvalues not converged
     c_bands:  1 eigenvalues not converged
     c_bands:  1 eigenvalues not converged
     c_bands:  1 eigenvalues not converged
     c_bands:  1 eigenvalues not converged
     c_bands:  1 eigenvalues not converged
     c_bands:  1 eigenvalues not converged
     c_bands:  1 eigenvalues not converged
     c_bands:  1 eigenvalues not converged
     c_bands:  1 eigenvalues not converged
     c_bands:  1 eigenvalues not converged
     c_bands:  1 eigenvalues not converged
     c_bands:  1 eigenvalues not converged
     c_bands:  1 eigenvalues not converged
     c_bands:  1 eigenvalues not converged
     c_bands:  1 eigenvalues not converged
     c_bands:  1 eigenvalues not converged
     c_bands:  1 eigenvalues not converged
     c_bands:  1 eigenvalues not converged
     c_bands:  1 eigenvalues not converged
     c_bands:  1 eigenvalues not converged
     c_bands:  1 eigenvalues not converged
     c_bands:  1 eigenvalues not converged
     c_bands:  1 eigenvalues not converged
     c_bands:  1 eigenvalues not converged
     c_bands:  1 eigenvalues not converged
     c_bands:  1 eigenvalues not converged
     c_bands:  1 eigenvalues not converged
     c_bands:  1 eigenvalues not converged
     c_bands:  1 eigenvalues not converged
     c_bands:  1 eigenvalues not converged
     c_bands:  1 eigenvalues not converged
     c_bands:  1 eigenvalues not converged
     c_bands:  1 eigenvalues not converged
     c_bands:  1 eigenvalues not converged
     c_bands:  1 eigenvalues not converged
     c_bands:  1 eigenvalues not converged
     c_bands:  1 eigenvalues not converged
     c_bands:  1 eigenvalues not converged
     c_bands:  1 eigenvalues not converged
     c_bands:  1 eigenvalues not converged
     c_bands:  1 eigenvalues not converged
     c_bands:  1 eigenvalues not converged
     c_bands:  1 eigenvalues not converged
     c_bands:  1 eigenvalues not converged
     c_bands:  1 eigenvalues not converged
     c_bands:  1 eigenvalues not converged
     c_bands:  1 eigenvalues not converged
     c_bands:  1 eigenvalues not converged
     c_bands:  1 eigenvalues not converged
     c_bands:  1 eigenvalues not converged
     c_bands:  1 eigenvalues not converged
     c_bands:  1 eigenvalues not converged
     c_bands:  1 eigenvalues not converged
     c_bands:  1 eigenvalues not converged
     c_bands:  1 eigenvalues not converged
     c_bands:  1 eigenvalues not converged
     c_bands:  1 eigenvalues not converged
     c_bands:  1 eigenvalues not converged
     c_bands:  1 eigenvalues not converged
     c_bands:  1 eigenvalues not converged
     c_bands:  1 eigenvalues not converged
     c_bands:  1 eigenvalues not converged
     c_bands:  1 eigenvalues not converged
     c_bands:  1 eigenvalues not converged
     c_bands:  1 eigenvalues not converged
     c_bands:  1 eigenvalues not converged
     c_bands:  1 eigenvalues not converged
     c_bands:  1 eigenvalues not converged
     c_bands:  1 eigenvalues not converged
     c_bands:  1 eigenvalues not converged
     c_bands:  1 eigenvalues not converged
     c_bands:  1 eigenvalues not converged
     c_bands:  1 eigenvalues not converged
     c_bands:  1 eigenvalues not converged
     c_bands:  1 eigenvalues not converged
     c_bands:  1 eigenvalues not converged
     c_bands:  1 eigenvalues not converged
     c_bands:  1 eigenvalues not converged
     c_bands:  1 eigenvalues not converged
     c_bands:  1 eigenvalues not converged
     c_bands:  1 eigenvalues not converged
     c_bands:  1 eigenvalues not converged
     c_bands:  1 eigenvalues not converged
     c_bands:  1 eigenvalues not converged
     c_bands:  1 eigenvalues not converged
     c_bands:  1 eigenvalues not converged
     c_bands:  1 eigenvalues not converged
     c_bands:  1 eigenvalues not converged
     c_bands:  1 eigenvalues not converged
     c_bands:  1 eigenvalues not converged
     c_bands:  1 eigenvalues not converged
     c_bands:  1 eigenvalues not converged
     c_bands:  1 eigenvalues not converged
     c_bands:  1 eigenvalues not converged
     c_bands:  1 eigenvalues not converged
     c_bands:  1 eigenvalues not converged
     c_bands:  1 eigenvalues not converged
     c_bands:  1 eigenvalues not converged
     c_bands:  1 eigenvalues not converged
     c_bands:  1 eigenvalues not converged
     c_bands:  1 eigenvalues not converged
     c_bands:  1 eigenvalues not converged
     c_bands:  1 eigenvalues not converged
     c_bands:  1 eigenvalues not converged
     c_bands:  1 eigenvalues not converged
     c_bands:  1 eigenvalues not converged
     c_bands:  1 eigenvalues not converged
     c_bands:  1 eigenvalues not converged
     c_bands:  1 eigenvalues not converged
     c_bands:  1 eigenvalues not converged
     c_bands:  1 eigenvalues not converged
     c_bands:  1 eigenvalues not converged
     c_bands:  1 eigenvalues not converged
     c_bands:  1 eigenvalues not converged
     c_bands:  1 eigenvalues not converged
     c_bands:  1 eigenvalues not converged
     c_bands:  1 eigenvalues not converged
     c_bands:  1 eigenvalues not converged
     c_bands:  1 eigenvalues not converged
     c_bands:  1 eigenvalues not converged
     c_bands:  1 eigenvalues not converged
     c_bands:  1 eigenvalues not converged
     c_bands:  1 eigenvalues not converged
     c_bands:  1 eigenvalues not converged
     c_bands:  1 eigenvalues not converged
     c_bands:  1 eigenvalues not converged
     c_bands:  1 eigenvalues not converged
     c_bands:  1 eigenvalues not converged
     c_bands:  1 eigenvalues not converged
     c_bands:  1 eigenvalues not converged
     c_bands:  1 eigenvalues not converged
     c_bands:  2 eigenvalues not converged
     c_bands:  1 eigenvalues not converged
     c_bands:  1 eigenvalues not converged
     c_bands:  1 eigenvalues not converged
     c_bands:  1 eigenvalues not converged
     c_bands:  1 eigenvalues not converged
     c_bands:  1 eigenvalues not converged
     c_bands:  1 eigenvalues not converged
     c_bands:  1 eigenvalues not converged
     c_bands:  1 eigenvalues not converged
     c_bands:  1 eigenvalues not converged
     c_bands:  1 eigenvalues not converged
     c_bands:  1 eigenvalues not converged
     c_bands:  1 eigenvalues not converged
     c_bands:  1 eigenvalues not converged
     c_bands:  1 eigenvalues not converged
     c_bands:  1 eigenvalues not converged
     c_bands:  1 eigenvalues not converged
     c_bands:  1 eigenvalues not converged
     c_bands:  1 eigenvalues not converged
     c_bands:  1 eigenvalues not converged
     c_bands:  1 eigenvalues not converged
     c_bands:  1 eigenvalues not converged
     c_bands:  1 eigenvalues not converged
     c_bands:  1 eigenvalues not converged
     c_bands:  1 eigenvalues not converged
     c_bands:  1 eigenvalues not converged
     c_bands:  1 eigenvalues not converged
     c_bands:  1 eigenvalues not converged
     c_bands:  1 eigenvalues not converged
     c_bands:  1 eigenvalues not converged
     c_bands:  1 eigenvalues not converged
     c_bands:  1 eigenvalues not converged
     c_bands:  1 eigenvalues not converged
     c_bands:  1 eigenvalues not converged
     c_bands:  2 eigenvalues not converged
     ethr =  1.00E-06,  avg # of iterations = 16.8

     negative rho (up, down):  1.243E-04 0.000E+00

     total cpu time spent up to now is     1632.2 secs

     total energy              =    -435.02612265 Ry
     estimated scf accuracy    <      18.61733244 Ry

     iteration #  2     ecut=   124.00 Ry     beta= 0.70
     Davidson diagonalization with overlap
     ethr =  1.00E-02,  avg # of iterations =  6.3

     negative rho (up, down):  2.375E-05 0.000E+00

     total cpu time spent up to now is     1665.1 secs

     total energy              =    -449.01653555 Ry
     estimated scf accuracy    <      73.18081233 Ry

     iteration #  3     ecut=   124.00 Ry     beta= 0.70
     Davidson diagonalization with overlap
     ethr =  1.00E-02,  avg # of iterations =  3.1

     negative rho (up, down):  2.063E-04 0.000E+00

     total cpu time spent up to now is     1686.5 secs

     total energy              =    -450.24361536 Ry
     estimated scf accuracy    <      17.66116119 Ry

     iteration #  4     ecut=   124.00 Ry     beta= 0.70
     Davidson diagonalization with overlap
     ethr =  1.00E-02,  avg # of iterations =  2.3

     negative rho (up, down):  2.953E-04 0.000E+00

     total cpu time spent up to now is     1702.8 secs

     total energy              =    -450.42545168 Ry
     estimated scf accuracy    <       6.75622399 Ry

     iteration #  5     ecut=   124.00 Ry     beta= 0.70
     Davidson diagonalization with overlap
     ethr =  1.00E-02,  avg # of iterations =  1.1

     negative rho (up, down):  8.744E-04 0.000E+00

     total cpu time spent up to now is     1716.3 secs

     total energy              =    -449.47458424 Ry
     estimated scf accuracy    <       5.53455716 Ry

     iteration #  6     ecut=   124.00 Ry     beta= 0.70
     Davidson diagonalization with overlap
     ethr =  1.00E-02,  avg # of iterations =  2.6

     negative rho (up, down):  8.870E-04 0.000E+00

     total cpu time spent up to now is     1731.8 secs

     total energy              =    -449.72805137 Ry
     estimated scf accuracy    <       0.30565551 Ry

     iteration #  7     ecut=   124.00 Ry     beta= 0.70
     Davidson diagonalization with overlap
     ethr =  1.05E-03,  avg # of iterations =  3.8

     negative rho (up, down):  7.356E-04 0.000E+00

     total cpu time spent up to now is     1749.6 secs

     total energy              =    -449.78903184 Ry
     estimated scf accuracy    <       0.11164537 Ry

     iteration #  8     ecut=   124.00 Ry     beta= 0.70
     Davidson diagonalization with overlap
     ethr =  3.85E-04,  avg # of iterations =  2.3

     negative rho (up, down):  1.080E-03 0.000E+00

     total cpu time spent up to now is     1765.0 secs

     total energy              =    -449.53637827 Ry
     estimated scf accuracy    <       1.20330421 Ry

     iteration #  9     ecut=   124.00 Ry     beta= 0.70
     Davidson diagonalization with overlap
     ethr =  3.85E-04,  avg # of iterations =  4.7

     negative rho (up, down):  7.540E-04 0.000E+00

     total cpu time spent up to now is     1787.8 secs

     total energy              =    -449.50429243 Ry
     estimated scf accuracy    <       4.11017600 Ry

     iteration # 10     ecut=   124.00 Ry     beta= 0.70
     Davidson diagonalization with overlap
     ethr =  3.85E-04,  avg # of iterations =  3.7

     negative rho (up, down):  6.626E-04 0.000E+00

     total cpu time spent up to now is     1807.2 secs

     total energy              =    -449.79052147 Ry
     estimated scf accuracy    <       0.09252347 Ry

     iteration # 11     ecut=   124.00 Ry     beta= 0.70
     Davidson diagonalization with overlap
     ethr =  3.19E-04,  avg # of iterations =  1.9

     negative rho (up, down):  6.887E-04 0.000E+00

     total cpu time spent up to now is     1821.9 secs

     total energy              =    -449.80461471 Ry
     estimated scf accuracy    <       0.75181331 Ry

     iteration # 12     ecut=   124.00 Ry     beta= 0.70
     Davidson diagonalization with overlap
     ethr =  3.19E-04,  avg # of iterations =  1.0

     negative rho (up, down):  7.591E-04 0.000E+00

     total cpu time spent up to now is     1835.3 secs

     total energy              =    -449.76728548 Ry
     estimated scf accuracy    <       0.67229300 Ry

     iteration # 13     ecut=   124.00 Ry     beta= 0.70
     Davidson diagonalization with overlap
     ethr =  3.19E-04,  avg # of iterations =  1.0

     negative rho (up, down):  7.652E-04 0.000E+00

     total cpu time spent up to now is     1848.8 secs

     total energy              =    -449.77162281 Ry
     estimated scf accuracy    <       0.26751181 Ry

     iteration # 14     ecut=   124.00 Ry     beta= 0.70
     Davidson diagonalization with overlap
     ethr =  3.19E-04,  avg # of iterations =  1.0

     negative rho (up, down):  7.690E-04 0.000E+00

     total cpu time spent up to now is     1862.1 secs

     total energy              =    -449.77140658 Ry
     estimated scf accuracy    <       0.24788679 Ry

     iteration # 15     ecut=   124.00 Ry     beta= 0.70
     Davidson diagonalization with overlap
     ethr =  3.19E-04,  avg # of iterations =  1.0

     negative rho (up, down):  1.212E-03 0.000E+00

     total cpu time spent up to now is     1875.5 secs

     total energy              =    -449.70977586 Ry
     estimated scf accuracy    <       0.24156264 Ry

     iteration # 16     ecut=   124.00 Ry     beta= 0.70
     Davidson diagonalization with overlap
     ethr =  3.19E-04,  avg # of iterations =  3.6

     negative rho (up, down):  1.328E-03 0.000E+00

     total cpu time spent up to now is     1895.5 secs

     total energy              =    -449.81245198 Ry
     estimated scf accuracy    <       0.51635133 Ry

     iteration # 17     ecut=   124.00 Ry     beta= 0.70
     Davidson diagonalization with overlap
     ethr =  3.19E-04,  avg # of iterations =  1.5

     negative rho (up, down):  1.105E-03 0.000E+00

     total cpu time spent up to now is     1909.6 secs

     total energy              =    -449.75248153 Ry
     estimated scf accuracy    <       1.31348698 Ry

     iteration # 18     ecut=   124.00 Ry     beta= 0.70
     Davidson diagonalization with overlap
     ethr =  3.19E-04,  avg # of iterations =  1.3

     negative rho (up, down):  8.406E-04 0.000E+00

     total cpu time spent up to now is     1923.4 secs

     total energy              =    -449.72836810 Ry
     estimated scf accuracy    <       0.28289077 Ry

     iteration # 19     ecut=   124.00 Ry     beta= 0.70
     Davidson diagonalization with overlap
     ethr =  3.19E-04,  avg # of iterations =  2.4

     negative rho (up, down):  8.853E-04 0.000E+00

     total cpu time spent up to now is     1938.8 secs

     total energy              =    -449.75256071 Ry
     estimated scf accuracy    <       0.00893173 Ry

     iteration # 20     ecut=   124.00 Ry     beta= 0.70
     Davidson diagonalization with overlap
     ethr =  3.08E-05,  avg # of iterations =  2.3

     negative rho (up, down):  8.996E-04 0.000E+00

     total cpu time spent up to now is     1954.3 secs

     total energy              =    -449.75325473 Ry
     estimated scf accuracy    <       0.00044709 Ry

     iteration # 21     ecut=   124.00 Ry     beta= 0.70
     Davidson diagonalization with overlap
     ethr =  1.54E-06,  avg # of iterations =  3.9

     negative rho (up, down):  9.065E-04 0.000E+00

     total cpu time spent up to now is     1972.6 secs

     total energy              =    -449.75332019 Ry
     estimated scf accuracy    <       0.00003672 Ry

     iteration # 22     ecut=   124.00 Ry     beta= 0.70
     Davidson diagonalization with overlap
     ethr =  1.27E-07,  avg # of iterations =  3.5

     negative rho (up, down):  9.070E-04 0.000E+00

     total cpu time spent up to now is     1991.5 secs

     total energy              =    -449.75333045 Ry
     estimated scf accuracy    <       0.00000283 Ry

     iteration # 23     ecut=   124.00 Ry     beta= 0.70
     Davidson diagonalization with overlap
     ethr =  9.75E-09,  avg # of iterations =  4.2

     negative rho (up, down):  9.066E-04 0.000E+00

     total cpu time spent up to now is     2011.4 secs

     total energy              =    -449.75333062 Ry
     estimated scf accuracy    <       0.00000187 Ry

     iteration # 24     ecut=   124.00 Ry     beta= 0.70
     Davidson diagonalization with overlap
     ethr =  6.44E-09,  avg # of iterations =  2.0

     negative rho (up, down):  9.066E-04 0.000E+00

     total cpu time spent up to now is     2027.0 secs

     total energy              =    -449.75333071 Ry
     estimated scf accuracy    <       0.00000071 Ry

     iteration # 25     ecut=   124.00 Ry     beta= 0.70
     Davidson diagonalization with overlap
     ethr =  2.46E-09,  avg # of iterations =  2.2

     negative rho (up, down):  9.068E-04 0.000E+00

     total cpu time spent up to now is     2042.1 secs

     total energy              =    -449.75333069 Ry
     estimated scf accuracy    <       0.00000070 Ry

     iteration # 26     ecut=   124.00 Ry     beta= 0.70
     Davidson diagonalization with overlap
     ethr =  2.43E-09,  avg # of iterations =  1.0

     negative rho (up, down):  9.071E-04 0.000E+00

     total cpu time spent up to now is     2055.4 secs

     total energy              =    -449.75333066 Ry
     estimated scf accuracy    <       0.00000041 Ry

     iteration # 27     ecut=   124.00 Ry     beta= 0.70
     Davidson diagonalization with overlap
     ethr =  1.42E-09,  avg # of iterations =  1.1

     negative rho (up, down):  9.071E-04 0.000E+00

     total cpu time spent up to now is     2068.8 secs

     total energy              =    -449.75333069 Ry
     estimated scf accuracy    <          8.7E-09 Ry

     iteration # 28     ecut=   124.00 Ry     beta= 0.70
     Davidson diagonalization with overlap
     ethr =  2.99E-11,  avg # of iterations =  4.4

     negative rho (up, down):  9.072E-04 0.000E+00

     total cpu time spent up to now is     2088.8 secs

     total energy              =    -449.75333070 Ry
     estimated scf accuracy    <          5.1E-10 Ry

     iteration # 29     ecut=   124.00 Ry     beta= 0.70
     Davidson diagonalization with overlap
     ethr =  1.76E-12,  avg # of iterations =  4.2

     negative rho (up, down):  9.072E-04 0.000E+00

     total cpu time spent up to now is     2108.6 secs

     total energy              =    -449.75333070 Ry
     estimated scf accuracy    <          1.1E-10 Ry

     iteration # 30     ecut=   124.00 Ry     beta= 0.70
     Davidson diagonalization with overlap
     ethr =  3.68E-13,  avg # of iterations =  2.2

     negative rho (up, down):  9.072E-04 0.000E+00

     total cpu time spent up to now is     2124.8 secs

     End of self-consistent calculation

     Number of k-points >= 100: set verbosity='high' to print the bands.

     the Fermi energy is    16.2253 ev

!    total energy              =    -449.75333069 Ry
     estimated scf accuracy    <          6.6E-12 Ry
     smearing contrib. (-TS)   =       0.00004465 Ry
     internal energy E=F+TS    =    -449.75337534 Ry

     The total energy is F=E-TS. E is the sum of the following terms:
     one-electron contribution =    -161.18146099 Ry
     hartree contribution      =      95.80815560 Ry
     xc contribution           =     -53.63185934 Ry
     ewald contribution        =    -254.59591036 Ry
     one-center paw contrib.   =     -76.15230024 Ry

     convergence has been achieved in  30 iterations

     negative rho (up, down):  9.072E-04 0.000E+00

     Forces acting on atoms (cartesian axes, Ry/au):

     atom    1 type  1   force =     0.00000000   -0.00000000   -0.00000003
     atom    2 type  2   force =    -0.00000001    0.00000000    0.00000000
     atom    3 type  3   force =     0.00000000    0.00000000    0.00000003

     Total force =     0.000000     Total SCF correction =     0.000000
     SCF correction compared to forces is large: reduce conv_thr to get better values


     Computing stress (Cartesian axis) and pressure


     negative rho (up, down):  9.072E-04 0.000E+00
          total   stress  (Ry/bohr**3)                   (kbar)     P=       -0.13
  -0.00000060   0.00000000   0.00000000           -0.09        0.00        0.00
   0.00000000  -0.00000060   0.00000000            0.00       -0.09        0.00
   0.00000000   0.00000000  -0.00000140            0.00        0.00       -0.21


     Writing all to output data dir ./TiFeH.save/ :
     XML data file
     init_run     :     14.35s CPU     15.44s WALL (       2 calls)
     electrons    :   2006.93s CPU   2069.67s WALL (       8 calls)
     update_pot   :      0.40s CPU      0.46s WALL (       6 calls)
     forces       :      7.06s CPU      7.33s WALL (       8 calls)
     stress       :     31.66s CPU     32.45s WALL (       8 calls)

     Called by init_run:
     wfcinit      :     13.21s CPU     13.98s WALL (       2 calls)
     potinit      :      0.43s CPU      0.72s WALL (       2 calls)
     hinit0       :      0.42s CPU      0.43s WALL (       2 calls)

     Called by electrons:
     c_bands      :   1776.32s CPU   1827.95s WALL (     109 calls)
     sum_band     :    217.40s CPU    225.99s WALL (     109 calls)
     v_of_rho     :      1.48s CPU      1.66s WALL (     114 calls)
     newd         :      7.52s CPU      9.30s WALL (     114 calls)
     PAW_pot      :      5.07s CPU      6.02s WALL (     120 calls)
     mix_rho      :      0.18s CPU      0.20s WALL (     109 calls)

     Called by c_bands:
     init_us_2    :     34.29s CPU     35.52s WALL (  408496 calls)
     cegterg      :   1715.43s CPU   1764.78s WALL (  183992 calls)

     Called by *egterg:
     cdiaghg      :    281.81s CPU    289.34s WALL (  775148 calls)
     h_psi        :   1213.93s CPU   1251.10s WALL (  793716 calls)
     s_psi        :     26.02s CPU     26.90s WALL (  793716 calls)
     g_psi        :      5.98s CPU      6.14s WALL (  606348 calls)

     Called by h_psi:
     h_psi:calbec :     54.24s CPU     55.95s WALL (  793716 calls)
     vloc_psi     :   1127.41s CPU   1161.90s WALL (  793716 calls)
     add_vuspsi   :     26.86s CPU     27.80s WALL (  793716 calls)

     General routines
     calbec       :     85.28s CPU     87.93s WALL ( 1217404 calls)
     fft          :      5.09s CPU      5.38s WALL (    1675 calls)
     ffts         :      0.32s CPU      0.33s WALL (     223 calls)
     fftw         :   1101.00s CPU   1134.42s WALL (23383136 calls)
     interpolate  :      0.39s CPU      0.43s WALL (     114 calls)

     Parallel routines

     PWSCF        :   2064.33s CPU   2130.40s WALL


   This run was terminated on:   0: 1:59  20Nov2025            

=------------------------------------------------------------------------------=
   JOB DONE.
=------------------------------------------------------------------------------=
