
     Program PWSCF v.7.4 starts on 15Nov2025 at 22: 4: 9 

     This program is part of the open-source Quantum ESPRESSO suite
     for quantum simulation of materials; please cite
         "P. Giannozzi et al., J. Phys.:Condens. Matter 21 395502 (2009);
         "P. Giannozzi et al., J. Phys.:Condens. Matter 29 465901 (2017);
         "P. Giannozzi et al., J. Chem. Phys. 152 154105 (2020);
          URL http://www.quantum-espresso.org", 
     in publications or presentations arising from this work. More details at
     http://www.quantum-espresso.org/quote

     Parallel version (MPI & OpenMP), running on       8 processor cores
     Number of MPI processes:                 8
     Threads/MPI process:                     1

     MPI processes distributed on     1 nodes
     218528 MiB available memory on the printing compute node when the environment starts

     Reading input from TiFeH.in

     Current dimensions of program PWSCF are:
     Max number of different atomic species (ntypx) = 10
     Max number of k-points (npk) =  40000
     Max angular momentum in pseudopotentials (lmaxx) =  4
     file Fe.pbe-spn-kjpaw_psl.0.2.1.UPF: wavefunction(s)  3D renormalized
     file H.pbe-kjpaw_psl.1.0.0.UPF: wavefunction(s)  1S renormalized

     IMPORTANT: XC functional enforced from input :
     Exchange-correlation= PBE
                           (   1   4   3   4   0   0   0)
     Any further DFT definition will be discarded
     Please, verify this is what you really want

     Message from routine setup:
     using ibrav=0 with symmetry is DISCOURAGED, use correct ibrav instead

     R & G space division:  proc/nbgrp/npool/nimage =       8
     Subspace diagonalization in iterative solution of the eigenvalue problem:
     a serial algorithm will be used


     Parallelization info
     --------------------
     sticks:   dense  smooth     PW     G-vecs:    dense   smooth      PW
     Min         538     153     44                26577     4051     640
     Max         540     154     45                26578     4054     643
     Sum        4309    1225    357               212623    32423    5137

     Using Slab Decomposition



     bravais-lattice index     =            0
     lattice parameter (alat)  =       5.5824  a.u.
     unit-cell volume          =     173.9675 (a.u.)^3
     number of atoms/cell      =            3
     number of atomic types    =            3
     number of electrons       =        29.00
     number of Kohn-Sham states=           19
     kinetic-energy cutoff     =     124.0000  Ry
     charge density cutoff     =    1736.0000  Ry
     scf convergence threshold =      1.0E-08
     mixing beta               =       0.7000
     number of iterations used =            8  plain     mixing
     energy convergence thresh.=      1.0E-04
     force convergence thresh. =      1.0E-03
     press convergence thresh. =      1.0E-01
     Exchange-correlation= PBE
                           (   1   4   3   4   0   0   0)
     nstep                     =           50


     celldm(1)=   5.582423  celldm(2)=   0.000000  celldm(3)=   0.000000
     celldm(4)=   0.000000  celldm(5)=   0.000000  celldm(6)=   0.000000

     crystal axes: (cart. coord. in units of alat)
               a(1) = (   1.000000   0.000000   0.000000 )  
               a(2) = (   0.000000   1.000000   0.000000 )  
               a(3) = (   0.000000   0.000000   1.000000 )  

     reciprocal axes: (cart. coord. in units 2 pi/alat)
               b(1) = (  1.000000  0.000000  0.000000 )  
               b(2) = (  0.000000  1.000000  0.000000 )  
               b(3) = (  0.000000  0.000000  1.000000 )  


     PseudoPot. # 1 for Fe read from file:
     ../pseudos/Fe.pbe-spn-kjpaw_psl.0.2.1.UPF
     MD5 check sum: e86618425769142926afa95317d90200
     Pseudo is Projector augmented-wave + core cor, Zval = 16.0
     Generated using "atomic" code by A. Dal Corso  v.5.0.99 svn rev. 10869
     Shape of augmentation charge: PSQ
     Using radial grid of 1191 points,  6 beta functions with: 
                l(1) =   0
                l(2) =   0
                l(3) =   1
                l(4) =   1
                l(5) =   2
                l(6) =   2
     Q(r) pseudized with 0 coefficients 


     PseudoPot. # 2 for Ti read from file:
     ../pseudos/ti_pbe_v1.4.uspp.F.UPF
     MD5 check sum: 88a00a6731bd790ddea75d31a80cb452
     Pseudo is Ultrasoft + core correction, Zval = 12.0
     Generated by new atomic code, or converted to UPF format
     Using radial grid of  851 points,  6 beta functions with: 
                l(1) =   0
                l(2) =   0
                l(3) =   1
                l(4) =   1
                l(5) =   2
                l(6) =   2
     Q(r) pseudized with  6 coefficients,  rinner =    1.000   1.000   1.000
                                                       1.000   1.000

     PseudoPot. # 3 for H  read from file:
     ../pseudos/H.pbe-kjpaw_psl.1.0.0.UPF
     MD5 check sum: d81a744832360e4a8af0b0b5b123bc2a
     Pseudo is Projector augmented-wave, Zval =  1.0
     Generated using &quot;atomic&quot; code by A. Dal Corso  v.6.3MaX
     Shape of augmentation charge: PSQ
     Using radial grid of  929 points,  2 beta functions with: 
                l(1) =   0
                l(2) =   0
     Q(r) pseudized with 0 coefficients 


     atomic species   valence    mass     pseudopotential
     Fe               16.00    55.84500     Fe( 1.00)
     Ti               12.00    47.86700     Ti( 1.00)
     H                 1.00     1.00784     H ( 1.00)

     16 Sym. Ops., with inversion, found



   Cartesian axes

     site n.     atom                  positions (alat units)
         1        Fe     tau(   1) = (   0.5000000   0.5000000   0.5000000  )
         2        Ti     tau(   2) = (   0.0000000   0.0000000   0.0000000  )
         3        H      tau(   3) = (   0.5000000   0.5000000   0.0000000  )

     number of k points=   288  Marzari-Vanderbilt smearing, width (Ry)=  0.0050

     Number of k-points >= 100: set verbosity='high' to print them.

     Dense  grid:   212623 G-vectors     FFT dimensions: (  75,  75,  75)

     Smooth grid:    32423 G-vectors     FFT dimensions: (  40,  40,  40)

     Estimated max dynamical RAM per process >     160.70 MB

     Estimated total dynamical RAM >       1.26 GB

     Check: negative core charge=   -0.000001

     Initial potential from superposition of free atoms

     starting charge      27.9995, renormalised to      29.0000

     negative rho (up, down):  1.342E-03 0.000E+00
     Starting wfcs are   24 randomized atomic wfcs
     Checking if some PAW data can be deallocated... 

     total cpu time spent up to now is        3.3 secs

     per-process dynamical memory:   187.7 Mb

     Self-consistent Calculation

     iteration #  1     ecut=   124.00 Ry     beta= 0.70
     Davidson diagonalization with overlap
     ethr =  1.00E-02,  avg # of iterations =  2.1

     negative rho (up, down):  1.701E-05 0.000E+00

     total cpu time spent up to now is        7.6 secs

     total energy              =    -438.28252842 Ry
     estimated scf accuracy    <      14.59315297 Ry

     iteration #  2     ecut=   124.00 Ry     beta= 0.70
     Davidson diagonalization with overlap
     ethr =  1.00E-02,  avg # of iterations =  5.9

     negative rho (up, down):  7.784E-05 0.000E+00

     total cpu time spent up to now is       14.9 secs

     total energy              =    -449.73934262 Ry
     estimated scf accuracy    <      57.31778119 Ry

     iteration #  3     ecut=   124.00 Ry     beta= 0.70
     Davidson diagonalization with overlap
     ethr =  1.00E-02,  avg # of iterations =  2.9

     negative rho (up, down):  3.168E-04 0.000E+00

     total cpu time spent up to now is       19.9 secs

     total energy              =    -449.69212891 Ry
     estimated scf accuracy    <      14.57409413 Ry

     iteration #  4     ecut=   124.00 Ry     beta= 0.70
     Davidson diagonalization with overlap
     ethr =  1.00E-02,  avg # of iterations =  2.5

     negative rho (up, down):  3.059E-04 0.000E+00

     total cpu time spent up to now is       24.2 secs

     total energy              =    -450.20732246 Ry
     estimated scf accuracy    <       3.98363525 Ry

     iteration #  5     ecut=   124.00 Ry     beta= 0.70
     Davidson diagonalization with overlap
     ethr =  1.00E-02,  avg # of iterations =  1.0

     negative rho (up, down):  4.836E-04 0.000E+00

     total cpu time spent up to now is       27.6 secs

     total energy              =    -449.65450821 Ry
     estimated scf accuracy    <       3.76613615 Ry

     iteration #  6     ecut=   124.00 Ry     beta= 0.70
     Davidson diagonalization with overlap
     ethr =  1.00E-02,  avg # of iterations =  1.6

     negative rho (up, down):  5.686E-04 0.000E+00

     total cpu time spent up to now is       31.2 secs

     total energy              =    -449.77467267 Ry
     estimated scf accuracy    <       0.62140914 Ry

     iteration #  7     ecut=   124.00 Ry     beta= 0.70
     Davidson diagonalization with overlap
     ethr =  2.14E-03,  avg # of iterations =  2.4

     negative rho (up, down):  8.652E-04 0.000E+00

     total cpu time spent up to now is       35.0 secs

     total energy              =    -449.72574334 Ry
     estimated scf accuracy    <       0.30784214 Ry

     iteration #  8     ecut=   124.00 Ry     beta= 0.70
     Davidson diagonalization with overlap
     ethr =  1.06E-03,  avg # of iterations =  2.4

     negative rho (up, down):  1.115E-03 0.000E+00

     total cpu time spent up to now is       39.1 secs

     total energy              =    -449.66315300 Ry
     estimated scf accuracy    <       0.27231555 Ry

     iteration #  9     ecut=   124.00 Ry     beta= 0.70
     Davidson diagonalization with overlap
     ethr =  9.39E-04,  avg # of iterations =  3.4

     negative rho (up, down):  1.101E-03 0.000E+00

     total cpu time spent up to now is       43.5 secs

     total energy              =    -449.77444741 Ry
     estimated scf accuracy    <       1.08803028 Ry

     iteration # 10     ecut=   124.00 Ry     beta= 0.70
     Davidson diagonalization with overlap
     ethr =  9.39E-04,  avg # of iterations =  1.1

     negative rho (up, down):  1.345E-03 0.000E+00

     total cpu time spent up to now is       47.0 secs

     total energy              =    -449.88580632 Ry
     estimated scf accuracy    <       1.00791012 Ry

     iteration # 11     ecut=   124.00 Ry     beta= 0.70
     Davidson diagonalization with overlap
     ethr =  9.39E-04,  avg # of iterations =  2.3

     negative rho (up, down):  1.391E-03 0.000E+00

     total cpu time spent up to now is       50.9 secs

     total energy              =    -449.97134677 Ry
     estimated scf accuracy    <       5.02337096 Ry

     iteration # 12     ecut=   124.00 Ry     beta= 0.70
     Davidson diagonalization with overlap
     ethr =  9.39E-04,  avg # of iterations =  1.1

     negative rho (up, down):  9.887E-04 0.000E+00

     total cpu time spent up to now is       54.4 secs

     total energy              =    -449.65755707 Ry
     estimated scf accuracy    <       5.28960023 Ry

     iteration # 13     ecut=   124.00 Ry     beta= 0.70
     Davidson diagonalization with overlap
     ethr =  9.39E-04,  avg # of iterations =  1.7

     negative rho (up, down):  6.378E-04 0.000E+00

     total cpu time spent up to now is       58.0 secs

     total energy              =    -449.61593091 Ry
     estimated scf accuracy    <       0.74365140 Ry

     iteration # 14     ecut=   124.00 Ry     beta= 0.70
     Davidson diagonalization with overlap
     ethr =  9.39E-04,  avg # of iterations =  2.7

     negative rho (up, down):  6.937E-04 0.000E+00

     total cpu time spent up to now is       62.1 secs

     total energy              =    -449.71730073 Ry
     estimated scf accuracy    <       0.27300326 Ry

     iteration # 15     ecut=   124.00 Ry     beta= 0.70
     Davidson diagonalization with overlap
     ethr =  9.39E-04,  avg # of iterations =  1.0

     negative rho (up, down):  7.469E-04 0.000E+00

     total cpu time spent up to now is       65.6 secs

     total energy              =    -449.72010377 Ry
     estimated scf accuracy    <       0.09507136 Ry

     iteration # 16     ecut=   124.00 Ry     beta= 0.70
     Davidson diagonalization with overlap
     ethr =  3.28E-04,  avg # of iterations =  1.0

     negative rho (up, down):  7.530E-04 0.000E+00

     total cpu time spent up to now is       69.1 secs

     total energy              =    -449.71770488 Ry
     estimated scf accuracy    <       0.07749773 Ry

     iteration # 17     ecut=   124.00 Ry     beta= 0.70
     Davidson diagonalization with overlap
     ethr =  2.67E-04,  avg # of iterations =  1.0

     negative rho (up, down):  7.978E-04 0.000E+00

     total cpu time spent up to now is       72.6 secs

     total energy              =    -449.71589831 Ry
     estimated scf accuracy    <       0.06218279 Ry

     iteration # 18     ecut=   124.00 Ry     beta= 0.70
     Davidson diagonalization with overlap
     ethr =  2.14E-04,  avg # of iterations =  1.0

     negative rho (up, down):  8.317E-04 0.000E+00

     total cpu time spent up to now is       76.1 secs

     total energy              =    -449.71355598 Ry
     estimated scf accuracy    <       0.04310197 Ry

     iteration # 19     ecut=   124.00 Ry     beta= 0.70
     Davidson diagonalization with overlap
     ethr =  1.49E-04,  avg # of iterations =  1.0

     negative rho (up, down):  9.278E-04 0.000E+00

     total cpu time spent up to now is       79.6 secs

     total energy              =    -449.70974449 Ry
     estimated scf accuracy    <       0.02318642 Ry

     iteration # 20     ecut=   124.00 Ry     beta= 0.70
     Davidson diagonalization with overlap
     ethr =  8.00E-05,  avg # of iterations =  1.6

     negative rho (up, down):  9.424E-04 0.000E+00

     total cpu time spent up to now is       83.2 secs

     total energy              =    -449.71163062 Ry
     estimated scf accuracy    <       0.00007948 Ry

     iteration # 21     ecut=   124.00 Ry     beta= 0.70
     Davidson diagonalization with overlap
     ethr =  2.74E-07,  avg # of iterations =  6.1

     negative rho (up, down):  9.247E-04 0.000E+00

     total cpu time spent up to now is       90.3 secs

     total energy              =    -449.71164999 Ry
     estimated scf accuracy    <       0.00047570 Ry

     iteration # 22     ecut=   124.00 Ry     beta= 0.70
     Davidson diagonalization with overlap
     ethr =  2.74E-07,  avg # of iterations =  3.5

     negative rho (up, down):  9.303E-04 0.000E+00

     total cpu time spent up to now is       95.0 secs

     total energy              =    -449.71171323 Ry
     estimated scf accuracy    <       0.00014825 Ry

     iteration # 23     ecut=   124.00 Ry     beta= 0.70
     Davidson diagonalization with overlap
     ethr =  2.74E-07,  avg # of iterations =  1.6

     negative rho (up, down):  9.299E-04 0.000E+00

     total cpu time spent up to now is       98.7 secs

     total energy              =    -449.71172451 Ry
     estimated scf accuracy    <       0.00000055 Ry

     iteration # 24     ecut=   124.00 Ry     beta= 0.70
     Davidson diagonalization with overlap
     ethr =  1.91E-09,  avg # of iterations =  4.8

     negative rho (up, down):  9.296E-04 0.000E+00

     total cpu time spent up to now is      104.3 secs

     total energy              =    -449.71172496 Ry
     estimated scf accuracy    <       0.00000025 Ry

     iteration # 25     ecut=   124.00 Ry     beta= 0.70
     Davidson diagonalization with overlap
     ethr =  8.52E-10,  avg # of iterations =  1.1

     negative rho (up, down):  9.296E-04 0.000E+00

     total cpu time spent up to now is      107.9 secs

     total energy              =    -449.71172496 Ry
     estimated scf accuracy    <       0.00000001 Ry

     iteration # 26     ecut=   124.00 Ry     beta= 0.70
     Davidson diagonalization with overlap
     ethr =  4.90E-11,  avg # of iterations =  3.6

     negative rho (up, down):  9.295E-04 0.000E+00

     total cpu time spent up to now is      112.3 secs

     End of self-consistent calculation

     Number of k-points >= 100: set verbosity='high' to print the bands.

     the Fermi energy is    18.4342 ev

!    total energy              =    -449.71172496 Ry
     estimated scf accuracy    <          5.7E-09 Ry
     smearing contrib. (-TS)   =      -0.00012961 Ry
     internal energy E=F+TS    =    -449.71159536 Ry

     The total energy is F=E-TS. E is the sum of the following terms:
     one-electron contribution =    -149.88912202 Ry
     hartree contribution      =      92.22418151 Ry
     xc contribution           =     -53.86424959 Ry
     ewald contribution        =    -262.02782464 Ry
     one-center paw contrib.   =     -76.15458063 Ry

     convergence has been achieved in  26 iterations

     negative rho (up, down):  9.295E-04 0.000E+00

     Forces acting on atoms (cartesian axes, Ry/au):

     atom    1 type  1   force =     0.00000000    0.00000000    0.00000000
     atom    2 type  2   force =     0.00000000    0.00000000    0.00000000
     atom    3 type  3   force =     0.00000000    0.00000000    0.00000000

     Total force =     0.000000     Total SCF correction =     0.000000


     Computing stress (Cartesian axis) and pressure


     negative rho (up, down):  9.295E-04 0.000E+00
          total   stress  (Ry/bohr**3)                   (kbar)     P=      282.54
   0.00080111   0.00000000   0.00000000          117.85        0.00        0.00
   0.00000000   0.00080111   0.00000000            0.00      117.85        0.00
   0.00000000   0.00000000   0.00415979            0.00        0.00      611.93


     BFGS Geometry Optimization
     Energy error            =      7.4E-02 Ry
     Gradient error          =      0.0E+00 Ry/Bohr
     Cell gradient error     =      6.1E+02 kbar

     number of scf cycles    =   1
     number of bfgs steps    =   0

     enthalpy           new  =    -449.7117249624 Ry

     new trust radius        =       0.2743314777 bohr
     new conv_thr            =       0.0000000100 Ry

     new unit-cell volume =    199.82929 a.u.^3 (    29.61165 Ang^3 )
     density =      5.87240 g/cm^3

CELL_PARAMETERS (alat=  5.58242261)
   1.020027767   0.000000000   0.000000000
   0.000000000   1.020027767   0.000000000
   0.000000000   0.000000000   1.103994790

ATOMIC_POSITIONS (crystal)
Fe               0.5000000000        0.5000000000        0.5000000000
Ti               0.0000000000        0.0000000000        0.0000000000
H                0.5000000000        0.5000000000        0.0000000000



     Writing config-only to output data dir ./TiFeH.save/ :
     XML data file     NEW-OLD atomic charge density approx. for the potential
     New effective cutoffs (rho, wfc): 1668.06  119.17

     Check: negative core charge=   -0.000001

     negative rho (up, down):  1.018E-03 0.000E+00

     total cpu time spent up to now is      115.7 secs

     per-process dynamical memory:   195.8 Mb

     Self-consistent Calculation

     iteration #  1     ecut=   124.00 Ry     beta= 0.70
     Davidson diagonalization with overlap
     c_bands:  1 eigenvalues not converged
     c_bands:  1 eigenvalues not converged
     ethr =  1.00E-06,  avg # of iterations = 12.6

     negative rho (up, down):  8.754E-04 0.000E+00

     total cpu time spent up to now is      130.2 secs

     total energy              =    -449.74340469 Ry
     estimated scf accuracy    <       0.00713059 Ry

     iteration #  2     ecut=   124.00 Ry     beta= 0.70
     Davidson diagonalization with overlap
     ethr =  2.46E-05,  avg # of iterations =  5.0

     negative rho (up, down):  9.140E-04 0.000E+00

     total cpu time spent up to now is      135.9 secs

     total energy              =    -449.72516666 Ry
     estimated scf accuracy    <       0.37991468 Ry

     iteration #  3     ecut=   124.00 Ry     beta= 0.70
     Davidson diagonalization with overlap
     ethr =  2.46E-05,  avg # of iterations =  4.1

     negative rho (up, down):  9.425E-04 0.000E+00

     total cpu time spent up to now is      141.0 secs

     total energy              =    -449.74684863 Ry
     estimated scf accuracy    <       0.00866556 Ry

     iteration #  4     ecut=   124.00 Ry     beta= 0.70
     Davidson diagonalization with overlap
     ethr =  2.46E-05,  avg # of iterations =  2.0

     negative rho (up, down):  9.432E-04 0.000E+00

     total cpu time spent up to now is      145.0 secs

     total energy              =    -449.74790322 Ry
     estimated scf accuracy    <       0.00013392 Ry

     iteration #  5     ecut=   124.00 Ry     beta= 0.70
     Davidson diagonalization with overlap
     ethr =  4.62E-07,  avg # of iterations =  4.5

     negative rho (up, down):  9.338E-04 0.000E+00

     total cpu time spent up to now is      150.1 secs

     total energy              =    -449.74794949 Ry
     estimated scf accuracy    <       0.00006761 Ry

     iteration #  6     ecut=   124.00 Ry     beta= 0.70
     Davidson diagonalization with overlap
     ethr =  2.33E-07,  avg # of iterations =  2.7

     negative rho (up, down):  9.324E-04 0.000E+00

     total cpu time spent up to now is      154.4 secs

     total energy              =    -449.74796511 Ry
     estimated scf accuracy    <       0.00000083 Ry

     iteration #  7     ecut=   124.00 Ry     beta= 0.70
     Davidson diagonalization with overlap
     ethr =  2.86E-09,  avg # of iterations =  5.4

     negative rho (up, down):  9.331E-04 0.000E+00

     total cpu time spent up to now is      160.3 secs

     total energy              =    -449.74796572 Ry
     estimated scf accuracy    <       0.00000095 Ry

     iteration #  8     ecut=   124.00 Ry     beta= 0.70
     Davidson diagonalization with overlap
     ethr =  2.86E-09,  avg # of iterations =  2.0

     negative rho (up, down):  9.332E-04 0.000E+00

     total cpu time spent up to now is      164.4 secs

     total energy              =    -449.74796581 Ry
     estimated scf accuracy    <       0.00000005 Ry

     iteration #  9     ecut=   124.00 Ry     beta= 0.70
     Davidson diagonalization with overlap
     ethr =  1.83E-10,  avg # of iterations =  4.1

     negative rho (up, down):  9.331E-04 0.000E+00

     total cpu time spent up to now is      169.5 secs

     total energy              =    -449.74796584 Ry
     estimated scf accuracy    <       0.00000001 Ry

     iteration # 10     ecut=   124.00 Ry     beta= 0.70
     Davidson diagonalization with overlap
     ethr =  4.32E-11,  avg # of iterations =  2.7

     negative rho (up, down):  9.331E-04 0.000E+00

     total cpu time spent up to now is      173.9 secs

     End of self-consistent calculation

     Number of k-points >= 100: set verbosity='high' to print the bands.

     the Fermi energy is    15.5668 ev

!    total energy              =    -449.74796584 Ry
     estimated scf accuracy    <          2.9E-11 Ry
     smearing contrib. (-TS)   =      -0.00007068 Ry
     internal energy E=F+TS    =    -449.74789517 Ry

     The total energy is F=E-TS. E is the sum of the following terms:
     one-electron contribution =    -167.32857311 Ry
     hartree contribution      =      97.98624620 Ry
     xc contribution           =     -53.56296962 Ry
     ewald contribution        =    -250.69113724 Ry
     one-center paw contrib.   =     -76.15146140 Ry

     convergence has been achieved in  10 iterations

     negative rho (up, down):  9.331E-04 0.000E+00

     Forces acting on atoms (cartesian axes, Ry/au):

     atom    1 type  1   force =     0.00000000    0.00000000    0.00000000
     atom    2 type  2   force =     0.00000000    0.00000000    0.00000000
     atom    3 type  3   force =     0.00000000    0.00000000    0.00000000

     Total force =     0.000000     Total SCF correction =     0.000000


     Computing stress (Cartesian axis) and pressure


     negative rho (up, down):  9.331E-04 0.000E+00
          total   stress  (Ry/bohr**3)                   (kbar)     P=      -61.38
  -0.00071599   0.00000000   0.00000000         -105.33        0.00        0.00
   0.00000000  -0.00071599   0.00000000            0.00     -105.33        0.00
   0.00000000   0.00000000   0.00018019            0.00        0.00       26.51

     Energy error            =      3.6E-02 Ry
     Gradient error          =      0.0E+00 Ry/Bohr
     Cell gradient error     =      1.1E+02 kbar

     number of scf cycles    =   2
     number of bfgs steps    =   1

     enthalpy           old  =    -449.7117249624 Ry
     enthalpy           new  =    -449.7479658433 Ry

     CASE: enthalpy          _new < enthalpy          _old

     new trust radius        =       0.0506345361 bohr
     new conv_thr            =            1.0E-10 Ry

     new unit-cell volume =    194.75420 a.u.^3 (    28.85960 Ang^3 )
     density =      6.02543 g/cm^3

CELL_PARAMETERS (alat=  5.58242261)
   1.001759420   0.000000000   0.000000000
   0.000000000   1.001759420   0.000000000
   0.000000000   0.000000000   1.115557169

ATOMIC_POSITIONS (crystal)
Fe               0.5000000000        0.5000000000        0.5000000000
Ti               0.0000000000        0.0000000000        0.0000000000
H                0.5000000000        0.5000000000        0.0000000000



     Writing config-only to output data dir ./TiFeH.save/ :
     XML data file     NEW-OLD atomic charge density approx. for the potential
     New effective cutoffs (rho, wfc): 1729.45  123.55

     Check: negative core charge=   -0.000002

     negative rho (up, down):  9.147E-04 0.000E+00

     total cpu time spent up to now is      177.3 secs

     per-process dynamical memory:   195.8 Mb

     Self-consistent Calculation

     iteration #  1     ecut=   124.00 Ry     beta= 0.70
     Davidson diagonalization with overlap
     ethr =  1.00E-06,  avg # of iterations =  8.3

     negative rho (up, down):  9.040E-04 0.000E+00

     total cpu time spent up to now is      187.4 secs

     total energy              =    -449.75059942 Ry
     estimated scf accuracy    <       0.00144224 Ry

     iteration #  2     ecut=   124.00 Ry     beta= 0.70
     Davidson diagonalization with overlap
     ethr =  4.97E-06,  avg # of iterations =  5.0

     negative rho (up, down):  9.246E-04 0.000E+00

     total cpu time spent up to now is      193.1 secs

     total energy              =    -449.74333972 Ry
     estimated scf accuracy    <       0.15906435 Ry

     iteration #  3     ecut=   124.00 Ry     beta= 0.70
     Davidson diagonalization with overlap
     ethr =  4.97E-06,  avg # of iterations =  4.7

     negative rho (up, down):  9.288E-04 0.000E+00

     total cpu time spent up to now is      198.6 secs

     total energy              =    -449.75194022 Ry
     estimated scf accuracy    <       0.00022920 Ry

     iteration #  4     ecut=   124.00 Ry     beta= 0.70
     Davidson diagonalization with overlap
     ethr =  7.90E-07,  avg # of iterations =  1.6

     negative rho (up, down):  9.291E-04 0.000E+00

     total cpu time spent up to now is      202.3 secs

     total energy              =    -449.75195746 Ry
     estimated scf accuracy    <       0.00001793 Ry

     iteration #  5     ecut=   124.00 Ry     beta= 0.70
     Davidson diagonalization with overlap
     ethr =  6.18E-08,  avg # of iterations =  4.5

     negative rho (up, down):  9.296E-04 0.000E+00

     total cpu time spent up to now is      207.2 secs

     total energy              =    -449.75196296 Ry
     estimated scf accuracy    <       0.00000214 Ry

     iteration #  6     ecut=   124.00 Ry     beta= 0.70
     Davidson diagonalization with overlap
     ethr =  7.39E-09,  avg # of iterations =  2.8

     negative rho (up, down):  9.297E-04 0.000E+00

     total cpu time spent up to now is      211.5 secs

     total energy              =    -449.75196317 Ry
     estimated scf accuracy    <       0.00000048 Ry

     iteration #  7     ecut=   124.00 Ry     beta= 0.70
     Davidson diagonalization with overlap
     ethr =  1.66E-09,  avg # of iterations =  2.1

     negative rho (up, down):  9.299E-04 0.000E+00

     total cpu time spent up to now is      215.4 secs

     total energy              =    -449.75196324 Ry
     estimated scf accuracy    <       0.00000006 Ry

     iteration #  8     ecut=   124.00 Ry     beta= 0.70
     Davidson diagonalization with overlap
     ethr =  2.10E-10,  avg # of iterations =  4.8

     negative rho (up, down):  9.299E-04 0.000E+00

     total cpu time spent up to now is      220.6 secs

     total energy              =    -449.75196326 Ry
     estimated scf accuracy    <       0.00000001 Ry

     iteration #  9     ecut=   124.00 Ry     beta= 0.70
     Davidson diagonalization with overlap
     ethr =  3.86E-11,  avg # of iterations =  2.3

     negative rho (up, down):  9.299E-04 0.000E+00

     total cpu time spent up to now is      224.7 secs

     total energy              =    -449.75196326 Ry
     estimated scf accuracy    <          1.4E-10 Ry

     iteration # 10     ecut=   124.00 Ry     beta= 0.70
     Davidson diagonalization with overlap
     ethr =  4.94E-13,  avg # of iterations =  6.2

     negative rho (up, down):  9.299E-04 0.000E+00

     total cpu time spent up to now is      231.0 secs

     total energy              =    -449.75196326 Ry
     estimated scf accuracy    <          1.3E-10 Ry

     iteration # 11     ecut=   124.00 Ry     beta= 0.70
     Davidson diagonalization with overlap
     ethr =  4.31E-13,  avg # of iterations =  2.0

     negative rho (up, down):  9.299E-04 0.000E+00

     total cpu time spent up to now is      235.1 secs

     End of self-consistent calculation

     Number of k-points >= 100: set verbosity='high' to print the bands.

     the Fermi energy is    15.9629 ev

!    total energy              =    -449.75196326 Ry
     estimated scf accuracy    <          1.7E-12 Ry
     smearing contrib. (-TS)   =      -0.00001834 Ry
     internal energy E=F+TS    =    -449.75194492 Ry

     The total energy is F=E-TS. E is the sum of the following terms:
     one-electron contribution =    -163.70128601 Ry
     hartree contribution      =      96.69710354 Ry
     xc contribution           =     -53.60288258 Ry
     ewald contribution        =    -252.99283168 Ry
     one-center paw contrib.   =     -76.15204819 Ry

     convergence has been achieved in  11 iterations

     negative rho (up, down):  9.299E-04 0.000E+00

     Forces acting on atoms (cartesian axes, Ry/au):

     atom    1 type  1   force =     0.00000000    0.00000000    0.00000000
     atom    2 type  2   force =     0.00000000    0.00000000    0.00000000
     atom    3 type  3   force =     0.00000000    0.00000000    0.00000000

     Total force =     0.000000     Total SCF correction =     0.000000


     Computing stress (Cartesian axis) and pressure


     negative rho (up, down):  9.299E-04 0.000E+00
          total   stress  (Ry/bohr**3)                   (kbar)     P=      -26.24
  -0.00032492   0.00000000   0.00000000          -47.80        0.00        0.00
   0.00000000  -0.00032492   0.00000000            0.00      -47.80        0.00
   0.00000000   0.00000000   0.00011473            0.00        0.00       16.88

     Energy error            =      4.0E-03 Ry
     Gradient error          =      0.0E+00 Ry/Bohr
     Cell gradient error     =      4.8E+01 kbar

     number of scf cycles    =   3
     number of bfgs steps    =   2

     enthalpy           old  =    -449.7479658433 Ry
     enthalpy           new  =    -449.7519632593 Ry

     CASE: enthalpy          _new < enthalpy          _old

     new trust radius        =       0.0433019990 bohr
     new conv_thr            =            1.0E-10 Ry

     new unit-cell volume =    190.68151 a.u.^3 (    28.25608 Ang^3 )
     density =      6.15412 g/cm^3

CELL_PARAMETERS (alat=  5.58242261)
   0.986217739   0.000000000   0.000000000
   0.000000000   0.986217739   0.000000000
   0.000000000   0.000000000   1.126924500

ATOMIC_POSITIONS (crystal)
Fe               0.5000000000        0.5000000000        0.5000000000
Ti               0.0000000000        0.0000000000        0.0000000000
H                0.5000000000        0.5000000000        0.0000000000



     Writing config-only to output data dir ./TiFeH.save/ :
     XML data file     NEW-OLD atomic charge density approx. for the potential
     New effective cutoffs (rho, wfc): 1784.39  127.48

     Check: negative core charge=   -0.000002

     negative rho (up, down):  9.131E-04 0.000E+00

     total cpu time spent up to now is      238.5 secs

     per-process dynamical memory:   195.8 Mb

     Self-consistent Calculation

     iteration #  1     ecut=   124.00 Ry     beta= 0.70
     Davidson diagonalization with overlap
     ethr =  1.00E-06,  avg # of iterations =  7.5

     negative rho (up, down):  8.973E-04 0.000E+00

     total cpu time spent up to now is      248.0 secs

     total energy              =    -449.75153688 Ry
     estimated scf accuracy    <       0.00147506 Ry

     iteration #  2     ecut=   124.00 Ry     beta= 0.70
     Davidson diagonalization with overlap
     ethr =  5.09E-06,  avg # of iterations =  5.0

     negative rho (up, down):  9.182E-04 0.000E+00

     total cpu time spent up to now is      253.8 secs

     total energy              =    -449.74412886 Ry
     estimated scf accuracy    <       0.16065655 Ry

     iteration #  3     ecut=   124.00 Ry     beta= 0.70
     Davidson diagonalization with overlap
     ethr =  5.09E-06,  avg # of iterations =  4.7

     negative rho (up, down):  9.233E-04 0.000E+00

     total cpu time spent up to now is      259.3 secs

     total energy              =    -449.75295604 Ry
     estimated scf accuracy    <       0.00016993 Ry

     iteration #  4     ecut=   124.00 Ry     beta= 0.70
     Davidson diagonalization with overlap
     ethr =  5.86E-07,  avg # of iterations =  2.2

     negative rho (up, down):  9.232E-04 0.000E+00

     total cpu time spent up to now is      263.1 secs

     total energy              =    -449.75297341 Ry
     estimated scf accuracy    <       0.00002334 Ry

     iteration #  5     ecut=   124.00 Ry     beta= 0.70
     Davidson diagonalization with overlap
     ethr =  8.05E-08,  avg # of iterations =  4.0

     negative rho (up, down):  9.237E-04 0.000E+00

     total cpu time spent up to now is      267.7 secs

     total energy              =    -449.75297821 Ry
     estimated scf accuracy    <       0.00000218 Ry

     iteration #  6     ecut=   124.00 Ry     beta= 0.70
     Davidson diagonalization with overlap
     ethr =  7.53E-09,  avg # of iterations =  3.8

     negative rho (up, down):  9.237E-04 0.000E+00

     total cpu time spent up to now is      272.5 secs

     total energy              =    -449.75297875 Ry
     estimated scf accuracy    <       0.00000031 Ry

     iteration #  7     ecut=   124.00 Ry     beta= 0.70
     Davidson diagonalization with overlap
     ethr =  1.08E-09,  avg # of iterations =  2.8

     negative rho (up, down):  9.238E-04 0.000E+00

     total cpu time spent up to now is      276.7 secs

     total energy              =    -449.75297881 Ry
     estimated scf accuracy    <       0.00000002 Ry

     iteration #  8     ecut=   124.00 Ry     beta= 0.70
     Davidson diagonalization with overlap
     ethr =  5.82E-11,  avg # of iterations =  4.8

     negative rho (up, down):  9.238E-04 0.000E+00

     total cpu time spent up to now is      282.0 secs

     total energy              =    -449.75297882 Ry
     estimated scf accuracy    <          7.4E-09 Ry

     iteration #  9     ecut=   124.00 Ry     beta= 0.70
     Davidson diagonalization with overlap
     ethr =  2.56E-11,  avg # of iterations =  2.1

     negative rho (up, down):  9.238E-04 0.000E+00

     total cpu time spent up to now is      286.0 secs

     total energy              =    -449.75297882 Ry
     estimated scf accuracy    <          1.4E-10 Ry

     iteration # 10     ecut=   124.00 Ry     beta= 0.70
     Davidson diagonalization with overlap
     ethr =  4.94E-13,  avg # of iterations =  5.2

     negative rho (up, down):  9.238E-04 0.000E+00

     total cpu time spent up to now is      291.8 secs

     End of self-consistent calculation

     Number of k-points >= 100: set verbosity='high' to print the bands.

     the Fermi energy is    16.2835 ev

!    total energy              =    -449.75297882 Ry
     estimated scf accuracy    <          8.1E-11 Ry
     smearing contrib. (-TS)   =       0.00004960 Ry
     internal energy E=F+TS    =    -449.75302842 Ry

     The total energy is F=E-TS. E is the sum of the following terms:
     one-electron contribution =    -160.70928309 Ry
     hartree contribution      =      95.64385872 Ry
     xc contribution           =     -53.63761882 Ry
     ewald contribution        =    -254.89749411 Ry
     one-center paw contrib.   =     -76.15249112 Ry

     convergence has been achieved in  10 iterations

     negative rho (up, down):  9.238E-04 0.000E+00

     Forces acting on atoms (cartesian axes, Ry/au):

     atom    1 type  1   force =     0.00000000    0.00000000    0.00000000
     atom    2 type  2   force =     0.00000000    0.00000000    0.00000000
     atom    3 type  3   force =     0.00000000    0.00000000    0.00000000

     Total force =     0.000000     Total SCF correction =     0.000000


     Computing stress (Cartesian axis) and pressure


     negative rho (up, down):  9.238E-04 0.000E+00
          total   stress  (Ry/bohr**3)                   (kbar)     P=        6.38
   0.00005650   0.00000000   0.00000000            8.31        0.00        0.00
   0.00000000   0.00005650   0.00000000            0.00        8.31        0.00
   0.00000000   0.00000000   0.00001712            0.00        0.00        2.52

     Energy error            =      1.0E-03 Ry
     Gradient error          =      0.0E+00 Ry/Bohr
     Cell gradient error     =      8.3E+00 kbar

     number of scf cycles    =   4
     number of bfgs steps    =   3

     enthalpy           old  =    -449.7519632593 Ry
     enthalpy           new  =    -449.7529788198 Ry

     CASE: enthalpy          _new < enthalpy          _old

     new trust radius        =       0.0055952984 bohr
     new conv_thr            =            1.0E-10 Ry

     new unit-cell volume =    191.35044 a.u.^3 (    28.35521 Ang^3 )
     density =      6.13261 g/cm^3

CELL_PARAMETERS (alat=  5.58242261)
   0.988215814   0.000000000   0.000000000
   0.000000000   0.988215814   0.000000000
   0.000000000   0.000000000   1.126309475

ATOMIC_POSITIONS (crystal)
Fe               0.5000000000        0.5000000000        0.5000000000
Ti               0.0000000000        0.0000000000        0.0000000000
H                0.5000000000        0.5000000000        0.0000000000



     Writing config-only to output data dir ./TiFeH.save/ :
     XML data file     NEW-OLD atomic charge density approx. for the potential
     New effective cutoffs (rho, wfc): 1777.18  126.96

     Check: negative core charge=   -0.000002

     negative rho (up, down):  9.252E-04 0.000E+00

     total cpu time spent up to now is      295.2 secs

     per-process dynamical memory:   195.8 Mb

     Self-consistent Calculation

     iteration #  1     ecut=   124.00 Ry     beta= 0.70
     Davidson diagonalization with overlap
     ethr =  1.00E-06,  avg # of iterations =  3.0

     Threshold (ethr) on eigenvalues was too large:
     Diagonalizing with lowered threshold

     Davidson diagonalization with overlap
     ethr =  8.78E-08,  avg # of iterations =  4.0

     negative rho (up, down):  9.267E-04 0.000E+00

     total cpu time spent up to now is      304.8 secs

     total energy              =    -449.75296289 Ry
     estimated scf accuracy    <       0.00002967 Ry

     iteration #  2     ecut=   124.00 Ry     beta= 0.70
     Davidson diagonalization with overlap
     ethr =  1.02E-07,  avg # of iterations =  4.1

     negative rho (up, down):  9.240E-04 0.000E+00

     total cpu time spent up to now is      309.9 secs

     total energy              =    -449.75281050 Ry
     estimated scf accuracy    <       0.00353799 Ry

     iteration #  3     ecut=   124.00 Ry     beta= 0.70
     Davidson diagonalization with overlap
     ethr =  1.02E-07,  avg # of iterations =  4.2

     negative rho (up, down):  9.246E-04 0.000E+00

     total cpu time spent up to now is      314.8 secs

     total energy              =    -449.75299744 Ry
     estimated scf accuracy    <       0.00000217 Ry

     iteration #  4     ecut=   124.00 Ry     beta= 0.70
     Davidson diagonalization with overlap
     ethr =  7.49E-09,  avg # of iterations =  3.9

     negative rho (up, down):  9.244E-04 0.000E+00

     total cpu time spent up to now is      319.6 secs

     total energy              =    -449.75299807 Ry
     estimated scf accuracy    <       0.00000043 Ry

     iteration #  5     ecut=   124.00 Ry     beta= 0.70
     Davidson diagonalization with overlap
     ethr =  1.47E-09,  avg # of iterations =  2.3

     negative rho (up, down):  9.242E-04 0.000E+00

     total cpu time spent up to now is      323.5 secs

     total energy              =    -449.75299810 Ry
     estimated scf accuracy    <       0.00000008 Ry

     iteration #  6     ecut=   124.00 Ry     beta= 0.70
     Davidson diagonalization with overlap
     ethr =  2.65E-10,  avg # of iterations =  2.7

     negative rho (up, down):  9.242E-04 0.000E+00

     total cpu time spent up to now is      327.8 secs

     total energy              =    -449.75299811 Ry
     estimated scf accuracy    <          7.9E-10 Ry

     iteration #  7     ecut=   124.00 Ry     beta= 0.70
     Davidson diagonalization with overlap
     ethr =  2.71E-12,  avg # of iterations =  6.2

     negative rho (up, down):  9.242E-04 0.000E+00

     total cpu time spent up to now is      334.5 secs

     total energy              =    -449.75299812 Ry
     estimated scf accuracy    <          2.8E-10 Ry

     iteration #  8     ecut=   124.00 Ry     beta= 0.70
     Davidson diagonalization with overlap
     ethr =  9.72E-13,  avg # of iterations =  2.1

     negative rho (up, down):  9.242E-04 0.000E+00

     total cpu time spent up to now is      338.5 secs

     End of self-consistent calculation

     Number of k-points >= 100: set verbosity='high' to print the bands.

     the Fermi energy is    16.2266 ev

!    total energy              =    -449.75299812 Ry
     estimated scf accuracy    <          1.6E-12 Ry
     smearing contrib. (-TS)   =       0.00004345 Ry
     internal energy E=F+TS    =    -449.75304157 Ry

     The total energy is F=E-TS. E is the sum of the following terms:
     one-electron contribution =    -161.19291810 Ry
     hartree contribution      =      95.81306762 Ry
     xc contribution           =     -53.63167752 Ry
     ewald contribution        =    -254.58911117 Ry
     one-center paw contrib.   =     -76.15240239 Ry

     convergence has been achieved in   8 iterations

     negative rho (up, down):  9.242E-04 0.000E+00

     Forces acting on atoms (cartesian axes, Ry/au):

     atom    1 type  1   force =     0.00000000    0.00000000    0.00000000
     atom    2 type  2   force =     0.00000000    0.00000000    0.00000000
     atom    3 type  3   force =     0.00000000    0.00000000    0.00000000

     Total force =     0.000000     Total SCF correction =     0.000000


     Computing stress (Cartesian axis) and pressure


     negative rho (up, down):  9.242E-04 0.000E+00
          total   stress  (Ry/bohr**3)                   (kbar)     P=        0.22
  -0.00000283   0.00000000   0.00000000           -0.42        0.00        0.00
   0.00000000  -0.00000283   0.00000000            0.00       -0.42        0.00
   0.00000000   0.00000000   0.00001005            0.00        0.00        1.48

     Energy error            =      1.9E-05 Ry
     Gradient error          =      0.0E+00 Ry/Bohr
     Cell gradient error     =      1.5E+00 kbar

     number of scf cycles    =   5
     number of bfgs steps    =   4

     enthalpy           old  =    -449.7529788198 Ry
     enthalpy           new  =    -449.7529981168 Ry

     CASE: enthalpy          _new < enthalpy          _old

     new trust radius        =       0.0008766709 bohr
     new conv_thr            =            1.0E-10 Ry

     new unit-cell volume =    191.34927 a.u.^3 (    28.35504 Ang^3 )
     density =      6.13265 g/cm^3

CELL_PARAMETERS (alat=  5.58242261)
   0.988056264   0.000000000   0.000000000
   0.000000000   0.988056264   0.000000000
   0.000000000   0.000000000   1.126666377

ATOMIC_POSITIONS (crystal)
Fe               0.5000000000        0.5000000000        0.5000000000
Ti               0.0000000000        0.0000000000        0.0000000000
H                0.5000000000        0.5000000000        0.0000000000



     Writing config-only to output data dir ./TiFeH.save/ :
     XML data file     NEW-OLD atomic charge density approx. for the potential
     New effective cutoffs (rho, wfc): 1777.75  127.00

     Check: negative core charge=   -0.000002

     negative rho (up, down):  9.242E-04 0.000E+00

     total cpu time spent up to now is      341.9 secs

     per-process dynamical memory:   195.8 Mb

     Self-consistent Calculation

     iteration #  1     ecut=   124.00 Ry     beta= 0.70
     Davidson diagonalization with overlap
     ethr =  1.00E-06,  avg # of iterations =  2.0

     Threshold (ethr) on eigenvalues was too large:
     Diagonalizing with lowered threshold

     Davidson diagonalization with overlap
     ethr =  2.27E-09,  avg # of iterations =  3.2

     negative rho (up, down):  9.237E-04 0.000E+00

     total cpu time spent up to now is      350.5 secs

     total energy              =    -449.75299800 Ry
     estimated scf accuracy    <       0.00000064 Ry

     iteration #  2     ecut=   124.00 Ry     beta= 0.70
     Davidson diagonalization with overlap
     ethr =  2.22E-09,  avg # of iterations =  4.4

     negative rho (up, down):  9.241E-04 0.000E+00

     total cpu time spent up to now is      355.8 secs

     total energy              =    -449.75299465 Ry
     estimated scf accuracy    <       0.00007596 Ry

     iteration #  3     ecut=   124.00 Ry     beta= 0.70
     Davidson diagonalization with overlap
     ethr =  2.22E-09,  avg # of iterations =  4.1

     negative rho (up, down):  9.241E-04 0.000E+00

     total cpu time spent up to now is      360.7 secs

     total energy              =    -449.75299856 Ry
     estimated scf accuracy    <          4.8E-09 Ry

     iteration #  4     ecut=   124.00 Ry     beta= 0.70
     Davidson diagonalization with overlap
     ethr =  1.67E-11,  avg # of iterations =  5.8

     negative rho (up, down):  9.241E-04 0.000E+00

     total cpu time spent up to now is      367.1 secs

     total energy              =    -449.75299857 Ry
     estimated scf accuracy    <          2.2E-09 Ry

     iteration #  5     ecut=   124.00 Ry     beta= 0.70
     Davidson diagonalization with overlap
     ethr =  7.42E-12,  avg # of iterations =  1.3

     negative rho (up, down):  9.241E-04 0.000E+00

     total cpu time spent up to now is      370.7 secs

     End of self-consistent calculation

     Number of k-points >= 100: set verbosity='high' to print the bands.

     the Fermi energy is    16.2249 ev

!    total energy              =    -449.75299857 Ry
     estimated scf accuracy    <          9.1E-11 Ry
     smearing contrib. (-TS)   =       0.00004447 Ry
     internal energy E=F+TS    =    -449.75304304 Ry

     The total energy is F=E-TS. E is the sum of the following terms:
     one-electron contribution =    -161.18822584 Ry
     hartree contribution      =      95.81085976 Ry
     xc contribution           =     -53.63158775 Ry
     ewald contribution        =    -254.59168696 Ry
     one-center paw contrib.   =     -76.15240226 Ry

     convergence has been achieved in   5 iterations

     negative rho (up, down):  9.241E-04 0.000E+00

     Forces acting on atoms (cartesian axes, Ry/au):

     atom    1 type  1   force =     0.00000000    0.00000000    0.00000000
     atom    2 type  2   force =     0.00000000    0.00000000    0.00000000
     atom    3 type  3   force =     0.00000000    0.00000000    0.00000000

     Total force =     0.000000     Total SCF correction =     0.000000


     Computing stress (Cartesian axis) and pressure


     negative rho (up, down):  9.241E-04 0.000E+00
          total   stress  (Ry/bohr**3)                   (kbar)     P=        0.17
   0.00000045   0.00000000   0.00000000            0.07        0.00        0.00
   0.00000000   0.00000045   0.00000000            0.00        0.07        0.00
   0.00000000   0.00000000   0.00000253            0.00        0.00        0.37

     Energy error            =      4.5E-07 Ry
     Gradient error          =      0.0E+00 Ry/Bohr
     Cell gradient error     =      3.7E-01 kbar

     number of scf cycles    =   6
     number of bfgs steps    =   5

     enthalpy           old  =    -449.7529981168 Ry
     enthalpy           new  =    -449.7529985704 Ry

     CASE: enthalpy          _new < enthalpy          _old

     new trust radius        =       0.0002325203 bohr
     new conv_thr            =            1.0E-10 Ry

     new unit-cell volume =    191.36406 a.u.^3 (    28.35723 Ang^3 )
     density =      6.13217 g/cm^3

CELL_PARAMETERS (alat=  5.58242261)
   0.988052906   0.000000000   0.000000000
   0.000000000   0.988052906   0.000000000
   0.000000000   0.000000000   1.126761069

ATOMIC_POSITIONS (crystal)
Fe               0.5000000000        0.5000000000        0.5000000000
Ti               0.0000000000        0.0000000000        0.0000000000
H                0.5000000000        0.5000000000        0.0000000000



     Writing config-only to output data dir ./TiFeH.save/ :
     XML data file     NEW-OLD atomic charge density approx. for the potential
     New effective cutoffs (rho, wfc): 1777.77  127.01

     Check: negative core charge=   -0.000002

     negative rho (up, down):  9.242E-04 0.000E+00

     total cpu time spent up to now is      374.1 secs

     per-process dynamical memory:   195.8 Mb

     Self-consistent Calculation

     iteration #  1     ecut=   124.00 Ry     beta= 0.70
     Davidson diagonalization with overlap
     ethr =  1.00E-06,  avg # of iterations =  2.0

     Threshold (ethr) on eigenvalues was too large:
     Diagonalizing with lowered threshold

     Davidson diagonalization with overlap
     ethr =  1.77E-11,  avg # of iterations =  5.3

     negative rho (up, down):  9.241E-04 0.000E+00

     total cpu time spent up to now is      384.6 secs

     total energy              =    -449.75299858 Ry
     estimated scf accuracy    <          3.8E-09 Ry

     iteration #  2     ecut=   124.00 Ry     beta= 0.70
     Davidson diagonalization with overlap
     ethr =  1.30E-11,  avg # of iterations =  3.9

     negative rho (up, down):  9.241E-04 0.000E+00

     total cpu time spent up to now is      389.5 secs

     total energy              =    -449.75299858 Ry
     estimated scf accuracy    <       0.00000012 Ry

     iteration #  3     ecut=   124.00 Ry     beta= 0.70
     Davidson diagonalization with overlap
     ethr =  1.30E-11,  avg # of iterations =  3.5

     negative rho (up, down):  9.241E-04 0.000E+00

     total cpu time spent up to now is      393.9 secs

     total energy              =    -449.75299859 Ry
     estimated scf accuracy    <          9.2E-09 Ry

     iteration #  4     ecut=   124.00 Ry     beta= 0.70
     Davidson diagonalization with overlap
     ethr =  1.30E-11,  avg # of iterations =  2.0

     negative rho (up, down):  9.241E-04 0.000E+00

     total cpu time spent up to now is      397.9 secs

     End of self-consistent calculation

     Number of k-points >= 100: set verbosity='high' to print the bands.

     the Fermi energy is    16.2231 ev

!    total energy              =    -449.75299859 Ry
     estimated scf accuracy    <          6.1E-11 Ry
     smearing contrib. (-TS)   =       0.00004463 Ry
     internal energy E=F+TS    =    -449.75304322 Ry

     The total energy is F=E-TS. E is the sum of the following terms:
     one-electron contribution =    -161.19783078 Ry
     hartree contribution      =      95.81413440 Ry
     xc contribution           =     -53.63143885 Ry
     ewald contribution        =    -254.58550744 Ry
     one-center paw contrib.   =     -76.15240054 Ry

     convergence has been achieved in   4 iterations

     negative rho (up, down):  9.241E-04 0.000E+00

     Forces acting on atoms (cartesian axes, Ry/au):

     atom    1 type  1   force =     0.00000000    0.00000000    0.00000000
     atom    2 type  2   force =     0.00000000    0.00000000    0.00000000
     atom    3 type  3   force =     0.00000000    0.00000000    0.00000000

     Total force =     0.000000     Total SCF correction =     0.000000


     Computing stress (Cartesian axis) and pressure


     negative rho (up, down):  9.241E-04 0.000E+00
          total   stress  (Ry/bohr**3)                   (kbar)     P=       -0.00
   0.00000004   0.00000000   0.00000000            0.01        0.00        0.00
   0.00000000   0.00000004   0.00000000            0.00        0.01        0.00
   0.00000000   0.00000000  -0.00000013            0.00        0.00       -0.02

     Energy error            =      1.6E-08 Ry
     Gradient error          =      0.0E+00 Ry/Bohr
     Cell gradient error     =      1.9E-02 kbar

     bfgs converged in   7 scf cycles and   6 bfgs steps
     (criteria: energy <  1.0E-04 Ry, force <  1.0E-03 Ry/Bohr, cell <  1.0E-01 kbar)

     End of BFGS Geometry Optimization

     Final enthalpy           =    -449.7529985861 Ry

     File ./TiFeH.bfgs deleted, as requested
Begin final coordinates
     new unit-cell volume =    191.36406 a.u.^3 (    28.35723 Ang^3 )
     density =      6.13217 g/cm^3

CELL_PARAMETERS (alat=  5.58242261)
   0.988052906   0.000000000   0.000000000
   0.000000000   0.988052906   0.000000000
   0.000000000   0.000000000   1.126761069

ATOMIC_POSITIONS (crystal)
Fe               0.5000000000        0.5000000000        0.5000000000
Ti               0.0000000000        0.0000000000        0.0000000000
H                0.5000000000        0.5000000000        0.0000000000
End final coordinates



     Writing config-only to output data dir ./TiFeH.save/ :
     XML data file
     Final scf calculation at the relaxed structure.
     The G-vectors are recalculated for the final unit cell
     Results may differ from those at the preceding step.

     Parallelization info
     --------------------
     sticks:   dense  smooth     PW     G-vecs:    dense   smooth      PW
     Min         524     150     43                29230     4472     699
     Max         525     151     44                29235     4477     702
     Sum        4197    1201    349               233863    35789    5605

     Using Slab Decomposition



     bravais-lattice index     =            0
     lattice parameter (alat)  =       5.5824  a.u.
     unit-cell volume          =     191.3641 (a.u.)^3
     number of atoms/cell      =            3
     number of atomic types    =            3
     number of electrons       =        29.00
     number of Kohn-Sham states=           19
     kinetic-energy cutoff     =     124.0000  Ry
     charge density cutoff     =    1736.0000  Ry
     scf convergence threshold =      1.0E-10
     mixing beta               =       0.7000
     number of iterations used =            8  plain     mixing
     press convergence thresh. =      1.0E-01
     Exchange-correlation= PBE
                           (   1   4   3   4   0   0   0)

     celldm(1)=   5.582423  celldm(2)=   0.000000  celldm(3)=   0.000000
     celldm(4)=   0.000000  celldm(5)=   0.000000  celldm(6)=   0.000000

     crystal axes: (cart. coord. in units of alat)
               a(1) = (   0.988053   0.000000   0.000000 )  
               a(2) = (   0.000000   0.988053   0.000000 )  
               a(3) = (   0.000000   0.000000   1.126761 )  

     reciprocal axes: (cart. coord. in units 2 pi/alat)
               b(1) = (  1.012092  0.000000  0.000000 )  
               b(2) = (  0.000000  1.012092  0.000000 )  
               b(3) = (  0.000000  0.000000  0.887500 )  


     PseudoPot. # 1 for Fe read from file:
     ../pseudos/Fe.pbe-spn-kjpaw_psl.0.2.1.UPF
     MD5 check sum: e86618425769142926afa95317d90200
     Pseudo is Projector augmented-wave + core cor, Zval = 16.0
     Generated using "atomic" code by A. Dal Corso  v.5.0.99 svn rev. 10869
     Shape of augmentation charge: PSQ
     Using radial grid of 1191 points,  6 beta functions with: 
                l(1) =   0
                l(2) =   0
                l(3) =   1
                l(4) =   1
                l(5) =   2
                l(6) =   2
     Q(r) pseudized with 0 coefficients 


     PseudoPot. # 2 for Ti read from file:
     ../pseudos/ti_pbe_v1.4.uspp.F.UPF
     MD5 check sum: 88a00a6731bd790ddea75d31a80cb452
     Pseudo is Ultrasoft + core correction, Zval = 12.0
     Generated by new atomic code, or converted to UPF format
     Using radial grid of  851 points,  6 beta functions with: 
                l(1) =   0
                l(2) =   0
                l(3) =   1
                l(4) =   1
                l(5) =   2
                l(6) =   2
     Q(r) pseudized with  6 coefficients,  rinner =    1.000   1.000   1.000
                                                       1.000   1.000

     PseudoPot. # 3 for H  read from file:
     ../pseudos/H.pbe-kjpaw_psl.1.0.0.UPF
     MD5 check sum: d81a744832360e4a8af0b0b5b123bc2a
     Pseudo is Projector augmented-wave, Zval =  1.0
     Generated using &quot;atomic&quot; code by A. Dal Corso  v.6.3MaX
     Shape of augmentation charge: PSQ
     Using radial grid of  929 points,  2 beta functions with: 
                l(1) =   0
                l(2) =   0
     Q(r) pseudized with 0 coefficients 


     atomic species   valence    mass     pseudopotential
     Fe               16.00    55.84500     Fe( 1.00)
     Ti               12.00    47.86700     Ti( 1.00)
     H                 1.00     1.00784     H ( 1.00)

     16 Sym. Ops., with inversion, found



   Cartesian axes

     site n.     atom                  positions (alat units)
         1        Fe     tau(   1) = (   0.4940265   0.4940265   0.5633805  )
         2        Ti     tau(   2) = (   0.0000000   0.0000000   0.0000000  )
         3        H      tau(   3) = (   0.4940265   0.4940265   0.0000000  )

     number of k points=   288  Marzari-Vanderbilt smearing, width (Ry)=  0.0050

     Number of k-points >= 100: set verbosity='high' to print them.

     Dense  grid:   233863 G-vectors     FFT dimensions: (  75,  75,  90)

     Smooth grid:    35789 G-vectors     FFT dimensions: (  40,  40,  45)

     Estimated max dynamical RAM per process >     175.69 MB

     Estimated total dynamical RAM >       1.37 GB

     Check: negative core charge=   -0.000001

     Initial potential from superposition of free atoms

     starting charge      27.9995, renormalised to      29.0000

     negative rho (up, down):  1.330E-03 0.000E+00
     Starting wfcs are   24 randomized atomic wfcs
     Checking if some PAW data can be deallocated... 

     total cpu time spent up to now is      403.4 secs

     per-process dynamical memory:   194.6 Mb

     Self-consistent Calculation

     iteration #  1     ecut=   124.00 Ry     beta= 0.70
     Davidson diagonalization with overlap
     c_bands:  1 eigenvalues not converged
     c_bands:  1 eigenvalues not converged
     c_bands:  2 eigenvalues not converged
     c_bands:  1 eigenvalues not converged
     c_bands:  1 eigenvalues not converged
     c_bands:  1 eigenvalues not converged
     c_bands:  1 eigenvalues not converged
     c_bands:  1 eigenvalues not converged
     c_bands:  1 eigenvalues not converged
     c_bands:  1 eigenvalues not converged
     c_bands:  2 eigenvalues not converged
     c_bands:  1 eigenvalues not converged
     c_bands:  1 eigenvalues not converged
     c_bands:  1 eigenvalues not converged
     c_bands:  1 eigenvalues not converged
     c_bands:  1 eigenvalues not converged
     c_bands:  1 eigenvalues not converged
     c_bands:  1 eigenvalues not converged
     c_bands:  1 eigenvalues not converged
     c_bands:  1 eigenvalues not converged
     c_bands:  1 eigenvalues not converged
     c_bands:  1 eigenvalues not converged
     c_bands:  1 eigenvalues not converged
     c_bands:  1 eigenvalues not converged
     c_bands:  1 eigenvalues not converged
     c_bands:  1 eigenvalues not converged
     c_bands:  1 eigenvalues not converged
     c_bands:  1 eigenvalues not converged
     c_bands:  1 eigenvalues not converged
     c_bands:  1 eigenvalues not converged
     c_bands:  1 eigenvalues not converged
     c_bands:  1 eigenvalues not converged
     c_bands:  1 eigenvalues not converged
     c_bands:  2 eigenvalues not converged
     c_bands:  2 eigenvalues not converged
     c_bands:  1 eigenvalues not converged
     c_bands:  1 eigenvalues not converged
     c_bands:  1 eigenvalues not converged
     c_bands:  1 eigenvalues not converged
     c_bands:  1 eigenvalues not converged
     c_bands:  1 eigenvalues not converged
     c_bands:  1 eigenvalues not converged
     c_bands:  1 eigenvalues not converged
     c_bands:  1 eigenvalues not converged
     c_bands:  1 eigenvalues not converged
     ethr =  1.00E-06,  avg # of iterations = 16.8

     negative rho (up, down):  1.243E-04 0.000E+00

     total cpu time spent up to now is      426.1 secs

     total energy              =    -435.02765829 Ry
     estimated scf accuracy    <      18.61629002 Ry

     iteration #  2     ecut=   124.00 Ry     beta= 0.70
     Davidson diagonalization with overlap
     ethr =  1.00E-02,  avg # of iterations =  6.3

     negative rho (up, down):  2.374E-05 0.000E+00

     total cpu time spent up to now is      435.2 secs

     total energy              =    -449.01572062 Ry
     estimated scf accuracy    <      73.18312992 Ry

     iteration #  3     ecut=   124.00 Ry     beta= 0.70
     Davidson diagonalization with overlap
     ethr =  1.00E-02,  avg # of iterations =  3.2

     negative rho (up, down):  2.063E-04 0.000E+00

     total cpu time spent up to now is      441.2 secs

     total energy              =    -450.24436130 Ry
     estimated scf accuracy    <      17.65979523 Ry

     iteration #  4     ecut=   124.00 Ry     beta= 0.70
     Davidson diagonalization with overlap
     ethr =  1.00E-02,  avg # of iterations =  2.2

     negative rho (up, down):  2.953E-04 0.000E+00

     total cpu time spent up to now is      446.0 secs

     total energy              =    -450.42559003 Ry
     estimated scf accuracy    <       6.75790766 Ry

     iteration #  5     ecut=   124.00 Ry     beta= 0.70
     Davidson diagonalization with overlap
     ethr =  1.00E-02,  avg # of iterations =  1.1

     negative rho (up, down):  8.736E-04 0.000E+00

     total cpu time spent up to now is      450.1 secs

     total energy              =    -449.47621683 Ry
     estimated scf accuracy    <       5.53442515 Ry

     iteration #  6     ecut=   124.00 Ry     beta= 0.70
     Davidson diagonalization with overlap
     ethr =  1.00E-02,  avg # of iterations =  2.6

     negative rho (up, down):  8.864E-04 0.000E+00

     total cpu time spent up to now is      454.6 secs

     total energy              =    -449.72816778 Ry
     estimated scf accuracy    <       0.31333874 Ry

     iteration #  7     ecut=   124.00 Ry     beta= 0.70
     Davidson diagonalization with overlap
     ethr =  1.08E-03,  avg # of iterations =  3.9

     negative rho (up, down):  7.351E-04 0.000E+00

     total cpu time spent up to now is      459.7 secs

     total energy              =    -449.78999168 Ry
     estimated scf accuracy    <       0.11570069 Ry

     iteration #  8     ecut=   124.00 Ry     beta= 0.70
     Davidson diagonalization with overlap
     ethr =  3.99E-04,  avg # of iterations =  2.2

     negative rho (up, down):  1.089E-03 0.000E+00

     total cpu time spent up to now is      464.2 secs

     total energy              =    -449.52650841 Ry
     estimated scf accuracy    <       1.22091817 Ry

     iteration #  9     ecut=   124.00 Ry     beta= 0.70
     Davidson diagonalization with overlap
     ethr =  3.99E-04,  avg # of iterations =  4.8

     negative rho (up, down):  7.576E-04 0.000E+00

     total cpu time spent up to now is      470.6 secs

     total energy              =    -449.49018413 Ry
     estimated scf accuracy    <       4.62884310 Ry

     iteration # 10     ecut=   124.00 Ry     beta= 0.70
     Davidson diagonalization with overlap
     ethr =  3.99E-04,  avg # of iterations =  3.7

     negative rho (up, down):  6.565E-04 0.000E+00

     total cpu time spent up to now is      476.0 secs

     total energy              =    -449.78744116 Ry
     estimated scf accuracy    <       0.06796349 Ry

     iteration # 11     ecut=   124.00 Ry     beta= 0.70
     Davidson diagonalization with overlap
     ethr =  2.34E-04,  avg # of iterations =  2.5

     negative rho (up, down):  6.827E-04 0.000E+00

     total cpu time spent up to now is      480.7 secs

     total energy              =    -449.80682245 Ry
     estimated scf accuracy    <       0.77377452 Ry

     iteration # 12     ecut=   124.00 Ry     beta= 0.70
     Davidson diagonalization with overlap
     ethr =  2.34E-04,  avg # of iterations =  1.0

     negative rho (up, down):  7.487E-04 0.000E+00

     total cpu time spent up to now is      484.7 secs

     total energy              =    -449.76914756 Ry
     estimated scf accuracy    <       0.70610749 Ry

     iteration # 13     ecut=   124.00 Ry     beta= 0.70
     Davidson diagonalization with overlap
     ethr =  2.34E-04,  avg # of iterations =  1.1

     negative rho (up, down):  7.655E-04 0.000E+00

     total cpu time spent up to now is      488.7 secs

     total energy              =    -449.77068146 Ry
     estimated scf accuracy    <       0.29236125 Ry

     iteration # 14     ecut=   124.00 Ry     beta= 0.70
     Davidson diagonalization with overlap
     ethr =  2.34E-04,  avg # of iterations =  1.0

     negative rho (up, down):  7.692E-04 0.000E+00

     total cpu time spent up to now is      492.8 secs

     total energy              =    -449.77087515 Ry
     estimated scf accuracy    <       0.24006427 Ry

     iteration # 15     ecut=   124.00 Ry     beta= 0.70
     Davidson diagonalization with overlap
     ethr =  2.34E-04,  avg # of iterations =  1.0

     negative rho (up, down):  1.367E-03 0.000E+00

     total cpu time spent up to now is      496.9 secs

     total energy              =    -449.69526483 Ry
     estimated scf accuracy    <       0.23824377 Ry

     iteration # 16     ecut=   124.00 Ry     beta= 0.70
     Davidson diagonalization with overlap
     ethr =  2.34E-04,  avg # of iterations =  5.1

     negative rho (up, down):  9.806E-04 0.000E+00

     total cpu time spent up to now is      503.6 secs

     total energy              =    -449.68528387 Ry
     estimated scf accuracy    <       1.94978615 Ry

     iteration # 17     ecut=   124.00 Ry     beta= 0.70
     Davidson diagonalization with overlap
     ethr =  2.34E-04,  avg # of iterations =  3.4

     negative rho (up, down):  9.941E-04 0.000E+00

     total cpu time spent up to now is      509.0 secs

     total energy              =    -449.75703755 Ry
     estimated scf accuracy    <       0.03819733 Ry

     iteration # 18     ecut=   124.00 Ry     beta= 0.70
     Davidson diagonalization with overlap
     ethr =  1.32E-04,  avg # of iterations =  1.1

     negative rho (up, down):  8.697E-04 0.000E+00

     total cpu time spent up to now is      513.1 secs

     total energy              =    -449.74695161 Ry
     estimated scf accuracy    <       0.06808422 Ry

     iteration # 19     ecut=   124.00 Ry     beta= 0.70
     Davidson diagonalization with overlap
     ethr =  1.32E-04,  avg # of iterations =  1.7

     negative rho (up, down):  8.756E-04 0.000E+00

     total cpu time spent up to now is      517.4 secs

     total energy              =    -449.75305987 Ry
     estimated scf accuracy    <       0.00228146 Ry

     iteration # 20     ecut=   124.00 Ry     beta= 0.70
     Davidson diagonalization with overlap
     ethr =  7.87E-06,  avg # of iterations =  4.3

     negative rho (up, down):  8.710E-04 0.000E+00

     total cpu time spent up to now is      522.7 secs

     total energy              =    -449.75348509 Ry
     estimated scf accuracy    <       0.00255952 Ry

     iteration # 21     ecut=   124.00 Ry     beta= 0.70
     Davidson diagonalization with overlap
     ethr =  7.87E-06,  avg # of iterations =  1.0

     negative rho (up, down):  8.856E-04 0.000E+00

     total cpu time spent up to now is      526.8 secs

     total energy              =    -449.75327403 Ry
     estimated scf accuracy    <       0.00329760 Ry

     iteration # 22     ecut=   124.00 Ry     beta= 0.70
     Davidson diagonalization with overlap
     ethr =  7.87E-06,  avg # of iterations =  1.0

     negative rho (up, down):  8.988E-04 0.000E+00

     total cpu time spent up to now is      530.9 secs

     total energy              =    -449.75318579 Ry
     estimated scf accuracy    <       0.00131994 Ry

     iteration # 23     ecut=   124.00 Ry     beta= 0.70
     Davidson diagonalization with overlap
     ethr =  4.55E-06,  avg # of iterations =  1.1

     negative rho (up, down):  9.009E-04 0.000E+00

     total cpu time spent up to now is      535.0 secs

     total energy              =    -449.75320754 Ry
     estimated scf accuracy    <       0.00029461 Ry

     iteration # 24     ecut=   124.00 Ry     beta= 0.70
     Davidson diagonalization with overlap
     ethr =  1.02E-06,  avg # of iterations =  1.0

     negative rho (up, down):  9.025E-04 0.000E+00

     total cpu time spent up to now is      539.0 secs

     total energy              =    -449.75320488 Ry
     estimated scf accuracy    <       0.00017900 Ry

     iteration # 25     ecut=   124.00 Ry     beta= 0.70
     Davidson diagonalization with overlap
     ethr =  6.17E-07,  avg # of iterations =  1.0

     negative rho (up, down):  9.073E-04 0.000E+00

     total cpu time spent up to now is      543.0 secs

     total energy              =    -449.75319078 Ry
     estimated scf accuracy    <       0.00011592 Ry

     iteration # 26     ecut=   124.00 Ry     beta= 0.70
     Davidson diagonalization with overlap
     ethr =  4.00E-07,  avg # of iterations =  1.5

     negative rho (up, down):  9.073E-04 0.000E+00

     total cpu time spent up to now is      547.2 secs

     total energy              =    -449.75319904 Ry
     estimated scf accuracy    <       0.00000030 Ry

     iteration # 27     ecut=   124.00 Ry     beta= 0.70
     Davidson diagonalization with overlap
     ethr =  1.05E-09,  avg # of iterations =  6.0

     negative rho (up, down):  9.073E-04 0.000E+00

     total cpu time spent up to now is      554.3 secs

     total energy              =    -449.75319987 Ry
     estimated scf accuracy    <       0.00000036 Ry

     iteration # 28     ecut=   124.00 Ry     beta= 0.70
     Davidson diagonalization with overlap
     ethr =  1.05E-09,  avg # of iterations =  1.0

     negative rho (up, down):  9.073E-04 0.000E+00

     total cpu time spent up to now is      558.4 secs

     total energy              =    -449.75319986 Ry
     estimated scf accuracy    <       0.00000025 Ry

     iteration # 29     ecut=   124.00 Ry     beta= 0.70
     Davidson diagonalization with overlap
     ethr =  8.47E-10,  avg # of iterations =  1.0

     negative rho (up, down):  9.072E-04 0.000E+00

     total cpu time spent up to now is      562.4 secs

     total energy              =    -449.75319982 Ry
     estimated scf accuracy    <       0.00000019 Ry

     iteration # 30     ecut=   124.00 Ry     beta= 0.70
     Davidson diagonalization with overlap
     ethr =  6.59E-10,  avg # of iterations =  1.4

     negative rho (up, down):  9.071E-04 0.000E+00

     total cpu time spent up to now is      566.6 secs

     total energy              =    -449.75319983 Ry
     estimated scf accuracy    <       0.00000001 Ry

     iteration # 31     ecut=   124.00 Ry     beta= 0.70
     Davidson diagonalization with overlap
     ethr =  4.58E-11,  avg # of iterations =  4.0

     negative rho (up, down):  9.072E-04 0.000E+00

     total cpu time spent up to now is      572.0 secs

     total energy              =    -449.75319983 Ry
     estimated scf accuracy    <          2.5E-09 Ry

     iteration # 32     ecut=   124.00 Ry     beta= 0.70
     Davidson diagonalization with overlap
     ethr =  8.75E-12,  avg # of iterations =  2.7

     negative rho (up, down):  9.072E-04 0.000E+00

     total cpu time spent up to now is      576.7 secs

     End of self-consistent calculation

     Number of k-points >= 100: set verbosity='high' to print the bands.

     the Fermi energy is    16.2230 ev

!    total energy              =    -449.75319983 Ry
     estimated scf accuracy    <          2.0E-11 Ry
     smearing contrib. (-TS)   =       0.00004462 Ry
     internal energy E=F+TS    =    -449.75324445 Ry

     The total energy is F=E-TS. E is the sum of the following terms:
     one-electron contribution =    -161.19744172 Ry
     hartree contribution      =      95.81374719 Ry
     xc contribution           =     -53.63160629 Ry
     ewald contribution        =    -254.58550744 Ry
     one-center paw contrib.   =     -76.15243619 Ry

     convergence has been achieved in  32 iterations

     negative rho (up, down):  9.072E-04 0.000E+00

     Forces acting on atoms (cartesian axes, Ry/au):

     atom    1 type  1   force =     0.00000000    0.00000000    0.00000000
     atom    2 type  2   force =     0.00000000    0.00000000    0.00000000
     atom    3 type  3   force =     0.00000000    0.00000000    0.00000000

     Total force =     0.000000     Total SCF correction =     0.000000


     Computing stress (Cartesian axis) and pressure


     negative rho (up, down):  9.072E-04 0.000E+00
          total   stress  (Ry/bohr**3)                   (kbar)     P=       -0.20
  -0.00000107   0.00000000   0.00000000           -0.16        0.00        0.00
   0.00000000  -0.00000107   0.00000000            0.00       -0.16        0.00
   0.00000000   0.00000000  -0.00000201            0.00        0.00       -0.29


     Writing all to output data dir ./TiFeH.save/ :
     XML data file
     init_run     :      4.98s CPU      5.27s WALL (       2 calls)
     electrons    :    525.64s CPU    547.47s WALL (       8 calls)
     update_pot   :      0.65s CPU      0.71s WALL (       6 calls)
     forces       :      3.84s CPU      4.13s WALL (       8 calls)
     stress       :     19.05s CPU     19.58s WALL (       8 calls)

     Called by init_run:
     wfcinit      :      3.52s CPU      3.68s WALL (       2 calls)
     potinit      :      0.53s CPU      0.56s WALL (       2 calls)
     hinit0       :      0.53s CPU      0.56s WALL (       2 calls)

     Called by electrons:
     c_bands      :    431.68s CPU    443.14s WALL (     109 calls)
     sum_band     :     69.24s CPU     75.68s WALL (     109 calls)
     v_of_rho     :      3.13s CPU      3.41s WALL (     114 calls)
     newd         :     15.38s CPU     18.67s WALL (     114 calls)
     PAW_pot      :      7.74s CPU      8.30s WALL (     120 calls)
     mix_rho      :      0.33s CPU      0.36s WALL (     109 calls)

     Called by c_bands:
     init_us_2    :     12.29s CPU     12.83s WALL (   69696 calls)
     cegterg      :    411.96s CPU    422.16s WALL (   31392 calls)

     Called by *egterg:
     cdiaghg      :     50.82s CPU     51.89s WALL (  130649 calls)
     h_psi        :    302.28s CPU    310.43s WALL (  133817 calls)
     s_psi        :      9.66s CPU      9.91s WALL (  133817 calls)
     g_psi        :      2.04s CPU      2.07s WALL (  101849 calls)

     Called by h_psi:
     h_psi:calbec :     14.59s CPU     14.98s WALL (  133817 calls)
     vloc_psi     :    275.82s CPU    283.26s WALL (  133817 calls)
     add_vuspsi   :      9.90s CPU     10.18s WALL (  133817 calls)

     General routines
     calbec       :     23.24s CPU     23.88s WALL (  206105 calls)
     fft          :      1.90s CPU      2.29s WALL (    1675 calls)
     ffts         :      0.33s CPU      0.34s WALL (     223 calls)
     fftw         :    232.55s CPU    238.17s WALL ( 3982256 calls)
     interpolate  :      0.45s CPU      0.50s WALL (     114 calls)

     Parallel routines

     PWSCF        :    556.40s CPU    579.95s WALL


   This run was terminated on:  22:13:49  15Nov2025            

=------------------------------------------------------------------------------=
   JOB DONE.
=------------------------------------------------------------------------------=
