
     Program PWSCF v.7.4 starts on 11Nov2025 at  1:35:12 

     This program is part of the open-source Quantum ESPRESSO suite
     for quantum simulation of materials; please cite
         "P. Giannozzi et al., J. Phys.:Condens. Matter 21 395502 (2009);
         "P. Giannozzi et al., J. Phys.:Condens. Matter 29 465901 (2017);
         "P. Giannozzi et al., J. Chem. Phys. 152 154105 (2020);
          URL http://www.quantum-espresso.org", 
     in publications or presentations arising from this work. More details at
     http://www.quantum-espresso.org/quote

     Parallel version (MPI & OpenMP), running on      16 processor cores
     Number of MPI processes:                16
     Threads/MPI process:                     1

     MPI processes distributed on     1 nodes
     156533 MiB available memory on the printing compute node when the environment starts

     Reading input from TiNi2_scf_nomag.in
Warning: card &CELL ignored
Warning: card   CELL_DYNAMICS='BFGS', ignored
Warning: card / ignored
Warning: card / ignored

     Current dimensions of program PWSCF are:
     Max number of different atomic species (ntypx) = 10
     Max number of k-points (npk) =  40000
     Max angular momentum in pseudopotentials (lmaxx) =  4

     IMPORTANT: XC functional enforced from input :
     Exchange-correlation= PBE
                           (   1   4   3   4   0   0   0)
     Any further DFT definition will be discarded
     Please, verify this is what you really want

     Found identity + (  0.0000 -0.5000  0.5000) symmetry
     This is a supercell, fractional translations are disabled
     Message from routine setup:
     using ibrav=0 with symmetry is DISCOURAGED, use correct ibrav instead

     R & G space division:  proc/nbgrp/npool/nimage =      16
     Subspace diagonalization in iterative solution of the eigenvalue problem:
     one sub-group per band group will be used
     ELPA distributed-memory algorithm (size of sub-group:  2*  2 procs)


     Parallelization info
     --------------------
     sticks:   dense  smooth     PW     G-vecs:    dense   smooth      PW
     Min        1517     434    116               178119    27201    3738
     Max        1518     435    117               178122    27202    3739
     Sum       24285    6953   1861              2849939   435223   59813

     Using Slab Decomposition



     bravais-lattice index     =            0
     lattice parameter (alat)  =      13.2636  a.u.
     unit-cell volume          =    2333.3985 (a.u.)^3
     number of atoms/cell      =           24
     number of atomic types    =            2
     number of electrons       =       384.00
     number of Kohn-Sham states=          230
     kinetic-energy cutoff     =     124.0000  Ry
     charge density cutoff     =    1736.0000  Ry
     scf convergence threshold =      1.0E-08
     mixing beta               =       0.2000
     number of iterations used =            8  plain     mixing
     Exchange-correlation= PBE
                           (   1   4   3   4   0   0   0)

     celldm(1)=  13.263648  celldm(2)=   0.000000  celldm(3)=   0.000000
     celldm(4)=   0.000000  celldm(5)=   0.000000  celldm(6)=   0.000000

     crystal axes: (cart. coord. in units of alat)
               a(1) = (   1.000000   0.000000   0.000000 )  
               a(2) = (   0.000000   1.000000   0.000000 )  
               a(3) = (   0.000000   0.000000   1.000000 )  

     reciprocal axes: (cart. coord. in units 2 pi/alat)
               b(1) = (  1.000000  0.000000  0.000000 )  
               b(2) = (  0.000000  1.000000  0.000000 )  
               b(3) = (  0.000000  0.000000  1.000000 )  


     PseudoPot. # 1 for Ni read from file:
     ../../pseudos/ni_pbe_v1.4.uspp.F.UPF
     MD5 check sum: 1ee80287db30b12d2bc1f57a5b5d6409
     Pseudo is Ultrasoft + core correction, Zval = 18.0
     Generated by new atomic code, or converted to UPF format
     Using radial grid of  865 points,  6 beta functions with: 
                l(1) =   0
                l(2) =   0
                l(3) =   1
                l(4) =   1
                l(5) =   2
                l(6) =   2
     Q(r) pseudized with 10 coefficients,  rinner =    0.980   0.980   0.980
                                                       0.980   0.980

     PseudoPot. # 2 for Ti read from file:
     ../../pseudos/ti_pbe_v1.4.uspp.F.UPF
     MD5 check sum: 88a00a6731bd790ddea75d31a80cb452
     Pseudo is Ultrasoft + core correction, Zval = 12.0
     Generated by new atomic code, or converted to UPF format
     Using radial grid of  851 points,  6 beta functions with: 
                l(1) =   0
                l(2) =   0
                l(3) =   1
                l(4) =   1
                l(5) =   2
                l(6) =   2
     Q(r) pseudized with  6 coefficients,  rinner =    1.000   1.000   1.000
                                                       1.000   1.000

     atomic species   valence    mass     pseudopotential
     Ni               18.00    58.69340     Ni( 1.00)
     Ti               12.00    47.86700     Ti( 1.00)

     24 Sym. Ops. (no inversion) found



   Cartesian axes

     site n.     atom                  positions (alat units)
         1        Ti     tau(   1) = (   0.5000000   0.0000000   0.5000000  )
         2        Ti     tau(   2) = (   0.7500000   0.2500000   0.7500000  )
         3        Ti     tau(   3) = (   0.5000000   0.5000000   0.0000000  )
         4        Ti     tau(   4) = (   0.7500000   0.7500000   0.2500000  )
         5        Ti     tau(   5) = (   0.0000000   0.0000000   0.0000000  )
         6        Ti     tau(   6) = (   0.2500000   0.2500000   0.2500000  )
         7        Ti     tau(   7) = (   0.0000000   0.5000000   0.5000000  )
         8        Ti     tau(   8) = (   0.2500000   0.7500000   0.7500000  )
         9        Ni     tau(   9) = (   0.1250000   0.1250000   0.6250000  )
        10        Ni     tau(  10) = (   0.1250000   0.8750000   0.3750000  )
        11        Ni     tau(  11) = (   0.8750000   0.6250000   0.8750000  )
        12        Ni     tau(  12) = (   0.8750000   0.8750000   0.6250000  )
        13        Ni     tau(  13) = (   0.1250000   0.6250000   0.1250000  )
        14        Ni     tau(  14) = (   0.1250000   0.3750000   0.8750000  )
        15        Ni     tau(  15) = (   0.8750000   0.1250000   0.3750000  )
        16        Ni     tau(  16) = (   0.8750000   0.3750000   0.1250000  )
        17        Ni     tau(  17) = (   0.6250000   0.1250000   0.1250000  )
        18        Ni     tau(  18) = (   0.6250000   0.8750000   0.8750000  )
        19        Ni     tau(  19) = (   0.3750000   0.6250000   0.3750000  )
        20        Ni     tau(  20) = (   0.3750000   0.8750000   0.1250000  )
        21        Ni     tau(  21) = (   0.6250000   0.6250000   0.6250000  )
        22        Ni     tau(  22) = (   0.6250000   0.3750000   0.3750000  )
        23        Ni     tau(  23) = (   0.3750000   0.1250000   0.8750000  )
        24        Ni     tau(  24) = (   0.3750000   0.3750000   0.6250000  )

     number of k points=    20  Marzari-Vanderbilt smearing, width (Ry)=  0.0050
                       cart. coord. in units 2pi/alat
        k(    1) = (   0.0000000   0.0000000   0.0000000), wk =   0.0058309
        k(    2) = (   0.0000000   0.0000000   0.1428571), wk =   0.0349854
        k(    3) = (   0.0000000   0.0000000   0.2857143), wk =   0.0349854
        k(    4) = (   0.0000000   0.0000000   0.4285714), wk =   0.0349854
        k(    5) = (   0.0000000   0.1428571   0.1428571), wk =   0.0699708
        k(    6) = (   0.0000000   0.1428571   0.2857143), wk =   0.1399417
        k(    7) = (   0.0000000   0.1428571   0.4285714), wk =   0.1399417
        k(    8) = (   0.0000000   0.2857143   0.2857143), wk =   0.0699708
        k(    9) = (   0.0000000   0.2857143   0.4285714), wk =   0.1399417
        k(   10) = (   0.0000000   0.4285714   0.4285714), wk =   0.0699708
        k(   11) = (   0.1428571   0.1428571   0.1428571), wk =   0.0466472
        k(   12) = (   0.1428571   0.1428571   0.2857143), wk =   0.1399417
        k(   13) = (   0.1428571   0.1428571   0.4285714), wk =   0.1399417
        k(   14) = (   0.1428571   0.2857143   0.2857143), wk =   0.1399417
        k(   15) = (   0.1428571   0.2857143   0.4285714), wk =   0.2798834
        k(   16) = (   0.1428571   0.4285714   0.4285714), wk =   0.1399417
        k(   17) = (   0.2857143   0.2857143   0.2857143), wk =   0.0466472
        k(   18) = (   0.2857143   0.2857143   0.4285714), wk =   0.1399417
        k(   19) = (   0.2857143   0.4285714   0.4285714), wk =   0.1399417
        k(   20) = (   0.4285714   0.4285714   0.4285714), wk =   0.0466472

     Dense  grid:  2849939 G-vectors     FFT dimensions: ( 180, 180, 180)

     Smooth grid:   435223 G-vectors     FFT dimensions: (  96,  96,  96)

     Estimated max dynamical RAM per process >    1016.70 MB

     Estimated total dynamical RAM >      15.89 GB

     Check: negative core charge=   -0.000003

     Initial potential from superposition of free atoms

     starting charge     343.9996, renormalised to     384.0000

     negative rho (up, down):  1.222E-02 0.000E+00
     Starting wfcs are  288 randomized atomic wfcs

     total cpu time spent up to now is       40.8 secs

     per-process dynamical memory:   490.4 Mb

     Self-consistent Calculation

     iteration #  1     ecut=   124.00 Ry     beta= 0.20
     Davidson diagonalization with overlap
     ethr =  1.00E-02,  avg # of iterations =  7.2

     negative rho (up, down):  2.995E-03 0.000E+00

     total cpu time spent up to now is      182.4 secs

     total energy              =   -6267.53072483 Ry
     estimated scf accuracy    <    1063.17959045 Ry

     iteration #  2     ecut=   124.00 Ry     beta= 0.20
     Davidson diagonalization with overlap
     ethr =  1.00E-02,  avg # of iterations =  7.2

     negative rho (up, down):  4.692E-03 0.000E+00

     total cpu time spent up to now is      350.8 secs

     total energy              =   -6461.39140447 Ry
     estimated scf accuracy    <     134.17420857 Ry

     iteration #  3     ecut=   124.00 Ry     beta= 0.20
     Davidson diagonalization with overlap
     ethr =  1.00E-02,  avg # of iterations =  2.0

     negative rho (up, down):  7.240E-03 0.000E+00

     total cpu time spent up to now is      432.7 secs

     total energy              =   -6450.10639085 Ry
     estimated scf accuracy    <      54.90020171 Ry

     iteration #  4     ecut=   124.00 Ry     beta= 0.20
     Davidson diagonalization with overlap
     ethr =  1.00E-02,  avg # of iterations =  2.9

     negative rho (up, down):  1.897E-02 0.000E+00

     total cpu time spent up to now is      514.3 secs

     total energy              =   -6436.51622092 Ry
     estimated scf accuracy    <      20.19404947 Ry

     iteration #  5     ecut=   124.00 Ry     beta= 0.20
     Davidson diagonalization with overlap
     ethr =  5.26E-03,  avg # of iterations =  6.4

     negative rho (up, down):  5.965E-03 0.000E+00

     total cpu time spent up to now is      652.5 secs

     total energy              =   -6398.11691290 Ry
     estimated scf accuracy    <     377.32007078 Ry

     iteration #  6     ecut=   124.00 Ry     beta= 0.20
     Davidson diagonalization with overlap
     ethr =  5.26E-03,  avg # of iterations =  5.2

     negative rho (up, down):  7.702E-03 0.000E+00

     total cpu time spent up to now is      760.7 secs

     total energy              =   -6438.17006193 Ry
     estimated scf accuracy    <      48.58897227 Ry

     iteration #  7     ecut=   124.00 Ry     beta= 0.20
     Davidson diagonalization with overlap
     ethr =  5.26E-03,  avg # of iterations =  5.2

     negative rho (up, down):  6.516E-03 0.000E+00

     total cpu time spent up to now is      863.1 secs

     total energy              =   -6440.86656047 Ry
     estimated scf accuracy    <     158.21069227 Ry

     iteration #  8     ecut=   124.00 Ry     beta= 0.20
     Davidson diagonalization with overlap
     ethr =  5.26E-03,  avg # of iterations =  2.2

     negative rho (up, down):  5.861E-03 0.000E+00

     total cpu time spent up to now is      941.4 secs

     total energy              =   -6446.86666168 Ry
     estimated scf accuracy    <       0.41805399 Ry

     iteration #  9     ecut=   124.00 Ry     beta= 0.20
     Davidson diagonalization with overlap
     ethr =  1.09E-04,  avg # of iterations =  6.8

     negative rho (up, down):  5.519E-03 0.000E+00

     total cpu time spent up to now is     1063.6 secs

     total energy              =   -6447.29163828 Ry
     estimated scf accuracy    <      11.59764231 Ry

     iteration # 10     ecut=   124.00 Ry     beta= 0.20
     Davidson diagonalization with overlap
     ethr =  1.09E-04,  avg # of iterations =  3.1

     negative rho (up, down):  5.381E-03 0.000E+00

     total cpu time spent up to now is     1152.7 secs

     total energy              =   -6447.27766724 Ry
     estimated scf accuracy    <       6.03217868 Ry

     iteration # 11     ecut=   124.00 Ry     beta= 0.20
     Davidson diagonalization with overlap
     ethr =  1.09E-04,  avg # of iterations =  1.1

     negative rho (up, down):  5.460E-03 0.000E+00

     total cpu time spent up to now is     1222.6 secs

     total energy              =   -6447.02787972 Ry
     estimated scf accuracy    <       4.48573297 Ry

     iteration # 12     ecut=   124.00 Ry     beta= 0.20
     Davidson diagonalization with overlap
     ethr =  1.09E-04,  avg # of iterations =  2.5

     negative rho (up, down):  5.811E-03 0.000E+00

     total cpu time spent up to now is     1300.3 secs

     total energy              =   -6447.00194482 Ry
     estimated scf accuracy    <       2.03836706 Ry

     iteration # 13     ecut=   124.00 Ry     beta= 0.20
     Davidson diagonalization with overlap
     ethr =  1.09E-04,  avg # of iterations =  1.2

     negative rho (up, down):  5.780E-03 0.000E+00

     total cpu time spent up to now is     1370.7 secs

     total energy              =   -6447.02089316 Ry
     estimated scf accuracy    <       1.18272880 Ry

     iteration # 14     ecut=   124.00 Ry     beta= 0.20
     Davidson diagonalization with overlap
     ethr =  1.09E-04,  avg # of iterations =  1.0

     negative rho (up, down):  4.707E-03 0.000E+00

     total cpu time spent up to now is     1440.0 secs

     total energy              =   -6447.41281203 Ry
     estimated scf accuracy    <       1.34202379 Ry

     iteration # 15     ecut=   124.00 Ry     beta= 0.20
     Davidson diagonalization with overlap
     ethr =  1.09E-04,  avg # of iterations =  4.5

     negative rho (up, down):  8.130E-03 0.000E+00

     total cpu time spent up to now is     1532.3 secs

     total energy              =   -6445.90646249 Ry
     estimated scf accuracy    <       7.81152034 Ry

     iteration # 16     ecut=   124.00 Ry     beta= 0.20
     Davidson diagonalization with overlap
     ethr =  1.09E-04,  avg # of iterations =  6.0

     negative rho (up, down):  7.118E-03 0.000E+00

     total cpu time spent up to now is     1664.6 secs

     total energy              =   -6446.64156556 Ry
     estimated scf accuracy    <      12.16461093 Ry

     iteration # 17     ecut=   124.00 Ry     beta= 0.20
     Davidson diagonalization with overlap
     ethr =  1.09E-04,  avg # of iterations =  4.8

     negative rho (up, down):  7.361E-03 0.000E+00

     total cpu time spent up to now is     1748.8 secs

     total energy              =   -6446.91981816 Ry
     estimated scf accuracy    <       0.39212372 Ry

     iteration # 18     ecut=   124.00 Ry     beta= 0.20
     Davidson diagonalization with overlap
     ethr =  1.02E-04,  avg # of iterations =  1.1

     negative rho (up, down):  7.331E-03 0.000E+00

     total cpu time spent up to now is     1818.5 secs

     total energy              =   -6446.93154724 Ry
     estimated scf accuracy    <       0.06554216 Ry

     iteration # 19     ecut=   124.00 Ry     beta= 0.20
     Davidson diagonalization with overlap
     ethr =  1.71E-05,  avg # of iterations =  2.5

     negative rho (up, down):  7.193E-03 0.000E+00

     total cpu time spent up to now is     1893.3 secs

     total energy              =   -6446.92518913 Ry
     estimated scf accuracy    <       0.19033582 Ry

     iteration # 20     ecut=   124.00 Ry     beta= 0.20
     Davidson diagonalization with overlap
     ethr =  1.71E-05,  avg # of iterations =  1.6

     negative rho (up, down):  7.240E-03 0.000E+00

     total cpu time spent up to now is     1966.1 secs

     total energy              =   -6446.92695796 Ry
     estimated scf accuracy    <       0.03730337 Ry

     iteration # 21     ecut=   124.00 Ry     beta= 0.20
     Davidson diagonalization with overlap
     ethr =  9.71E-06,  avg # of iterations =  1.6

     negative rho (up, down):  7.219E-03 0.000E+00

     total cpu time spent up to now is     2039.7 secs

     total energy              =   -6446.92585569 Ry
     estimated scf accuracy    <       0.03908656 Ry

     iteration # 22     ecut=   124.00 Ry     beta= 0.20
     Davidson diagonalization with overlap
     ethr =  9.71E-06,  avg # of iterations =  1.1

     negative rho (up, down):  7.198E-03 0.000E+00

     total cpu time spent up to now is     2109.4 secs

     total energy              =   -6446.92607974 Ry
     estimated scf accuracy    <       0.00882634 Ry

     iteration # 23     ecut=   124.00 Ry     beta= 0.20
     Davidson diagonalization with overlap
     ethr =  2.30E-06,  avg # of iterations =  2.5

     negative rho (up, down):  7.198E-03 0.000E+00

     total cpu time spent up to now is     2183.4 secs

     total energy              =   -6446.92622748 Ry
     estimated scf accuracy    <       0.00469117 Ry

     iteration # 24     ecut=   124.00 Ry     beta= 0.20
     Davidson diagonalization with overlap
     ethr =  1.22E-06,  avg # of iterations =  1.1

     negative rho (up, down):  7.103E-03 0.000E+00

     total cpu time spent up to now is     2252.9 secs

     total energy              =   -6446.92579271 Ry
     estimated scf accuracy    <       0.00727975 Ry

     iteration # 25     ecut=   124.00 Ry     beta= 0.20
     Davidson diagonalization with overlap
     ethr =  1.22E-06,  avg # of iterations =  1.1

     negative rho (up, down):  7.091E-03 0.000E+00

     total cpu time spent up to now is     2323.1 secs

     total energy              =   -6446.92593573 Ry
     estimated scf accuracy    <       0.00023980 Ry

     iteration # 26     ecut=   124.00 Ry     beta= 0.20
     Davidson diagonalization with overlap
     ethr =  6.24E-08,  avg # of iterations =  5.0

     negative rho (up, down):  7.090E-03 0.000E+00

     total cpu time spent up to now is     2414.1 secs

     total energy              =   -6446.92597762 Ry
     estimated scf accuracy    <       0.00001072 Ry

     iteration # 27     ecut=   124.00 Ry     beta= 0.20
     Davidson diagonalization with overlap
     ethr =  2.79E-09,  avg # of iterations =  4.0

     negative rho (up, down):  7.077E-03 0.000E+00

     total cpu time spent up to now is     2500.0 secs

     total energy              =   -6446.92597902 Ry
     estimated scf accuracy    <       0.00000778 Ry

     iteration # 28     ecut=   124.00 Ry     beta= 0.20
     Davidson diagonalization with overlap
     ethr =  2.03E-09,  avg # of iterations =  1.9

     negative rho (up, down):  7.071E-03 0.000E+00

     total cpu time spent up to now is     2574.8 secs

     total energy              =   -6446.92597941 Ry
     estimated scf accuracy    <       0.00000333 Ry

     iteration # 29     ecut=   124.00 Ry     beta= 0.20
     Davidson diagonalization with overlap
     ethr =  8.67E-10,  avg # of iterations =  1.0

     negative rho (up, down):  7.074E-03 0.000E+00

     total cpu time spent up to now is     2644.0 secs

     total energy              =   -6446.92597918 Ry
     estimated scf accuracy    <       0.00000101 Ry

     iteration # 30     ecut=   124.00 Ry     beta= 0.20
     Davidson diagonalization with overlap
     ethr =  2.63E-10,  avg # of iterations =  2.8

     negative rho (up, down):  7.074E-03 0.000E+00

     total cpu time spent up to now is     2729.3 secs

     total energy              =   -6446.92597933 Ry
     estimated scf accuracy    <       0.00000013 Ry

     iteration # 31     ecut=   124.00 Ry     beta= 0.20
     Davidson diagonalization with overlap
     ethr =  3.41E-11,  avg # of iterations =  1.7

     negative rho (up, down):  7.075E-03 0.000E+00

     total cpu time spent up to now is     2803.0 secs

     total energy              =   -6446.92597934 Ry
     estimated scf accuracy    <       0.00000002 Ry

     iteration # 32     ecut=   124.00 Ry     beta= 0.20
     Davidson diagonalization with overlap
     ethr =  6.14E-12,  avg # of iterations =  3.9

     negative rho (up, down):  7.075E-03 0.000E+00

     total cpu time spent up to now is     2892.3 secs

     End of self-consistent calculation

          k = 0.0000 0.0000 0.0000 ( 54435 PWs)   bands (ev):

   -89.0893 -89.0778 -89.0778 -89.0778 -89.0778 -89.0778 -89.0778 -89.0662
   -89.0662 -89.0662 -89.0662 -89.0662 -89.0662 -89.0662 -89.0662 -89.0662
   -49.6165 -49.5429 -49.5429 -49.5429 -49.5429 -49.5429 -49.5429 -49.5074
   -49.5074 -49.5074 -49.4685 -49.4685 -49.4661 -49.4661 -49.4661 -49.4661
   -49.4661 -49.4661 -49.4574 -49.4574 -49.4574 -49.4574 -49.4574 -49.4574
   -49.4478 -49.4478 -49.4478 -49.4478 -49.4478 -49.4478 -49.4367 -49.4367
   -49.4367 -49.4367 -49.4367 -49.4367 -49.4072 -49.4072 -49.4072 -49.4059
   -49.4059 -49.4059 -49.4059 -49.4059 -49.4059 -49.4049 -49.4049 -49.4049
   -43.4496 -43.4268 -43.4268 -43.4268 -43.4268 -43.4267 -43.4267 -43.4042
   -19.7143 -19.7143 -19.7143 -19.7143 -19.7143 -19.7143 -19.6908 -19.6908
   -19.6908 -19.6345 -19.6345 -19.6345 -19.6345 -19.6345 -19.6345 -19.5756
   -19.5756 -19.5756 -19.5526 -19.5526 -19.5526 -19.5526 -19.5526 -19.5526
     6.4749   9.2232   9.2232   9.2232   9.2232   9.2232   9.2232  10.1411
    10.6814  10.6814  10.6814  10.8689  10.8689  10.8689  10.8689  10.8689
    10.8689  11.2942  11.2942  11.2942  11.4127  11.4127  11.4127  11.4127
    11.4127  11.4127  11.5052  11.5052  11.5052  11.5053  11.5053  11.5053
    11.5665  11.5665  11.6122  11.6122  11.6122  11.6122  11.6122  11.6122
    11.9247  11.9247  11.9247  11.9247  11.9247  11.9247  12.0940  12.0940
    12.0940  12.0940  12.0940  12.0940  12.2164  12.2164  12.2164  12.2164
    12.2164  12.2164  12.3218  12.3218  12.3218  12.3218  12.3218  12.3218
    12.9874  12.9874  13.0065  13.0065  13.0065  13.0945  13.0945  13.1070
    13.1070  13.1070  13.1499  13.1499  13.1499  13.1499  13.1499  13.1499
    13.1661  13.1661  13.1661  13.1661  13.1661  13.1661  13.3961  13.3961
    13.3961  13.6894  13.6894  13.6894  13.6894  13.6894  13.6894  14.0499
    14.0499  14.0499  14.5206  14.5206  14.5206  14.5207  14.5207  14.5207
    14.5835  14.5835  14.5835  14.9927  15.0989  15.0989  15.0989  15.0989
    15.0989  15.0989  15.2132  15.2132  15.2132  15.2132  15.2132  15.2132
    15.8087  15.8087  15.8087  15.8087  15.8087  15.8087  15.8962  15.8962
    15.8962  15.8962  15.8962  15.8962  15.9752  15.9752

          k = 0.0000 0.0000 0.1429 ( 54459 PWs)   bands (ev):

   -89.0890 -89.0803 -89.0778 -89.0778 -89.0778 -89.0778 -89.0752 -89.0665
   -89.0662 -89.0662 -89.0662 -89.0662 -89.0662 -89.0662 -89.0662 -89.0662
   -49.6145 -49.5572 -49.5426 -49.5426 -49.5426 -49.5426 -49.5307 -49.5078
   -49.5062 -49.5062 -49.4713 -49.4713 -49.4691 -49.4691 -49.4691 -49.4691
   -49.4684 -49.4677 -49.4620 -49.4563 -49.4563 -49.4563 -49.4563 -49.4507
   -49.4471 -49.4471 -49.4471 -49.4471 -49.4438 -49.4426 -49.4426 -49.4347
   -49.4347 -49.4347 -49.4347 -49.4297 -49.4090 -49.4081 -49.4081 -49.4070
   -49.4070 -49.4070 -49.4070 -49.4059 -49.4059 -49.4057 -49.4053 -49.4053
   -43.4490 -43.4318 -43.4268 -43.4268 -43.4268 -43.4267 -43.4218 -43.4048
   -19.7144 -19.7144 -19.7144 -19.7144 -19.7132 -19.7132 -19.6922 -19.6922
   -19.6894 -19.6469 -19.6344 -19.6344 -19.6343 -19.6343 -19.6219 -19.5772
   -19.5743 -19.5743 -19.5536 -19.5536 -19.5526 -19.5526 -19.5526 -19.5526
     6.5427   8.6313   9.2548   9.2548   9.2548   9.2548   9.7338  10.1621
    10.6579  10.7023  10.7023  10.7768  10.7878  10.7878  10.7878  10.7878
    10.9227  11.2706  11.3096  11.3096  11.3517  11.3517  11.3793  11.4096
    11.4096  11.4096  11.4096  11.5222  11.5222  11.5222  11.5222  11.5710
    11.5710  11.5710  11.5710  11.5728  11.5815  11.6106  11.7143  11.7143
    11.8877  11.9220  11.9220  11.9220  11.9220  11.9903  12.0443  12.1024
    12.1024  12.1024  12.1024  12.1344  12.1344  12.1944  12.2434  12.2434
    12.2434  12.2434  12.3777  12.3777  12.3777  12.3777  12.4705  12.4705
    12.8178  12.8507  12.9606  12.9606  12.9967  13.0575  13.0575  13.0750
    13.0750  13.0750  13.0751  13.0917  13.1115  13.1706  13.1706  13.1834
    13.2251  13.2251  13.2251  13.2252  13.2419  13.2437  13.3953  13.4186
    13.4186  13.6018  13.7150  13.7150  13.7150  13.7150  13.7536  14.0568
    14.1016  14.1016  14.2625  14.4915  14.4915  14.5097  14.5097  14.5097
    14.5097  14.5774  14.5774  14.8704  14.9949  14.9949  14.9949  14.9949
    15.1485  15.1485  15.2553  15.2770  15.2770  15.2770  15.2770  15.3104
    15.7517  15.7936  15.7936  15.7936  15.7936  15.8863  15.8863  15.8863
    15.8863  15.9545  15.9657  15.9685  16.0220  16.0220

          k = 0.0000 0.0000 0.2857 ( 54423 PWs)   bands (ev):

   -89.0882 -89.0828 -89.0778 -89.0778 -89.0778 -89.0778 -89.0728 -89.0674
   -89.0662 -89.0662 -89.0662 -89.0662 -89.0662 -89.0662 -89.0662 -89.0662
   -49.6085 -49.5723 -49.5419 -49.5419 -49.5419 -49.5419 -49.5215 -49.5090
   -49.5026 -49.5026 -49.4804 -49.4804 -49.4739 -49.4739 -49.4739 -49.4739
   -49.4682 -49.4654 -49.4649 -49.4554 -49.4554 -49.4554 -49.4554 -49.4505
   -49.4462 -49.4462 -49.4462 -49.4462 -49.4418 -49.4335 -49.4335 -49.4291
   -49.4291 -49.4291 -49.4291 -49.4229 -49.4142 -49.4113 -49.4113 -49.4103
   -49.4103 -49.4103 -49.4103 -49.4081 -49.4059 -49.4059 -49.4057 -49.4057
   -43.4473 -43.4366 -43.4268 -43.4268 -43.4268 -43.4267 -43.4170 -43.4065
   -19.7146 -19.7146 -19.7146 -19.7146 -19.7103 -19.7103 -19.6958 -19.6958
   -19.6851 -19.6586 -19.6341 -19.6341 -19.6341 -19.6341 -19.6098 -19.5818
   -19.5707 -19.5707 -19.5564 -19.5564 -19.5526 -19.5526 -19.5526 -19.5526
     6.7435   8.0419   9.3359   9.3359   9.3359   9.3359  10.0895  10.2245
    10.5859  10.6088  10.6088  10.6088  10.6088  10.6225  10.7642  10.7642
    11.0055  11.1645  11.1645  11.2170  11.3568  11.3568  11.3972  11.3972
    11.3972  11.3972  11.4794  11.4794  11.4794  11.4794  11.4877  11.5832
    11.5832  11.5832  11.5832  11.5879  11.6252  11.6764  11.6764  11.8846
    11.8878  11.9071  11.9071  11.9071  11.9071  11.9292  12.1300  12.1300
    12.1300  12.1301  12.2196  12.2196  12.2852  12.2852  12.2852  12.2852
    12.2873  12.2962  12.5011  12.5011  12.5011  12.5011  12.6358  12.6482
    12.6482  12.6833  12.7405  12.8187  12.8187  12.9668  12.9668  12.9668
    12.9668  12.9831  12.9831  13.0821  13.0845  13.2314  13.2314  13.3032
    13.3032  13.3032  13.3032  13.3231  13.3326  13.3836  13.3979  13.4299
    13.4299  13.5159  13.7627  13.7627  13.7627  13.7627  13.7743  13.8152
    14.0976  14.2175  14.2175  14.4261  14.4261  14.4850  14.4850  14.4850
    14.4850  14.5847  14.5847  14.6337  14.8093  14.8093  14.8093  14.8093
    15.0071  15.0071  15.3924  15.3924  15.3924  15.3924  15.4994  15.5891
    15.7658  15.7658  15.7658  15.7658  15.7706  15.8512  15.8512  15.8512
    15.8512  15.8934  15.9427  16.1541  16.3299  16.3299

          k = 0.0000 0.0000 0.4286 ( 54407 PWs)   bands (ev):

   -89.0868 -89.0850 -89.0778 -89.0778 -89.0778 -89.0778 -89.0706 -89.0687
   -89.0662 -89.0662 -89.0662 -89.0662 -89.0662 -89.0662 -89.0662 -89.0662
   -49.5990 -49.5866 -49.5413 -49.5413 -49.5413 -49.5413 -49.5152 -49.5113
   -49.4969 -49.4969 -49.4893 -49.4893 -49.4769 -49.4769 -49.4769 -49.4769
   -49.4676 -49.4666 -49.4616 -49.4566 -49.4551 -49.4551 -49.4551 -49.4551
   -49.4458 -49.4458 -49.4458 -49.4458 -49.4318 -49.4246 -49.4246 -49.4222
   -49.4222 -49.4222 -49.4222 -49.4221 -49.4170 -49.4170 -49.4169 -49.4155
   -49.4155 -49.4155 -49.4155 -49.4119 -49.4058 -49.4058 -49.4058 -49.4058
   -43.4445 -43.4409 -43.4268 -43.4268 -43.4268 -43.4267 -43.4127 -43.4092
   -19.7148 -19.7148 -19.7148 -19.7148 -19.7060 -19.7060 -19.7008 -19.7008
   -19.6783 -19.6693 -19.6339 -19.6339 -19.6339 -19.6339 -19.5987 -19.5892
   -19.5658 -19.5658 -19.5607 -19.5607 -19.5526 -19.5526 -19.5526 -19.5526
     7.0704   7.5102   9.4157   9.4157   9.4157   9.4157  10.3117  10.3261
    10.4592  10.4592  10.4592  10.4592  10.4624  10.4687  10.8644  10.8644
    10.9994  10.9994  11.0914  11.1579  11.3765  11.3765  11.3765  11.3765
    11.4377  11.4377  11.4485  11.4485  11.4485  11.4486  11.5508  11.5508
    11.5805  11.5996  11.6113  11.6113  11.6113  11.6113  11.6943  11.7832
    11.8890  11.8890  11.8890  11.8890  12.1072  12.1553  12.1553  12.1553
    12.1553  12.1738  12.3178  12.3178  12.3178  12.3178  12.4071  12.4115
    12.4195  12.4195  12.4257  12.5347  12.6102  12.6102  12.6102  12.6102
    12.6289  12.6289  12.6672  12.7897  12.7897  12.8643  12.8643  12.8643
    12.8643  12.8973  12.8973  13.0730  13.0764  13.1102  13.3180  13.3180
    13.3719  13.3719  13.3719  13.3719  13.3944  13.3944  13.4102  13.4131
    13.4409  13.4509  13.6763  13.7427  13.7921  13.7921  13.7921  13.7921
    14.2134  14.3082  14.3082  14.3625  14.3625  14.4048  14.4620  14.4620
    14.4620  14.4620  14.6724  14.6724  14.6742  14.6742  14.6742  14.6742
    14.8360  14.8360  15.4987  15.4987  15.4987  15.4987  15.6620  15.7495
    15.7495  15.7495  15.7495  15.7947  15.7984  15.7984  15.7984  15.7984
    15.8283  15.8871  15.8930  16.1244  16.7487  16.7487

          k = 0.0000 0.1429 0.1429 ( 54397 PWs)   bands (ev):

   -89.0887 -89.0803 -89.0803 -89.0783 -89.0772 -89.0753 -89.0753 -89.0668
   -89.0662 -89.0662 -89.0662 -89.0662 -89.0662 -89.0662 -89.0662 -89.0662
   -49.6125 -49.5568 -49.5568 -49.5464 -49.5383 -49.5303 -49.5303 -49.5072
   -49.5060 -49.5051 -49.4740 -49.4740 -49.4722 -49.4722 -49.4721 -49.4699
   -49.4680 -49.4672 -49.4610 -49.4595 -49.4595 -49.4539 -49.4539 -49.4508
   -49.4498 -49.4434 -49.4434 -49.4425 -49.4414 -49.4414 -49.4406 -49.4406
   -49.4335 -49.4332 -49.4274 -49.4274 -49.4122 -49.4103 -49.4086 -49.4078
   -49.4070 -49.4070 -49.4070 -49.4070 -49.4066 -49.4060 -49.4059 -49.4052
   -43.4484 -43.4316 -43.4316 -43.4279 -43.4257 -43.4219 -43.4219 -43.4053
   -19.7156 -19.7136 -19.7136 -19.7131 -19.7131 -19.7130 -19.6935 -19.6919
   -19.6895 -19.6470 -19.6470 -19.6393 -19.6292 -19.6216 -19.6216 -19.5772
   -19.5745 -19.5730 -19.5538 -19.5538 -19.5537 -19.5533 -19.5533 -19.5517
     6.6099   8.6760   8.6760   9.2282   9.3339   9.7502   9.7502  10.1799
    10.5930  10.6695  10.6881  10.6953  10.6953  10.7224  10.8400  10.8631
    10.8631  11.2334  11.3226  11.3226  11.3246  11.3290  11.3290  11.3375
    11.3702  11.4368  11.4368  11.4502  11.4594  11.5475  11.5477  11.5805
    11.5805  11.5837  11.5921  11.6030  11.6622  11.6622  11.7322  11.7322
    11.8882  11.8882  11.9098  11.9457  12.0034  12.0034  12.0250  12.0250
    12.0338  12.1319  12.1481  12.1481  12.1835  12.1835  12.2042  12.2042
    12.2744  12.2994  12.4060  12.4360  12.4743  12.4743  12.5477  12.5477
    12.7418  12.7854  12.8886  12.8948  12.8957  13.0301  13.0594  13.0641
    13.0674  13.0707  13.0707  13.1084  13.1084  13.1100  13.1790  13.1900
    13.1900  13.1952  13.2952  13.3036  13.3042  13.3042  13.3739  13.4291
    13.5019  13.6326  13.6326  13.7056  13.7750  13.7773  13.7773  14.0551
    14.0828  14.1411  14.1465  14.4408  14.4755  14.4755  14.4862  14.4862
    14.5479  14.5501  14.5649  14.8416  14.8416  14.9728  15.0080  15.0140
    15.0371  15.0371  15.1372  15.1372  15.3780  15.3780  15.4270  15.5502
    15.7181  15.7558  15.7558  15.8087  15.8429  15.8966  15.8966  15.9325
    15.9407  15.9592  15.9885  15.9885  16.0645  16.0645

          k = 0.0000 0.1429 0.2857 ( 54409 PWs)   bands (ev):

   -89.0879 -89.0826 -89.0801 -89.0789 -89.0767 -89.0755 -89.0729 -89.0676
   -89.0662 -89.0662 -89.0662 -89.0662 -89.0662 -89.0662 -89.0662 -89.0662
   -49.6068 -49.5716 -49.5557 -49.5495 -49.5339 -49.5295 -49.5209 -49.5081
   -49.5027 -49.5017 -49.4814 -49.4808 -49.4777 -49.4759 -49.4747 -49.4743
   -49.4676 -49.4649 -49.4634 -49.4618 -49.4580 -49.4566 -49.4528 -49.4493
   -49.4463 -49.4456 -49.4432 -49.4398 -49.4392 -49.4367 -49.4335 -49.4318
   -49.4288 -49.4287 -49.4217 -49.4205 -49.4185 -49.4156 -49.4115 -49.4106
   -49.4104 -49.4103 -49.4075 -49.4070 -49.4070 -49.4070 -49.4067 -49.4061
   -43.4467 -43.4363 -43.4313 -43.4289 -43.4246 -43.4223 -43.4173 -43.4070
   -19.7164 -19.7146 -19.7126 -19.7121 -19.7110 -19.7099 -19.6971 -19.6951
   -19.6857 -19.6590 -19.6471 -19.6433 -19.6249 -19.6210 -19.6093 -19.5813
   -19.5714 -19.5695 -19.5569 -19.5559 -19.5547 -19.5544 -19.5527 -19.5512
     6.8095   8.0955   8.8018   9.2151   9.4692   9.7792  10.0968  10.2328
    10.3653  10.5109  10.5667  10.6027  10.7272  10.7441  10.7697  10.7817
    10.9562  11.1451  11.1631  11.1696  11.2663  11.3147  11.3195  11.3415
    11.3703  11.3926  11.4872  11.5083  11.5121  11.5559  11.5692  11.5788
    11.6012  11.6154  11.6161  11.6346  11.6447  11.6770  11.7118  11.8622
    11.8696  11.8972  11.9017  11.9717  11.9766  11.9769  12.0164  12.0508
    12.0842  12.1419  12.1719  12.2093  12.2359  12.3081  12.3203  12.3205
    12.3248  12.3578  12.4808  12.5038  12.5673  12.5692  12.6527  12.6644
    12.6720  12.6731  12.7139  12.7428  12.7755  12.9555  12.9622  12.9787
    13.0013  13.0060  13.0176  13.0717  13.0977  13.1334  13.1824  13.2179
    13.2428  13.2527  13.3715  13.3904  13.4062  13.4104  13.4131  13.4303
    13.5512  13.6076  13.6873  13.7171  13.7707  13.8010  13.8305  13.8617
    14.0944  14.2350  14.2477  14.3949  14.4104  14.4199  14.4414  14.4704
    14.5047  14.5325  14.5558  14.6538  14.7102  14.8133  14.8563  14.8585
    14.9371  14.9532  15.1119  15.2234  15.4334  15.5181  15.6542  15.6958
    15.7291  15.7801  15.7834  15.7871  15.7936  15.8628  15.8840  15.9294
    15.9402  15.9428  16.0847  16.1118  16.2720  16.3467

          k = 0.0000 0.1429 0.4286 ( 54427 PWs)   bands (ev):

   -89.0866 -89.0848 -89.0798 -89.0794 -89.0762 -89.0758 -89.0708 -89.0690
   -89.0662 -89.0662 -89.0662 -89.0662 -89.0662 -89.0662 -89.0662 -89.0662
   -49.5976 -49.5856 -49.5540 -49.5519 -49.5306 -49.5292 -49.5145 -49.5105
   -49.4970 -49.4963 -49.4895 -49.4893 -49.4795 -49.4788 -49.4774 -49.4773
   -49.4669 -49.4656 -49.4613 -49.4609 -49.4602 -49.4556 -49.4550 -49.4540
   -49.4439 -49.4433 -49.4390 -49.4388 -49.4368 -49.4298 -49.4271 -49.4246
   -49.4233 -49.4227 -49.4220 -49.4217 -49.4171 -49.4160 -49.4160 -49.4156
   -49.4149 -49.4145 -49.4103 -49.4099 -49.4070 -49.4069 -49.4069 -49.4068
   -43.4441 -43.4405 -43.4307 -43.4299 -43.4236 -43.4229 -43.4131 -43.4096
   -19.7164 -19.7157 -19.7121 -19.7118 -19.7069 -19.7053 -19.7019 -19.7001
   -19.6789 -19.6698 -19.6469 -19.6458 -19.6220 -19.6209 -19.5981 -19.5886
   -19.5665 -19.5648 -19.5613 -19.5600 -19.5552 -19.5550 -19.5519 -19.5513
     7.1339   7.5698   8.9786   9.1404   9.6328   9.7557  10.2569  10.3187
    10.3200  10.3299  10.4333  10.4820  10.6309  10.6644  10.8450  10.8778
    10.9804  11.0070  11.0415  11.1067  11.2237  11.2382  11.3193  11.3262
    11.4462  11.4744  11.4908  11.5114  11.5451  11.5550  11.5713  11.5806
    11.5959  11.6105  11.6140  11.6465  11.6579  11.6622  11.7056  11.7998
    11.8160  11.8207  11.9808  11.9836  12.0356  12.0517  12.1103  12.1628
    12.1694  12.1795  12.2836  12.2903  12.3258  12.3763  12.3802  12.3809
    12.4102  12.4366  12.4389  12.4990  12.5140  12.5646  12.5740  12.6079
    12.6108  12.7059  12.7600  12.8027  12.8357  12.8618  12.8845  12.8887
    12.8890  12.9106  12.9236  12.9431  13.0733  13.0821  13.2868  13.2916
    13.3002  13.3084  13.3654  13.3926  13.4330  13.4507  13.4756  13.4845
    13.5246  13.6216  13.6991  13.7187  13.7235  13.7746  13.8889  13.9116
    14.2126  14.3186  14.3377  14.3395  14.3550  14.3877  14.4166  14.4277
    14.4343  14.4659  14.5961  14.6247  14.6287  14.6965  14.7164  14.7310
    14.7592  14.7814  15.2627  15.3883  15.3900  15.5579  15.6496  15.6643
    15.7020  15.7897  15.8377  15.8418  15.8671  15.8939  15.9001  15.9145
    15.9473  16.0188  16.0473  16.2191  16.6380  16.6502

          k = 0.0000 0.2857 0.2857 ( 54415 PWs)   bands (ev):

   -89.0871 -89.0823 -89.0823 -89.0799 -89.0756 -89.0733 -89.0733 -89.0684
   -89.0662 -89.0662 -89.0662 -89.0662 -89.0662 -89.0662 -89.0662 -89.0662
   -49.6016 -49.5696 -49.5696 -49.5561 -49.5264 -49.5196 -49.5196 -49.5068
   -49.5018 -49.4989 -49.4830 -49.4830 -49.4818 -49.4818 -49.4790 -49.4780
   -49.4664 -49.4639 -49.4626 -49.4609 -49.4609 -49.4558 -49.4534 -49.4534
   -49.4451 -49.4451 -49.4389 -49.4337 -49.4335 -49.4335 -49.4308 -49.4308
   -49.4269 -49.4267 -49.4264 -49.4223 -49.4153 -49.4153 -49.4127 -49.4107
   -49.4104 -49.4104 -49.4102 -49.4102 -49.4101 -49.4091 -49.4059 -49.4056
   -43.4452 -43.4356 -43.4356 -43.4310 -43.4225 -43.4180 -43.4180 -43.4085
   -19.7171 -19.7128 -19.7128 -19.7097 -19.7089 -19.7089 -19.7004 -19.6950
   -19.6851 -19.6595 -19.6595 -19.6511 -19.6169 -19.6085 -19.6085 -19.5822
   -19.5713 -19.5664 -19.5579 -19.5579 -19.5570 -19.5546 -19.5546 -19.5509
     7.0047   8.2514   8.2514   9.0401   9.6432  10.0960  10.0960  10.1835
    10.2575  10.4274  10.4274  10.6130  10.7180  10.8120  10.8338  10.8463
    10.8463  11.0843  11.0939  11.0939  11.1711  11.1711  11.1797  11.2816
    11.4098  11.4649  11.5488  11.5488  11.5952  11.5989  11.6089  11.6189
    11.6189  11.6332  11.6667  11.6736  11.6946  11.6946  11.8358  11.8835
    11.8835  11.8869  11.8869  11.9279  11.9451  11.9451  12.0147  12.0147
    12.0634  12.0863  12.2355  12.2355  12.2980  12.2980  12.3589  12.3589
    12.3948  12.3962  12.4097  12.5321  12.5627  12.5868  12.6547  12.6653
    12.6653  12.6733  12.6951  12.8060  12.8060  12.8418  12.9143  12.9408
    13.0153  13.0153  13.0254  13.0298  13.0952  13.0952  13.1101  13.2339
    13.2339  13.2593  13.3839  13.3874  13.4407  13.5332  13.5332  13.5375
    13.5612  13.6098  13.6098  13.6932  13.8852  13.8852  13.8933  13.9926
    14.1086  14.2990  14.3269  14.3304  14.3788  14.3788  14.4060  14.4060
    14.4193  14.4661  14.4965  14.6042  14.6042  14.7972  14.7972  14.8149
    14.8302  14.9816  14.9816  15.0531  15.4983  15.4983  15.5059  15.6068
    15.8340  15.8379  15.8379  15.9420  15.9434  15.9491  15.9491  15.9821
    16.0160  16.1649  16.1649  16.1786  16.4277  16.4277

          k = 0.0000 0.2857 0.4286 ( 54390 PWs)   bands (ev):

   -89.0859 -89.0842 -89.0817 -89.0809 -89.0747 -89.0739 -89.0713 -89.0696
   -89.0662 -89.0662 -89.0662 -89.0662 -89.0662 -89.0662 -89.0662 -89.0662
   -49.5933 -49.5824 -49.5662 -49.5617 -49.5210 -49.5189 -49.5127 -49.5084
   -49.4971 -49.4944 -49.4900 -49.4889 -49.4833 -49.4827 -49.4818 -49.4817
   -49.4654 -49.4637 -49.4626 -49.4592 -49.4591 -49.4582 -49.4577 -49.4522
   -49.4452 -49.4386 -49.4357 -49.4356 -49.4335 -49.4313 -49.4307 -49.4298
   -49.4248 -49.4227 -49.4217 -49.4216 -49.4174 -49.4158 -49.4156 -49.4154
   -49.4109 -49.4104 -49.4103 -49.4102 -49.4101 -49.4095 -49.4070 -49.4068
   -43.4427 -43.4395 -43.4344 -43.4328 -43.4207 -43.4191 -43.4141 -43.4109
   -19.7165 -19.7148 -19.7093 -19.7081 -19.7080 -19.7049 -19.7040 -19.6988
   -19.6795 -19.6705 -19.6591 -19.6565 -19.6113 -19.6087 -19.5973 -19.5880
   -19.5676 -19.5626 -19.5622 -19.5587 -19.5585 -19.5580 -19.5529 -19.5515
     7.3214   7.7450   8.4920   8.7783   9.8456  10.0204  10.1626  10.2689
    10.2987  10.3233  10.3558  10.5006  10.7713  10.7860  10.7965  10.9146
    10.9190  10.9542  11.0085  11.0338  11.0591  11.0811  11.1956  11.2330
    11.4709  11.5416  11.5569  11.5628  11.5805  11.6389  11.6418  11.6551
    11.6584  11.6682  11.6907  11.6991  11.7343  11.7419  11.7836  11.7851
    11.8254  11.8486  11.9233  11.9415  11.9689  11.9902  12.0422  12.1085
    12.1407  12.1822  12.2139  12.2507  12.2833  12.3077  12.3282  12.3872
    12.4105  12.4167  12.4359  12.4426  12.4526  12.5404  12.5566  12.6730
    12.6759  12.6815  12.8319  12.8443  12.8668  12.8780  12.8939  12.9103
    12.9293  12.9628  12.9749  12.9835  13.0480  13.0775  13.2330  13.2766
    13.2795  13.2919  13.3374  13.3815  13.4461  13.5172  13.5293  13.5707
    13.6333  13.6443  13.6453  13.6679  13.9273  13.9542  14.0181  14.0704
    14.2192  14.3139  14.3249  14.3466  14.3546  14.3551  14.3573  14.3609
    14.4224  14.4848  14.5015  14.5272  14.5780  14.6650  14.6981  14.6994
    14.7143  14.7147  15.1460  15.2200  15.3304  15.3888  15.6203  15.6250
    15.7417  15.7595  15.8949  15.9151  15.9310  15.9687  16.0122  16.0774
    16.2290  16.2894  16.4404  16.4636  16.4842  16.5958

          k = 0.0000 0.4286 0.4286 ( 54408 PWs)   bands (ev):

   -89.0848 -89.0834 -89.0834 -89.0823 -89.0733 -89.0721 -89.0721 -89.0707
   -89.0662 -89.0662 -89.0662 -89.0662 -89.0662 -89.0662 -89.0662 -89.0662
   -49.5864 -49.5773 -49.5773 -49.5703 -49.5140 -49.5115 -49.5115 -49.5079
   -49.4953 -49.4914 -49.4898 -49.4898 -49.4875 -49.4875 -49.4870 -49.4850
   -49.4639 -49.4620 -49.4620 -49.4603 -49.4594 -49.4533 -49.4532 -49.4531
   -49.4461 -49.4461 -49.4449 -49.4386 -49.4281 -49.4254 -49.4254 -49.4249
   -49.4229 -49.4229 -49.4201 -49.4200 -49.4194 -49.4170 -49.4153 -49.4153
   -49.4152 -49.4152 -49.4143 -49.4139 -49.4069 -49.4069 -49.4058 -49.4058
   -43.4406 -43.4378 -43.4378 -43.4355 -43.4180 -43.4158 -43.4158 -43.4130
   -19.7149 -19.7123 -19.7123 -19.7087 -19.7049 -19.7034 -19.7033 -19.6996
   -19.6768 -19.6695 -19.6695 -19.6648 -19.6029 -19.5982 -19.5982 -19.5909
   -19.5667 -19.5631 -19.5631 -19.5616 -19.5587 -19.5554 -19.5554 -19.5530
     7.6239   8.0240   8.0240   8.3831  10.0657  10.1784  10.2490  10.2490
    10.2578  10.2578  10.2739  10.4324  10.7969  10.8390  10.8495  10.8495
    10.9160  10.9160  10.9300  10.9496  10.9884  11.0829  11.0829  11.1509
    11.5089  11.5531  11.5531  11.5778  11.6604  11.7072  11.7072  11.7094
    11.7288  11.7613  11.7613  11.7667  11.7839  11.7965  11.8243  11.8243
    11.8475  11.8674  11.8674  11.8830  11.9075  12.0044  12.0044  12.0278
    12.0309  12.0309  12.1865  12.2341  12.2620  12.2620  12.2811  12.2935
    12.3182  12.3859  12.3859  12.5021  12.5178  12.5313  12.5313  12.5846
    12.8083  12.8512  12.8512  12.8920  12.9223  12.9234  12.9234  12.9625
    12.9670  12.9670  12.9686  13.0038  13.0123  13.1398  13.1398  13.2884
    13.3059  13.3059  13.3120  13.3362  13.4737  13.5568  13.5568  13.5742
    13.6036  13.6250  13.6250  13.6434  14.1246  14.1246  14.1351  14.1708
    14.2488  14.2805  14.2981  14.2981  14.3267  14.3416  14.3416  14.3915
    14.4388  14.4786  14.5101  14.5101  14.5881  14.5881  14.6093  14.6270
    14.6299  14.8653  14.8653  15.0785  15.3493  15.5059  15.5059  15.6405
    15.7270  15.9568  15.9568  15.9592  15.9642  15.9642  15.9879  16.1431
    16.2845  16.2900  16.2900  16.5323  16.6935  16.8306

          k = 0.1429 0.1429 0.1429 ( 54426 PWs)   bands (ev):

   -89.0885 -89.0803 -89.0803 -89.0803 -89.0753 -89.0753 -89.0753 -89.0671
   -89.0662 -89.0662 -89.0662 -89.0662 -89.0662 -89.0662 -89.0662 -89.0662
   -49.6107 -49.5570 -49.5570 -49.5570 -49.5294 -49.5294 -49.5294 -49.5065
   -49.5049 -49.5049 -49.4751 -49.4751 -49.4751 -49.4742 -49.4742 -49.4742
   -49.4671 -49.4671 -49.4589 -49.4589 -49.4589 -49.4537 -49.4536 -49.4536
   -49.4464 -49.4464 -49.4464 -49.4407 -49.4407 -49.4407 -49.4360 -49.4360
   -49.4360 -49.4260 -49.4260 -49.4260 -49.4142 -49.4103 -49.4103 -49.4103
   -49.4099 -49.4099 -49.4062 -49.4062 -49.4059 -49.4059 -49.4059 -49.4049
   -43.4479 -43.4316 -43.4316 -43.4316 -43.4219 -43.4219 -43.4219 -43.4059
   -19.7146 -19.7146 -19.7146 -19.7121 -19.7121 -19.7121 -19.6931 -19.6931
   -19.6899 -19.6480 -19.6480 -19.6480 -19.6204 -19.6204 -19.6204 -19.5770
   -19.5733 -19.5733 -19.5547 -19.5547 -19.5547 -19.5527 -19.5527 -19.5527
     6.6768   8.7164   8.7164   8.7164   9.7538   9.7538   9.7539  10.1929
    10.5880  10.5880  10.5880  10.6832  10.7074  10.7074  10.8433  10.8433
    10.8433  11.1966  11.3090  11.3090  11.3090  11.3146  11.3146  11.3146
    11.3517  11.3517  11.4548  11.4548  11.4548  11.5752  11.5752  11.5752
    11.5988  11.5988  11.6460  11.6460  11.6460  11.7413  11.7413  11.7413
    11.8968  11.8968  11.8968  11.9993  11.9993  11.9993  12.0107  12.0107
    12.0107  12.1427  12.1427  12.1427  12.1941  12.1941  12.1941  12.2375
    12.2375  12.2375  12.5487  12.5487  12.5487  12.5620  12.5620  12.5620
    12.7208  12.7208  12.7630  12.8340  12.8340  13.0415  13.0415  13.0415
    13.0799  13.0799  13.0945  13.0945  13.0945  13.1010  13.1801  13.1801
    13.1801  13.2666  13.2666  13.2845  13.3472  13.3472  13.3472  13.5385
    13.5385  13.6558  13.6558  13.6558  13.8093  13.8093  13.8093  13.9646
    14.0499  14.1698  14.1698  14.4116  14.4116  14.4116  14.5233  14.5233
    14.5233  14.5511  14.5511  14.8408  14.8408  14.8408  14.9527  14.9527
    14.9527  15.0633  15.0633  15.0633  15.5209  15.5209  15.5209  15.5484
    15.7450  15.7450  15.7450  15.7932  15.7932  15.7932  15.9409  15.9409
    16.0420  16.0420  16.0420  16.0777  16.0777  16.0777

          k = 0.1429 0.1429 0.2857 ( 54396 PWs)   bands (ev):

   -89.0876 -89.0826 -89.0803 -89.0803 -89.0753 -89.0753 -89.0730 -89.0679
   -89.0662 -89.0662 -89.0662 -89.0662 -89.0662 -89.0662 -89.0662 -89.0662
   -49.6051 -49.5712 -49.5574 -49.5574 -49.5272 -49.5271 -49.5201 -49.5071
   -49.5019 -49.5018 -49.4822 -49.4815 -49.4783 -49.4783 -49.4768 -49.4768
   -49.4667 -49.4645 -49.4617 -49.4607 -49.4607 -49.4517 -49.4517 -49.4486
   -49.4483 -49.4480 -49.4480 -49.4377 -49.4366 -49.4366 -49.4330 -49.4330
   -49.4269 -49.4214 -49.4214 -49.4206 -49.4193 -49.4156 -49.4156 -49.4146
   -49.4105 -49.4103 -49.4076 -49.4070 -49.4070 -49.4068 -49.4058 -49.4054
   -43.4462 -43.4361 -43.4316 -43.4316 -43.4219 -43.4219 -43.4174 -43.4075
   -19.7154 -19.7154 -19.7115 -19.7111 -19.7111 -19.7095 -19.6964 -19.6961
   -19.6866 -19.6598 -19.6502 -19.6502 -19.6179 -19.6179 -19.6084 -19.5806
   -19.5705 -19.5701 -19.5573 -19.5557 -19.5557 -19.5557 -19.5522 -19.5522
     6.8749   8.1474   8.8239   8.8239   9.7346   9.7346  10.0721  10.2301
    10.4174  10.4174  10.5300  10.6236  10.7600  10.7645  10.7677  10.7677
    10.9070  11.1274  11.1356  11.1576  11.2291  11.2291  11.3111  11.3111
    11.3949  11.4113  11.4793  11.4793  11.5255  11.5927  11.5927  11.6151
    11.6394  11.6394  11.6436  11.6480  11.6698  11.7271  11.7271  11.8842
    11.8842  11.8907  11.9448  11.9700  11.9700  11.9823  12.0188  12.0188
    12.0670  12.1231  12.1784  12.1784  12.2009  12.2009  12.3034  12.3305
    12.3417  12.3417  12.5540  12.5714  12.5714  12.5800  12.6233  12.6815
    12.6905  12.6905  12.7182  12.7201  12.7218  12.9790  12.9790  13.0055
    13.0055  13.0328  13.0429  13.0629  13.0836  13.1012  13.1867  13.1991
    13.2293  13.2293  13.2673  13.3546  13.4335  13.4335  13.4518  13.5881
    13.6293  13.6607  13.6949  13.6949  13.7671  13.8336  13.8845  13.8845
    14.0867  14.2156  14.2657  14.3438  14.3649  14.3649  14.4660  14.4763
    14.4763  14.5017  14.5810  14.6657  14.7381  14.7381  14.8106  14.8738
    14.8738  14.9806  15.0561  15.0561  15.5746  15.6357  15.6357  15.6693
    15.6693  15.7667  15.7667  15.7811  15.8058  15.8870  15.9334  15.9643
    16.0246  16.0246  16.1290  16.1290  16.3360  16.3906

          k = 0.1429 0.1429 0.4286 ( 54446 PWs)   bands (ev):

   -89.0863 -89.0846 -89.0803 -89.0803 -89.0753 -89.0753 -89.0709 -89.0692
   -89.0662 -89.0662 -89.0662 -89.0662 -89.0662 -89.0662 -89.0662 -89.0662
   -49.5963 -49.5847 -49.5577 -49.5577 -49.5253 -49.5253 -49.5136 -49.5095
   -49.4967 -49.4963 -49.4900 -49.4891 -49.4802 -49.4802 -49.4792 -49.4792
   -49.4660 -49.4645 -49.4622 -49.4622 -49.4603 -49.4548 -49.4506 -49.4506
   -49.4485 -49.4485 -49.4393 -49.4325 -49.4325 -49.4295 -49.4295 -49.4295
   -49.4290 -49.4223 -49.4223 -49.4211 -49.4186 -49.4154 -49.4154 -49.4136
   -49.4124 -49.4103 -49.4103 -49.4103 -49.4100 -49.4092 -49.4058 -49.4057
   -43.4436 -43.4402 -43.4316 -43.4316 -43.4219 -43.4219 -43.4134 -43.4100
   -19.7159 -19.7159 -19.7106 -19.7106 -19.7068 -19.7055 -19.7013 -19.7008
   -19.6797 -19.6706 -19.6517 -19.6517 -19.6161 -19.6161 -19.5973 -19.5877
   -19.5657 -19.5655 -19.5612 -19.5602 -19.5563 -19.5563 -19.5519 -19.5519
     7.1967   7.6285   8.9394   8.9394   9.6629   9.6629  10.2589  10.2807
    10.3487  10.3487  10.4616  10.5155  10.6818  10.6818  10.8572  10.8624
    10.9823  10.9845  11.0059  11.0604  11.1639  11.1639  11.3110  11.3110
    11.4669  11.4819  11.4819  11.4941  11.5608  11.5821  11.6201  11.6283
    11.6283  11.6283  11.6706  11.6706  11.6895  11.6895  11.7172  11.8160
    11.8160  11.8188  12.0024  12.0024  12.0246  12.0246  12.0963  12.1730
    12.1730  12.1736  12.2308  12.2308  12.2528  12.2656  12.3302  12.3906
    12.4224  12.4370  12.4551  12.4551  12.5123  12.5552  12.5821  12.5821
    12.5827  12.7947  12.7947  12.8071  12.8487  12.8515  12.9081  12.9081
    12.9154  12.9154  12.9531  12.9619  13.0766  13.0894  13.2305  13.2666
    13.2816  13.2816  13.3341  13.3836  13.5058  13.5058  13.5524  13.5673
    13.6181  13.6569  13.7247  13.7247  13.7417  13.8142  13.9467  13.9467
    14.2044  14.2739  14.2887  14.3539  14.3539  14.3928  14.3928  14.3991
    14.4239  14.4700  14.4785  14.6336  14.6654  14.6654  14.6732  14.7476
    14.7476  14.8218  15.1626  15.1626  15.5599  15.5599  15.6356  15.6356
    15.6898  15.8009  15.8401  15.8470  15.8470  15.8928  16.0057  16.0057
    16.0806  16.1441  16.1441  16.1805  16.4863  16.7712

          k = 0.1429 0.2857 0.2857 ( 54414 PWs)   bands (ev):

   -89.0869 -89.0823 -89.0823 -89.0807 -89.0748 -89.0733 -89.0733 -89.0686
   -89.0662 -89.0662 -89.0662 -89.0662 -89.0662 -89.0662 -89.0662 -89.0662
   -49.6002 -49.5700 -49.5700 -49.5611 -49.5221 -49.5181 -49.5181 -49.5056
   -49.5012 -49.4991 -49.4839 -49.4839 -49.4825 -49.4825 -49.4808 -49.4801
   -49.4653 -49.4625 -49.4624 -49.4590 -49.4590 -49.4538 -49.4538 -49.4523
   -49.4456 -49.4448 -49.4448 -49.4395 -49.4395 -49.4345 -49.4276 -49.4268
   -49.4244 -49.4244 -49.4222 -49.4198 -49.4170 -49.4157 -49.4157 -49.4149
   -49.4149 -49.4143 -49.4078 -49.4070 -49.4070 -49.4070 -49.4058 -49.4053
   -43.4448 -43.4356 -43.4356 -43.4325 -43.4210 -43.4180 -43.4180 -43.4089
   -19.7159 -19.7126 -19.7126 -19.7090 -19.7084 -19.7084 -19.6994 -19.6958
   -19.6865 -19.6614 -19.6614 -19.6559 -19.6121 -19.6065 -19.6065 -19.5810
   -19.5705 -19.5673 -19.5583 -19.5583 -19.5576 -19.5548 -19.5548 -19.5520
     7.0685   8.2966   8.2966   8.8474   9.6183   9.9604   9.9604  10.2212
    10.3553  10.4803  10.4803  10.6518  10.7321  10.7795  10.8103  10.8103
    10.8161  11.0453  11.0836  11.0836  11.1337  11.1748  11.1748  11.2823
    11.4378  11.4756  11.5089  11.5531  11.5531  11.6335  11.6417  11.6417
    11.6486  11.6750  11.6906  11.6935  11.6935  11.7429  11.8880  11.8885
    11.8885  11.9178  11.9185  11.9185  11.9699  11.9699  12.0046  12.0046
    12.0430  12.1130  12.1533  12.1533  12.2716  12.2716  12.2742  12.3479
    12.3479  12.3522  12.3766  12.4797  12.5058  12.5959  12.6157  12.7088
    12.7373  12.7373  12.7455  12.8085  12.8184  12.8184  12.9624  13.0039
    13.0213  13.0213  13.0493  13.0569  13.1074  13.1292  13.1292  13.2239
    13.2239  13.2382  13.2742  13.3159  13.4984  13.5464  13.5464  13.6644
    13.6644  13.7040  13.7060  13.7089  13.9065  13.9252  13.9252  14.0063
    14.0927  14.2389  14.2672  14.2984  14.2991  14.2991  14.3872  14.4164
    14.4164  14.5165  14.5576  14.6253  14.6253  14.7495  14.7857  14.7857
    14.8682  14.9335  14.9335  14.9700  15.4996  15.6115  15.6115  15.6637
    15.7639  15.7639  15.8243  15.8243  15.8523  15.8882  15.9306  16.0061
    16.0986  16.3270  16.3332  16.3332  16.4478  16.4478

          k = 0.1429 0.2857 0.4286 ( 54403 PWs)   bands (ev):

   -89.0857 -89.0841 -89.0818 -89.0813 -89.0742 -89.0737 -89.0714 -89.0698
   -89.0662 -89.0662 -89.0662 -89.0662 -89.0662 -89.0662 -89.0662 -89.0662
   -49.5924 -49.5821 -49.5679 -49.5649 -49.5178 -49.5165 -49.5113 -49.5072
   -49.4969 -49.4947 -49.4906 -49.4889 -49.4847 -49.4838 -49.4833 -49.4824
   -49.4640 -49.4623 -49.4621 -49.4601 -49.4579 -49.4557 -49.4545 -49.4518
   -49.4462 -49.4423 -49.4414 -49.4374 -49.4367 -49.4310 -49.4302 -49.4291
   -49.4242 -49.4241 -49.4231 -49.4220 -49.4170 -49.4154 -49.4153 -49.4152
   -49.4110 -49.4108 -49.4101 -49.4097 -49.4075 -49.4070 -49.4069 -49.4063
   -43.4424 -43.4393 -43.4347 -43.4337 -43.4199 -43.4188 -43.4143 -43.4113
   -19.7154 -19.7141 -19.7085 -19.7075 -19.7074 -19.7042 -19.7038 -19.6994
   -19.6810 -19.6722 -19.6621 -19.6604 -19.6074 -19.6057 -19.5956 -19.5866
   -19.5671 -19.5632 -19.5624 -19.5592 -19.5591 -19.5587 -19.5536 -19.5526
     7.3821   7.8003   8.5183   8.7454   9.6041   9.7639  10.1114  10.1934
    10.3970  10.4555  10.5082  10.5754  10.7446  10.7546  10.8096  10.8794
    10.8986  10.9463  10.9782  11.0358  11.0359  11.0488  11.2063  11.2436
    11.4973  11.5445  11.5577  11.5644  11.5649  11.6333  11.6704  11.6755
    11.6811  11.6938  11.7020  11.7469  11.7534  11.7645  11.7950  11.8006
    11.8505  11.8745  11.9259  11.9298  12.0091  12.0330  12.0440  12.0909
    12.1347  12.1524  12.1892  12.2079  12.2119  12.2436  12.2943  12.2962
    12.3440  12.3879  12.3889  12.4009  12.4229  12.4725  12.5152  12.6003
    12.7511  12.7529  12.8570  12.8831  12.8841  12.9148  12.9331  12.9532
    12.9940  13.0006  13.0014  13.0498  13.0619  13.0893  13.2088  13.2498
    13.2662  13.2717  13.3003  13.3349  13.5656  13.5834  13.6038  13.6509
    13.7038  13.7168  13.7258  13.7433  13.9577  13.9724  14.0491  14.0912
    14.2002  14.2405  14.2770  14.2894  14.2992  14.3161  14.3212  14.3523
    14.3768  14.4803  14.4928  14.6127  14.6260  14.6291  14.6813  14.7124
    14.7309  14.7645  15.0251  15.0673  15.4237  15.5129  15.6187  15.6418
    15.6846  15.7782  15.8841  15.9062  15.9212  15.9420  15.9674  16.1494
    16.1663  16.2484  16.4979  16.5039  16.5455  16.5844

          k = 0.1429 0.4286 0.4286 ( 54396 PWs)   bands (ev):

   -89.0847 -89.0834 -89.0834 -89.0824 -89.0731 -89.0721 -89.0721 -89.0708
   -89.0662 -89.0662 -89.0662 -89.0662 -89.0662 -89.0662 -89.0662 -89.0662
   -49.5861 -49.5778 -49.5778 -49.5719 -49.5116 -49.5096 -49.5096 -49.5062
   -49.4954 -49.4918 -49.4907 -49.4906 -49.4883 -49.4877 -49.4877 -49.4853
   -49.4622 -49.4600 -49.4600 -49.4594 -49.4578 -49.4537 -49.4537 -49.4529
   -49.4460 -49.4460 -49.4456 -49.4389 -49.4348 -49.4322 -49.4322 -49.4272
   -49.4256 -49.4219 -49.4219 -49.4203 -49.4183 -49.4167 -49.4167 -49.4140
   -49.4119 -49.4103 -49.4103 -49.4095 -49.4069 -49.4069 -49.4058 -49.4057
   -43.4404 -43.4378 -43.4378 -43.4358 -43.4177 -43.4158 -43.4158 -43.4132
   -19.7137 -19.7111 -19.7111 -19.7074 -19.7046 -19.7033 -19.7033 -19.6999
   -19.6790 -19.6720 -19.6720 -19.6679 -19.5999 -19.5958 -19.5958 -19.5888
   -19.5665 -19.5632 -19.5631 -19.5619 -19.5599 -19.5564 -19.5564 -19.5542
     7.6803   8.0715   8.0715   8.4108   9.7169   9.9128   9.9128  10.0678
    10.4647  10.5200  10.5200  10.5808  10.8008  10.8014  10.8162  10.8162
    10.8844  10.9073  10.9073  10.9375  10.9979  11.0931  11.0931  11.1649
    11.5354  11.5749  11.5749  11.5855  11.6593  11.7117  11.7117  11.7287
    11.7440  11.7646  11.7646  11.7831  11.8063  11.8174  11.8253  11.8523
    11.8523  11.8681  11.8751  11.8751  11.9852  11.9995  11.9995  12.0179
    12.0436  12.0436  12.1850  12.2083  12.2108  12.2108  12.2258  12.2390
    12.2938  12.3414  12.3414  12.4061  12.4446  12.4446  12.4530  12.5039
    12.8871  12.9042  12.9042  12.9045  12.9461  12.9461  12.9467  12.9896
    12.9992  12.9992  12.9998  13.0416  13.0923  13.1691  13.1691  13.2368
    13.2911  13.2931  13.2931  13.3093  13.6323  13.6323  13.6398  13.6553
    13.6840  13.7210  13.7210  13.7346  14.1507  14.1507  14.1597  14.1922
    14.2198  14.2375  14.2416  14.2416  14.2921  14.3027  14.3027  14.3234
    14.3627  14.5066  14.5066  14.5520  14.6212  14.6212  14.6238  14.6368
    14.6462  14.8317  14.8317  14.9842  15.4308  15.5906  15.5906  15.6264
    15.7008  15.7360  15.7360  15.9527  15.9527  15.9559  15.9577  15.9798
    16.3263  16.5166  16.5166  16.6612  16.8040  16.8040

          k = 0.2857 0.2857 0.2857 ( 54438 PWs)   bands (ev):

   -89.0863 -89.0823 -89.0823 -89.0823 -89.0733 -89.0733 -89.0733 -89.0693
   -89.0662 -89.0662 -89.0662 -89.0662 -89.0662 -89.0662 -89.0662 -89.0662
   -49.5962 -49.5709 -49.5709 -49.5709 -49.5144 -49.5144 -49.5144 -49.5029
   -49.4993 -49.4993 -49.4863 -49.4863 -49.4863 -49.4835 -49.4835 -49.4835
   -49.4619 -49.4619 -49.4582 -49.4582 -49.4582 -49.4524 -49.4524 -49.4524
   -49.4454 -49.4454 -49.4454 -49.4419 -49.4419 -49.4419 -49.4326 -49.4224
   -49.4224 -49.4224 -49.4205 -49.4205 -49.4184 -49.4184 -49.4184 -49.4139
   -49.4139 -49.4139 -49.4064 -49.4064 -49.4058 -49.4058 -49.4058 -49.4049
   -43.4434 -43.4356 -43.4356 -43.4356 -43.4180 -43.4180 -43.4180 -43.4102
   -19.7124 -19.7124 -19.7124 -19.7071 -19.7071 -19.7071 -19.6980 -19.6980
   -19.6883 -19.6656 -19.6656 -19.6656 -19.6023 -19.6023 -19.6023 -19.5797
   -19.5684 -19.5684 -19.5595 -19.5595 -19.5595 -19.5552 -19.5552 -19.5552
     7.2569   8.4183   8.4183   8.4183   9.6876   9.6876   9.6876  10.1294
    10.5622  10.5622  10.5622  10.7251  10.7482  10.7482  10.7482  10.7738
    10.7738  10.9756  11.0351  11.0351  11.0351  11.1943  11.1943  11.1943
    11.5071  11.5071  11.5661  11.5661  11.5661  11.6754  11.6754  11.6754
    11.6965  11.6965  11.7046  11.7046  11.7046  11.8909  11.8909  11.8909
    11.9607  11.9607  11.9607  11.9688  11.9688  11.9688  12.0058  12.0058
    12.0058  12.0952  12.0952  12.0952  12.2128  12.2128  12.2128  12.2362
    12.3124  12.3124  12.3124  12.4072  12.4072  12.4977  12.4977  12.6208
    12.8481  12.8481  12.8481  12.8545  12.8545  12.8545  13.0156  13.0156
    13.0156  13.0845  13.0845  13.0873  13.1736  13.1736  13.1736  13.2122
    13.2122  13.2122  13.2520  13.2520  13.6269  13.6269  13.6269  13.7522
    13.7522  13.7522  13.8798  13.9584  13.9584  14.0389  14.0389  14.0389
    14.0498  14.1858  14.1858  14.2265  14.2265  14.2265  14.3151  14.3151
    14.3151  14.5912  14.5912  14.6613  14.6613  14.6613  14.8164  14.8164
    14.8164  14.8389  14.8389  14.8389  15.5095  15.5095  15.5095  15.7801
    15.7801  15.7801  15.8099  15.8099  15.8099  15.8985  15.8985  15.9661
    16.4500  16.4500  16.4500  16.5307  16.5954  16.5954

          k = 0.2857 0.2857 0.4286 ( 54403 PWs)   bands (ev):

   -89.0852 -89.0838 -89.0823 -89.0823 -89.0733 -89.0733 -89.0717 -89.0703
   -89.0662 -89.0662 -89.0662 -89.0662 -89.0662 -89.0662 -89.0662 -89.0662
   -49.5897 -49.5810 -49.5717 -49.5716 -49.5111 -49.5111 -49.5080 -49.5039
   -49.4961 -49.4952 -49.4917 -49.4890 -49.4880 -49.4880 -49.4845 -49.4845
   -49.4606 -49.4602 -49.4602 -49.4583 -49.4567 -49.4501 -49.4497 -49.4495
   -49.4495 -49.4476 -49.4476 -49.4410 -49.4372 -49.4372 -49.4363 -49.4299
   -49.4299 -49.4280 -49.4222 -49.4218 -49.4168 -49.4168 -49.4120 -49.4102
   -49.4102 -49.4094 -49.4079 -49.4069 -49.4069 -49.4069 -49.4057 -49.4054
   -43.4414 -43.4387 -43.4355 -43.4355 -43.4180 -43.4180 -43.4149 -43.4123
   -19.7123 -19.7123 -19.7073 -19.7058 -19.7058 -19.7042 -19.7015 -19.7010
   -19.6842 -19.6757 -19.6689 -19.6689 -19.5990 -19.5990 -19.5922 -19.5838
   -19.5654 -19.5653 -19.5623 -19.5607 -19.5607 -19.5600 -19.5554 -19.5554
     7.5604   7.9600   8.5531   8.5532   9.4530   9.4530   9.8328   9.9947
    10.6250  10.6287  10.6287  10.6723  10.7058  10.7058  10.7963  10.8228
    10.8412  10.9308  10.9630  10.9768  10.9768  11.0635  11.2122  11.2122
    11.5567  11.5753  11.5753  11.5926  11.6179  11.6346  11.7175  11.7275
    11.7275  11.7328  11.7350  11.7351  11.7809  11.8427  11.8427  11.8697
    11.8697  11.9017  11.9860  11.9860  11.9874  12.0493  12.0493  12.0542
    12.0835  12.1122  12.1251  12.1251  12.1404  12.1758  12.1758  12.2554
    12.2598  12.2924  12.2924  12.3181  12.3423  12.3598  12.4142  12.4422
    12.8790  12.8790  12.9336  12.9336  12.9568  12.9618  12.9887  12.9887
    13.0366  13.0461  13.0707  13.0979  13.1527  13.1527  13.2074  13.2212
    13.2476  13.2476  13.2749  13.2818  13.6756  13.6756  13.7769  13.8426
    13.8549  13.8549  13.8984  13.9147  14.0506  14.0662  14.1456  14.1516
    14.1516  14.1630  14.2022  14.2022  14.2235  14.2269  14.2269  14.2616
    14.2722  14.5129  14.5729  14.6436  14.6436  14.6561  14.6645  14.7071
    14.7071  14.7480  14.9258  14.9258  15.3322  15.3322  15.6248  15.7461
    15.7461  15.8102  15.8177  15.8524  15.8665  15.9133  15.9133  15.9135
    16.5115  16.5174  16.5174  16.6328  16.6428  16.6428

          k = 0.2857 0.4286 0.4286 ( 54358 PWs)   bands (ev):

   -89.0844 -89.0834 -89.0834 -89.0828 -89.0727 -89.0721 -89.0721 -89.0711
   -89.0662 -89.0662 -89.0662 -89.0662 -89.0662 -89.0662 -89.0662 -89.0662
   -49.5851 -49.5789 -49.5789 -49.5757 -49.5059 -49.5049 -49.5049 -49.5017
   -49.4956 -49.4929 -49.4923 -49.4923 -49.4910 -49.4886 -49.4886 -49.4867
   -49.4590 -49.4576 -49.4559 -49.4559 -49.4540 -49.4540 -49.4524 -49.4518
   -49.4482 -49.4456 -49.4456 -49.4434 -49.4390 -49.4390 -49.4376 -49.4351
   -49.4319 -49.4294 -49.4294 -49.4276 -49.4120 -49.4111 -49.4111 -49.4095
   -49.4079 -49.4076 -49.4076 -49.4070 -49.4063 -49.4063 -49.4057 -49.4054
   -43.4398 -43.4377 -43.4377 -43.4366 -43.4169 -43.4158 -43.4158 -43.4138
   -19.7100 -19.7081 -19.7081 -19.7041 -19.7038 -19.7032 -19.7032 -19.7006
   -19.6841 -19.6778 -19.6778 -19.6753 -19.5928 -19.5903 -19.5903 -19.5842
   -19.5658 -19.5632 -19.5632 -19.5628 -19.5626 -19.5593 -19.5593 -19.5575
     7.8432   8.2001   8.2001   8.4491   9.3710   9.5518   9.5518   9.7632
    10.6604  10.6696  10.6696  10.6907  10.7565  10.7698  10.7698  10.8150
    10.8312  10.8935  10.8935  10.9070  11.0232  11.1225  11.1225  11.1812
    11.6004  11.6184  11.6273  11.6274  11.6614  11.7042  11.7042  11.7478
    11.7852  11.7856  11.7968  11.7968  11.8269  11.8798  11.8875  11.8952
    11.8953  11.9133  11.9193  11.9193  11.9724  11.9798  11.9798  12.0639
    12.0639  12.0700  12.1301  12.1301  12.1385  12.1454  12.1728  12.1834
    12.1969  12.2239  12.2345  12.2345  12.2901  12.2901  12.3294  12.3476
    12.9750  12.9859  12.9890  12.9890  12.9994  12.9994  13.0048  13.0374
    13.0446  13.0446  13.0585  13.0733  13.1929  13.2080  13.2080  13.2205
    13.2582  13.2625  13.2625  13.2684  13.7902  13.8182  13.8182  13.9270
    13.9320  13.9615  13.9615  13.9716  14.1406  14.1495  14.1507  14.1507
    14.1722  14.1765  14.1765  14.1771  14.2431  14.2431  14.2781  14.2823
    14.3058  14.5147  14.5147  14.5904  14.6124  14.6426  14.6534  14.6534
    14.6707  14.7798  14.7798  14.8929  15.2006  15.3415  15.3415  15.5230
    15.7776  15.8009  15.8009  15.8379  15.9422  15.9422  15.9480  15.9607
    16.6001  16.6558  16.7300  16.7300  16.8790  16.8791

          k = 0.4286 0.4286 0.4286 ( 54346 PWs)   bands (ev):

   -89.0839 -89.0834 -89.0834 -89.0834 -89.0721 -89.0721 -89.0721 -89.0716
   -89.0662 -89.0662 -89.0662 -89.0662 -89.0662 -89.0662 -89.0662 -89.0662
   -49.5830 -49.5798 -49.5798 -49.5798 -49.4998 -49.4998 -49.4998 -49.4959
   -49.4951 -49.4951 -49.4935 -49.4935 -49.4935 -49.4900 -49.4900 -49.4900
   -49.4572 -49.4572 -49.4572 -49.4529 -49.4511 -49.4511 -49.4484 -49.4484
   -49.4484 -49.4450 -49.4450 -49.4450 -49.4422 -49.4422 -49.4422 -49.4371
   -49.4371 -49.4371 -49.4356 -49.4356 -49.4079 -49.4079 -49.4079 -49.4070
   -49.4070 -49.4070 -49.4065 -49.4065 -49.4054 -49.4054 -49.4054 -49.4049
   -43.4388 -43.4377 -43.4377 -43.4377 -43.4159 -43.4159 -43.4159 -43.4148
   -19.7049 -19.7049 -19.7049 -19.7028 -19.7028 -19.7028 -19.7016 -19.7016
   -19.6876 -19.6833 -19.6833 -19.6833 -19.5852 -19.5852 -19.5852 -19.5814
   -19.5648 -19.5648 -19.5636 -19.5636 -19.5636 -19.5620 -19.5620 -19.5620
     8.0888   8.3445   8.3445   8.3445   9.2776   9.2776   9.2776   9.4652
    10.6657  10.6657  10.6657  10.6752  10.8135  10.8135  10.8135  10.8383
    10.8383  10.8705  10.8705  10.8705  11.0877  11.1567  11.1567  11.1567
    11.6736  11.6736  11.6832  11.6832  11.6832  11.7016  11.7016  11.7016
    11.8453  11.8453  11.8453  11.8799  11.8799  11.9106  11.9293  11.9293
    11.9293  11.9371  11.9371  11.9371  11.9569  11.9569  11.9569  12.0418
    12.0560  12.0560  12.0560  12.1034  12.1034  12.1034  12.1142  12.1142
    12.1603  12.1603  12.1603  12.1606  12.1606  12.1606  12.2243  12.2243
    13.0404  13.0404  13.0404  13.0462  13.0462  13.0462  13.0601  13.0601
    13.0601  13.0705  13.0705  13.0765  13.2397  13.2397  13.2397  13.2406
    13.2406  13.2406  13.2430  13.2430  13.9513  13.9513  13.9513  14.0498
    14.0657  14.0657  14.0794  14.0794  14.0794  14.0806  14.0806  14.0806
    14.2705  14.2705  14.2705  14.3323  14.3383  14.3383  14.3431  14.3431
    14.3431  14.4848  14.4848  14.4848  14.6397  14.6397  14.6450  14.6450
    14.6450  14.7837  14.7837  14.7837  14.9890  14.9890  14.9890  15.1447
    15.9190  15.9190  15.9190  15.9414  15.9414  15.9447  15.9447  15.9447
    16.5900  16.6836  16.6836  16.6836  17.1878  17.1880

     the Fermi energy is    14.1435 ev

!    total energy              =   -6446.92597936 Ry
     estimated scf accuracy    <          3.5E-09 Ry
     smearing contrib. (-TS)   =      -0.00103482 Ry
     internal energy E=F+TS    =   -6446.92494455 Ry

     The total energy is F=E-TS. E is the sum of the following terms:
     one-electron contribution =   -4204.75029753 Ry
     hartree contribution      =    2280.79266038 Ry
     xc contribution           =    -711.01767356 Ry
     ewald contribution        =   -3811.94963384 Ry

     convergence has been achieved in  32 iterations

     negative rho (up, down):  7.075E-03 0.000E+00

     Forces acting on atoms (cartesian axes, Ry/au):

     atom    1 type  2   force =     0.00000000    0.00000000    0.00000000
     atom    2 type  2   force =    -0.00000201    0.00000201   -0.00000201
     atom    3 type  2   force =     0.00000000    0.00000000    0.00000000
     atom    4 type  2   force =    -0.00000201   -0.00000201    0.00000201
     atom    5 type  2   force =     0.00000000    0.00000000    0.00000000
     atom    6 type  2   force =     0.00000201    0.00000201    0.00000201
     atom    7 type  2   force =     0.00000000    0.00000000    0.00000000
     atom    8 type  2   force =     0.00000201   -0.00000201   -0.00000201
     atom    9 type  1   force =     0.00001286    0.00001286   -0.00000874
     atom   10 type  1   force =     0.00001286   -0.00001286    0.00000874
     atom   11 type  1   force =    -0.00001286   -0.00000874   -0.00001286
     atom   12 type  1   force =    -0.00001286   -0.00001286   -0.00000874
     atom   13 type  1   force =     0.00001286   -0.00000874    0.00001286
     atom   14 type  1   force =     0.00001286    0.00000874   -0.00001286
     atom   15 type  1   force =    -0.00001286    0.00001286    0.00000874
     atom   16 type  1   force =    -0.00001286    0.00000874    0.00001286
     atom   17 type  1   force =    -0.00000874    0.00001286    0.00001286
     atom   18 type  1   force =    -0.00000874   -0.00001286   -0.00001286
     atom   19 type  1   force =     0.00001483   -0.00001483    0.00001483
     atom   20 type  1   force =     0.00000874   -0.00001286    0.00001286
     atom   21 type  1   force =    -0.00001483   -0.00001483   -0.00001483
     atom   22 type  1   force =    -0.00001483    0.00001483    0.00001483
     atom   23 type  1   force =     0.00000874    0.00001286   -0.00001286
     atom   24 type  1   force =     0.00001483    0.00001483   -0.00001483

     Total force =     0.000087     Total SCF correction =     0.000248
     SCF correction compared to forces is large: reduce conv_thr to get better values


     Computing stress (Cartesian axis) and pressure


     negative rho (up, down):  7.075E-03 0.000E+00
          total   stress  (Ry/bohr**3)                   (kbar)     P=     -180.80
  -0.00122905   0.00000000   0.00000000         -180.80        0.00        0.00
   0.00000000  -0.00122905   0.00000000            0.00     -180.80        0.00
   0.00000000   0.00000000  -0.00122905            0.00        0.00     -180.80


     Writing all to output data dir ./TiNi2_scf_nomag.save/ :
     XML data file
     init_run     :     37.28s CPU     40.43s WALL (       1 calls)
     electrons    :   2626.37s CPU   2851.47s WALL (       1 calls)
     forces       :     11.11s CPU     11.89s WALL (       1 calls)
     stress       :     47.44s CPU     49.24s WALL (       1 calls)

     Called by init_run:
     wfcinit      :     32.25s CPU     34.73s WALL (       1 calls)
     potinit      :      1.02s CPU      1.09s WALL (       1 calls)
     hinit0       :      1.14s CPU      1.17s WALL (       1 calls)

     Called by electrons:
     c_bands      :   2331.61s CPU   2508.70s WALL (      32 calls)
     sum_band     :    236.41s CPU    265.16s WALL (      32 calls)
     v_of_rho     :     11.17s CPU     13.19s WALL (      33 calls)
     newd         :     45.81s CPU     63.17s WALL (      33 calls)
     mix_rho      :      1.85s CPU      2.09s WALL (      32 calls)

     Called by c_bands:
     init_us_2    :     21.92s CPU     22.24s WALL (    1340 calls)
     cegterg      :   2288.76s CPU   2465.25s WALL (     640 calls)

     Called by *egterg:
     cdiaghg      :    120.51s CPU    126.37s WALL (    2684 calls)
     h_psi        :   1544.40s CPU   1696.98s WALL (    2704 calls)
     s_psi        :    122.54s CPU    123.31s WALL (    2704 calls)
     g_psi        :      3.86s CPU      3.93s WALL (    2044 calls)

     Called by h_psi:
     h_psi:calbec :    132.64s CPU    134.15s WALL (    2704 calls)
     vloc_psi     :   1284.18s CPU   1426.75s WALL (    2704 calls)
     add_vuspsi   :    122.14s CPU    122.91s WALL (    2704 calls)

     General routines
     calbec       :    211.43s CPU    213.74s WALL (    3684 calls)
     fft          :      8.62s CPU     10.39s WALL (     452 calls)
     ffts         :      0.77s CPU      0.81s WALL (      65 calls)
     fftw         :    783.31s CPU    901.36s WALL (  870058 calls)
     interpolate  :      1.35s CPU      1.54s WALL (      33 calls)

     Parallel routines

     PWSCF        :   2722.47s CPU   2953.48s WALL


   This run was terminated on:   2:24:26  11Nov2025            

=------------------------------------------------------------------------------=
   JOB DONE.
=------------------------------------------------------------------------------=
