#************************************************************************************
#*                   Generated by cif2cell 2.1.0 2025-10-18 12:19                   *
#*  T. Bjorkman, Comp. Phys. Commun. 182, 1183-1186 (2011). Please cite generously. *
#*                                                                                  *
#*                              Data obtained from COD                              *
#*                                    TiFe   ()                                     *
#*             Failed to get author information, No journal information             *
#************************************************************************************

&CONTROL
  calculation='scf',
  outdir='.',
  prefix='TiFe',
  pseudo_dir = '../pseudos',
  verbosity='low',
  tprnfor=.true.,
  tstress=.true.,
/

&SYSTEM
  ibrav = 0
  A =    2.828680
  nat = 2
  ntyp = 2
  ecutwfc=124,
  ecutrho=1736,
  input_dft='pbe',
  occupations='smearing',
  smearing='mv',
  degauss=0.005d0,
/

&ELECTRONS
conv_thr=1d-08,
mixing_beta=0.7d0,
/

CELL_PARAMETERS {alat}
  1.000000000000000   0.000000000000000   0.000000000000000 
  0.000000000000000   1.000000000000000   0.000000000000000 
  0.000000000000000   0.000000000000000   1.000000000000000 
ATOMIC_SPECIES
  Fe   55.84500  Fe.pbe-spn-kjpaw_psl.0.2.1.UPF
  Ti   47.86700  ti_pbe_v1.4.uspp.F.UPF
ATOMIC_POSITIONS {crystal}
Fe   0.500000000000000   0.500000000000000   0.500000000000000 
Ti   0.000000000000000   0.000000000000000   0.000000000000000 

K_POINTS {automatic}
 11 11 11 0 0 0
