
     Program PWSCF v.7.4 starts on 27Oct2025 at 18:55: 0 

     This program is part of the open-source Quantum ESPRESSO suite
     for quantum simulation of materials; please cite
         "P. Giannozzi et al., J. Phys.:Condens. Matter 21 395502 (2009);
         "P. Giannozzi et al., J. Phys.:Condens. Matter 29 465901 (2017);
         "P. Giannozzi et al., J. Chem. Phys. 152 154105 (2020);
          URL http://www.quantum-espresso.org", 
     in publications or presentations arising from this work. More details at
     http://www.quantum-espresso.org/quote

     Parallel version (MPI & OpenMP), running on       8 processor cores
     Number of MPI processes:                 8
     Threads/MPI process:                     1

     MPI processes distributed on     1 nodes
     287160 MiB available memory on the printing compute node when the environment starts

     Reading input from TiFe_full_10GPa.in

     Current dimensions of program PWSCF are:
     Max number of different atomic species (ntypx) = 10
     Max number of k-points (npk) =  40000
     Max angular momentum in pseudopotentials (lmaxx) =  4
     file Fe.pbe-spn-kjpaw_psl.0.2.1.UPF: wavefunction(s)  3D renormalized

     IMPORTANT: XC functional enforced from input :
     Exchange-correlation= PBE
                           (   1   4   3   4   0   0   0)
     Any further DFT definition will be discarded
     Please, verify this is what you really want

     Message from routine setup:
     using ibrav=0 with symmetry is DISCOURAGED, use correct ibrav instead

     R & G space division:  proc/nbgrp/npool/nimage =       8
     Subspace diagonalization in iterative solution of the eigenvalue problem:
     a serial algorithm will be used


     Parallelization info
     --------------------
     sticks:   dense  smooth     PW     G-vecs:    dense   smooth      PW
     Min         532     151     44                26154     3989     629
     Max         533     152     46                26155     3993     632
     Sum        4257    1209    357               209233    31919    5041

     Using Slab Decomposition



     bravais-lattice index     =            0
     lattice parameter (alat)  =       5.5533  a.u.
     unit-cell volume          =     171.2590 (a.u.)^3
     number of atoms/cell      =            2
     number of atomic types    =            2
     number of electrons       =        28.00
     number of Kohn-Sham states=           18
     kinetic-energy cutoff     =     124.0000  Ry
     charge density cutoff     =    1736.0000  Ry
     scf convergence threshold =      1.0E-08
     mixing beta               =       0.7000
     number of iterations used =            8  plain     mixing
     energy convergence thresh.=      1.0E-04
     force convergence thresh. =      1.0E-03
     press convergence thresh. =      1.0E-01
     Exchange-correlation= PBE
                           (   1   4   3   4   0   0   0)
     nstep                     =           50


     celldm(1)=   5.553300  celldm(2)=   0.000000  celldm(3)=   0.000000
     celldm(4)=   0.000000  celldm(5)=   0.000000  celldm(6)=   0.000000

     crystal axes: (cart. coord. in units of alat)
               a(1) = (   1.000000   0.000000   0.000000 )  
               a(2) = (   0.000000   1.000000   0.000000 )  
               a(3) = (   0.000000   0.000000   1.000000 )  

     reciprocal axes: (cart. coord. in units 2 pi/alat)
               b(1) = (  1.000000  0.000000  0.000000 )  
               b(2) = (  0.000000  1.000000  0.000000 )  
               b(3) = (  0.000000  0.000000  1.000000 )  


     PseudoPot. # 1 for Fe read from file:
     ../../pseudos/Fe.pbe-spn-kjpaw_psl.0.2.1.UPF
     MD5 check sum: e86618425769142926afa95317d90200
     Pseudo is Projector augmented-wave + core cor, Zval = 16.0
     Generated using "atomic" code by A. Dal Corso  v.5.0.99 svn rev. 10869
     Shape of augmentation charge: PSQ
     Using radial grid of 1191 points,  6 beta functions with: 
                l(1) =   0
                l(2) =   0
                l(3) =   1
                l(4) =   1
                l(5) =   2
                l(6) =   2
     Q(r) pseudized with 0 coefficients 


     PseudoPot. # 2 for Ti read from file:
     ../../pseudos/ti_pbe_v1.4.uspp.F.UPF
     MD5 check sum: 88a00a6731bd790ddea75d31a80cb452
     Pseudo is Ultrasoft + core correction, Zval = 12.0
     Generated by new atomic code, or converted to UPF format
     Using radial grid of  851 points,  6 beta functions with: 
                l(1) =   0
                l(2) =   0
                l(3) =   1
                l(4) =   1
                l(5) =   2
                l(6) =   2
     Q(r) pseudized with  6 coefficients,  rinner =    1.000   1.000   1.000
                                                       1.000   1.000

     atomic species   valence    mass     pseudopotential
     Fe               16.00    55.84500     Fe( 1.00)
     Ti               12.00    47.86700     Ti( 1.00)

     48 Sym. Ops., with inversion, found



   Cartesian axes

     site n.     atom                  positions (alat units)
         1        Fe     tau(   1) = (   0.5000000   0.5000000   0.5000000  )
         2        Ti     tau(   2) = (   0.0000000   0.0000000   0.0000000  )

     number of k points=   120  Marzari-Vanderbilt smearing, width (Ry)=  0.0050

     Number of k-points >= 100: set verbosity='high' to print them.

     Dense  grid:   209233 G-vectors     FFT dimensions: (  75,  75,  75)

     Smooth grid:    31919 G-vectors     FFT dimensions: (  40,  40,  40)

     Estimated max dynamical RAM per process >     125.80 MB

     Estimated total dynamical RAM >    1006.42 MB

     Check: negative core charge=   -0.000002

     Initial potential from superposition of free atoms

     starting charge      26.9995, renormalised to      28.0000

     negative rho (up, down):  1.347E-03 0.000E+00
     Starting wfcs are   23 randomized atomic wfcs
     Checking if some PAW data can be deallocated... 

     total cpu time spent up to now is        2.2 secs

     per-process dynamical memory:   228.3 Mb

     Self-consistent Calculation

     iteration #  1     ecut=   124.00 Ry     beta= 0.70
     Davidson diagonalization with overlap
     ethr =  1.00E-02,  avg # of iterations =  2.1

     negative rho (up, down):  8.075E-05 0.000E+00

     total cpu time spent up to now is        3.9 secs

     total energy              =    -434.88034974 Ry
     estimated scf accuracy    <      17.47740323 Ry

     iteration #  2     ecut=   124.00 Ry     beta= 0.70
     Davidson diagonalization with overlap
     ethr =  1.00E-02,  avg # of iterations =  6.1

     negative rho (up, down):  2.388E-05 0.000E+00

     total cpu time spent up to now is        6.6 secs

     total energy              =    -448.51195570 Ry
     estimated scf accuracy    <      66.14338935 Ry

     iteration #  3     ecut=   124.00 Ry     beta= 0.70
     Davidson diagonalization with overlap
     ethr =  1.00E-02,  avg # of iterations =  3.1

     negative rho (up, down):  2.384E-04 0.000E+00

     total cpu time spent up to now is        8.4 secs

     total energy              =    -448.59876074 Ry
     estimated scf accuracy    <      16.77187988 Ry

     iteration #  4     ecut=   124.00 Ry     beta= 0.70
     Davidson diagonalization with overlap
     ethr =  1.00E-02,  avg # of iterations =  2.1

     negative rho (up, down):  2.771E-04 0.000E+00

     total cpu time spent up to now is       10.0 secs

     total energy              =    -449.11451992 Ry
     estimated scf accuracy    <       4.73362336 Ry

     iteration #  5     ecut=   124.00 Ry     beta= 0.70
     Davidson diagonalization with overlap
     ethr =  1.00E-02,  avg # of iterations =  1.0

     negative rho (up, down):  3.233E-04 0.000E+00

     total cpu time spent up to now is       11.2 secs

     total energy              =    -449.12131532 Ry
     estimated scf accuracy    <       4.31212425 Ry

     iteration #  6     ecut=   124.00 Ry     beta= 0.70
     Davidson diagonalization with overlap
     ethr =  1.00E-02,  avg # of iterations =  1.0

     negative rho (up, down):  1.107E-03 0.000E+00

     total cpu time spent up to now is       12.5 secs

     total energy              =    -447.89389661 Ry
     estimated scf accuracy    <       4.51968901 Ry

     iteration #  7     ecut=   124.00 Ry     beta= 0.70
     Davidson diagonalization with overlap
     ethr =  1.00E-02,  avg # of iterations =  3.4

     negative rho (up, down):  1.008E-03 0.000E+00

     total cpu time spent up to now is       14.1 secs

     total energy              =    -448.58423346 Ry
     estimated scf accuracy    <       3.81978614 Ry

     iteration #  8     ecut=   124.00 Ry     beta= 0.70
     Davidson diagonalization with overlap
     ethr =  1.00E-02,  avg # of iterations =  1.0

     negative rho (up, down):  8.248E-04 0.000E+00

     total cpu time spent up to now is       15.4 secs

     total energy              =    -448.46846099 Ry
     estimated scf accuracy    <       1.21375717 Ry

     iteration #  9     ecut=   124.00 Ry     beta= 0.70
     Davidson diagonalization with overlap
     ethr =  4.33E-03,  avg # of iterations =  1.7

     negative rho (up, down):  8.317E-04 0.000E+00

     total cpu time spent up to now is       16.9 secs

     total energy              =    -448.59501092 Ry
     estimated scf accuracy    <       0.12585284 Ry

     iteration # 10     ecut=   124.00 Ry     beta= 0.70
     Davidson diagonalization with overlap
     ethr =  4.49E-04,  avg # of iterations =  2.3

     negative rho (up, down):  8.588E-04 0.000E+00

     total cpu time spent up to now is       18.3 secs

     total energy              =    -448.59602789 Ry
     estimated scf accuracy    <       0.14907511 Ry

     iteration # 11     ecut=   124.00 Ry     beta= 0.70
     Davidson diagonalization with overlap
     ethr =  4.49E-04,  avg # of iterations =  1.1

     negative rho (up, down):  1.121E-03 0.000E+00

     total cpu time spent up to now is       19.7 secs

     total energy              =    -448.56917534 Ry
     estimated scf accuracy    <       0.14868094 Ry

     iteration # 12     ecut=   124.00 Ry     beta= 0.70
     Davidson diagonalization with overlap
     ethr =  4.49E-04,  avg # of iterations =  4.3

     negative rho (up, down):  1.213E-03 0.000E+00

     total cpu time spent up to now is       21.7 secs

     total energy              =    -448.65391027 Ry
     estimated scf accuracy    <       0.18318037 Ry

     iteration # 13     ecut=   124.00 Ry     beta= 0.70
     Davidson diagonalization with overlap
     ethr =  4.49E-04,  avg # of iterations =  1.9

     negative rho (up, down):  2.114E-03 0.000E+00

     total cpu time spent up to now is       23.1 secs

     total energy              =    -449.03322661 Ry
     estimated scf accuracy    <       0.44442170 Ry

     iteration # 14     ecut=   124.00 Ry     beta= 0.70
     Davidson diagonalization with overlap
     ethr =  4.49E-04,  avg # of iterations =  6.2

     negative rho (up, down):  1.459E-03 0.000E+00

     total cpu time spent up to now is       25.6 secs

     total energy              =    -448.51932689 Ry
     estimated scf accuracy    <      26.98882310 Ry

     iteration # 15     ecut=   124.00 Ry     beta= 0.70
     Davidson diagonalization with overlap
     ethr =  4.49E-04,  avg # of iterations =  4.8

     negative rho (up, down):  1.137E-03 0.000E+00

     total cpu time spent up to now is       27.7 secs

     total energy              =    -448.49454822 Ry
     estimated scf accuracy    <       4.43870851 Ry

     iteration # 16     ecut=   124.00 Ry     beta= 0.70
     Davidson diagonalization with overlap
     ethr =  4.49E-04,  avg # of iterations =  4.3

     negative rho (up, down):  1.088E-03 0.000E+00

     total cpu time spent up to now is       29.7 secs

     total energy              =    -448.60519511 Ry
     estimated scf accuracy    <       0.36277654 Ry

     iteration # 17     ecut=   124.00 Ry     beta= 0.70
     Davidson diagonalization with overlap
     ethr =  4.49E-04,  avg # of iterations =  2.0

     negative rho (up, down):  1.022E-03 0.000E+00

     total cpu time spent up to now is       31.2 secs

     total energy              =    -448.58523807 Ry
     estimated scf accuracy    <       0.39566391 Ry

     iteration # 18     ecut=   124.00 Ry     beta= 0.70
     Davidson diagonalization with overlap
     ethr =  4.49E-04,  avg # of iterations =  1.2

     negative rho (up, down):  9.735E-04 0.000E+00

     total cpu time spent up to now is       32.6 secs

     total energy              =    -448.57914660 Ry
     estimated scf accuracy    <       0.10585196 Ry

     iteration # 19     ecut=   124.00 Ry     beta= 0.70
     Davidson diagonalization with overlap
     ethr =  3.78E-04,  avg # of iterations =  1.8

     negative rho (up, down):  9.827E-04 0.000E+00

     total cpu time spent up to now is       34.0 secs

     total energy              =    -448.58492275 Ry
     estimated scf accuracy    <       0.01167453 Ry

     iteration # 20     ecut=   124.00 Ry     beta= 0.70
     Davidson diagonalization with overlap
     ethr =  4.17E-05,  avg # of iterations =  4.3

     negative rho (up, down):  9.840E-04 0.000E+00

     total cpu time spent up to now is       35.9 secs

     total energy              =    -448.58662258 Ry
     estimated scf accuracy    <       0.00743011 Ry

     iteration # 21     ecut=   124.00 Ry     beta= 0.70
     Davidson diagonalization with overlap
     ethr =  2.65E-05,  avg # of iterations =  1.2

     negative rho (up, down):  9.783E-04 0.000E+00

     total cpu time spent up to now is       37.3 secs

     total energy              =    -448.58668664 Ry
     estimated scf accuracy    <       0.00779712 Ry

     iteration # 22     ecut=   124.00 Ry     beta= 0.70
     Davidson diagonalization with overlap
     ethr =  2.65E-05,  avg # of iterations =  1.0

     negative rho (up, down):  1.037E-03 0.000E+00

     total cpu time spent up to now is       38.6 secs

     total energy              =    -448.58737857 Ry
     estimated scf accuracy    <       0.00638001 Ry

     iteration # 23     ecut=   124.00 Ry     beta= 0.70
     Davidson diagonalization with overlap
     ethr =  2.28E-05,  avg # of iterations =  1.0

     negative rho (up, down):  1.004E-03 0.000E+00

     total cpu time spent up to now is       40.0 secs

     total energy              =    -448.58667571 Ry
     estimated scf accuracy    <       0.01401584 Ry

     iteration # 24     ecut=   124.00 Ry     beta= 0.70
     Davidson diagonalization with overlap
     ethr =  2.28E-05,  avg # of iterations =  1.0

     negative rho (up, down):  9.887E-04 0.000E+00

     total cpu time spent up to now is       41.4 secs

     total energy              =    -448.58663217 Ry
     estimated scf accuracy    <       0.00473461 Ry

     iteration # 25     ecut=   124.00 Ry     beta= 0.70
     Davidson diagonalization with overlap
     ethr =  1.69E-05,  avg # of iterations =  1.0

     negative rho (up, down):  9.662E-04 0.000E+00

     total cpu time spent up to now is       42.8 secs

     total energy              =    -448.58651421 Ry
     estimated scf accuracy    <       0.00172769 Ry

     iteration # 26     ecut=   124.00 Ry     beta= 0.70
     Davidson diagonalization with overlap
     ethr =  6.17E-06,  avg # of iterations =  1.7

     negative rho (up, down):  9.659E-04 0.000E+00

     total cpu time spent up to now is       44.2 secs

     total energy              =    -448.58655054 Ry
     estimated scf accuracy    <       0.00047004 Ry

     iteration # 27     ecut=   124.00 Ry     beta= 0.70
     Davidson diagonalization with overlap
     ethr =  1.68E-06,  avg # of iterations =  2.3

     negative rho (up, down):  9.621E-04 0.000E+00

     total cpu time spent up to now is       45.7 secs

     total energy              =    -448.58654470 Ry
     estimated scf accuracy    <       0.00023845 Ry

     iteration # 28     ecut=   124.00 Ry     beta= 0.70
     Davidson diagonalization with overlap
     ethr =  8.52E-07,  avg # of iterations =  1.7

     negative rho (up, down):  9.604E-04 0.000E+00

     total cpu time spent up to now is       47.1 secs

     total energy              =    -448.58653701 Ry
     estimated scf accuracy    <       0.00010746 Ry

     iteration # 29     ecut=   124.00 Ry     beta= 0.70
     Davidson diagonalization with overlap
     ethr =  3.84E-07,  avg # of iterations =  2.4

     negative rho (up, down):  9.615E-04 0.000E+00

     total cpu time spent up to now is       48.6 secs

     total energy              =    -448.58653629 Ry
     estimated scf accuracy    <       0.00003417 Ry

     iteration # 30     ecut=   124.00 Ry     beta= 0.70
     Davidson diagonalization with overlap
     ethr =  1.22E-07,  avg # of iterations =  3.3

     negative rho (up, down):  9.610E-04 0.000E+00

     total cpu time spent up to now is       50.3 secs

     total energy              =    -448.58654028 Ry
     estimated scf accuracy    <       0.00000540 Ry

     iteration # 31     ecut=   124.00 Ry     beta= 0.70
     Davidson diagonalization with overlap
     ethr =  1.93E-08,  avg # of iterations =  4.0

     negative rho (up, down):  9.613E-04 0.000E+00

     total cpu time spent up to now is       52.1 secs

     total energy              =    -448.58654137 Ry
     estimated scf accuracy    <       0.00000083 Ry

     iteration # 32     ecut=   124.00 Ry     beta= 0.70
     Davidson diagonalization with overlap
     ethr =  2.95E-09,  avg # of iterations =  3.0

     negative rho (up, down):  9.613E-04 0.000E+00

     total cpu time spent up to now is       53.7 secs

     total energy              =    -448.58654147 Ry
     estimated scf accuracy    <       0.00000005 Ry

     iteration # 33     ecut=   124.00 Ry     beta= 0.70
     Davidson diagonalization with overlap
     ethr =  1.74E-10,  avg # of iterations =  4.5

     negative rho (up, down):  9.615E-04 0.000E+00

     total cpu time spent up to now is       55.7 secs

     End of self-consistent calculation

     Number of k-points >= 100: set verbosity='high' to print the bands.

     the Fermi energy is    17.7222 ev

!    total energy              =    -448.58654149 Ry
     estimated scf accuracy    <          4.8E-09 Ry
     smearing contrib. (-TS)   =      -0.00001774 Ry
     internal energy E=F+TS    =    -448.58652375 Ry

     The total energy is F=E-TS. E is the sum of the following terms:
     one-electron contribution =    -151.35065372 Ry
     hartree contribution      =      91.62732609 Ry
     xc contribution           =     -52.88875636 Ry
     ewald contribution        =    -259.82070277 Ry
     one-center paw contrib.   =     -76.15373699 Ry

     convergence has been achieved in  33 iterations

     negative rho (up, down):  9.615E-04 0.000E+00

     Forces acting on atoms (cartesian axes, Ry/au):

     atom    1 type  1   force =     0.00000000    0.00000000    0.00000000
     atom    2 type  2   force =     0.00000000    0.00000000    0.00000000

     Total force =     0.000000     Total SCF correction =     0.000000


     Computing stress (Cartesian axis) and pressure


     negative rho (up, down):  9.615E-04 0.000E+00
          total   stress  (Ry/bohr**3)                   (kbar)     P=       29.45
   0.00020020   0.00000000   0.00000000           29.45        0.00        0.00
   0.00000000   0.00020020   0.00000000            0.00       29.45        0.00
   0.00000000   0.00000000   0.00020020            0.00        0.00       29.45


     BFGS Geometry Optimization
     Energy error            =      3.0E-03 Ry
     Gradient error          =      0.0E+00 Ry/Bohr
     Cell gradient error     =      7.1E+01 kbar

     number of scf cycles    =   1
     number of bfgs steps    =   0

     enthalpy           new  =    -448.4701219667 Ry

     new trust radius        =       0.0313810158 bohr
     new conv_thr            =       0.0000000100 Ry

     new unit-cell volume =    165.17254 a.u.^3 (    24.47604 Ang^3 )
     density =      7.03618 g/cm^3

CELL_PARAMETERS (alat=  5.55330037)
   0.988010246   0.000000000   0.000000000
   0.000000000   0.988010246   0.000000000
   0.000000000   0.000000000   0.988010246

ATOMIC_POSITIONS (crystal)
Fe               0.5000000000        0.5000000000        0.5000000000
Ti               0.0000000000        0.0000000000        0.0000000000



     Writing config-only to output data dir ./TiFe.save/ :
     XML data file
     NEW-OLD atomic charge density approx. for the potential
     New effective cutoffs (rho, wfc): 1778.26  127.02

     Check: negative core charge=   -0.000002

     negative rho (up, down):  9.467E-04 0.000E+00

     total cpu time spent up to now is       57.7 secs

     per-process dynamical memory:   238.8 Mb

     Self-consistent Calculation

     iteration #  1     ecut=   124.00 Ry     beta= 0.70
     Davidson diagonalization with overlap
     ethr =  1.00E-06,  avg # of iterations =  7.6

     Threshold (ethr) on eigenvalues was too large:
     Diagonalizing with lowered threshold

     Davidson diagonalization with overlap
     ethr =  9.61E-08,  avg # of iterations =  2.8

     negative rho (up, down):  9.508E-04 0.000E+00

     total cpu time spent up to now is       62.2 secs

     total energy              =    -448.58317061 Ry
     estimated scf accuracy    <       0.00002645 Ry

     iteration #  2     ecut=   124.00 Ry     beta= 0.70
     Davidson diagonalization with overlap
     ethr =  9.45E-08,  avg # of iterations =  2.0

     negative rho (up, down):  9.494E-04 0.000E+00

     total cpu time spent up to now is       63.9 secs

     total energy              =    -448.58363288 Ry
     estimated scf accuracy    <       0.00002519 Ry

     iteration #  3     ecut=   124.00 Ry     beta= 0.70
     Davidson diagonalization with overlap
     ethr =  9.00E-08,  avg # of iterations =  4.0

     negative rho (up, down):  9.524E-04 0.000E+00

     total cpu time spent up to now is       65.7 secs

     total energy              =    -448.58366401 Ry
     estimated scf accuracy    <       0.00042868 Ry

     iteration #  4     ecut=   124.00 Ry     beta= 0.70
     Davidson diagonalization with overlap
     ethr =  9.00E-08,  avg # of iterations =  3.9

     negative rho (up, down):  9.519E-04 0.000E+00

     total cpu time spent up to now is       67.4 secs

     total energy              =    -448.58369245 Ry
     estimated scf accuracy    <       0.00000032 Ry

     iteration #  5     ecut=   124.00 Ry     beta= 0.70
     Davidson diagonalization with overlap
     ethr =  1.13E-09,  avg # of iterations =  4.5

     negative rho (up, down):  9.526E-04 0.000E+00

     total cpu time spent up to now is       69.5 secs

     total energy              =    -448.58369307 Ry
     estimated scf accuracy    <       0.00000295 Ry

     iteration #  6     ecut=   124.00 Ry     beta= 0.70
     Davidson diagonalization with overlap
     ethr =  1.13E-09,  avg # of iterations =  3.1

     negative rho (up, down):  9.525E-04 0.000E+00

     total cpu time spent up to now is       71.1 secs

     End of self-consistent calculation

     Number of k-points >= 100: set verbosity='high' to print the bands.

     the Fermi energy is    18.4826 ev

!    total energy              =    -448.58369328 Ry
     estimated scf accuracy    <          2.9E-09 Ry
     smearing contrib. (-TS)   =       0.00000465 Ry
     internal energy E=F+TS    =    -448.58369793 Ry

     The total energy is F=E-TS. E is the sum of the following terms:
     one-electron contribution =    -146.49998048 Ry
     hartree contribution      =      89.99874375 Ry
     xc contribution           =     -52.95425842 Ry
     ewald contribution        =    -262.97369253 Ry
     one-center paw contrib.   =     -76.15451024 Ry

     convergence has been achieved in   6 iterations

     negative rho (up, down):  9.525E-04 0.000E+00

     Forces acting on atoms (cartesian axes, Ry/au):

     atom    1 type  1   force =     0.00000000    0.00000000    0.00000000
     atom    2 type  2   force =     0.00000000    0.00000000    0.00000000

     Total force =     0.000000     Total SCF correction =     0.000000


     Computing stress (Cartesian axis) and pressure


     negative rho (up, down):  9.525E-04 0.000E+00
          total   stress  (Ry/bohr**3)                   (kbar)     P=      109.96
   0.00074747   0.00000000   0.00000000          109.96        0.00        0.00
   0.00000000   0.00074747   0.00000000            0.00      109.96        0.00
   0.00000000   0.00000000   0.00074747            0.00        0.00      109.96

     Energy error            =      1.3E-03 Ry
     Gradient error          =      0.0E+00 Ry/Bohr
     Cell gradient error     =      1.0E+01 kbar

     number of scf cycles    =   2
     number of bfgs steps    =   1

     enthalpy           old  =    -448.4701219667 Ry
     enthalpy           new  =    -448.4714112746 Ry

     CASE: enthalpy          _new < enthalpy          _old

     new trust radius        =       0.0037768700 bohr
     new conv_thr            =            1.0E-10 Ry

     new unit-cell volume =    165.90171 a.u.^3 (    24.58410 Ang^3 )
     density =      7.00525 g/cm^3

CELL_PARAMETERS (alat=  5.55330037)
   0.989462006   0.000000000   0.000000000
   0.000000000   0.989462006   0.000000000
   0.000000000   0.000000000   0.989462006

ATOMIC_POSITIONS (crystal)
Fe               0.5000000000        0.5000000000        0.5000000000
Ti               0.0000000000        0.0000000000        0.0000000000



     Writing config-only to output data dir ./TiFe.save/ :
     XML data file
     NEW-OLD atomic charge density approx. for the potential
     New effective cutoffs (rho, wfc): 1773.04  126.65

     Check: negative core charge=   -0.000002

     negative rho (up, down):  9.533E-04 0.000E+00

     total cpu time spent up to now is       73.1 secs

     per-process dynamical memory:   238.8 Mb

     Self-consistent Calculation

     iteration #  1     ecut=   124.00 Ry     beta= 0.70
     Davidson diagonalization with overlap
     ethr =  1.00E-06,  avg # of iterations =  2.9

     Threshold (ethr) on eigenvalues was too large:
     Diagonalizing with lowered threshold

     Davidson diagonalization with overlap
     ethr =  1.02E-08,  avg # of iterations =  6.2

     negative rho (up, down):  9.538E-04 0.000E+00

     total cpu time spent up to now is       77.2 secs

     total energy              =    -448.58419880 Ry
     estimated scf accuracy    <       0.00000602 Ry

     iteration #  2     ecut=   124.00 Ry     beta= 0.70
     Davidson diagonalization with overlap
     ethr =  2.15E-08,  avg # of iterations =  4.5

     negative rho (up, down):  9.533E-04 0.000E+00

     total cpu time spent up to now is       79.2 secs

     total energy              =    -448.58418346 Ry
     estimated scf accuracy    <       0.00046860 Ry

     iteration #  3     ecut=   124.00 Ry     beta= 0.70
     Davidson diagonalization with overlap
     ethr =  2.15E-08,  avg # of iterations =  4.8

     negative rho (up, down):  9.538E-04 0.000E+00

     total cpu time spent up to now is       81.1 secs

     total energy              =    -448.58421349 Ry
     estimated scf accuracy    <       0.00000262 Ry

     iteration #  4     ecut=   124.00 Ry     beta= 0.70
     Davidson diagonalization with overlap
     ethr =  9.36E-09,  avg # of iterations =  1.8

     negative rho (up, down):  9.538E-04 0.000E+00

     total cpu time spent up to now is       82.6 secs

     total energy              =    -448.58421378 Ry
     estimated scf accuracy    <       0.00000036 Ry

     iteration #  5     ecut=   124.00 Ry     beta= 0.70
     Davidson diagonalization with overlap
     ethr =  1.30E-09,  avg # of iterations =  3.6

     negative rho (up, down):  9.537E-04 0.000E+00

     total cpu time spent up to now is       84.2 secs

     total energy              =    -448.58421384 Ry
     estimated scf accuracy    <       0.00000002 Ry

     iteration #  6     ecut=   124.00 Ry     beta= 0.70
     Davidson diagonalization with overlap
     ethr =  8.04E-11,  avg # of iterations =  4.7

     negative rho (up, down):  9.537E-04 0.000E+00

     total cpu time spent up to now is       86.2 secs

     total energy              =    -448.58421385 Ry
     estimated scf accuracy    <          2.6E-09 Ry

     iteration #  7     ecut=   124.00 Ry     beta= 0.70
     Davidson diagonalization with overlap
     ethr =  9.15E-12,  avg # of iterations =  3.7

     negative rho (up, down):  9.537E-04 0.000E+00

     total cpu time spent up to now is       87.9 secs

     total energy              =    -448.58421385 Ry
     estimated scf accuracy    <          5.2E-09 Ry

     iteration #  8     ecut=   124.00 Ry     beta= 0.70
     Davidson diagonalization with overlap
     ethr =  9.15E-12,  avg # of iterations =  2.6

     negative rho (up, down):  9.537E-04 0.000E+00

     total cpu time spent up to now is       89.6 secs

     total energy              =    -448.58421385 Ry
     estimated scf accuracy    <          7.3E-10 Ry

     iteration #  9     ecut=   124.00 Ry     beta= 0.70
     Davidson diagonalization with overlap
     ethr =  2.59E-12,  avg # of iterations =  2.1

     negative rho (up, down):  9.537E-04 0.000E+00

     total cpu time spent up to now is       91.0 secs

     total energy              =    -448.58421385 Ry
     estimated scf accuracy    <          2.8E-10 Ry

     iteration # 10     ecut=   124.00 Ry     beta= 0.70
     Davidson diagonalization with overlap
     ethr =  9.93E-13,  avg # of iterations =  3.0

     negative rho (up, down):  9.537E-04 0.000E+00

     total cpu time spent up to now is       92.6 secs

     End of self-consistent calculation

     Number of k-points >= 100: set verbosity='high' to print the bands.

     the Fermi energy is    18.3900 ev

!    total energy              =    -448.58421385 Ry
     estimated scf accuracy    <          3.9E-11 Ry
     smearing contrib. (-TS)   =       0.00000194 Ry
     internal energy E=F+TS    =    -448.58421579 Ry

     The total energy is F=E-TS. E is the sum of the following terms:
     one-electron contribution =    -147.09328497 Ry
     hartree contribution      =      90.19760588 Ry
     xc contribution           =     -52.94626072 Ry
     ewald contribution        =    -262.58785208 Ry
     one-center paw contrib.   =     -76.15442390 Ry

     convergence has been achieved in  10 iterations

     negative rho (up, down):  9.537E-04 0.000E+00

     Forces acting on atoms (cartesian axes, Ry/au):

     atom    1 type  1   force =     0.00000000    0.00000000    0.00000000
     atom    2 type  2   force =     0.00000000    0.00000000    0.00000000

     Total force =     0.000000     Total SCF correction =     0.000000


     Computing stress (Cartesian axis) and pressure


     negative rho (up, down):  9.537E-04 0.000E+00
          total   stress  (Ry/bohr**3)                   (kbar)     P=       99.85
   0.00067874   0.00000000   0.00000000           99.85        0.00        0.00
   0.00000000   0.00067874   0.00000000            0.00       99.85        0.00
   0.00000000   0.00000000   0.00067874            0.00        0.00       99.85

     Energy error            =      2.5E-05 Ry
     Gradient error          =      0.0E+00 Ry/Bohr
     Cell gradient error     =      1.5E-01 kbar

     number of scf cycles    =   3
     number of bfgs steps    =   2

     enthalpy           old  =    -448.4714112746 Ry
     enthalpy           new  =    -448.4714361603 Ry

     CASE: enthalpy          _new < enthalpy          _old

     small trust_radius: resetting bfgs history

     new trust radius        =       0.0000675590 bohr
     new conv_thr            =            1.0E-10 Ry

     new unit-cell volume =    165.88866 a.u.^3 (    24.58216 Ang^3 )
     density =      7.00580 g/cm^3

CELL_PARAMETERS (alat=  5.55330037)
   0.989436056   0.000000000   0.000000000
   0.000000000   0.989436056   0.000000000
   0.000000000   0.000000000   0.989436056

ATOMIC_POSITIONS (crystal)
Fe               0.5000000000        0.5000000000        0.5000000000
Ti               0.0000000000        0.0000000000        0.0000000000



     Writing config-only to output data dir ./TiFe.save/ :
     XML data file
     NEW-OLD atomic charge density approx. for the potential
     New effective cutoffs (rho, wfc): 1773.13  126.66

     Check: negative core charge=   -0.000002

     negative rho (up, down):  9.537E-04 0.000E+00

     total cpu time spent up to now is       94.7 secs

     per-process dynamical memory:   238.8 Mb

     Self-consistent Calculation

     iteration #  1     ecut=   124.00 Ry     beta= 0.70
     Davidson diagonalization with overlap
     ethr =  1.00E-06,  avg # of iterations =  2.0

     Threshold (ethr) on eigenvalues was too large:
     Diagonalizing with lowered threshold

     Davidson diagonalization with overlap
     ethr =  2.42E-11,  avg # of iterations =  4.7

     negative rho (up, down):  9.536E-04 0.000E+00

     total cpu time spent up to now is       98.2 secs

     total energy              =    -448.58420497 Ry
     estimated scf accuracy    <          9.6E-09 Ry

     iteration #  2     ecut=   124.00 Ry     beta= 0.70
     Davidson diagonalization with overlap
     ethr =  3.44E-11,  avg # of iterations =  4.7

     negative rho (up, down):  9.537E-04 0.000E+00

     total cpu time spent up to now is      100.1 secs

     total energy              =    -448.58420493 Ry
     estimated scf accuracy    <       0.00000090 Ry

     iteration #  3     ecut=   124.00 Ry     beta= 0.70
     Davidson diagonalization with overlap
     ethr =  3.44E-11,  avg # of iterations =  4.8

     negative rho (up, down):  9.536E-04 0.000E+00

     total cpu time spent up to now is      102.1 secs

     total energy              =    -448.58420498 Ry
     estimated scf accuracy    <          1.0E-09 Ry

     iteration #  4     ecut=   124.00 Ry     beta= 0.70
     Davidson diagonalization with overlap
     ethr =  3.59E-12,  avg # of iterations =  2.5

     negative rho (up, down):  9.536E-04 0.000E+00

     total cpu time spent up to now is      103.7 secs

     total energy              =    -448.58420498 Ry
     estimated scf accuracy    <          2.4E-10 Ry

     iteration #  5     ecut=   124.00 Ry     beta= 0.70
     Davidson diagonalization with overlap
     ethr =  8.42E-13,  avg # of iterations =  3.2

     negative rho (up, down):  9.536E-04 0.000E+00

     total cpu time spent up to now is      105.3 secs

     End of self-consistent calculation

     Number of k-points >= 100: set verbosity='high' to print the bands.

     the Fermi energy is    18.3917 ev

!    total energy              =    -448.58420498 Ry
     estimated scf accuracy    <          2.3E-12 Ry
     smearing contrib. (-TS)   =       0.00000198 Ry
     internal energy E=F+TS    =    -448.58420697 Ry

     The total energy is F=E-TS. E is the sum of the following terms:
     one-electron contribution =    -147.08262911 Ry
     hartree contribution      =      90.19397899 Ry
     xc contribution           =     -52.94639280 Ry
     ewald contribution        =    -262.59473882 Ry
     one-center paw contrib.   =     -76.15442523 Ry

     convergence has been achieved in   5 iterations

     negative rho (up, down):  9.536E-04 0.000E+00

     Forces acting on atoms (cartesian axes, Ry/au):

     atom    1 type  1   force =     0.00000000    0.00000000    0.00000000
     atom    2 type  2   force =     0.00000000    0.00000000    0.00000000

     Total force =     0.000000     Total SCF correction =     0.000000


     Computing stress (Cartesian axis) and pressure


     negative rho (up, down):  9.536E-04 0.000E+00
          total   stress  (Ry/bohr**3)                   (kbar)     P=      100.00
   0.00067980   0.00000000   0.00000000          100.00        0.00        0.00
   0.00000000   0.00067980   0.00000000            0.00      100.00        0.00
   0.00000000   0.00000000   0.00067980            0.00        0.00      100.00

     Energy error            =      7.7E-09 Ry
     Gradient error          =      0.0E+00 Ry/Bohr
     Cell gradient error     =      2.2E-03 kbar

     bfgs converged in   4 scf cycles and   3 bfgs steps
     (criteria: energy <  1.0E-04 Ry, force <  1.0E-03 Ry/Bohr, cell <  1.0E-01 kbar)

     End of BFGS Geometry Optimization

     Final enthalpy           =    -448.4714361680 Ry

     File ./TiFe.bfgs deleted, as requested
Begin final coordinates
     new unit-cell volume =    165.88866 a.u.^3 (    24.58216 Ang^3 )
     density =      7.00580 g/cm^3

CELL_PARAMETERS (alat=  5.55330037)
   0.989436056   0.000000000   0.000000000
   0.000000000   0.989436056   0.000000000
   0.000000000   0.000000000   0.989436056

ATOMIC_POSITIONS (crystal)
Fe               0.5000000000        0.5000000000        0.5000000000
Ti               0.0000000000        0.0000000000        0.0000000000
End final coordinates



     Writing config-only to output data dir ./TiFe.save/ :
     XML data file

     Final scf calculation at the relaxed structure.
     The G-vectors are recalculated for the final unit cell
     Results may differ from those at the preceding step.

     Parallelization info
     --------------------
     sticks:   dense  smooth     PW     G-vecs:    dense   smooth      PW
     Min         523     150     43                25345     3886     617
     Max         524     151     44                25346     3889     620
     Sum        4189    1201    349               202765    31103    4945

     Using Slab Decomposition



     bravais-lattice index     =            0
     lattice parameter (alat)  =       5.5533  a.u.
     unit-cell volume          =     165.8887 (a.u.)^3
     number of atoms/cell      =            2
     number of atomic types    =            2
     number of electrons       =        28.00
     number of Kohn-Sham states=           18
     kinetic-energy cutoff     =     124.0000  Ry
     charge density cutoff     =    1736.0000  Ry
     scf convergence threshold =      1.0E-10
     mixing beta               =       0.7000
     number of iterations used =            8  plain     mixing
     press convergence thresh. =      1.0E-01
     Exchange-correlation= PBE
                           (   1   4   3   4   0   0   0)

     celldm(1)=   5.553300  celldm(2)=   0.000000  celldm(3)=   0.000000
     celldm(4)=   0.000000  celldm(5)=   0.000000  celldm(6)=   0.000000

     crystal axes: (cart. coord. in units of alat)
               a(1) = (   0.989436   0.000000   0.000000 )  
               a(2) = (   0.000000   0.989436   0.000000 )  
               a(3) = (   0.000000   0.000000   0.989436 )  

     reciprocal axes: (cart. coord. in units 2 pi/alat)
               b(1) = (  1.010677  0.000000  0.000000 )  
               b(2) = (  0.000000  1.010677  0.000000 )  
               b(3) = (  0.000000  0.000000  1.010677 )  


     PseudoPot. # 1 for Fe read from file:
     ../../pseudos/Fe.pbe-spn-kjpaw_psl.0.2.1.UPF
     MD5 check sum: e86618425769142926afa95317d90200
     Pseudo is Projector augmented-wave + core cor, Zval = 16.0
     Generated using "atomic" code by A. Dal Corso  v.5.0.99 svn rev. 10869
     Shape of augmentation charge: PSQ
     Using radial grid of 1191 points,  6 beta functions with: 
                l(1) =   0
                l(2) =   0
                l(3) =   1
                l(4) =   1
                l(5) =   2
                l(6) =   2
     Q(r) pseudized with 0 coefficients 


     PseudoPot. # 2 for Ti read from file:
     ../../pseudos/ti_pbe_v1.4.uspp.F.UPF
     MD5 check sum: 88a00a6731bd790ddea75d31a80cb452
     Pseudo is Ultrasoft + core correction, Zval = 12.0
     Generated by new atomic code, or converted to UPF format
     Using radial grid of  851 points,  6 beta functions with: 
                l(1) =   0
                l(2) =   0
                l(3) =   1
                l(4) =   1
                l(5) =   2
                l(6) =   2
     Q(r) pseudized with  6 coefficients,  rinner =    1.000   1.000   1.000
                                                       1.000   1.000

     atomic species   valence    mass     pseudopotential
     Fe               16.00    55.84500     Fe( 1.00)
     Ti               12.00    47.86700     Ti( 1.00)

     48 Sym. Ops., with inversion, found



   Cartesian axes

     site n.     atom                  positions (alat units)
         1        Fe     tau(   1) = (   0.4947180   0.4947180   0.4947180  )
         2        Ti     tau(   2) = (   0.0000000   0.0000000   0.0000000  )

     number of k points=   120  Marzari-Vanderbilt smearing, width (Ry)=  0.0050

     Number of k-points >= 100: set verbosity='high' to print them.

     Dense  grid:   202765 G-vectors     FFT dimensions: (  75,  75,  75)

     Smooth grid:    31103 G-vectors     FFT dimensions: (  40,  40,  40)

     Estimated max dynamical RAM per process >     122.82 MB

     Estimated total dynamical RAM >     982.59 MB

     Check: negative core charge=   -0.000002

     Initial potential from superposition of free atoms

     starting charge      26.9995, renormalised to      28.0000

     negative rho (up, down):  1.333E-03 0.000E+00
     Starting wfcs are   23 randomized atomic wfcs
     Checking if some PAW data can be deallocated... 

     total cpu time spent up to now is      107.8 secs

     per-process dynamical memory:   231.2 Mb

     Self-consistent Calculation

     iteration #  1     ecut=   124.00 Ry     beta= 0.70
     Davidson diagonalization with overlap
     c_bands:  1 eigenvalues not converged
     c_bands:  1 eigenvalues not converged
     c_bands:  1 eigenvalues not converged
     c_bands:  1 eigenvalues not converged
     c_bands:  1 eigenvalues not converged
     c_bands:  1 eigenvalues not converged
     c_bands:  1 eigenvalues not converged
     c_bands:  1 eigenvalues not converged
     c_bands:  1 eigenvalues not converged
     c_bands:  1 eigenvalues not converged
     c_bands:  1 eigenvalues not converged
     c_bands:  1 eigenvalues not converged
     ethr =  1.00E-06,  avg # of iterations = 16.3

     negative rho (up, down):  7.999E-05 0.000E+00

     total cpu time spent up to now is      114.9 secs

     total energy              =    -435.56515308 Ry
     estimated scf accuracy    <      16.67652496 Ry

     iteration #  2     ecut=   124.00 Ry     beta= 0.70
     Davidson diagonalization with overlap
     ethr =  1.00E-02,  avg # of iterations =  6.3

     negative rho (up, down):  7.488E-05 0.000E+00

     total cpu time spent up to now is      117.8 secs

     total energy              =    -448.60831674 Ry
     estimated scf accuracy    <      63.47006302 Ry

     iteration #  3     ecut=   124.00 Ry     beta= 0.70
     Davidson diagonalization with overlap
     ethr =  1.00E-02,  avg # of iterations =  3.1

     negative rho (up, down):  3.296E-04 0.000E+00

     total cpu time spent up to now is      119.7 secs

     total energy              =    -448.58259975 Ry
     estimated scf accuracy    <      16.27803842 Ry

     iteration #  4     ecut=   124.00 Ry     beta= 0.70
     Davidson diagonalization with overlap
     ethr =  1.00E-02,  avg # of iterations =  2.1

     negative rho (up, down):  3.323E-04 0.000E+00

     total cpu time spent up to now is      121.4 secs

     total energy              =    -449.11378683 Ry
     estimated scf accuracy    <       4.68490245 Ry

     iteration #  5     ecut=   124.00 Ry     beta= 0.70
     Davidson diagonalization with overlap
     ethr =  1.00E-02,  avg # of iterations =  1.0

     negative rho (up, down):  3.996E-04 0.000E+00

     total cpu time spent up to now is      122.8 secs

     total energy              =    -448.73936768 Ry
     estimated scf accuracy    <       4.41410830 Ry

     iteration #  6     ecut=   124.00 Ry     beta= 0.70
     Davidson diagonalization with overlap
     ethr =  1.00E-02,  avg # of iterations =  1.1

     negative rho (up, down):  4.469E-04 0.000E+00

     total cpu time spent up to now is      124.2 secs

     total energy              =    -448.69267274 Ry
     estimated scf accuracy    <       1.60442542 Ry

     iteration #  7     ecut=   124.00 Ry     beta= 0.70
     Davidson diagonalization with overlap
     ethr =  5.73E-03,  avg # of iterations =  1.1

     negative rho (up, down):  7.978E-04 0.000E+00

     total cpu time spent up to now is      125.6 secs

     total energy              =    -448.45624881 Ry
     estimated scf accuracy    <       0.70732768 Ry

     iteration #  8     ecut=   124.00 Ry     beta= 0.70
     Davidson diagonalization with overlap
     ethr =  2.53E-03,  avg # of iterations =  4.7

     negative rho (up, down):  6.480E-04 0.000E+00

     total cpu time spent up to now is      127.4 secs

     total energy              =    -448.30245839 Ry
     estimated scf accuracy    <       4.69018998 Ry

     iteration #  9     ecut=   124.00 Ry     beta= 0.70
     Davidson diagonalization with overlap
     ethr =  2.53E-03,  avg # of iterations =  3.5

     negative rho (up, down):  7.133E-04 0.000E+00

     total cpu time spent up to now is      129.1 secs

     total energy              =    -448.66112190 Ry
     estimated scf accuracy    <       0.24926272 Ry

     iteration # 10     ecut=   124.00 Ry     beta= 0.70
     Davidson diagonalization with overlap
     ethr =  8.90E-04,  avg # of iterations =  1.3

     negative rho (up, down):  4.734E-04 0.000E+00

     total cpu time spent up to now is      130.5 secs

     total energy              =    -448.64104717 Ry
     estimated scf accuracy    <       0.30834214 Ry

     iteration # 11     ecut=   124.00 Ry     beta= 0.70
     Davidson diagonalization with overlap
     ethr =  8.90E-04,  avg # of iterations =  2.0

     negative rho (up, down):  5.205E-04 0.000E+00

     total cpu time spent up to now is      132.1 secs

     total energy              =    -448.67246972 Ry
     estimated scf accuracy    <       0.43184192 Ry

     iteration # 12     ecut=   124.00 Ry     beta= 0.70
     Davidson diagonalization with overlap
     ethr =  8.90E-04,  avg # of iterations =  1.0

     negative rho (up, down):  7.598E-04 0.000E+00

     total cpu time spent up to now is      133.5 secs

     total energy              =    -448.73477061 Ry
     estimated scf accuracy    <       0.79666263 Ry

     iteration # 13     ecut=   124.00 Ry     beta= 0.70
     Davidson diagonalization with overlap
     ethr =  8.90E-04,  avg # of iterations =  2.0

     negative rho (up, down):  3.982E-04 0.000E+00

     total cpu time spent up to now is      135.0 secs

     total energy              =    -448.81399016 Ry
     estimated scf accuracy    <       2.35531762 Ry

     iteration # 14     ecut=   124.00 Ry     beta= 0.70
     Davidson diagonalization with overlap
     ethr =  8.90E-04,  avg # of iterations =  2.2

     negative rho (up, down):  7.027E-04 0.000E+00

     total cpu time spent up to now is      136.7 secs

     total energy              =    -448.56223976 Ry
     estimated scf accuracy    <       2.36097970 Ry

     iteration # 15     ecut=   124.00 Ry     beta= 0.70
     Davidson diagonalization with overlap
     ethr =  8.90E-04,  avg # of iterations =  2.2

     negative rho (up, down):  1.136E-03 0.000E+00

     total cpu time spent up to now is      138.2 secs

     total energy              =    -448.50133200 Ry
     estimated scf accuracy    <       0.46181471 Ry

     iteration # 16     ecut=   124.00 Ry     beta= 0.70
     Davidson diagonalization with overlap
     ethr =  8.90E-04,  avg # of iterations =  3.8

     negative rho (up, down):  1.115E-03 0.000E+00

     total cpu time spent up to now is      140.0 secs

     total energy              =    -448.60146791 Ry
     estimated scf accuracy    <       0.40041844 Ry

     iteration # 17     ecut=   124.00 Ry     beta= 0.70
     Davidson diagonalization with overlap
     ethr =  8.90E-04,  avg # of iterations =  1.0

     negative rho (up, down):  1.302E-03 0.000E+00

     total cpu time spent up to now is      141.4 secs

     total energy              =    -448.63833987 Ry
     estimated scf accuracy    <       0.32959759 Ry

     iteration # 18     ecut=   124.00 Ry     beta= 0.70
     Davidson diagonalization with overlap
     ethr =  8.90E-04,  avg # of iterations =  1.2

     negative rho (up, down):  1.303E-03 0.000E+00

     total cpu time spent up to now is      142.7 secs

     total energy              =    -448.65203378 Ry
     estimated scf accuracy    <       1.17392300 Ry

     iteration # 19     ecut=   124.00 Ry     beta= 0.70
     Davidson diagonalization with overlap
     ethr =  8.90E-04,  avg # of iterations =  1.0

     negative rho (up, down):  1.223E-03 0.000E+00

     total cpu time spent up to now is      144.1 secs

     total energy              =    -448.60968520 Ry
     estimated scf accuracy    <       1.16279876 Ry

     iteration # 20     ecut=   124.00 Ry     beta= 0.70
     Davidson diagonalization with overlap
     ethr =  8.90E-04,  avg # of iterations =  1.0

     negative rho (up, down):  1.213E-03 0.000E+00

     total cpu time spent up to now is      145.5 secs

     total energy              =    -448.59380581 Ry
     estimated scf accuracy    <       0.53931624 Ry

     iteration # 21     ecut=   124.00 Ry     beta= 0.70
     Davidson diagonalization with overlap
     ethr =  8.90E-04,  avg # of iterations =  1.1

     negative rho (up, down):  1.333E-03 0.000E+00

     total cpu time spent up to now is      146.8 secs

     total energy              =    -448.56199371 Ry
     estimated scf accuracy    <       0.20845086 Ry

     iteration # 22     ecut=   124.00 Ry     beta= 0.70
     Davidson diagonalization with overlap
     ethr =  7.44E-04,  avg # of iterations =  2.0

     negative rho (up, down):  1.275E-03 0.000E+00

     total cpu time spent up to now is      148.2 secs

     total energy              =    -448.59009620 Ry
     estimated scf accuracy    <       0.07126682 Ry

     iteration # 23     ecut=   124.00 Ry     beta= 0.70
     Davidson diagonalization with overlap
     ethr =  2.55E-04,  avg # of iterations =  1.1

     negative rho (up, down):  1.327E-03 0.000E+00

     total cpu time spent up to now is      149.6 secs

     total energy              =    -448.59300692 Ry
     estimated scf accuracy    <       0.08448929 Ry

     iteration # 24     ecut=   124.00 Ry     beta= 0.70
     Davidson diagonalization with overlap
     ethr =  2.55E-04,  avg # of iterations =  1.1

     negative rho (up, down):  1.450E-03 0.000E+00

     total cpu time spent up to now is      151.0 secs

     total energy              =    -448.59453448 Ry
     estimated scf accuracy    <       0.11689171 Ry

     iteration # 25     ecut=   124.00 Ry     beta= 0.70
     Davidson diagonalization with overlap
     ethr =  2.55E-04,  avg # of iterations =  1.0

     negative rho (up, down):  1.264E-03 0.000E+00

     total cpu time spent up to now is      152.4 secs

     total energy              =    -448.58883248 Ry
     estimated scf accuracy    <       0.11602622 Ry

     iteration # 26     ecut=   124.00 Ry     beta= 0.70
     Davidson diagonalization with overlap
     ethr =  2.55E-04,  avg # of iterations =  1.0

     negative rho (up, down):  9.770E-04 0.000E+00

     total cpu time spent up to now is      153.8 secs

     total energy              =    -448.58222685 Ry
     estimated scf accuracy    <       0.07050794 Ry

     iteration # 27     ecut=   124.00 Ry     beta= 0.70
     Davidson diagonalization with overlap
     ethr =  2.52E-04,  avg # of iterations =  1.1

     negative rho (up, down):  9.038E-04 0.000E+00

     total cpu time spent up to now is      155.2 secs

     total energy              =    -448.58426460 Ry
     estimated scf accuracy    <       0.00843236 Ry

     iteration # 28     ecut=   124.00 Ry     beta= 0.70
     Davidson diagonalization with overlap
     ethr =  3.01E-05,  avg # of iterations =  1.4

     negative rho (up, down):  9.011E-04 0.000E+00

     total cpu time spent up to now is      156.6 secs

     total energy              =    -448.58465288 Ry
     estimated scf accuracy    <       0.00397848 Ry

     iteration # 29     ecut=   124.00 Ry     beta= 0.70
     Davidson diagonalization with overlap
     ethr =  1.42E-05,  avg # of iterations =  1.1

     negative rho (up, down):  9.858E-04 0.000E+00

     total cpu time spent up to now is      157.9 secs

     total energy              =    -448.58363406 Ry
     estimated scf accuracy    <       0.00533321 Ry

     iteration # 30     ecut=   124.00 Ry     beta= 0.70
     Davidson diagonalization with overlap
     ethr =  1.42E-05,  avg # of iterations =  2.1

     negative rho (up, down):  9.706E-04 0.000E+00

     total cpu time spent up to now is      159.6 secs

     total energy              =    -448.58412236 Ry
     estimated scf accuracy    <       0.00400571 Ry

     iteration # 31     ecut=   124.00 Ry     beta= 0.70
     Davidson diagonalization with overlap
     ethr =  1.42E-05,  avg # of iterations =  1.0

     negative rho (up, down):  9.579E-04 0.000E+00

     total cpu time spent up to now is      160.9 secs

     total energy              =    -448.58408041 Ry
     estimated scf accuracy    <       0.00114687 Ry

     iteration # 32     ecut=   124.00 Ry     beta= 0.70
     Davidson diagonalization with overlap
     ethr =  4.10E-06,  avg # of iterations =  2.4

     negative rho (up, down):  9.534E-04 0.000E+00

     total cpu time spent up to now is      162.4 secs

     total energy              =    -448.58413280 Ry
     estimated scf accuracy    <       0.00005176 Ry

     iteration # 33     ecut=   124.00 Ry     beta= 0.70
     Davidson diagonalization with overlap
     ethr =  1.85E-07,  avg # of iterations =  3.8

     negative rho (up, down):  9.531E-04 0.000E+00

     total cpu time spent up to now is      164.1 secs

     total energy              =    -448.58414739 Ry
     estimated scf accuracy    <       0.00002453 Ry

     iteration # 34     ecut=   124.00 Ry     beta= 0.70
     Davidson diagonalization with overlap
     ethr =  8.76E-08,  avg # of iterations =  1.4

     negative rho (up, down):  9.533E-04 0.000E+00

     total cpu time spent up to now is      165.5 secs

     total energy              =    -448.58414970 Ry
     estimated scf accuracy    <       0.00000092 Ry

     iteration # 35     ecut=   124.00 Ry     beta= 0.70
     Davidson diagonalization with overlap
     ethr =  3.30E-09,  avg # of iterations =  4.6

     negative rho (up, down):  9.534E-04 0.000E+00

     total cpu time spent up to now is      167.4 secs

     total energy              =    -448.58414990 Ry
     estimated scf accuracy    <       0.00000241 Ry

     iteration # 36     ecut=   124.00 Ry     beta= 0.70
     Davidson diagonalization with overlap
     ethr =  3.30E-09,  avg # of iterations =  1.7

     negative rho (up, down):  9.534E-04 0.000E+00

     total cpu time spent up to now is      168.8 secs

     total energy              =    -448.58415000 Ry
     estimated scf accuracy    <       0.00000008 Ry

     iteration # 37     ecut=   124.00 Ry     beta= 0.70
     Davidson diagonalization with overlap
     ethr =  2.74E-10,  avg # of iterations =  4.1

     negative rho (up, down):  9.532E-04 0.000E+00

     total cpu time spent up to now is      170.6 secs

     total energy              =    -448.58415002 Ry
     estimated scf accuracy    <       0.00000005 Ry

     iteration # 38     ecut=   124.00 Ry     beta= 0.70
     Davidson diagonalization with overlap
     ethr =  1.68E-10,  avg # of iterations =  1.3

     negative rho (up, down):  9.532E-04 0.000E+00

     total cpu time spent up to now is      171.9 secs

     total energy              =    -448.58415002 Ry
     estimated scf accuracy    <          6.1E-09 Ry

     iteration # 39     ecut=   124.00 Ry     beta= 0.70
     Davidson diagonalization with overlap
     ethr =  2.18E-11,  avg # of iterations =  3.7

     negative rho (up, down):  9.532E-04 0.000E+00

     total cpu time spent up to now is      173.6 secs

     total energy              =    -448.58415002 Ry
     estimated scf accuracy    <          7.9E-10 Ry

     iteration # 40     ecut=   124.00 Ry     beta= 0.70
     Davidson diagonalization with overlap
     ethr =  2.82E-12,  avg # of iterations =  4.3

     negative rho (up, down):  9.532E-04 0.000E+00

     total cpu time spent up to now is      175.4 secs

     End of self-consistent calculation

     Number of k-points >= 100: set verbosity='high' to print the bands.

     the Fermi energy is    18.3917 ev

!    total energy              =    -448.58415002 Ry
     estimated scf accuracy    <          8.1E-12 Ry
     smearing contrib. (-TS)   =       0.00000200 Ry
     internal energy E=F+TS    =    -448.58415202 Ry

     The total energy is F=E-TS. E is the sum of the following terms:
     one-electron contribution =    -147.08272853 Ry
     hartree contribution      =      90.19407886 Ry
     xc contribution           =     -52.94634686 Ry
     ewald contribution        =    -262.59473882 Ry
     one-center paw contrib.   =     -76.15441666 Ry

     convergence has been achieved in  40 iterations

     negative rho (up, down):  9.532E-04 0.000E+00

     Forces acting on atoms (cartesian axes, Ry/au):

     atom    1 type  1   force =     0.00000000    0.00000000    0.00000000
     atom    2 type  2   force =     0.00000000    0.00000000    0.00000000

     Total force =     0.000000     Total SCF correction =     0.000000


     Computing stress (Cartesian axis) and pressure


     negative rho (up, down):  9.532E-04 0.000E+00
          total   stress  (Ry/bohr**3)                   (kbar)     P=       99.75
   0.00067811   0.00000000   0.00000000           99.75        0.00        0.00
   0.00000000   0.00067811   0.00000000            0.00       99.75        0.00
   0.00000000   0.00000000   0.00067811            0.00        0.00       99.75


     Writing all to output data dir ./TiFe.save/ :
     XML data file, charge density, pseudopotentials, collected wavefunctions

     init_run     :      2.18s CPU      2.55s WALL (       2 calls)
     electrons    :    153.98s CPU    164.74s WALL (       5 calls)
     update_pot   :      0.26s CPU      0.33s WALL (       3 calls)
     forces       :      1.26s CPU      1.50s WALL (       5 calls)
     stress       :      6.50s CPU      6.83s WALL (       5 calls)

     Called by init_run:
     wfcinit      :      1.13s CPU      1.33s WALL (       2 calls)
     potinit      :      0.45s CPU      0.51s WALL (       2 calls)
     hinit0       :      0.34s CPU      0.39s WALL (       2 calls)

     Called by electrons:
     c_bands      :    112.71s CPU    118.83s WALL (      97 calls)
     sum_band     :     26.86s CPU     29.41s WALL (      97 calls)
     v_of_rho     :      1.86s CPU      2.27s WALL (      99 calls)
     newd         :      7.87s CPU      9.43s WALL (      99 calls)
     PAW_pot      :      5.10s CPU      5.23s WALL (     102 calls)
     mix_rho      :      0.23s CPU      0.30s WALL (      97 calls)

     Called by c_bands:
     init_us_2    :      2.70s CPU      2.86s WALL (   25080 calls)
     cegterg      :    108.50s CPU    114.36s WALL (   11640 calls)

     Called by *egterg:
     cdiaghg      :     11.71s CPU     12.40s WALL (   43613 calls)
     h_psi        :     84.10s CPU     88.83s WALL (   44573 calls)
     s_psi        :      2.05s CPU      2.18s WALL (   44573 calls)
     g_psi        :      0.37s CPU      0.39s WALL (   32693 calls)

     Called by h_psi:
     h_psi:calbec :      3.35s CPU      3.54s WALL (   44573 calls)
     vloc_psi     :     78.14s CPU     82.54s WALL (   44573 calls)
     add_vuspsi   :      2.17s CPU      2.30s WALL (   44573 calls)

     General routines
     calbec       :      5.33s CPU      5.62s WALL (   66773 calls)
     fft          :      1.60s CPU      2.30s WALL (    1408 calls)
     ffts         :      0.31s CPU      0.36s WALL (     196 calls)
     fftw         :     78.57s CPU     82.87s WALL ( 1289100 calls)
     interpolate  :      0.39s CPU      0.45s WALL (      99 calls)

     Parallel routines

     PWSCF        :    165.07s CPU    177.76s WALL


   This run was terminated on:  18:57:58  27Oct2025            

=------------------------------------------------------------------------------=
   JOB DONE.
=------------------------------------------------------------------------------=
