
     Program PWSCF v.7.4 starts on 27Oct2025 at 18:41:58 

     This program is part of the open-source Quantum ESPRESSO suite
     for quantum simulation of materials; please cite
         "P. Giannozzi et al., J. Phys.:Condens. Matter 21 395502 (2009);
         "P. Giannozzi et al., J. Phys.:Condens. Matter 29 465901 (2017);
         "P. Giannozzi et al., J. Chem. Phys. 152 154105 (2020);
          URL http://www.quantum-espresso.org", 
     in publications or presentations arising from this work. More details at
     http://www.quantum-espresso.org/quote

     Parallel version (MPI & OpenMP), running on       8 processor cores
     Number of MPI processes:                 8
     Threads/MPI process:                     1

     MPI processes distributed on     1 nodes
     255792 MiB available memory on the printing compute node when the environment starts

     Reading input from TiFe_full.in

     Current dimensions of program PWSCF are:
     Max number of different atomic species (ntypx) = 10
     Max number of k-points (npk) =  40000
     Max angular momentum in pseudopotentials (lmaxx) =  4
     file Fe.pbe-spn-kjpaw_psl.0.2.1.UPF: wavefunction(s)  3D renormalized

     IMPORTANT: XC functional enforced from input :
     Exchange-correlation= PBE
                           (   1   4   3   4   0   0   0)
     Any further DFT definition will be discarded
     Please, verify this is what you really want

     Message from routine setup:
     using ibrav=0 with symmetry is DISCOURAGED, use correct ibrav instead

     R & G space division:  proc/nbgrp/npool/nimage =       8
     Subspace diagonalization in iterative solution of the eigenvalue problem:
     a serial algorithm will be used


     Parallelization info
     --------------------
     sticks:   dense  smooth     PW     G-vecs:    dense   smooth      PW
     Min         532     151     44                26154     3989     629
     Max         533     152     46                26155     3993     632
     Sum        4257    1209    357               209233    31919    5041

     Using Slab Decomposition



     bravais-lattice index     =            0
     lattice parameter (alat)  =       5.5533  a.u.
     unit-cell volume          =     171.2590 (a.u.)^3
     number of atoms/cell      =            2
     number of atomic types    =            2
     number of electrons       =        28.00
     number of Kohn-Sham states=           18
     kinetic-energy cutoff     =     124.0000  Ry
     charge density cutoff     =    1736.0000  Ry
     scf convergence threshold =      1.0E-08
     mixing beta               =       0.7000
     number of iterations used =            8  plain     mixing
     energy convergence thresh.=      1.0E-04
     force convergence thresh. =      1.0E-03
     press convergence thresh. =      1.0E-01
     Exchange-correlation= PBE
                           (   1   4   3   4   0   0   0)
     nstep                     =           50


     celldm(1)=   5.553300  celldm(2)=   0.000000  celldm(3)=   0.000000
     celldm(4)=   0.000000  celldm(5)=   0.000000  celldm(6)=   0.000000

     crystal axes: (cart. coord. in units of alat)
               a(1) = (   1.000000   0.000000   0.000000 )  
               a(2) = (   0.000000   1.000000   0.000000 )  
               a(3) = (   0.000000   0.000000   1.000000 )  

     reciprocal axes: (cart. coord. in units 2 pi/alat)
               b(1) = (  1.000000  0.000000  0.000000 )  
               b(2) = (  0.000000  1.000000  0.000000 )  
               b(3) = (  0.000000  0.000000  1.000000 )  


     PseudoPot. # 1 for Fe read from file:
     ../../pseudos/Fe.pbe-spn-kjpaw_psl.0.2.1.UPF
     MD5 check sum: e86618425769142926afa95317d90200
     Pseudo is Projector augmented-wave + core cor, Zval = 16.0
     Generated using "atomic" code by A. Dal Corso  v.5.0.99 svn rev. 10869
     Shape of augmentation charge: PSQ
     Using radial grid of 1191 points,  6 beta functions with: 
                l(1) =   0
                l(2) =   0
                l(3) =   1
                l(4) =   1
                l(5) =   2
                l(6) =   2
     Q(r) pseudized with 0 coefficients 


     PseudoPot. # 2 for Ti read from file:
     ../../pseudos/ti_pbe_v1.4.uspp.F.UPF
     MD5 check sum: 88a00a6731bd790ddea75d31a80cb452
     Pseudo is Ultrasoft + core correction, Zval = 12.0
     Generated by new atomic code, or converted to UPF format
     Using radial grid of  851 points,  6 beta functions with: 
                l(1) =   0
                l(2) =   0
                l(3) =   1
                l(4) =   1
                l(5) =   2
                l(6) =   2
     Q(r) pseudized with  6 coefficients,  rinner =    1.000   1.000   1.000
                                                       1.000   1.000

     atomic species   valence    mass     pseudopotential
     Fe               16.00    55.84500     Fe( 1.00)
     Ti               12.00    47.86700     Ti( 1.00)

     48 Sym. Ops., with inversion, found



   Cartesian axes

     site n.     atom                  positions (alat units)
         1        Fe     tau(   1) = (   0.5000000   0.5000000   0.5000000  )
         2        Ti     tau(   2) = (   0.0000000   0.0000000   0.0000000  )

     number of k points=   120  Marzari-Vanderbilt smearing, width (Ry)=  0.0050

     Number of k-points >= 100: set verbosity='high' to print them.

     Dense  grid:   209233 G-vectors     FFT dimensions: (  75,  75,  75)

     Smooth grid:    31919 G-vectors     FFT dimensions: (  40,  40,  40)

     Estimated max dynamical RAM per process >     125.80 MB

     Estimated total dynamical RAM >    1006.42 MB

     Check: negative core charge=   -0.000002

     Initial potential from superposition of free atoms

     starting charge      26.9995, renormalised to      28.0000

     negative rho (up, down):  1.347E-03 0.000E+00
     Starting wfcs are   23 randomized atomic wfcs
     Checking if some PAW data can be deallocated... 

     total cpu time spent up to now is        2.1 secs

     per-process dynamical memory:   227.9 Mb

     Self-consistent Calculation

     iteration #  1     ecut=   124.00 Ry     beta= 0.70
     Davidson diagonalization with overlap
     ethr =  1.00E-02,  avg # of iterations =  2.1

     negative rho (up, down):  8.075E-05 0.000E+00

     total cpu time spent up to now is        3.8 secs

     total energy              =    -434.88034974 Ry
     estimated scf accuracy    <      17.47740323 Ry

     iteration #  2     ecut=   124.00 Ry     beta= 0.70
     Davidson diagonalization with overlap
     ethr =  1.00E-02,  avg # of iterations =  6.1

     negative rho (up, down):  2.388E-05 0.000E+00

     total cpu time spent up to now is        6.7 secs

     total energy              =    -448.51195570 Ry
     estimated scf accuracy    <      66.14338935 Ry

     iteration #  3     ecut=   124.00 Ry     beta= 0.70
     Davidson diagonalization with overlap
     ethr =  1.00E-02,  avg # of iterations =  3.1

     negative rho (up, down):  2.384E-04 0.000E+00

     total cpu time spent up to now is        8.7 secs

     total energy              =    -448.59876074 Ry
     estimated scf accuracy    <      16.77187988 Ry

     iteration #  4     ecut=   124.00 Ry     beta= 0.70
     Davidson diagonalization with overlap
     ethr =  1.00E-02,  avg # of iterations =  2.1

     negative rho (up, down):  2.771E-04 0.000E+00

     total cpu time spent up to now is       10.3 secs

     total energy              =    -449.11451992 Ry
     estimated scf accuracy    <       4.73362336 Ry

     iteration #  5     ecut=   124.00 Ry     beta= 0.70
     Davidson diagonalization with overlap
     ethr =  1.00E-02,  avg # of iterations =  1.0

     negative rho (up, down):  3.233E-04 0.000E+00

     total cpu time spent up to now is       11.6 secs

     total energy              =    -449.12131532 Ry
     estimated scf accuracy    <       4.31212425 Ry

     iteration #  6     ecut=   124.00 Ry     beta= 0.70
     Davidson diagonalization with overlap
     ethr =  1.00E-02,  avg # of iterations =  1.0

     negative rho (up, down):  1.107E-03 0.000E+00

     total cpu time spent up to now is       13.0 secs

     total energy              =    -447.89389661 Ry
     estimated scf accuracy    <       4.51968901 Ry

     iteration #  7     ecut=   124.00 Ry     beta= 0.70
     Davidson diagonalization with overlap
     ethr =  1.00E-02,  avg # of iterations =  3.4

     negative rho (up, down):  1.008E-03 0.000E+00

     total cpu time spent up to now is       14.7 secs

     total energy              =    -448.58423346 Ry
     estimated scf accuracy    <       3.81978614 Ry

     iteration #  8     ecut=   124.00 Ry     beta= 0.70
     Davidson diagonalization with overlap
     ethr =  1.00E-02,  avg # of iterations =  1.0

     negative rho (up, down):  8.248E-04 0.000E+00

     total cpu time spent up to now is       16.0 secs

     total energy              =    -448.46846099 Ry
     estimated scf accuracy    <       1.21375717 Ry

     iteration #  9     ecut=   124.00 Ry     beta= 0.70
     Davidson diagonalization with overlap
     ethr =  4.33E-03,  avg # of iterations =  1.7

     negative rho (up, down):  8.317E-04 0.000E+00

     total cpu time spent up to now is       17.5 secs

     total energy              =    -448.59501092 Ry
     estimated scf accuracy    <       0.12585284 Ry

     iteration # 10     ecut=   124.00 Ry     beta= 0.70
     Davidson diagonalization with overlap
     ethr =  4.49E-04,  avg # of iterations =  2.3

     negative rho (up, down):  8.588E-04 0.000E+00

     total cpu time spent up to now is       18.9 secs

     total energy              =    -448.59602789 Ry
     estimated scf accuracy    <       0.14907511 Ry

     iteration # 11     ecut=   124.00 Ry     beta= 0.70
     Davidson diagonalization with overlap
     ethr =  4.49E-04,  avg # of iterations =  1.1

     negative rho (up, down):  1.121E-03 0.000E+00

     total cpu time spent up to now is       20.3 secs

     total energy              =    -448.56917534 Ry
     estimated scf accuracy    <       0.14868094 Ry

     iteration # 12     ecut=   124.00 Ry     beta= 0.70
     Davidson diagonalization with overlap
     ethr =  4.49E-04,  avg # of iterations =  4.3

     negative rho (up, down):  1.213E-03 0.000E+00

     total cpu time spent up to now is       22.3 secs

     total energy              =    -448.65391027 Ry
     estimated scf accuracy    <       0.18318038 Ry

     iteration # 13     ecut=   124.00 Ry     beta= 0.70
     Davidson diagonalization with overlap
     ethr =  4.49E-04,  avg # of iterations =  1.9

     negative rho (up, down):  2.114E-03 0.000E+00

     total cpu time spent up to now is       23.7 secs

     total energy              =    -449.03322662 Ry
     estimated scf accuracy    <       0.44442170 Ry

     iteration # 14     ecut=   124.00 Ry     beta= 0.70
     Davidson diagonalization with overlap
     ethr =  4.49E-04,  avg # of iterations =  6.2

     negative rho (up, down):  1.459E-03 0.000E+00

     total cpu time spent up to now is       26.2 secs

     total energy              =    -448.51932690 Ry
     estimated scf accuracy    <      26.98882361 Ry

     iteration # 15     ecut=   124.00 Ry     beta= 0.70
     Davidson diagonalization with overlap
     ethr =  4.49E-04,  avg # of iterations =  4.8

     negative rho (up, down):  1.137E-03 0.000E+00

     total cpu time spent up to now is       28.4 secs

     total energy              =    -448.49454821 Ry
     estimated scf accuracy    <       4.43870873 Ry

     iteration # 16     ecut=   124.00 Ry     beta= 0.70
     Davidson diagonalization with overlap
     ethr =  4.49E-04,  avg # of iterations =  4.3

     negative rho (up, down):  1.088E-03 0.000E+00

     total cpu time spent up to now is       30.4 secs

     total energy              =    -448.60519511 Ry
     estimated scf accuracy    <       0.36277653 Ry

     iteration # 17     ecut=   124.00 Ry     beta= 0.70
     Davidson diagonalization with overlap
     ethr =  4.49E-04,  avg # of iterations =  2.0

     negative rho (up, down):  1.022E-03 0.000E+00

     total cpu time spent up to now is       31.8 secs

     total energy              =    -448.58523807 Ry
     estimated scf accuracy    <       0.39566389 Ry

     iteration # 18     ecut=   124.00 Ry     beta= 0.70
     Davidson diagonalization with overlap
     ethr =  4.49E-04,  avg # of iterations =  1.2

     negative rho (up, down):  9.735E-04 0.000E+00

     total cpu time spent up to now is       33.2 secs

     total energy              =    -448.57914660 Ry
     estimated scf accuracy    <       0.10585194 Ry

     iteration # 19     ecut=   124.00 Ry     beta= 0.70
     Davidson diagonalization with overlap
     ethr =  3.78E-04,  avg # of iterations =  1.8

     negative rho (up, down):  9.827E-04 0.000E+00

     total cpu time spent up to now is       34.7 secs

     total energy              =    -448.58492275 Ry
     estimated scf accuracy    <       0.01167453 Ry

     iteration # 20     ecut=   124.00 Ry     beta= 0.70
     Davidson diagonalization with overlap
     ethr =  4.17E-05,  avg # of iterations =  4.3

     negative rho (up, down):  9.840E-04 0.000E+00

     total cpu time spent up to now is       36.4 secs

     total energy              =    -448.58662258 Ry
     estimated scf accuracy    <       0.00743010 Ry

     iteration # 21     ecut=   124.00 Ry     beta= 0.70
     Davidson diagonalization with overlap
     ethr =  2.65E-05,  avg # of iterations =  1.2

     negative rho (up, down):  9.783E-04 0.000E+00

     total cpu time spent up to now is       37.8 secs

     total energy              =    -448.58668664 Ry
     estimated scf accuracy    <       0.00779711 Ry

     iteration # 22     ecut=   124.00 Ry     beta= 0.70
     Davidson diagonalization with overlap
     ethr =  2.65E-05,  avg # of iterations =  1.0

     negative rho (up, down):  1.037E-03 0.000E+00

     total cpu time spent up to now is       39.2 secs

     total energy              =    -448.58737858 Ry
     estimated scf accuracy    <       0.00638001 Ry

     iteration # 23     ecut=   124.00 Ry     beta= 0.70
     Davidson diagonalization with overlap
     ethr =  2.28E-05,  avg # of iterations =  1.0

     negative rho (up, down):  1.004E-03 0.000E+00

     total cpu time spent up to now is       40.5 secs

     total energy              =    -448.58667571 Ry
     estimated scf accuracy    <       0.01401586 Ry

     iteration # 24     ecut=   124.00 Ry     beta= 0.70
     Davidson diagonalization with overlap
     ethr =  2.28E-05,  avg # of iterations =  1.0

     negative rho (up, down):  9.887E-04 0.000E+00

     total cpu time spent up to now is       41.9 secs

     total energy              =    -448.58663217 Ry
     estimated scf accuracy    <       0.00473462 Ry

     iteration # 25     ecut=   124.00 Ry     beta= 0.70
     Davidson diagonalization with overlap
     ethr =  1.69E-05,  avg # of iterations =  1.0

     negative rho (up, down):  9.662E-04 0.000E+00

     total cpu time spent up to now is       43.2 secs

     total energy              =    -448.58651421 Ry
     estimated scf accuracy    <       0.00172769 Ry

     iteration # 26     ecut=   124.00 Ry     beta= 0.70
     Davidson diagonalization with overlap
     ethr =  6.17E-06,  avg # of iterations =  1.7

     negative rho (up, down):  9.659E-04 0.000E+00

     total cpu time spent up to now is       44.6 secs

     total energy              =    -448.58655054 Ry
     estimated scf accuracy    <       0.00047004 Ry

     iteration # 27     ecut=   124.00 Ry     beta= 0.70
     Davidson diagonalization with overlap
     ethr =  1.68E-06,  avg # of iterations =  2.3

     negative rho (up, down):  9.621E-04 0.000E+00

     total cpu time spent up to now is       46.1 secs

     total energy              =    -448.58654470 Ry
     estimated scf accuracy    <       0.00023845 Ry

     iteration # 28     ecut=   124.00 Ry     beta= 0.70
     Davidson diagonalization with overlap
     ethr =  8.52E-07,  avg # of iterations =  1.7

     negative rho (up, down):  9.604E-04 0.000E+00

     total cpu time spent up to now is       47.5 secs

     total energy              =    -448.58653701 Ry
     estimated scf accuracy    <       0.00010746 Ry

     iteration # 29     ecut=   124.00 Ry     beta= 0.70
     Davidson diagonalization with overlap
     ethr =  3.84E-07,  avg # of iterations =  2.4

     negative rho (up, down):  9.615E-04 0.000E+00

     total cpu time spent up to now is       49.1 secs

     total energy              =    -448.58653629 Ry
     estimated scf accuracy    <       0.00003417 Ry

     iteration # 30     ecut=   124.00 Ry     beta= 0.70
     Davidson diagonalization with overlap
     ethr =  1.22E-07,  avg # of iterations =  3.3

     negative rho (up, down):  9.610E-04 0.000E+00

     total cpu time spent up to now is       50.7 secs

     total energy              =    -448.58654028 Ry
     estimated scf accuracy    <       0.00000540 Ry

     iteration # 31     ecut=   124.00 Ry     beta= 0.70
     Davidson diagonalization with overlap
     ethr =  1.93E-08,  avg # of iterations =  4.0

     negative rho (up, down):  9.613E-04 0.000E+00

     total cpu time spent up to now is       52.4 secs

     total energy              =    -448.58654137 Ry
     estimated scf accuracy    <       0.00000083 Ry

     iteration # 32     ecut=   124.00 Ry     beta= 0.70
     Davidson diagonalization with overlap
     ethr =  2.95E-09,  avg # of iterations =  3.0

     negative rho (up, down):  9.613E-04 0.000E+00

     total cpu time spent up to now is       54.0 secs

     total energy              =    -448.58654147 Ry
     estimated scf accuracy    <       0.00000005 Ry

     iteration # 33     ecut=   124.00 Ry     beta= 0.70
     Davidson diagonalization with overlap
     ethr =  1.74E-10,  avg # of iterations =  4.5

     negative rho (up, down):  9.615E-04 0.000E+00

     total cpu time spent up to now is       56.1 secs

     End of self-consistent calculation

     Number of k-points >= 100: set verbosity='high' to print the bands.

     the Fermi energy is    17.7222 ev

!    total energy              =    -448.58654149 Ry
     estimated scf accuracy    <          4.8E-09 Ry
     smearing contrib. (-TS)   =      -0.00001774 Ry
     internal energy E=F+TS    =    -448.58652375 Ry

     The total energy is F=E-TS. E is the sum of the following terms:
     one-electron contribution =    -151.35065372 Ry
     hartree contribution      =      91.62732609 Ry
     xc contribution           =     -52.88875637 Ry
     ewald contribution        =    -259.82070277 Ry
     one-center paw contrib.   =     -76.15373699 Ry

     convergence has been achieved in  33 iterations

     negative rho (up, down):  9.615E-04 0.000E+00

     Forces acting on atoms (cartesian axes, Ry/au):

     atom    1 type  1   force =     0.00000000    0.00000000    0.00000000
     atom    2 type  2   force =     0.00000000    0.00000000    0.00000000

     Total force =     0.000000     Total SCF correction =     0.000000


     Computing stress (Cartesian axis) and pressure


     negative rho (up, down):  9.615E-04 0.000E+00
          total   stress  (Ry/bohr**3)                   (kbar)     P=       29.45
   0.00020020   0.00000000   0.00000000           29.45        0.00        0.00
   0.00000000   0.00020020   0.00000000            0.00       29.45        0.00
   0.00000000   0.00000000   0.00020020            0.00        0.00       29.45


     BFGS Geometry Optimization
     Energy error            =      5.1E-04 Ry
     Gradient error          =      0.0E+00 Ry/Bohr
     Cell gradient error     =      2.9E+01 kbar

     number of scf cycles    =   1
     number of bfgs steps    =   0

     enthalpy           new  =    -448.5865414927 Ry

     new trust radius        =       0.0130994277 bohr
     new conv_thr            =       0.0000000100 Ry

     new unit-cell volume =    173.84333 a.u.^3 (    25.76092 Ang^3 )
     density =      6.68523 g/cm^3

CELL_PARAMETERS (alat=  5.55330037)
   1.005004902   0.000000000   0.000000000
   0.000000000   1.005004902   0.000000000
   0.000000000   0.000000000   1.005004902

ATOMIC_POSITIONS (crystal)
Fe               0.5000000000        0.5000000000        0.5000000000
Ti               0.0000000000        0.0000000000        0.0000000000



     Writing config-only to output data dir ./TiFe.save/ :
     XML data file
     NEW-OLD atomic charge density approx. for the potential
     New effective cutoffs (rho, wfc): 1718.62  122.77

     Check: negative core charge=   -0.000001

     negative rho (up, down):  9.773E-04 0.000E+00

     total cpu time spent up to now is       58.1 secs

     per-process dynamical memory:   238.3 Mb

     Self-consistent Calculation

     iteration #  1     ecut=   124.00 Ry     beta= 0.70
     Davidson diagonalization with overlap
     ethr =  1.00E-06,  avg # of iterations =  5.0

     negative rho (up, down):  9.677E-04 0.000E+00

     total cpu time spent up to now is       60.7 secs

     total energy              =    -448.58665585 Ry
     estimated scf accuracy    <       0.00005902 Ry

     iteration #  2     ecut=   124.00 Ry     beta= 0.70
     Davidson diagonalization with overlap
     ethr =  2.11E-07,  avg # of iterations =  4.4

     negative rho (up, down):  9.635E-04 0.000E+00

     total cpu time spent up to now is       62.7 secs

     total energy              =    -448.58650263 Ry
     estimated scf accuracy    <       0.00468013 Ry

     iteration #  3     ecut=   124.00 Ry     beta= 0.70
     Davidson diagonalization with overlap
     ethr =  2.11E-07,  avg # of iterations =  4.9

     negative rho (up, down):  9.652E-04 0.000E+00

     total cpu time spent up to now is       64.6 secs

     total energy              =    -448.58679524 Ry
     estimated scf accuracy    <       0.00005326 Ry

     iteration #  4     ecut=   124.00 Ry     beta= 0.70
     Davidson diagonalization with overlap
     ethr =  1.90E-07,  avg # of iterations =  1.3

     negative rho (up, down):  9.650E-04 0.000E+00

     total cpu time spent up to now is       66.0 secs

     total energy              =    -448.58679999 Ry
     estimated scf accuracy    <       0.00000602 Ry

     iteration #  5     ecut=   124.00 Ry     beta= 0.70
     Davidson diagonalization with overlap
     ethr =  2.15E-08,  avg # of iterations =  3.7

     negative rho (up, down):  9.646E-04 0.000E+00

     total cpu time spent up to now is       67.7 secs

     total energy              =    -448.58680114 Ry
     estimated scf accuracy    <       0.00000008 Ry

     iteration #  6     ecut=   124.00 Ry     beta= 0.70
     Davidson diagonalization with overlap
     ethr =  2.95E-10,  avg # of iterations =  6.0

     negative rho (up, down):  9.645E-04 0.000E+00

     total cpu time spent up to now is       70.1 secs

     total energy              =    -448.58680128 Ry
     estimated scf accuracy    <       0.00000016 Ry

     iteration #  7     ecut=   124.00 Ry     beta= 0.70
     Davidson diagonalization with overlap
     ethr =  2.95E-10,  avg # of iterations =  2.0

     negative rho (up, down):  9.645E-04 0.000E+00

     total cpu time spent up to now is       71.7 secs

     total energy              =    -448.58680127 Ry
     estimated scf accuracy    <       0.00000004 Ry

     iteration #  8     ecut=   124.00 Ry     beta= 0.70
     Davidson diagonalization with overlap
     ethr =  1.59E-10,  avg # of iterations =  2.0

     negative rho (up, down):  9.646E-04 0.000E+00

     total cpu time spent up to now is       73.2 secs

     End of self-consistent calculation

     Number of k-points >= 100: set verbosity='high' to print the bands.

     the Fermi energy is    17.4106 ev

!    total energy              =    -448.58680128 Ry
     estimated scf accuracy    <          4.8E-09 Ry
     smearing contrib. (-TS)   =      -0.00002514 Ry
     internal energy E=F+TS    =    -448.58677614 Ry

     The total energy is F=E-TS. E is the sum of the following terms:
     one-electron contribution =    -153.34775247 Ry
     hartree contribution      =      92.30389352 Ry
     xc contribution           =     -52.86269500 Ry
     ewald contribution        =    -258.52680146 Ry
     one-center paw contrib.   =     -76.15342073 Ry

     convergence has been achieved in   8 iterations

     negative rho (up, down):  9.646E-04 0.000E+00

     Forces acting on atoms (cartesian axes, Ry/au):

     atom    1 type  1   force =     0.00000000    0.00000000    0.00000000
     atom    2 type  2   force =     0.00000000    0.00000000    0.00000000

     Total force =     0.000000     Total SCF correction =     0.000000


     Computing stress (Cartesian axis) and pressure


     negative rho (up, down):  9.646E-04 0.000E+00
          total   stress  (Ry/bohr**3)                   (kbar)     P=        0.04
   0.00000030   0.00000000   0.00000000            0.04        0.00        0.00
   0.00000000   0.00000030   0.00000000            0.00        0.04        0.00
   0.00000000   0.00000000   0.00000030            0.00        0.00        0.04

     Energy error            =      2.6E-04 Ry
     Gradient error          =      0.0E+00 Ry/Bohr
     Cell gradient error     =      4.4E-02 kbar

     number of scf cycles    =   2
     number of bfgs steps    =   1

     enthalpy           old  =    -448.5865414927 Ry
     enthalpy           new  =    -448.5868012761 Ry

     CASE: enthalpy          _new < enthalpy          _old

     small trust_radius: resetting bfgs history

     new trust radius        =       0.0000199294 bohr
     new conv_thr            =            1.0E-10 Ry

     new unit-cell volume =    173.84727 a.u.^3 (    25.76151 Ang^3 )
     density =      6.68508 g/cm^3

CELL_PARAMETERS (alat=  5.55330037)
   1.005012497   0.000000000   0.000000000
   0.000000000   1.005012497   0.000000000
   0.000000000   0.000000000   1.005012497

ATOMIC_POSITIONS (crystal)
Fe               0.5000000000        0.5000000000        0.5000000000
Ti               0.0000000000        0.0000000000        0.0000000000



     Writing config-only to output data dir ./TiFe.save/ :
     XML data file
     NEW-OLD atomic charge density approx. for the potential
     New effective cutoffs (rho, wfc): 1718.60  122.76

     Check: negative core charge=   -0.000001

     negative rho (up, down):  9.646E-04 0.000E+00

     total cpu time spent up to now is       75.2 secs

     per-process dynamical memory:   238.3 Mb

     Self-consistent Calculation

     iteration #  1     ecut=   124.00 Ry     beta= 0.70
     Davidson diagonalization with overlap
     ethr =  1.00E-06,  avg # of iterations =  2.0

     Threshold (ethr) on eigenvalues was too large:
     Diagonalizing with lowered threshold

     Davidson diagonalization with overlap
     ethr =  3.53E-09,  avg # of iterations =  1.0

     negative rho (up, down):  9.640E-04 0.000E+00

     total cpu time spent up to now is       78.3 secs

     total energy              =    -448.58680040 Ry
     estimated scf accuracy    <       0.00000110 Ry

     iteration #  2     ecut=   124.00 Ry     beta= 0.70
     Davidson diagonalization with overlap
     ethr =  3.91E-09,  avg # of iterations =  4.9

     negative rho (up, down):  9.646E-04 0.000E+00

     total cpu time spent up to now is       80.5 secs

     total energy              =    -448.58679446 Ry
     estimated scf accuracy    <       0.00013002 Ry

     iteration #  3     ecut=   124.00 Ry     beta= 0.70
     Davidson diagonalization with overlap
     ethr =  3.91E-09,  avg # of iterations =  4.8

     negative rho (up, down):  9.645E-04 0.000E+00

     total cpu time spent up to now is       82.5 secs

     total energy              =    -448.58680127 Ry
     estimated scf accuracy    <          2.2E-09 Ry

     iteration #  4     ecut=   124.00 Ry     beta= 0.70
     Davidson diagonalization with overlap
     ethr =  7.71E-12,  avg # of iterations =  6.4

     negative rho (up, down):  9.645E-04 0.000E+00

     total cpu time spent up to now is       85.2 secs

     total energy              =    -448.58680128 Ry
     estimated scf accuracy    <          1.7E-09 Ry

     iteration #  5     ecut=   124.00 Ry     beta= 0.70
     Davidson diagonalization with overlap
     ethr =  6.11E-12,  avg # of iterations =  1.0

     negative rho (up, down):  9.645E-04 0.000E+00

     total cpu time spent up to now is       86.5 secs

     total energy              =    -448.58680128 Ry
     estimated scf accuracy    <          4.8E-10 Ry

     iteration #  6     ecut=   124.00 Ry     beta= 0.70
     Davidson diagonalization with overlap
     ethr =  1.70E-12,  avg # of iterations =  1.6

     negative rho (up, down):  9.645E-04 0.000E+00

     total cpu time spent up to now is       87.9 secs

     End of self-consistent calculation

     Number of k-points >= 100: set verbosity='high' to print the bands.

     the Fermi energy is    17.4102 ev

!    total energy              =    -448.58680128 Ry
     estimated scf accuracy    <          3.8E-11 Ry
     smearing contrib. (-TS)   =      -0.00002514 Ry
     internal energy E=F+TS    =    -448.58677614 Ry

     The total energy is F=E-TS. E is the sum of the following terms:
     one-electron contribution =    -153.35005116 Ry
     hartree contribution      =      92.30410826 Ry
     xc contribution           =     -52.86256832 Ry
     ewald contribution        =    -258.52484762 Ry
     one-center paw contrib.   =     -76.15341730 Ry

     convergence has been achieved in   6 iterations

     negative rho (up, down):  9.645E-04 0.000E+00

     Forces acting on atoms (cartesian axes, Ry/au):

     atom    1 type  1   force =     0.00000000    0.00000000    0.00000000
     atom    2 type  2   force =     0.00000000    0.00000000    0.00000000

     Total force =     0.000000     Total SCF correction =     0.000000


     Computing stress (Cartesian axis) and pressure


     negative rho (up, down):  9.645E-04 0.000E+00
          total   stress  (Ry/bohr**3)                   (kbar)     P=        0.02
   0.00000012   0.00000000   0.00000000            0.02        0.00        0.00
   0.00000000   0.00000012   0.00000000            0.00        0.02        0.00
   0.00000000   0.00000000   0.00000012            0.00        0.00        0.02

     Energy error            =      5.2E-09 Ry
     Gradient error          =      0.0E+00 Ry/Bohr
     Cell gradient error     =      1.7E-02 kbar

     bfgs converged in   3 scf cycles and   2 bfgs steps
     (criteria: energy <  1.0E-04 Ry, force <  1.0E-03 Ry/Bohr, cell <  1.0E-01 kbar)

     End of BFGS Geometry Optimization

     Final enthalpy           =    -448.5868012813 Ry

     File ./TiFe.bfgs deleted, as requested
Begin final coordinates
     new unit-cell volume =    173.84727 a.u.^3 (    25.76151 Ang^3 )
     density =      6.68508 g/cm^3

CELL_PARAMETERS (alat=  5.55330037)
   1.005012497   0.000000000   0.000000000
   0.000000000   1.005012497   0.000000000
   0.000000000   0.000000000   1.005012497

ATOMIC_POSITIONS (crystal)
Fe               0.5000000000        0.5000000000        0.5000000000
Ti               0.0000000000        0.0000000000        0.0000000000
End final coordinates



     Writing config-only to output data dir ./TiFe.save/ :
     XML data file

     Final scf calculation at the relaxed structure.
     The G-vectors are recalculated for the final unit cell
     Results may differ from those at the preceding step.

     Parallelization info
     --------------------
     sticks:   dense  smooth     PW     G-vecs:    dense   smooth      PW
     Min         536     153     44                26511     4051     640
     Max         538     154     45                26514     4054     643
     Sum        4293    1225    357               212095    32423    5137

     Using Slab Decomposition



     bravais-lattice index     =            0
     lattice parameter (alat)  =       5.5533  a.u.
     unit-cell volume          =     173.8473 (a.u.)^3
     number of atoms/cell      =            2
     number of atomic types    =            2
     number of electrons       =        28.00
     number of Kohn-Sham states=           18
     kinetic-energy cutoff     =     124.0000  Ry
     charge density cutoff     =    1736.0000  Ry
     scf convergence threshold =      1.0E-10
     mixing beta               =       0.7000
     number of iterations used =            8  plain     mixing
     press convergence thresh. =      1.0E-01
     Exchange-correlation= PBE
                           (   1   4   3   4   0   0   0)

     celldm(1)=   5.553300  celldm(2)=   0.000000  celldm(3)=   0.000000
     celldm(4)=   0.000000  celldm(5)=   0.000000  celldm(6)=   0.000000

     crystal axes: (cart. coord. in units of alat)
               a(1) = (   1.005012   0.000000   0.000000 )  
               a(2) = (   0.000000   1.005012   0.000000 )  
               a(3) = (   0.000000   0.000000   1.005012 )  

     reciprocal axes: (cart. coord. in units 2 pi/alat)
               b(1) = (  0.995013  0.000000  0.000000 )  
               b(2) = (  0.000000  0.995013  0.000000 )  
               b(3) = (  0.000000  0.000000  0.995013 )  


     PseudoPot. # 1 for Fe read from file:
     ../../pseudos/Fe.pbe-spn-kjpaw_psl.0.2.1.UPF
     MD5 check sum: e86618425769142926afa95317d90200
     Pseudo is Projector augmented-wave + core cor, Zval = 16.0
     Generated using "atomic" code by A. Dal Corso  v.5.0.99 svn rev. 10869
     Shape of augmentation charge: PSQ
     Using radial grid of 1191 points,  6 beta functions with: 
                l(1) =   0
                l(2) =   0
                l(3) =   1
                l(4) =   1
                l(5) =   2
                l(6) =   2
     Q(r) pseudized with 0 coefficients 


     PseudoPot. # 2 for Ti read from file:
     ../../pseudos/ti_pbe_v1.4.uspp.F.UPF
     MD5 check sum: 88a00a6731bd790ddea75d31a80cb452
     Pseudo is Ultrasoft + core correction, Zval = 12.0
     Generated by new atomic code, or converted to UPF format
     Using radial grid of  851 points,  6 beta functions with: 
                l(1) =   0
                l(2) =   0
                l(3) =   1
                l(4) =   1
                l(5) =   2
                l(6) =   2
     Q(r) pseudized with  6 coefficients,  rinner =    1.000   1.000   1.000
                                                       1.000   1.000

     atomic species   valence    mass     pseudopotential
     Fe               16.00    55.84500     Fe( 1.00)
     Ti               12.00    47.86700     Ti( 1.00)

     48 Sym. Ops., with inversion, found



   Cartesian axes

     site n.     atom                  positions (alat units)
         1        Fe     tau(   1) = (   0.5025062   0.5025062   0.5025062  )
         2        Ti     tau(   2) = (   0.0000000   0.0000000   0.0000000  )

     number of k points=   120  Marzari-Vanderbilt smearing, width (Ry)=  0.0050

     Number of k-points >= 100: set verbosity='high' to print them.

     Dense  grid:   212095 G-vectors     FFT dimensions: (  75,  75,  75)

     Smooth grid:    32423 G-vectors     FFT dimensions: (  40,  40,  40)

     Estimated max dynamical RAM per process >     127.69 MB

     Estimated total dynamical RAM >    1021.55 MB

     Check: negative core charge=   -0.000001

     Initial potential from superposition of free atoms

     starting charge      26.9995, renormalised to      28.0000

     negative rho (up, down):  1.355E-03 0.000E+00
     Starting wfcs are   23 randomized atomic wfcs
     Checking if some PAW data can be deallocated... 

     total cpu time spent up to now is       90.6 secs

     per-process dynamical memory:   230.7 Mb

     Self-consistent Calculation

     iteration #  1     ecut=   124.00 Ry     beta= 0.70
     Davidson diagonalization with overlap
     c_bands:  1 eigenvalues not converged
     c_bands:  1 eigenvalues not converged
     c_bands:  1 eigenvalues not converged
     c_bands:  1 eigenvalues not converged
     c_bands:  1 eigenvalues not converged
     c_bands:  1 eigenvalues not converged
     c_bands:  1 eigenvalues not converged
     c_bands:  1 eigenvalues not converged
     c_bands:  1 eigenvalues not converged
     c_bands:  1 eigenvalues not converged
     c_bands:  1 eigenvalues not converged
     c_bands:  1 eigenvalues not converged
     c_bands:  1 eigenvalues not converged
     c_bands:  1 eigenvalues not converged
     c_bands:  1 eigenvalues not converged
     ethr =  1.00E-06,  avg # of iterations = 16.4

     negative rho (up, down):  1.021E-04 0.000E+00

     total cpu time spent up to now is       97.7 secs

     total energy              =    -434.72103816 Ry
     estimated scf accuracy    <      17.70345061 Ry

     iteration #  2     ecut=   124.00 Ry     beta= 0.70
     Davidson diagonalization with overlap
     ethr =  1.00E-02,  avg # of iterations =  6.4

     negative rho (up, down):  5.496E-05 0.000E+00

     total cpu time spent up to now is      100.6 secs

     total energy              =    -448.63474611 Ry
     estimated scf accuracy    <      66.79668029 Ry

     iteration #  3     ecut=   124.00 Ry     beta= 0.70
     Davidson diagonalization with overlap
     ethr =  1.00E-02,  avg # of iterations =  3.1

     negative rho (up, down):  2.940E-04 0.000E+00

     total cpu time spent up to now is      102.6 secs

     total energy              =    -448.65575821 Ry
     estimated scf accuracy    <      17.15333152 Ry

     iteration #  4     ecut=   124.00 Ry     beta= 0.70
     Davidson diagonalization with overlap
     ethr =  1.00E-02,  avg # of iterations =  2.2

     negative rho (up, down):  3.210E-04 0.000E+00

     total cpu time spent up to now is      104.3 secs

     total energy              =    -449.15406448 Ry
     estimated scf accuracy    <       5.22789681 Ry

     iteration #  5     ecut=   124.00 Ry     beta= 0.70
     Davidson diagonalization with overlap
     ethr =  1.00E-02,  avg # of iterations =  1.0

     negative rho (up, down):  2.974E-04 0.000E+00

     total cpu time spent up to now is      105.6 secs

     total energy              =    -449.12957782 Ry
     estimated scf accuracy    <       4.81361310 Ry

     iteration #  6     ecut=   124.00 Ry     beta= 0.70
     Davidson diagonalization with overlap
     ethr =  1.00E-02,  avg # of iterations =  1.1

     negative rho (up, down):  8.871E-04 0.000E+00

     total cpu time spent up to now is      107.0 secs

     total energy              =    -448.10790820 Ry
     estimated scf accuracy    <       4.11835749 Ry

     iteration #  7     ecut=   124.00 Ry     beta= 0.70
     Davidson diagonalization with overlap
     ethr =  1.00E-02,  avg # of iterations =  2.3

     negative rho (up, down):  9.314E-04 0.000E+00

     total cpu time spent up to now is      108.5 secs

     total energy              =    -448.59832684 Ry
     estimated scf accuracy    <       0.67127262 Ry

     iteration #  8     ecut=   124.00 Ry     beta= 0.70
     Davidson diagonalization with overlap
     ethr =  2.40E-03,  avg # of iterations =  2.0

     negative rho (up, down):  9.318E-04 0.000E+00

     total cpu time spent up to now is      109.9 secs

     total energy              =    -448.57165367 Ry
     estimated scf accuracy    <       0.66868087 Ry

     iteration #  9     ecut=   124.00 Ry     beta= 0.70
     Davidson diagonalization with overlap
     ethr =  2.39E-03,  avg # of iterations =  1.0

     negative rho (up, down):  1.153E-03 0.000E+00

     total cpu time spent up to now is      111.3 secs

     total energy              =    -448.67869412 Ry
     estimated scf accuracy    <       0.12313507 Ry

     iteration # 10     ecut=   124.00 Ry     beta= 0.70
     Davidson diagonalization with overlap
     ethr =  4.40E-04,  avg # of iterations =  5.6

     negative rho (up, down):  7.767E-04 0.000E+00

     total cpu time spent up to now is      113.4 secs

     total energy              =    -448.13083859 Ry
     estimated scf accuracy    <       8.00850994 Ry

     iteration # 11     ecut=   124.00 Ry     beta= 0.70
     Davidson diagonalization with overlap
     ethr =  4.40E-04,  avg # of iterations =  4.9

     negative rho (up, down):  6.540E-04 0.000E+00

     total cpu time spent up to now is      115.3 secs

     total energy              =    -448.60882193 Ry
     estimated scf accuracy    <       0.09937973 Ry

     iteration # 12     ecut=   124.00 Ry     beta= 0.70
     Davidson diagonalization with overlap
     ethr =  3.55E-04,  avg # of iterations =  1.6

     negative rho (up, down):  6.625E-04 0.000E+00

     total cpu time spent up to now is      116.8 secs

     total energy              =    -448.62179515 Ry
     estimated scf accuracy    <       0.28361074 Ry

     iteration # 13     ecut=   124.00 Ry     beta= 0.70
     Davidson diagonalization with overlap
     ethr =  3.55E-04,  avg # of iterations =  1.0

     negative rho (up, down):  5.853E-04 0.000E+00

     total cpu time spent up to now is      118.1 secs

     total energy              =    -448.63417533 Ry
     estimated scf accuracy    <       0.39765292 Ry

     iteration # 14     ecut=   124.00 Ry     beta= 0.70
     Davidson diagonalization with overlap
     ethr =  3.55E-04,  avg # of iterations =  1.0

     negative rho (up, down):  8.306E-04 0.000E+00

     total cpu time spent up to now is      119.4 secs

     total energy              =    -448.58345992 Ry
     estimated scf accuracy    <       0.46892594 Ry

     iteration # 15     ecut=   124.00 Ry     beta= 0.70
     Davidson diagonalization with overlap
     ethr =  3.55E-04,  avg # of iterations =  1.2

     negative rho (up, down):  8.341E-04 0.000E+00

     total cpu time spent up to now is      120.8 secs

     total energy              =    -448.59674279 Ry
     estimated scf accuracy    <       0.09667226 Ry

     iteration # 16     ecut=   124.00 Ry     beta= 0.70
     Davidson diagonalization with overlap
     ethr =  3.45E-04,  avg # of iterations =  1.0

     negative rho (up, down):  8.958E-04 0.000E+00

     total cpu time spent up to now is      122.2 secs

     total energy              =    -448.58895314 Ry
     estimated scf accuracy    <       0.20603507 Ry

     iteration # 17     ecut=   124.00 Ry     beta= 0.70
     Davidson diagonalization with overlap
     ethr =  3.45E-04,  avg # of iterations =  1.0

     negative rho (up, down):  1.094E-03 0.000E+00

     total cpu time spent up to now is      123.5 secs

     total energy              =    -448.57213116 Ry
     estimated scf accuracy    <       0.06931920 Ry

     iteration # 18     ecut=   124.00 Ry     beta= 0.70
     Davidson diagonalization with overlap
     ethr =  2.48E-04,  avg # of iterations =  3.2

     negative rho (up, down):  1.033E-03 0.000E+00

     total cpu time spent up to now is      125.1 secs

     total energy              =    -448.58429252 Ry
     estimated scf accuracy    <       0.11156465 Ry

     iteration # 19     ecut=   124.00 Ry     beta= 0.70
     Davidson diagonalization with overlap
     ethr =  2.48E-04,  avg # of iterations =  1.0

     negative rho (up, down):  1.071E-03 0.000E+00

     total cpu time spent up to now is      126.4 secs

     total energy              =    -448.58906324 Ry
     estimated scf accuracy    <       0.01072329 Ry

     iteration # 20     ecut=   124.00 Ry     beta= 0.70
     Davidson diagonalization with overlap
     ethr =  3.83E-05,  avg # of iterations =  1.4

     negative rho (up, down):  1.006E-03 0.000E+00

     total cpu time spent up to now is      127.8 secs

     total energy              =    -448.58631360 Ry
     estimated scf accuracy    <       0.04333936 Ry

     iteration # 21     ecut=   124.00 Ry     beta= 0.70
     Davidson diagonalization with overlap
     ethr =  3.83E-05,  avg # of iterations =  1.4

     negative rho (up, down):  9.636E-04 0.000E+00

     total cpu time spent up to now is      129.2 secs

     total energy              =    -448.58602461 Ry
     estimated scf accuracy    <       0.00763413 Ry

     iteration # 22     ecut=   124.00 Ry     beta= 0.70
     Davidson diagonalization with overlap
     ethr =  2.73E-05,  avg # of iterations =  2.8

     negative rho (up, down):  9.618E-04 0.000E+00

     total cpu time spent up to now is      130.7 secs

     total energy              =    -448.58680074 Ry
     estimated scf accuracy    <       0.00004420 Ry

     iteration # 23     ecut=   124.00 Ry     beta= 0.70
     Davidson diagonalization with overlap
     ethr =  1.58E-07,  avg # of iterations =  4.7

     negative rho (up, down):  9.648E-04 0.000E+00

     total cpu time spent up to now is      132.5 secs

     total energy              =    -448.58682589 Ry
     estimated scf accuracy    <       0.00007452 Ry

     iteration # 24     ecut=   124.00 Ry     beta= 0.70
     Davidson diagonalization with overlap
     ethr =  1.58E-07,  avg # of iterations =  1.4

     negative rho (up, down):  9.650E-04 0.000E+00

     total cpu time spent up to now is      133.9 secs

     total energy              =    -448.58682815 Ry
     estimated scf accuracy    <       0.00000601 Ry

     iteration # 25     ecut=   124.00 Ry     beta= 0.70
     Davidson diagonalization with overlap
     ethr =  2.15E-08,  avg # of iterations =  3.9

     negative rho (up, down):  9.648E-04 0.000E+00

     total cpu time spent up to now is      135.5 secs

     total energy              =    -448.58682937 Ry
     estimated scf accuracy    <       0.00000145 Ry

     iteration # 26     ecut=   124.00 Ry     beta= 0.70
     Davidson diagonalization with overlap
     ethr =  5.20E-09,  avg # of iterations =  2.2

     negative rho (up, down):  9.647E-04 0.000E+00

     total cpu time spent up to now is      137.0 secs

     total energy              =    -448.58682949 Ry
     estimated scf accuracy    <       0.00000009 Ry

     iteration # 27     ecut=   124.00 Ry     beta= 0.70
     Davidson diagonalization with overlap
     ethr =  3.19E-10,  avg # of iterations =  4.6

     negative rho (up, down):  9.649E-04 0.000E+00

     total cpu time spent up to now is      139.0 secs

     total energy              =    -448.58682953 Ry
     estimated scf accuracy    <       0.00000001 Ry

     iteration # 28     ecut=   124.00 Ry     beta= 0.70
     Davidson diagonalization with overlap
     ethr =  4.64E-11,  avg # of iterations =  2.8

     negative rho (up, down):  9.647E-04 0.000E+00

     total cpu time spent up to now is      140.7 secs

     total energy              =    -448.58682953 Ry
     estimated scf accuracy    <          4.9E-09 Ry

     iteration # 29     ecut=   124.00 Ry     beta= 0.70
     Davidson diagonalization with overlap
     ethr =  1.75E-11,  avg # of iterations =  5.4

     negative rho (up, down):  9.647E-04 0.000E+00

     total cpu time spent up to now is      142.7 secs

     total energy              =    -448.58682953 Ry
     estimated scf accuracy    <       0.00000041 Ry

     iteration # 30     ecut=   124.00 Ry     beta= 0.70
     Davidson diagonalization with overlap
     ethr =  1.75E-11,  avg # of iterations =  4.2

     negative rho (up, down):  9.647E-04 0.000E+00

     total cpu time spent up to now is      144.4 secs

     total energy              =    -448.58682952 Ry
     estimated scf accuracy    <       0.00000014 Ry

     iteration # 31     ecut=   124.00 Ry     beta= 0.70
     Davidson diagonalization with overlap
     ethr =  1.75E-11,  avg # of iterations =  4.2

     negative rho (up, down):  9.647E-04 0.000E+00

     total cpu time spent up to now is      146.2 secs

     total energy              =    -448.58682953 Ry
     estimated scf accuracy    <          9.4E-09 Ry

     iteration # 32     ecut=   124.00 Ry     beta= 0.70
     Davidson diagonalization with overlap
     ethr =  1.75E-11,  avg # of iterations =  1.0

     negative rho (up, down):  9.647E-04 0.000E+00

     total cpu time spent up to now is      147.5 secs

     total energy              =    -448.58682953 Ry
     estimated scf accuracy    <          6.5E-09 Ry

     iteration # 33     ecut=   124.00 Ry     beta= 0.70
     Davidson diagonalization with overlap
     ethr =  1.75E-11,  avg # of iterations =  1.0

     negative rho (up, down):  9.647E-04 0.000E+00

     total cpu time spent up to now is      148.9 secs

     total energy              =    -448.58682953 Ry
     estimated scf accuracy    <          3.1E-09 Ry

     iteration # 34     ecut=   124.00 Ry     beta= 0.70
     Davidson diagonalization with overlap
     ethr =  1.12E-11,  avg # of iterations =  1.7

     negative rho (up, down):  9.647E-04 0.000E+00

     total cpu time spent up to now is      150.3 secs

     End of self-consistent calculation

     Number of k-points >= 100: set verbosity='high' to print the bands.

     the Fermi energy is    17.4102 ev

!    total energy              =    -448.58682953 Ry
     estimated scf accuracy    <          7.3E-13 Ry
     smearing contrib. (-TS)   =      -0.00002515 Ry
     internal energy E=F+TS    =    -448.58680438 Ry

     The total energy is F=E-TS. E is the sum of the following terms:
     one-electron contribution =    -153.35005435 Ry
     hartree contribution      =      92.30411415 Ry
     xc contribution           =     -52.86259536 Ry
     ewald contribution        =    -258.52484762 Ry
     one-center paw contrib.   =     -76.15342119 Ry

     convergence has been achieved in  34 iterations

     negative rho (up, down):  9.647E-04 0.000E+00

     Forces acting on atoms (cartesian axes, Ry/au):

     atom    1 type  1   force =     0.00000000    0.00000000    0.00000000
     atom    2 type  2   force =     0.00000000    0.00000000    0.00000000

     Total force =     0.000000     Total SCF correction =     0.000000


     Computing stress (Cartesian axis) and pressure


     negative rho (up, down):  9.647E-04 0.000E+00
          total   stress  (Ry/bohr**3)                   (kbar)     P=        0.09
   0.00000063   0.00000000   0.00000000            0.09        0.00        0.00
   0.00000000   0.00000063   0.00000000            0.00        0.09        0.00
   0.00000000   0.00000000   0.00000063            0.00        0.00        0.09


     Writing all to output data dir ./TiFe.save/ :
     XML data file, charge density, pseudopotentials, collected wavefunctions

     init_run     :      2.29s CPU      2.59s WALL (       2 calls)
     electrons    :    132.92s CPU    141.68s WALL (       4 calls)
     update_pot   :      0.16s CPU      0.22s WALL (       2 calls)
     forces       :      0.83s CPU      1.03s WALL (       4 calls)
     stress       :      5.39s CPU      5.61s WALL (       4 calls)

     Called by init_run:
     wfcinit      :      1.19s CPU      1.30s WALL (       2 calls)
     potinit      :      0.46s CPU      0.53s WALL (       2 calls)
     hinit0       :      0.38s CPU      0.42s WALL (       2 calls)

     Called by electrons:
     c_bands      :    100.61s CPU    105.52s WALL (      82 calls)
     sum_band     :     20.79s CPU     22.80s WALL (      82 calls)
     v_of_rho     :      1.75s CPU      2.18s WALL (      85 calls)
     newd         :      5.56s CPU      6.81s WALL (      85 calls)
     PAW_pot      :      4.39s CPU      4.55s WALL (      87 calls)
     mix_rho      :      0.27s CPU      0.32s WALL (      82 calls)

     Called by c_bands:
     init_us_2    :      2.31s CPU      2.44s WALL (   21120 calls)
     cegterg      :     96.75s CPU    101.45s WALL (    9840 calls)

     Called by *egterg:
     cdiaghg      :     10.48s CPU     10.99s WALL (   37615 calls)
     h_psi        :     75.17s CPU     78.98s WALL (   38215 calls)
     s_psi        :      1.87s CPU      1.98s WALL (   38215 calls)
     g_psi        :      0.34s CPU      0.35s WALL (   28135 calls)

     Called by h_psi:
     h_psi:calbec :      2.85s CPU      3.00s WALL (   38215 calls)
     vloc_psi     :     70.02s CPU     73.57s WALL (   38215 calls)
     add_vuspsi   :      1.95s CPU      2.06s WALL (   38215 calls)

     General routines
     calbec       :      4.51s CPU      4.73s WALL (   56455 calls)
     fft          :      1.65s CPU      2.33s WALL (    1200 calls)
     ffts         :      0.32s CPU      0.35s WALL (     167 calls)
     fftw         :     69.77s CPU     73.23s WALL ( 1111696 calls)
     interpolate  :      0.38s CPU      0.41s WALL (      85 calls)

     Parallel routines

     PWSCF        :    142.36s CPU    152.69s WALL


   This run was terminated on:  18:44:31  27Oct2025            

=------------------------------------------------------------------------------=
   JOB DONE.
=------------------------------------------------------------------------------=
