
     Program PWSCF v.7.4 starts on 25Nov2025 at 14:31:52 

     This program is part of the open-source Quantum ESPRESSO suite
     for quantum simulation of materials; please cite
         "P. Giannozzi et al., J. Phys.:Condens. Matter 21 395502 (2009);
         "P. Giannozzi et al., J. Phys.:Condens. Matter 29 465901 (2017);
         "P. Giannozzi et al., J. Chem. Phys. 152 154105 (2020);
          URL http://www.quantum-espresso.org", 
     in publications or presentations arising from this work. More details at
     http://www.quantum-espresso.org/quote

     Parallel version (MPI & OpenMP), running on      16 processor cores
     Number of MPI processes:                16
     Threads/MPI process:                     1

     MPI processes distributed on     1 nodes
     889381 MiB available memory on the printing compute node when the environment starts

     Reading input from TiFe2H_cub_symm_8b_2_tetr_far_continue.in
Warning: card / ignored

     Current dimensions of program PWSCF are:
     Max number of different atomic species (ntypx) = 10
     Max number of k-points (npk) =  40000
     Max angular momentum in pseudopotentials (lmaxx) =  4

     File ./TiFe2_cub_8b_2H_far.update deleted, as requested

     File ./TiFe2_cub_8b_2H_far.bfgs deleted, as requested
     file Fe.pbe-spn-kjpaw_psl.0.2.1.UPF: wavefunction(s)  3D renormalized

     IMPORTANT: XC functional enforced from input :
     Exchange-correlation= PBE
                           (   1   4   3   4   0   0   0)
     Any further DFT definition will be discarded
     Please, verify this is what you really want

     Found identity + ( -0.0000 -0.5000 -0.5000) symmetry
     This is a supercell, fractional translations are disabled

     R & G space division:  proc/nbgrp/npool/nimage =      16
     Subspace diagonalization in iterative solution of the eigenvalue problem:
     one sub-group per band group will be used
     ELPA distributed-memory algorithm (size of sub-group:  2*  2 procs)


     Parallelization info
     --------------------
     sticks:   dense  smooth     PW     G-vecs:    dense   smooth      PW
     Min        1440     410    109               164590    25118    3433
     Max        1441     411    110               164595    25121    3436
     Sum       23053    6573   1749              2633503   401927   54963

     Using Slab Decomposition



     bravais-lattice index     =            0
     lattice parameter (alat)  =      12.7659  a.u.
     unit-cell volume          =    2155.7658 (a.u.)^3
     number of atoms/cell      =           26
     number of atomic types    =            3
     number of electrons       =       354.00
     number of Kohn-Sham states=          212
     kinetic-energy cutoff     =     124.0000  Ry
     charge density cutoff     =    1736.0000  Ry
     scf convergence threshold =      1.0E-08
     mixing beta               =       0.2000
     number of iterations used =            8  local-TF  mixing
     energy convergence thresh.=      1.0E-04
     force convergence thresh. =      1.0E-03
     press convergence thresh. =      1.0E-01
     Exchange-correlation= PBE
                           (   1   4   3   4   0   0   0)
     nstep                     =           50


     celldm(1)=  12.765913  celldm(2)=   0.000000  celldm(3)=   0.000000
     celldm(4)=   0.000000  celldm(5)=   0.000000  celldm(6)=   0.000000

     crystal axes: (cart. coord. in units of alat)
               a(1) = (   1.011908   0.000000   0.000000 )  
               a(2) = (   0.000000   1.011935   0.000000 )  
               a(3) = (   0.000000   0.000000   1.011935 )  

     reciprocal axes: (cart. coord. in units 2 pi/alat)
               b(1) = (  0.988232 -0.000000 -0.000000 )  
               b(2) = ( -0.000000  0.988206 -0.000000 )  
               b(3) = ( -0.000000 -0.000000  0.988206 )  


     PseudoPot. # 1 for Fe read from file:
     ../../pseudos/Fe.pbe-spn-kjpaw_psl.0.2.1.UPF
     MD5 check sum: e86618425769142926afa95317d90200
     Pseudo is Projector augmented-wave + core cor, Zval = 16.0
     Generated using "atomic" code by A. Dal Corso  v.5.0.99 svn rev. 10869
     Shape of augmentation charge: PSQ
     Using radial grid of 1191 points,  6 beta functions with: 
                l(1) =   0
                l(2) =   0
                l(3) =   1
                l(4) =   1
                l(5) =   2
                l(6) =   2
     Q(r) pseudized with 0 coefficients 


     PseudoPot. # 2 for Ti read from file:
     ../../pseudos/ti_pbe_v1.4.uspp.F.UPF
     MD5 check sum: 88a00a6731bd790ddea75d31a80cb452
     Pseudo is Ultrasoft + core correction, Zval = 12.0
     Generated by new atomic code, or converted to UPF format
     Using radial grid of  851 points,  6 beta functions with: 
                l(1) =   0
                l(2) =   0
                l(3) =   1
                l(4) =   1
                l(5) =   2
                l(6) =   2
     Q(r) pseudized with  6 coefficients,  rinner =    1.000   1.000   1.000
                                                       1.000   1.000

     PseudoPot. # 3 for H  read from file:
     ../../pseudos/H.pbe-rrkjus_psl.1.0.0.UPF
     MD5 check sum: f52b6d4d1c606e5624b1dc7b2218f220
     Pseudo is Ultrasoft, Zval =  1.0
     Generated using "atomic" code by A. Dal Corso  v.5.1
     Using radial grid of  929 points,  2 beta functions with: 
                l(1) =   0
                l(2) =   0
     Q(r) pseudized with 0 coefficients 


     atomic species   valence    mass     pseudopotential
     Fe               16.00    55.84500     Fe( 1.00)
     Ti               12.00    47.86700     Ti( 1.00)
     H                 1.00     1.00750     H ( 1.00)

     Starting magnetic structure 
     atomic species   magnetization
     Fe              0.111
     Ti             -0.047
     H               0.000

     No symmetry found



   Cartesian axes

     site n.     atom                  positions (alat units)
         1        Fe     tau(   1) = (   0.1206950   0.1207382   0.6267056  )
         2        Fe     tau(   2) = (   0.6323738   0.6323791   0.6323794  )
         3        Fe     tau(   3) = (   0.8854877   0.6323792   0.8855231  )
         4        Fe     tau(   4) = (   0.3852593   0.8911968   0.1207383  )
         5        Fe     tau(   5) = (   0.1206948   0.6267055   0.1207382  )
         6        Fe     tau(   6) = (   0.6323738   0.1264116   0.1264118  )
         7        Fe     tau(   7) = (   0.8854876   0.3795554   0.1264118  )
         8        Fe     tau(   8) = (   0.3852592   0.6267054   0.3852296  )
         9        Fe     tau(   9) = (   0.6323738   0.3795555   0.3795557  )
        10        Fe     tau(  10) = (   0.6323739   0.8855229   0.8855232  )
        11        Fe     tau(  11) = (   0.3852592   0.1207382   0.8911969  )
        12        Fe     tau(  12) = (   0.8854875   0.8855228   0.6323794  )
        13        Fe     tau(  13) = (   0.3852592   0.3852294   0.6267056  )
        14        Fe     tau(  14) = (   0.8854875   0.1264117   0.3795556  )
        15        Fe     tau(  15) = (   0.1206949   0.3852293   0.8911969  )
        16        Fe     tau(  16) = (   0.1206948   0.8911965   0.3852295  )
        17        Ti     tau(  17) = (  -0.0003014   0.0000000   0.0000000  )
        18        Ti     tau(  18) = (   0.7589308   0.7589510   0.2529838  )
        19        Ti     tau(  19) = (   0.5062552   0.0000001   0.5059675  )
        20        Ti     tau(  20) = (   0.7589308   0.2529837   0.7589513  )
        21        Ti     tau(  21) = (  -0.0003014   0.5059673   0.5059675  )
        22        Ti     tau(  22) = (   0.2529769   0.2529837   0.2529838  )
        23        Ti     tau(  23) = (   0.2529769   0.7589510   0.7589513  )
        24        Ti     tau(  24) = (   0.5062552   0.5059673   0.0000001  )
        25        H      tau(  25) = (   0.2529769   0.2529837   0.7589513  )
        26        H      tau(  26) = (   0.2529769   0.7589510   0.2529838  )

     number of k points=   125  Marzari-Vanderbilt smearing, width (Ry)=  0.0050

     Number of k-points >= 100: set verbosity='high' to print them.

     Dense  grid:  2633503 G-vectors     FFT dimensions: ( 180, 180, 180)

     Smooth grid:   401927 G-vectors     FFT dimensions: (  96,  96,  96)

     Estimated max dynamical RAM per process >       3.27 GB

     Estimated total dynamical RAM >      52.28 GB

     Check: negative core charge=   -0.000002
     Generating pointlists ...
     new r_m :   0.0945 (alat units)  1.2063 (a.u.) for type    1
     new r_m :   0.1724 (alat units)  2.2004 (a.u.) for type    2
     new r_m :   0.0945 (alat units)  1.2063 (a.u.) for type    3

     Initial potential from superposition of free atoms

     starting charge     345.9926, renormalised to     354.0000

     negative rho (up, down):  5.017E-03 5.564E-03
     Starting wfcs are  290 randomized atomic wfcs
     Checking if some PAW data can be deallocated... 

     total cpu time spent up to now is      207.8 secs

     per-process dynamical memory:  2896.3 Mb

     Self-consistent Calculation

     iteration #  1     ecut=   124.00 Ry     beta= 0.20
     CG style diagonalization
     ethr =  1.00E-02,  avg # of iterations =  2.6

     negative rho (up, down):  1.842E-03 1.834E-03

     total cpu time spent up to now is     3513.0 secs

     total energy              =   -6212.77583480 Ry
     estimated scf accuracy    <     249.83707371 Ry

     total magnetization       =     9.90 Bohr mag/cell
     absolute magnetization    =    14.48 Bohr mag/cell

     iteration #  2     ecut=   124.00 Ry     beta= 0.20
     CG style diagonalization
     ethr =  1.00E-02,  avg # of iterations =  3.3

     negative rho (up, down):  2.472E-03 2.131E-03

     total cpu time spent up to now is     6761.2 secs

     total energy              =   -6224.47239077 Ry
     estimated scf accuracy    <       4.54635699 Ry

     total magnetization       =    10.11 Bohr mag/cell
     absolute magnetization    =    16.39 Bohr mag/cell

     iteration #  3     ecut=   124.00 Ry     beta= 0.20
     CG style diagonalization
     c_bands:  1 eigenvalues not converged
     c_bands:  1 eigenvalues not converged
     c_bands:  1 eigenvalues not converged
     c_bands:  1 eigenvalues not converged
     c_bands:  1 eigenvalues not converged
     c_bands:  1 eigenvalues not converged
     c_bands:  1 eigenvalues not converged
     c_bands:  1 eigenvalues not converged
     c_bands:  1 eigenvalues not converged
     c_bands:  1 eigenvalues not converged
     ethr =  1.28E-03,  avg # of iterations =  3.4

     negative rho (up, down):  3.411E-03 2.748E-03

     total cpu time spent up to now is    10152.3 secs

     total energy              =   -6224.77453518 Ry
     estimated scf accuracy    <       1.82370007 Ry

     total magnetization       =    11.07 Bohr mag/cell
     absolute magnetization    =    17.77 Bohr mag/cell

     iteration #  4     ecut=   124.00 Ry     beta= 0.20
     CG style diagonalization
     c_bands:  1 eigenvalues not converged
     c_bands:  1 eigenvalues not converged
     c_bands:  1 eigenvalues not converged
     c_bands:  1 eigenvalues not converged
     c_bands:  1 eigenvalues not converged
     c_bands:  1 eigenvalues not converged
     c_bands:  1 eigenvalues not converged
     c_bands:  1 eigenvalues not converged
     c_bands:  1 eigenvalues not converged
     c_bands:  1 eigenvalues not converged
     c_bands:  1 eigenvalues not converged
     c_bands:  2 eigenvalues not converged
     c_bands:  1 eigenvalues not converged
     c_bands:  1 eigenvalues not converged
     c_bands:  1 eigenvalues not converged
     c_bands:  1 eigenvalues not converged
     c_bands:  1 eigenvalues not converged
     c_bands:  1 eigenvalues not converged
     c_bands:  1 eigenvalues not converged
     c_bands:  1 eigenvalues not converged
     c_bands:  1 eigenvalues not converged
     c_bands:  1 eigenvalues not converged
     c_bands:  1 eigenvalues not converged
     c_bands:  1 eigenvalues not converged
     c_bands:  1 eigenvalues not converged
     c_bands:  1 eigenvalues not converged
     c_bands:  1 eigenvalues not converged
     c_bands:  1 eigenvalues not converged
     ethr =  5.15E-04,  avg # of iterations =  4.1

     negative rho (up, down):  4.565E-03 3.344E-03

     total cpu time spent up to now is    14502.6 secs

     total energy              =   -6224.83360637 Ry
     estimated scf accuracy    <       0.80220307 Ry

     total magnetization       =    16.74 Bohr mag/cell
     absolute magnetization    =    22.93 Bohr mag/cell

     iteration #  5     ecut=   124.00 Ry     beta= 0.20
     CG style diagonalization
     c_bands:  1 eigenvalues not converged
     c_bands:  1 eigenvalues not converged
     c_bands:  2 eigenvalues not converged
     c_bands:  1 eigenvalues not converged
     c_bands:  1 eigenvalues not converged
     c_bands:  1 eigenvalues not converged
     c_bands:  1 eigenvalues not converged
     c_bands:  1 eigenvalues not converged
     c_bands:  1 eigenvalues not converged
     c_bands:  1 eigenvalues not converged
     c_bands:  1 eigenvalues not converged
     c_bands:  1 eigenvalues not converged
     c_bands:  1 eigenvalues not converged
     c_bands:  1 eigenvalues not converged
     c_bands:  1 eigenvalues not converged
     c_bands:  1 eigenvalues not converged
     c_bands:  1 eigenvalues not converged
     c_bands:  1 eigenvalues not converged
     c_bands:  1 eigenvalues not converged
     c_bands:  2 eigenvalues not converged
     c_bands:  2 eigenvalues not converged
     c_bands:  2 eigenvalues not converged
     c_bands:  1 eigenvalues not converged
     c_bands:  1 eigenvalues not converged
     c_bands:  1 eigenvalues not converged
     c_bands:  3 eigenvalues not converged
     c_bands:  2 eigenvalues not converged
     c_bands:  1 eigenvalues not converged
     c_bands:  1 eigenvalues not converged
     c_bands:  1 eigenvalues not converged
     c_bands:  1 eigenvalues not converged
     c_bands:  1 eigenvalues not converged
     c_bands:  1 eigenvalues not converged
     c_bands:  1 eigenvalues not converged
     c_bands:  1 eigenvalues not converged
     c_bands:  2 eigenvalues not converged
     c_bands:  1 eigenvalues not converged
     c_bands:  1 eigenvalues not converged
     c_bands:  1 eigenvalues not converged
     c_bands:  1 eigenvalues not converged
     c_bands:  1 eigenvalues not converged
     c_bands:  1 eigenvalues not converged
     c_bands:  1 eigenvalues not converged
     ethr =  2.27E-04,  avg # of iterations =  3.6

     negative rho (up, down):  4.808E-03 3.235E-03

     total cpu time spent up to now is    18125.8 secs

     total energy              =   -6224.98520563 Ry
     estimated scf accuracy    <       0.13060125 Ry

     total magnetization       =    16.85 Bohr mag/cell
     absolute magnetization    =    25.17 Bohr mag/cell

     iteration #  6     ecut=   124.00 Ry     beta= 0.20
     CG style diagonalization
     c_bands:  4 eigenvalues not converged
     c_bands:  1 eigenvalues not converged
     c_bands:  2 eigenvalues not converged
     c_bands:  3 eigenvalues not converged
     c_bands:  3 eigenvalues not converged
     c_bands:  2 eigenvalues not converged
     c_bands:  1 eigenvalues not converged
     c_bands:  5 eigenvalues not converged
     c_bands:  2 eigenvalues not converged
     c_bands:  3 eigenvalues not converged
     c_bands:  2 eigenvalues not converged
     c_bands:  1 eigenvalues not converged
     c_bands:  2 eigenvalues not converged
     c_bands:  3 eigenvalues not converged
     c_bands:  3 eigenvalues not converged
     c_bands:  1 eigenvalues not converged
     c_bands:  5 eigenvalues not converged
     c_bands:  4 eigenvalues not converged
     c_bands:  1 eigenvalues not converged
     c_bands:  5 eigenvalues not converged
     c_bands:  1 eigenvalues not converged
     c_bands:  4 eigenvalues not converged
     c_bands:  2 eigenvalues not converged
     c_bands:  2 eigenvalues not converged
     c_bands:  3 eigenvalues not converged
     c_bands:  1 eigenvalues not converged
     c_bands:  3 eigenvalues not converged
     c_bands:  1 eigenvalues not converged
     c_bands:  4 eigenvalues not converged
     c_bands:  1 eigenvalues not converged
     c_bands:  1 eigenvalues not converged
     c_bands:  4 eigenvalues not converged
     c_bands:  3 eigenvalues not converged
     c_bands:  3 eigenvalues not converged
     c_bands:  4 eigenvalues not converged
     c_bands:  1 eigenvalues not converged
     c_bands:  4 eigenvalues not converged
     c_bands:  1 eigenvalues not converged
     c_bands:  5 eigenvalues not converged
     c_bands:  4 eigenvalues not converged
     c_bands:  2 eigenvalues not converged
     c_bands:  3 eigenvalues not converged
     c_bands:  2 eigenvalues not converged
     c_bands:  1 eigenvalues not converged
     c_bands:  2 eigenvalues not converged
     c_bands:  2 eigenvalues not converged
     c_bands:  2 eigenvalues not converged
     c_bands:  4 eigenvalues not converged
     c_bands:  4 eigenvalues not converged
     c_bands:  5 eigenvalues not converged
     c_bands:  2 eigenvalues not converged
     c_bands:  2 eigenvalues not converged
     c_bands:  4 eigenvalues not converged
     c_bands:  1 eigenvalues not converged
     c_bands:  4 eigenvalues not converged
     c_bands:  2 eigenvalues not converged
     c_bands:  1 eigenvalues not converged
     c_bands:  5 eigenvalues not converged
     c_bands:  2 eigenvalues not converged
     c_bands:  2 eigenvalues not converged
     c_bands:  2 eigenvalues not converged
     c_bands:  3 eigenvalues not converged
     c_bands:  1 eigenvalues not converged
     c_bands:  2 eigenvalues not converged
     c_bands:  1 eigenvalues not converged
     c_bands:  3 eigenvalues not converged
     c_bands:  1 eigenvalues not converged
     c_bands:  4 eigenvalues not converged
     c_bands:  4 eigenvalues not converged
     c_bands:  1 eigenvalues not converged
     c_bands:  4 eigenvalues not converged
     c_bands:  3 eigenvalues not converged
     c_bands:  1 eigenvalues not converged
     c_bands:  1 eigenvalues not converged
     c_bands:  5 eigenvalues not converged
     c_bands:  3 eigenvalues not converged
     c_bands:  3 eigenvalues not converged
     c_bands:  2 eigenvalues not converged
     c_bands:  2 eigenvalues not converged
     c_bands:  5 eigenvalues not converged
     c_bands:  1 eigenvalues not converged
     c_bands:  2 eigenvalues not converged
     c_bands:  2 eigenvalues not converged
     c_bands:  5 eigenvalues not converged
     c_bands:  5 eigenvalues not converged
     c_bands:  1 eigenvalues not converged
     c_bands:  2 eigenvalues not converged
     c_bands:  2 eigenvalues not converged
     c_bands:  1 eigenvalues not converged
     c_bands:  2 eigenvalues not converged
     c_bands:  4 eigenvalues not converged
     c_bands:  1 eigenvalues not converged
     c_bands:  5 eigenvalues not converged
     c_bands:  4 eigenvalues not converged
     c_bands:  4 eigenvalues not converged
     c_bands:  1 eigenvalues not converged
     c_bands:  1 eigenvalues not converged
     c_bands:  3 eigenvalues not converged
     c_bands:  3 eigenvalues not converged
     c_bands:  2 eigenvalues not converged
     c_bands:  5 eigenvalues not converged
     c_bands:  1 eigenvalues not converged
     c_bands:  2 eigenvalues not converged
     c_bands:  3 eigenvalues not converged
     c_bands:  4 eigenvalues not converged
     c_bands:  3 eigenvalues not converged
     c_bands:  2 eigenvalues not converged
     c_bands:  2 eigenvalues not converged
     c_bands:  1 eigenvalues not converged
     c_bands:  2 eigenvalues not converged
     c_bands:  1 eigenvalues not converged
     c_bands:  2 eigenvalues not converged
     c_bands:  3 eigenvalues not converged
     c_bands:  3 eigenvalues not converged
     c_bands:  5 eigenvalues not converged
     c_bands:  2 eigenvalues not converged
     c_bands:  3 eigenvalues not converged
     c_bands:  1 eigenvalues not converged
     c_bands:  3 eigenvalues not converged
     c_bands:  3 eigenvalues not converged
     c_bands:  1 eigenvalues not converged
     c_bands:  1 eigenvalues not converged
     c_bands:  2 eigenvalues not converged
     c_bands:  5 eigenvalues not converged
     c_bands:  2 eigenvalues not converged
     c_bands:  4 eigenvalues not converged
     c_bands:  4 eigenvalues not converged
     c_bands:  2 eigenvalues not converged
     c_bands:  3 eigenvalues not converged
     c_bands:  2 eigenvalues not converged
     c_bands:  2 eigenvalues not converged
     c_bands:  3 eigenvalues not converged
     c_bands:  5 eigenvalues not converged
     c_bands:  3 eigenvalues not converged
     c_bands:  1 eigenvalues not converged
     c_bands:  3 eigenvalues not converged
     c_bands:  3 eigenvalues not converged
     c_bands:  3 eigenvalues not converged
     c_bands:  3 eigenvalues not converged
     c_bands:  1 eigenvalues not converged
     c_bands:  4 eigenvalues not converged
     c_bands:  3 eigenvalues not converged
     c_bands:  4 eigenvalues not converged
     c_bands:  5 eigenvalues not converged
     c_bands:  3 eigenvalues not converged
     c_bands:  2 eigenvalues not converged
     c_bands:  5 eigenvalues not converged
     c_bands:  3 eigenvalues not converged
     c_bands:  1 eigenvalues not converged
     c_bands:  3 eigenvalues not converged
     c_bands:  5 eigenvalues not converged
     c_bands:  1 eigenvalues not converged
     c_bands:  1 eigenvalues not converged
     c_bands:  4 eigenvalues not converged
     c_bands:  3 eigenvalues not converged
     c_bands:  2 eigenvalues not converged
     c_bands:  2 eigenvalues not converged
     c_bands:  4 eigenvalues not converged
     c_bands:  4 eigenvalues not converged
     c_bands:  2 eigenvalues not converged
     c_bands:  4 eigenvalues not converged
     c_bands:  1 eigenvalues not converged
     c_bands:  3 eigenvalues not converged
     c_bands:  2 eigenvalues not converged
     c_bands:  1 eigenvalues not converged
     c_bands:  3 eigenvalues not converged
     c_bands:  2 eigenvalues not converged
     c_bands:  2 eigenvalues not converged
     c_bands:  1 eigenvalues not converged
     c_bands:  4 eigenvalues not converged
     c_bands:  4 eigenvalues not converged
     c_bands:  1 eigenvalues not converged
     c_bands:  2 eigenvalues not converged
     c_bands:  4 eigenvalues not converged
     c_bands:  3 eigenvalues not converged
     c_bands:  1 eigenvalues not converged
     c_bands:  4 eigenvalues not converged
     c_bands:  4 eigenvalues not converged
     c_bands:  3 eigenvalues not converged
     c_bands:  2 eigenvalues not converged
     c_bands:  1 eigenvalues not converged
     c_bands:  1 eigenvalues not converged
     c_bands:  1 eigenvalues not converged
     c_bands:  2 eigenvalues not converged
     c_bands:  4 eigenvalues not converged
     c_bands:  3 eigenvalues not converged
     c_bands:  2 eigenvalues not converged
     c_bands:  2 eigenvalues not converged
     c_bands:  3 eigenvalues not converged
     c_bands:  2 eigenvalues not converged
     c_bands:  3 eigenvalues not converged
     c_bands:  5 eigenvalues not converged
     c_bands:  4 eigenvalues not converged
     c_bands:  1 eigenvalues not converged
     c_bands:  4 eigenvalues not converged
     c_bands:  4 eigenvalues not converged
     c_bands:  3 eigenvalues not converged
     c_bands:  3 eigenvalues not converged
     c_bands:  5 eigenvalues not converged
     c_bands:  2 eigenvalues not converged
     c_bands:  2 eigenvalues not converged
     c_bands:  3 eigenvalues not converged
     c_bands:  5 eigenvalues not converged
     c_bands:  3 eigenvalues not converged
     c_bands:  4 eigenvalues not converged
     c_bands:  4 eigenvalues not converged
     c_bands:  2 eigenvalues not converged
     c_bands:  4 eigenvalues not converged
     c_bands:  3 eigenvalues not converged
     c_bands:  1 eigenvalues not converged
     c_bands:  2 eigenvalues not converged
     c_bands:  5 eigenvalues not converged
     c_bands:  4 eigenvalues not converged
     c_bands:  1 eigenvalues not converged
     ethr =  3.69E-05,  avg # of iterations =  4.7

     negative rho (up, down):  4.959E-03 3.027E-03

     total cpu time spent up to now is    23131.0 secs

     total energy              =   -6225.02579313 Ry
     estimated scf accuracy    <       0.06850648 Ry

     total magnetization       =    17.13 Bohr mag/cell
     absolute magnetization    =    25.87 Bohr mag/cell

     iteration #  7     ecut=   124.00 Ry     beta= 0.20
     CG style diagonalization
     c_bands:  2 eigenvalues not converged
     c_bands:  3 eigenvalues not converged
     c_bands:  1 eigenvalues not converged
     c_bands:  1 eigenvalues not converged
     c_bands:  3 eigenvalues not converged
     c_bands:  1 eigenvalues not converged
     c_bands:  1 eigenvalues not converged
     c_bands:  1 eigenvalues not converged
     c_bands:  2 eigenvalues not converged
     c_bands:  2 eigenvalues not converged
     c_bands:  1 eigenvalues not converged
     c_bands:  1 eigenvalues not converged
     c_bands:  2 eigenvalues not converged
     c_bands:  2 eigenvalues not converged
     c_bands:  2 eigenvalues not converged
     c_bands:  2 eigenvalues not converged
     c_bands:  2 eigenvalues not converged
     c_bands:  1 eigenvalues not converged
     c_bands:  1 eigenvalues not converged
     c_bands:  2 eigenvalues not converged
     c_bands:  1 eigenvalues not converged
     c_bands:  2 eigenvalues not converged
     c_bands:  1 eigenvalues not converged
     c_bands:  1 eigenvalues not converged
     c_bands:  1 eigenvalues not converged
     c_bands:  1 eigenvalues not converged
     c_bands:  1 eigenvalues not converged
     c_bands:  1 eigenvalues not converged
     c_bands:  1 eigenvalues not converged
     c_bands:  3 eigenvalues not converged
     c_bands:  2 eigenvalues not converged
     c_bands:  1 eigenvalues not converged
     c_bands:  3 eigenvalues not converged
     c_bands:  1 eigenvalues not converged
     c_bands:  1 eigenvalues not converged
     c_bands:  2 eigenvalues not converged
     c_bands:  2 eigenvalues not converged
     c_bands:  4 eigenvalues not converged
     c_bands:  1 eigenvalues not converged
     c_bands:  2 eigenvalues not converged
     c_bands:  1 eigenvalues not converged
     c_bands:  1 eigenvalues not converged
     c_bands:  1 eigenvalues not converged
     c_bands:  3 eigenvalues not converged
     c_bands:  2 eigenvalues not converged
     c_bands:  5 eigenvalues not converged
     c_bands:  1 eigenvalues not converged
     c_bands:  5 eigenvalues not converged
     c_bands:  1 eigenvalues not converged
     c_bands:  3 eigenvalues not converged
     c_bands:  1 eigenvalues not converged
     c_bands:  1 eigenvalues not converged
     c_bands:  1 eigenvalues not converged
     c_bands:  2 eigenvalues not converged
     c_bands:  1 eigenvalues not converged
     c_bands:  2 eigenvalues not converged
     c_bands:  1 eigenvalues not converged
     c_bands:  3 eigenvalues not converged
     c_bands:  3 eigenvalues not converged
     c_bands:  1 eigenvalues not converged
     c_bands:  4 eigenvalues not converged
     c_bands:  1 eigenvalues not converged
     c_bands:  2 eigenvalues not converged
     c_bands:  2 eigenvalues not converged
     c_bands:  1 eigenvalues not converged
     c_bands:  1 eigenvalues not converged
     c_bands:  3 eigenvalues not converged
     c_bands:  2 eigenvalues not converged
     c_bands:  1 eigenvalues not converged
     c_bands:  4 eigenvalues not converged
     c_bands:  1 eigenvalues not converged
     c_bands:  4 eigenvalues not converged
     c_bands:  2 eigenvalues not converged
     c_bands:  1 eigenvalues not converged
     c_bands:  1 eigenvalues not converged
     c_bands:  2 eigenvalues not converged
     c_bands:  2 eigenvalues not converged
     c_bands:  5 eigenvalues not converged
     c_bands:  1 eigenvalues not converged
     c_bands:  3 eigenvalues not converged
     c_bands:  1 eigenvalues not converged
     c_bands:  1 eigenvalues not converged
     c_bands:  5 eigenvalues not converged
     c_bands:  3 eigenvalues not converged
     c_bands:  3 eigenvalues not converged
     c_bands:  1 eigenvalues not converged
     c_bands:  1 eigenvalues not converged
     c_bands:  1 eigenvalues not converged
     c_bands:  2 eigenvalues not converged
     c_bands:  1 eigenvalues not converged
     c_bands:  1 eigenvalues not converged
     c_bands:  2 eigenvalues not converged
     c_bands:  2 eigenvalues not converged
     c_bands:  2 eigenvalues not converged
     c_bands:  1 eigenvalues not converged
     c_bands:  2 eigenvalues not converged
     c_bands:  2 eigenvalues not converged
     c_bands:  3 eigenvalues not converged
     c_bands:  2 eigenvalues not converged
     c_bands:  1 eigenvalues not converged
     c_bands:  2 eigenvalues not converged
     c_bands:  1 eigenvalues not converged
     c_bands:  1 eigenvalues not converged
     c_bands:  2 eigenvalues not converged
     c_bands:  2 eigenvalues not converged
     c_bands:  2 eigenvalues not converged
     c_bands:  2 eigenvalues not converged
     c_bands:  4 eigenvalues not converged
     c_bands:  2 eigenvalues not converged
     c_bands:  1 eigenvalues not converged
     c_bands:  1 eigenvalues not converged
     c_bands:  3 eigenvalues not converged
     c_bands:  2 eigenvalues not converged
     c_bands:  2 eigenvalues not converged
     c_bands:  1 eigenvalues not converged
     c_bands:  2 eigenvalues not converged
     c_bands:  3 eigenvalues not converged
     c_bands:  2 eigenvalues not converged
     c_bands:  1 eigenvalues not converged
     c_bands:  2 eigenvalues not converged
     c_bands:  2 eigenvalues not converged
     c_bands:  3 eigenvalues not converged
     c_bands:  1 eigenvalues not converged
     c_bands:  1 eigenvalues not converged
     c_bands:  2 eigenvalues not converged
     c_bands:  1 eigenvalues not converged
     c_bands:  1 eigenvalues not converged
     c_bands:  4 eigenvalues not converged
     c_bands:  4 eigenvalues not converged
     c_bands:  2 eigenvalues not converged
     c_bands:  2 eigenvalues not converged
     c_bands:  2 eigenvalues not converged
     c_bands:  4 eigenvalues not converged
     c_bands:  2 eigenvalues not converged
     c_bands:  4 eigenvalues not converged
     c_bands:  2 eigenvalues not converged
     c_bands:  2 eigenvalues not converged
     c_bands:  4 eigenvalues not converged
     c_bands:  2 eigenvalues not converged
     c_bands:  1 eigenvalues not converged
     c_bands:  2 eigenvalues not converged
     c_bands:  4 eigenvalues not converged
     c_bands:  1 eigenvalues not converged
     c_bands:  2 eigenvalues not converged
     c_bands:  1 eigenvalues not converged
     c_bands:  1 eigenvalues not converged
     c_bands:  4 eigenvalues not converged
     c_bands:  3 eigenvalues not converged
     c_bands:  1 eigenvalues not converged
     c_bands:  3 eigenvalues not converged
     c_bands:  1 eigenvalues not converged
     c_bands:  2 eigenvalues not converged
     c_bands:  3 eigenvalues not converged
     c_bands:  1 eigenvalues not converged
     c_bands:  2 eigenvalues not converged
     c_bands:  4 eigenvalues not converged
     c_bands:  3 eigenvalues not converged
     c_bands:  3 eigenvalues not converged
     c_bands:  1 eigenvalues not converged
     c_bands:  2 eigenvalues not converged
     c_bands:  1 eigenvalues not converged
     c_bands:  1 eigenvalues not converged
     c_bands:  2 eigenvalues not converged
     c_bands:  2 eigenvalues not converged
     c_bands:  1 eigenvalues not converged
     c_bands:  2 eigenvalues not converged
     c_bands:  1 eigenvalues not converged
     c_bands:  3 eigenvalues not converged
     c_bands:  2 eigenvalues not converged
     c_bands:  1 eigenvalues not converged
     c_bands:  3 eigenvalues not converged
     c_bands:  1 eigenvalues not converged
     c_bands:  2 eigenvalues not converged
     c_bands:  1 eigenvalues not converged
     c_bands:  1 eigenvalues not converged
     c_bands:  2 eigenvalues not converged
     c_bands:  1 eigenvalues not converged
     c_bands:  2 eigenvalues not converged
     c_bands:  1 eigenvalues not converged
     c_bands:  2 eigenvalues not converged
     c_bands:  1 eigenvalues not converged
     c_bands:  1 eigenvalues not converged
     c_bands:  1 eigenvalues not converged
     c_bands:  1 eigenvalues not converged
     c_bands:  2 eigenvalues not converged
     c_bands:  2 eigenvalues not converged
     c_bands:  4 eigenvalues not converged
     c_bands:  1 eigenvalues not converged
     c_bands:  2 eigenvalues not converged
     c_bands:  3 eigenvalues not converged
     c_bands:  1 eigenvalues not converged
     c_bands:  3 eigenvalues not converged
     c_bands:  1 eigenvalues not converged
     c_bands:  1 eigenvalues not converged
     ethr =  1.94E-05,  avg # of iterations =  4.3

     negative rho (up, down):  4.866E-03 2.828E-03

     total cpu time spent up to now is    27522.8 secs

     total energy              =   -6225.05230624 Ry
     estimated scf accuracy    <       0.03471030 Ry

     total magnetization       =    17.59 Bohr mag/cell
     absolute magnetization    =    26.79 Bohr mag/cell

     iteration #  8     ecut=   124.00 Ry     beta= 0.20
     CG style diagonalization
     c_bands:  4 eigenvalues not converged
     c_bands:  2 eigenvalues not converged
     c_bands:  2 eigenvalues not converged
     c_bands:  1 eigenvalues not converged
     c_bands:  3 eigenvalues not converged
     c_bands:  2 eigenvalues not converged
     c_bands:  2 eigenvalues not converged
     c_bands:  1 eigenvalues not converged
     c_bands:  2 eigenvalues not converged
     c_bands:  1 eigenvalues not converged
     c_bands:  1 eigenvalues not converged
     c_bands:  1 eigenvalues not converged
     c_bands:  3 eigenvalues not converged
     c_bands:  1 eigenvalues not converged
     c_bands:  1 eigenvalues not converged
     c_bands:  1 eigenvalues not converged
     c_bands:  1 eigenvalues not converged
     c_bands:  2 eigenvalues not converged
     c_bands:  2 eigenvalues not converged
     c_bands:  1 eigenvalues not converged
     c_bands:  2 eigenvalues not converged
     c_bands:  2 eigenvalues not converged
     c_bands:  1 eigenvalues not converged
     c_bands:  5 eigenvalues not converged
     c_bands:  1 eigenvalues not converged
     c_bands:  2 eigenvalues not converged
     c_bands:  1 eigenvalues not converged
     c_bands:  1 eigenvalues not converged
     c_bands:  1 eigenvalues not converged
     c_bands:  1 eigenvalues not converged
     c_bands:  1 eigenvalues not converged
     c_bands:  2 eigenvalues not converged
     c_bands:  2 eigenvalues not converged
     c_bands:  3 eigenvalues not converged
     c_bands:  1 eigenvalues not converged
     c_bands:  2 eigenvalues not converged
     c_bands:  3 eigenvalues not converged
     c_bands:  1 eigenvalues not converged
     c_bands:  2 eigenvalues not converged
     c_bands:  3 eigenvalues not converged
     c_bands:  2 eigenvalues not converged
     c_bands:  2 eigenvalues not converged
     c_bands:  2 eigenvalues not converged
     c_bands:  1 eigenvalues not converged
     c_bands:  1 eigenvalues not converged
     c_bands:  1 eigenvalues not converged
     c_bands:  3 eigenvalues not converged
     c_bands:  1 eigenvalues not converged
     c_bands:  1 eigenvalues not converged
     c_bands:  1 eigenvalues not converged
     c_bands:  2 eigenvalues not converged
     c_bands:  1 eigenvalues not converged
     c_bands:  1 eigenvalues not converged
     c_bands:  2 eigenvalues not converged
     c_bands:  1 eigenvalues not converged
     c_bands:  2 eigenvalues not converged
     c_bands:  1 eigenvalues not converged
     c_bands:  2 eigenvalues not converged
     c_bands:  1 eigenvalues not converged
     c_bands:  1 eigenvalues not converged
     c_bands:  4 eigenvalues not converged
     c_bands:  2 eigenvalues not converged
     c_bands:  2 eigenvalues not converged
     c_bands:  3 eigenvalues not converged
     c_bands:  2 eigenvalues not converged
     c_bands:  3 eigenvalues not converged
     c_bands:  2 eigenvalues not converged
     c_bands:  2 eigenvalues not converged
     c_bands:  2 eigenvalues not converged
     c_bands:  2 eigenvalues not converged
     c_bands:  1 eigenvalues not converged
     c_bands:  1 eigenvalues not converged
     c_bands:  2 eigenvalues not converged
     c_bands:  2 eigenvalues not converged
     c_bands:  1 eigenvalues not converged
     c_bands:  2 eigenvalues not converged
     c_bands:  2 eigenvalues not converged
     c_bands:  1 eigenvalues not converged
     c_bands:  1 eigenvalues not converged
     c_bands:  2 eigenvalues not converged
     c_bands:  3 eigenvalues not converged
     c_bands:  1 eigenvalues not converged
     c_bands:  1 eigenvalues not converged
     c_bands:  1 eigenvalues not converged
     c_bands:  1 eigenvalues not converged
     c_bands:  2 eigenvalues not converged
     c_bands:  2 eigenvalues not converged
     c_bands:  2 eigenvalues not converged
     c_bands:  2 eigenvalues not converged
     c_bands:  2 eigenvalues not converged
     c_bands:  2 eigenvalues not converged
     c_bands:  2 eigenvalues not converged
     c_bands:  1 eigenvalues not converged
     c_bands:  2 eigenvalues not converged
     c_bands:  3 eigenvalues not converged
     c_bands:  1 eigenvalues not converged
     c_bands:  2 eigenvalues not converged
     c_bands:  1 eigenvalues not converged
     c_bands:  4 eigenvalues not converged
     c_bands:  2 eigenvalues not converged
     c_bands:  3 eigenvalues not converged
     c_bands:  2 eigenvalues not converged
     c_bands:  1 eigenvalues not converged
     c_bands:  2 eigenvalues not converged
     c_bands:  2 eigenvalues not converged
     c_bands:  1 eigenvalues not converged
     c_bands:  1 eigenvalues not converged
     c_bands:  1 eigenvalues not converged
     c_bands:  2 eigenvalues not converged
     c_bands:  2 eigenvalues not converged
     c_bands:  1 eigenvalues not converged
     c_bands:  3 eigenvalues not converged
     c_bands:  1 eigenvalues not converged
     c_bands:  1 eigenvalues not converged
     c_bands:  1 eigenvalues not converged
     c_bands:  1 eigenvalues not converged
     c_bands:  1 eigenvalues not converged
     c_bands:  1 eigenvalues not converged
     c_bands:  3 eigenvalues not converged
     c_bands:  1 eigenvalues not converged
     c_bands:  2 eigenvalues not converged
     c_bands:  2 eigenvalues not converged
     c_bands:  1 eigenvalues not converged
     c_bands:  1 eigenvalues not converged
     c_bands:  1 eigenvalues not converged
     c_bands:  1 eigenvalues not converged
     c_bands:  2 eigenvalues not converged
     c_bands:  3 eigenvalues not converged
     c_bands:  1 eigenvalues not converged
     c_bands:  1 eigenvalues not converged
     c_bands:  2 eigenvalues not converged
     c_bands:  2 eigenvalues not converged
     c_bands:  3 eigenvalues not converged
     c_bands:  1 eigenvalues not converged
     c_bands:  2 eigenvalues not converged
     c_bands:  3 eigenvalues not converged
     c_bands:  3 eigenvalues not converged
     c_bands:  1 eigenvalues not converged
     c_bands:  1 eigenvalues not converged
     c_bands:  1 eigenvalues not converged
     c_bands:  1 eigenvalues not converged
     c_bands:  4 eigenvalues not converged
     c_bands:  5 eigenvalues not converged
     c_bands:  1 eigenvalues not converged
     c_bands:  3 eigenvalues not converged
     c_bands:  1 eigenvalues not converged
     c_bands:  3 eigenvalues not converged
     c_bands:  4 eigenvalues not converged
     c_bands:  1 eigenvalues not converged
     c_bands:  2 eigenvalues not converged
     c_bands:  1 eigenvalues not converged
     c_bands:  1 eigenvalues not converged
     c_bands:  1 eigenvalues not converged
     c_bands:  2 eigenvalues not converged
     c_bands:  1 eigenvalues not converged
     c_bands:  2 eigenvalues not converged
     c_bands:  2 eigenvalues not converged
     c_bands:  3 eigenvalues not converged
     c_bands:  4 eigenvalues not converged
     c_bands:  1 eigenvalues not converged
     c_bands:  2 eigenvalues not converged
     c_bands:  5 eigenvalues not converged
     c_bands:  1 eigenvalues not converged
     c_bands:  1 eigenvalues not converged
     c_bands:  3 eigenvalues not converged
     c_bands:  5 eigenvalues not converged
     c_bands:  2 eigenvalues not converged
     c_bands:  3 eigenvalues not converged
     c_bands:  1 eigenvalues not converged
     c_bands:  1 eigenvalues not converged
     c_bands:  1 eigenvalues not converged
     c_bands:  1 eigenvalues not converged
     c_bands:  1 eigenvalues not converged
     c_bands:  3 eigenvalues not converged
     c_bands:  4 eigenvalues not converged
     c_bands:  2 eigenvalues not converged
     c_bands:  1 eigenvalues not converged
     c_bands:  3 eigenvalues not converged
     c_bands:  1 eigenvalues not converged
     c_bands:  1 eigenvalues not converged
     c_bands:  1 eigenvalues not converged
     c_bands:  2 eigenvalues not converged
     c_bands:  3 eigenvalues not converged
     c_bands:  2 eigenvalues not converged
     c_bands:  2 eigenvalues not converged
     ethr =  9.81E-06,  avg # of iterations =  4.0

     negative rho (up, down):  4.940E-03 2.500E-03

     total cpu time spent up to now is    31502.5 secs

     total energy              =   -6225.06904537 Ry
     estimated scf accuracy    <       0.04383486 Ry

     total magnetization       =    18.10 Bohr mag/cell
     absolute magnetization    =    27.42 Bohr mag/cell

     iteration #  9     ecut=   124.00 Ry     beta= 0.20
     CG style diagonalization
     c_bands:  1 eigenvalues not converged
     c_bands:  1 eigenvalues not converged
     c_bands:  2 eigenvalues not converged
     c_bands:  1 eigenvalues not converged
     c_bands:  1 eigenvalues not converged
     c_bands:  1 eigenvalues not converged
     c_bands:  1 eigenvalues not converged
     c_bands:  1 eigenvalues not converged
     c_bands:  1 eigenvalues not converged
     c_bands:  2 eigenvalues not converged
     c_bands:  2 eigenvalues not converged
     c_bands:  1 eigenvalues not converged
     c_bands:  3 eigenvalues not converged
     c_bands:  1 eigenvalues not converged
     c_bands:  2 eigenvalues not converged
     c_bands:  1 eigenvalues not converged
     c_bands:  2 eigenvalues not converged
     c_bands:  1 eigenvalues not converged
     c_bands:  2 eigenvalues not converged
     c_bands:  2 eigenvalues not converged
     c_bands:  1 eigenvalues not converged
     c_bands:  1 eigenvalues not converged
     c_bands:  2 eigenvalues not converged
     c_bands:  2 eigenvalues not converged
     c_bands:  1 eigenvalues not converged
     c_bands:  1 eigenvalues not converged
     c_bands:  1 eigenvalues not converged
     c_bands:  1 eigenvalues not converged
     c_bands:  2 eigenvalues not converged
     c_bands:  1 eigenvalues not converged
     c_bands:  1 eigenvalues not converged
     c_bands:  1 eigenvalues not converged
     c_bands:  1 eigenvalues not converged
     c_bands:  1 eigenvalues not converged
     c_bands:  1 eigenvalues not converged
     c_bands:  1 eigenvalues not converged
     c_bands:  2 eigenvalues not converged
     c_bands:  1 eigenvalues not converged
     c_bands:  3 eigenvalues not converged
     c_bands:  1 eigenvalues not converged
     c_bands:  1 eigenvalues not converged
     c_bands:  1 eigenvalues not converged
     c_bands:  2 eigenvalues not converged
     c_bands:  1 eigenvalues not converged
     c_bands:  1 eigenvalues not converged
     c_bands:  1 eigenvalues not converged
     c_bands:  1 eigenvalues not converged
     c_bands:  2 eigenvalues not converged
     c_bands:  1 eigenvalues not converged
     c_bands:  1 eigenvalues not converged
     c_bands:  1 eigenvalues not converged
     c_bands:  1 eigenvalues not converged
     c_bands:  1 eigenvalues not converged
     c_bands:  1 eigenvalues not converged
     c_bands:  1 eigenvalues not converged
     c_bands:  1 eigenvalues not converged
     c_bands:  2 eigenvalues not converged
     c_bands:  1 eigenvalues not converged
     c_bands:  1 eigenvalues not converged
     c_bands:  1 eigenvalues not converged
     c_bands:  1 eigenvalues not converged
     c_bands:  1 eigenvalues not converged
     c_bands:  1 eigenvalues not converged
     c_bands:  1 eigenvalues not converged
     c_bands:  1 eigenvalues not converged
     c_bands:  1 eigenvalues not converged
     ethr =  9.81E-06,  avg # of iterations =  3.3

     negative rho (up, down):  5.007E-03 2.376E-03

     total cpu time spent up to now is    34716.3 secs

     total energy              =   -6225.08032431 Ry
     estimated scf accuracy    <       0.02432104 Ry

     total magnetization       =    19.25 Bohr mag/cell
     absolute magnetization    =    29.23 Bohr mag/cell

     iteration # 10     ecut=   124.00 Ry     beta= 0.20
     CG style diagonalization
     c_bands:  1 eigenvalues not converged
     c_bands:  2 eigenvalues not converged
     c_bands:  1 eigenvalues not converged
     c_bands:  1 eigenvalues not converged
     c_bands:  1 eigenvalues not converged
     c_bands:  1 eigenvalues not converged
     c_bands:  2 eigenvalues not converged
     c_bands:  1 eigenvalues not converged
     c_bands:  1 eigenvalues not converged
     c_bands:  1 eigenvalues not converged
     c_bands:  1 eigenvalues not converged
     c_bands:  1 eigenvalues not converged
     c_bands:  1 eigenvalues not converged
     c_bands:  2 eigenvalues not converged
     c_bands:  1 eigenvalues not converged
     c_bands:  1 eigenvalues not converged
     c_bands:  1 eigenvalues not converged
     c_bands:  1 eigenvalues not converged
     c_bands:  2 eigenvalues not converged
     c_bands:  1 eigenvalues not converged
     c_bands:  1 eigenvalues not converged
     c_bands:  1 eigenvalues not converged
     c_bands:  1 eigenvalues not converged
     c_bands:  1 eigenvalues not converged
     c_bands:  1 eigenvalues not converged
     c_bands:  1 eigenvalues not converged
     c_bands:  1 eigenvalues not converged
     c_bands:  1 eigenvalues not converged
     c_bands:  1 eigenvalues not converged
     c_bands:  1 eigenvalues not converged
     c_bands:  1 eigenvalues not converged
     c_bands:  1 eigenvalues not converged
     c_bands:  1 eigenvalues not converged
     c_bands:  1 eigenvalues not converged
     c_bands:  1 eigenvalues not converged
     c_bands:  1 eigenvalues not converged
     c_bands:  1 eigenvalues not converged
     c_bands:  1 eigenvalues not converged
     c_bands:  1 eigenvalues not converged
     c_bands:  1 eigenvalues not converged
     c_bands:  1 eigenvalues not converged
     c_bands:  1 eigenvalues not converged
     c_bands:  1 eigenvalues not converged
     c_bands:  1 eigenvalues not converged
     c_bands:  1 eigenvalues not converged
     c_bands:  1 eigenvalues not converged
     c_bands:  1 eigenvalues not converged
     ethr =  6.87E-06,  avg # of iterations =  3.2

     negative rho (up, down):  5.085E-03 2.269E-03

     total cpu time spent up to now is    38062.5 secs

     total energy              =   -6225.09069692 Ry
     estimated scf accuracy    <       0.04821484 Ry

     total magnetization       =    19.78 Bohr mag/cell
     absolute magnetization    =    30.21 Bohr mag/cell

     iteration # 11     ecut=   124.00 Ry     beta= 0.20
     CG style diagonalization
     c_bands:  1 eigenvalues not converged
     c_bands:  2 eigenvalues not converged
     c_bands:  1 eigenvalues not converged
     c_bands:  1 eigenvalues not converged
     c_bands:  1 eigenvalues not converged
     c_bands:  1 eigenvalues not converged
     c_bands:  1 eigenvalues not converged
     c_bands:  1 eigenvalues not converged
     c_bands:  1 eigenvalues not converged
     c_bands:  1 eigenvalues not converged
     c_bands:  1 eigenvalues not converged
     c_bands:  1 eigenvalues not converged
     c_bands:  1 eigenvalues not converged
     c_bands:  1 eigenvalues not converged
     c_bands:  1 eigenvalues not converged
     c_bands:  1 eigenvalues not converged
     ethr =  6.87E-06,  avg # of iterations =  3.2

     negative rho (up, down):  5.350E-03 2.073E-03

     total cpu time spent up to now is    41294.8 secs

     total energy              =   -6225.09622384 Ry
     estimated scf accuracy    <       0.02108453 Ry

     total magnetization       =    20.63 Bohr mag/cell
     absolute magnetization    =    31.57 Bohr mag/cell

     iteration # 12     ecut=   124.00 Ry     beta= 0.20
     CG style diagonalization
     c_bands:  1 eigenvalues not converged
     c_bands:  1 eigenvalues not converged
     c_bands:  1 eigenvalues not converged
     c_bands:  1 eigenvalues not converged
     c_bands:  1 eigenvalues not converged
     c_bands:  1 eigenvalues not converged
     c_bands:  1 eigenvalues not converged
     c_bands:  1 eigenvalues not converged
     c_bands:  1 eigenvalues not converged
     c_bands:  1 eigenvalues not converged
     c_bands:  2 eigenvalues not converged
     c_bands:  1 eigenvalues not converged
     c_bands:  1 eigenvalues not converged
     c_bands:  1 eigenvalues not converged
     c_bands:  1 eigenvalues not converged
     c_bands:  2 eigenvalues not converged
     c_bands:  1 eigenvalues not converged
     c_bands:  1 eigenvalues not converged
     c_bands:  1 eigenvalues not converged
     c_bands:  1 eigenvalues not converged
     c_bands:  1 eigenvalues not converged
     c_bands:  1 eigenvalues not converged
     c_bands:  1 eigenvalues not converged
     c_bands:  1 eigenvalues not converged
     c_bands:  1 eigenvalues not converged
     c_bands:  1 eigenvalues not converged
     c_bands:  1 eigenvalues not converged
     c_bands:  1 eigenvalues not converged
     c_bands:  1 eigenvalues not converged
     c_bands:  2 eigenvalues not converged
     c_bands:  1 eigenvalues not converged
     c_bands:  1 eigenvalues not converged
     c_bands:  1 eigenvalues not converged
     c_bands:  1 eigenvalues not converged
     c_bands:  1 eigenvalues not converged
     c_bands:  2 eigenvalues not converged
     c_bands:  1 eigenvalues not converged
     c_bands:  1 eigenvalues not converged
     c_bands:  1 eigenvalues not converged
     c_bands:  2 eigenvalues not converged
     c_bands:  1 eigenvalues not converged
     c_bands:  1 eigenvalues not converged
     c_bands:  1 eigenvalues not converged
     c_bands:  1 eigenvalues not converged
     c_bands:  2 eigenvalues not converged
     c_bands:  1 eigenvalues not converged
     c_bands:  1 eigenvalues not converged
     c_bands:  1 eigenvalues not converged
     ethr =  5.96E-06,  avg # of iterations =  3.9

     negative rho (up, down):  5.490E-03 1.958E-03

     total cpu time spent up to now is    45605.0 secs

     total energy              =   -6225.10978541 Ry
     estimated scf accuracy    <       0.00438214 Ry

     total magnetization       =    22.26 Bohr mag/cell
     absolute magnetization    =    34.72 Bohr mag/cell

     iteration # 13     ecut=   124.00 Ry     beta= 0.20
     CG style diagonalization
     c_bands:  2 eigenvalues not converged
     c_bands:  3 eigenvalues not converged
     c_bands:  1 eigenvalues not converged
     c_bands:  1 eigenvalues not converged
     c_bands:  1 eigenvalues not converged
     c_bands:  1 eigenvalues not converged
     c_bands:  1 eigenvalues not converged
     c_bands:  1 eigenvalues not converged
     c_bands:  1 eigenvalues not converged
     c_bands:  1 eigenvalues not converged
     c_bands:  1 eigenvalues not converged
     c_bands:  1 eigenvalues not converged
     c_bands:  1 eigenvalues not converged
     c_bands:  1 eigenvalues not converged
     c_bands:  1 eigenvalues not converged
     c_bands:  1 eigenvalues not converged
     c_bands:  1 eigenvalues not converged
     c_bands:  2 eigenvalues not converged
     c_bands:  1 eigenvalues not converged
     c_bands:  1 eigenvalues not converged
     c_bands:  1 eigenvalues not converged
     c_bands:  1 eigenvalues not converged
     c_bands:  1 eigenvalues not converged
     c_bands:  3 eigenvalues not converged
     c_bands:  1 eigenvalues not converged
     c_bands:  1 eigenvalues not converged
     c_bands:  1 eigenvalues not converged
     c_bands:  1 eigenvalues not converged
     c_bands:  1 eigenvalues not converged
     c_bands:  2 eigenvalues not converged
     c_bands:  2 eigenvalues not converged
     c_bands:  1 eigenvalues not converged
     c_bands:  1 eigenvalues not converged
     c_bands:  1 eigenvalues not converged
     c_bands:  1 eigenvalues not converged
     c_bands:  1 eigenvalues not converged
     c_bands:  2 eigenvalues not converged
     c_bands:  1 eigenvalues not converged
     c_bands:  1 eigenvalues not converged
     c_bands:  1 eigenvalues not converged
     c_bands:  3 eigenvalues not converged
     c_bands:  2 eigenvalues not converged
     c_bands:  2 eigenvalues not converged
     c_bands:  3 eigenvalues not converged
     c_bands:  1 eigenvalues not converged
     c_bands:  1 eigenvalues not converged
     c_bands:  2 eigenvalues not converged
     c_bands:  2 eigenvalues not converged
     c_bands:  3 eigenvalues not converged
     c_bands:  3 eigenvalues not converged
     c_bands:  3 eigenvalues not converged
     c_bands:  3 eigenvalues not converged
     c_bands:  1 eigenvalues not converged
     c_bands:  2 eigenvalues not converged
     c_bands:  5 eigenvalues not converged
     c_bands:  1 eigenvalues not converged
     c_bands:  1 eigenvalues not converged
     c_bands:  3 eigenvalues not converged
     c_bands:  2 eigenvalues not converged
     c_bands:  2 eigenvalues not converged
     c_bands:  3 eigenvalues not converged
     c_bands:  1 eigenvalues not converged
     c_bands:  1 eigenvalues not converged
     c_bands:  1 eigenvalues not converged
     c_bands:  1 eigenvalues not converged
     c_bands:  4 eigenvalues not converged
     c_bands:  1 eigenvalues not converged
     c_bands:  1 eigenvalues not converged
     c_bands:  3 eigenvalues not converged
     c_bands:  2 eigenvalues not converged
     c_bands:  1 eigenvalues not converged
     c_bands:  1 eigenvalues not converged
     c_bands:  1 eigenvalues not converged
     c_bands:  3 eigenvalues not converged
     c_bands:  1 eigenvalues not converged
     c_bands:  1 eigenvalues not converged
     c_bands:  3 eigenvalues not converged
     c_bands:  3 eigenvalues not converged
     c_bands:  1 eigenvalues not converged
     c_bands:  2 eigenvalues not converged
     c_bands:  1 eigenvalues not converged
     c_bands:  1 eigenvalues not converged
     c_bands:  1 eigenvalues not converged
     c_bands:  1 eigenvalues not converged
     c_bands:  1 eigenvalues not converged
     c_bands:  1 eigenvalues not converged
     c_bands:  1 eigenvalues not converged
     c_bands:  3 eigenvalues not converged
     c_bands:  2 eigenvalues not converged
     c_bands:  2 eigenvalues not converged
     c_bands:  1 eigenvalues not converged
     c_bands:  1 eigenvalues not converged
     c_bands:  3 eigenvalues not converged
     c_bands:  3 eigenvalues not converged
     c_bands:  1 eigenvalues not converged
     c_bands:  1 eigenvalues not converged
     c_bands:  1 eigenvalues not converged
     c_bands:  1 eigenvalues not converged
     c_bands:  2 eigenvalues not converged
     c_bands:  3 eigenvalues not converged
     c_bands:  1 eigenvalues not converged
     c_bands:  2 eigenvalues not converged
     c_bands:  2 eigenvalues not converged
     c_bands:  1 eigenvalues not converged
     c_bands:  2 eigenvalues not converged
     c_bands:  1 eigenvalues not converged
     c_bands:  2 eigenvalues not converged
     c_bands:  2 eigenvalues not converged
     c_bands:  2 eigenvalues not converged
     c_bands:  1 eigenvalues not converged
     c_bands:  2 eigenvalues not converged
     c_bands:  3 eigenvalues not converged
     c_bands:  1 eigenvalues not converged
     c_bands:  1 eigenvalues not converged
     c_bands:  2 eigenvalues not converged
     c_bands:  1 eigenvalues not converged
     c_bands:  1 eigenvalues not converged
     c_bands:  2 eigenvalues not converged
     c_bands:  1 eigenvalues not converged
     c_bands:  1 eigenvalues not converged
     c_bands:  1 eigenvalues not converged
     ethr =  1.24E-06,  avg # of iterations =  4.6

     negative rho (up, down):  5.457E-03 1.944E-03

     total cpu time spent up to now is    50985.1 secs

     total energy              =   -6225.11060054 Ry
     estimated scf accuracy    <       0.00224893 Ry

     total magnetization       =    22.94 Bohr mag/cell
     absolute magnetization    =    36.15 Bohr mag/cell

     iteration # 14     ecut=   124.00 Ry     beta= 0.20
     CG style diagonalization
     c_bands:  1 eigenvalues not converged
     c_bands:  1 eigenvalues not converged
     c_bands:  1 eigenvalues not converged
     c_bands:  1 eigenvalues not converged
     c_bands:  1 eigenvalues not converged
     c_bands:  1 eigenvalues not converged
     c_bands:  1 eigenvalues not converged
     c_bands:  1 eigenvalues not converged
     c_bands:  1 eigenvalues not converged
     c_bands:  2 eigenvalues not converged
     c_bands:  1 eigenvalues not converged
     c_bands:  1 eigenvalues not converged
     c_bands:  1 eigenvalues not converged
     c_bands:  1 eigenvalues not converged
     c_bands:  3 eigenvalues not converged
     c_bands:  1 eigenvalues not converged
     c_bands:  1 eigenvalues not converged
     c_bands:  1 eigenvalues not converged
     c_bands:  1 eigenvalues not converged
     c_bands:  1 eigenvalues not converged
     c_bands:  1 eigenvalues not converged
     c_bands:  1 eigenvalues not converged
     c_bands:  1 eigenvalues not converged
     c_bands:  1 eigenvalues not converged
     c_bands:  1 eigenvalues not converged
     c_bands:  1 eigenvalues not converged
     c_bands:  1 eigenvalues not converged
     c_bands:  1 eigenvalues not converged
     c_bands:  2 eigenvalues not converged
     c_bands:  2 eigenvalues not converged
     c_bands:  1 eigenvalues not converged
     c_bands:  1 eigenvalues not converged
     c_bands:  1 eigenvalues not converged
     c_bands:  1 eigenvalues not converged
     c_bands:  2 eigenvalues not converged
     c_bands:  1 eigenvalues not converged
     c_bands:  1 eigenvalues not converged
     c_bands:  1 eigenvalues not converged
     c_bands:  1 eigenvalues not converged
     c_bands:  2 eigenvalues not converged
     c_bands:  1 eigenvalues not converged
     c_bands:  1 eigenvalues not converged
     c_bands:  1 eigenvalues not converged
     c_bands:  1 eigenvalues not converged
     c_bands:  1 eigenvalues not converged
     c_bands:  1 eigenvalues not converged
     c_bands:  2 eigenvalues not converged
     c_bands:  2 eigenvalues not converged
     c_bands:  1 eigenvalues not converged
     c_bands:  1 eigenvalues not converged
     c_bands:  2 eigenvalues not converged
     c_bands:  1 eigenvalues not converged
     c_bands:  1 eigenvalues not converged
     c_bands:  1 eigenvalues not converged
     c_bands:  2 eigenvalues not converged
     c_bands:  2 eigenvalues not converged
     c_bands:  1 eigenvalues not converged
     c_bands:  1 eigenvalues not converged
     c_bands:  1 eigenvalues not converged
     c_bands:  1 eigenvalues not converged
     c_bands:  2 eigenvalues not converged
     c_bands:  1 eigenvalues not converged
     c_bands:  1 eigenvalues not converged
     c_bands:  1 eigenvalues not converged
     c_bands:  1 eigenvalues not converged
     c_bands:  1 eigenvalues not converged
     c_bands:  1 eigenvalues not converged
     c_bands:  1 eigenvalues not converged
     c_bands:  1 eigenvalues not converged
     c_bands:  1 eigenvalues not converged
     ethr =  6.35E-07,  avg # of iterations =  3.8

     negative rho (up, down):  5.595E-03 1.916E-03

     total cpu time spent up to now is    55042.3 secs

     total energy              =   -6225.11322046 Ry
     estimated scf accuracy    <       0.00187719 Ry

     total magnetization       =    22.37 Bohr mag/cell
     absolute magnetization    =    35.27 Bohr mag/cell

     iteration # 15     ecut=   124.00 Ry     beta= 0.20
     CG style diagonalization
     c_bands:  1 eigenvalues not converged
     c_bands:  1 eigenvalues not converged
     c_bands:  1 eigenvalues not converged
     c_bands:  1 eigenvalues not converged
     c_bands:  1 eigenvalues not converged
     c_bands:  1 eigenvalues not converged
     c_bands:  1 eigenvalues not converged
     c_bands:  1 eigenvalues not converged
     c_bands:  2 eigenvalues not converged
     c_bands:  1 eigenvalues not converged
     c_bands:  1 eigenvalues not converged
     c_bands:  1 eigenvalues not converged
     c_bands:  1 eigenvalues not converged
     c_bands:  1 eigenvalues not converged
     c_bands:  1 eigenvalues not converged
     c_bands:  1 eigenvalues not converged
     c_bands:  1 eigenvalues not converged
     c_bands:  1 eigenvalues not converged
     c_bands:  1 eigenvalues not converged
     c_bands:  1 eigenvalues not converged
     c_bands:  1 eigenvalues not converged
     c_bands:  1 eigenvalues not converged
     c_bands:  1 eigenvalues not converged
     c_bands:  1 eigenvalues not converged
     c_bands:  1 eigenvalues not converged
     c_bands:  1 eigenvalues not converged
     ethr =  5.30E-07,  avg # of iterations =  3.5

     negative rho (up, down):  5.665E-03 1.886E-03

     total cpu time spent up to now is    58743.5 secs

     total energy              =   -6225.11420656 Ry
     estimated scf accuracy    <       0.00047887 Ry

     total magnetization       =    22.70 Bohr mag/cell
     absolute magnetization    =    36.04 Bohr mag/cell

     iteration # 16     ecut=   124.00 Ry     beta= 0.20
     CG style diagonalization
     c_bands:  1 eigenvalues not converged
     c_bands:  1 eigenvalues not converged
     c_bands:  1 eigenvalues not converged
     c_bands:  1 eigenvalues not converged
     c_bands:  1 eigenvalues not converged
     ethr =  1.35E-07,  avg # of iterations =  4.6

     negative rho (up, down):  5.783E-03 1.833E-03

     total cpu time spent up to now is    63993.0 secs

     total energy              =   -6225.11472493 Ry
     estimated scf accuracy    <       0.00013245 Ry

     total magnetization       =    22.91 Bohr mag/cell
     absolute magnetization    =    36.56 Bohr mag/cell

     iteration # 17     ecut=   124.00 Ry     beta= 0.20
     CG style diagonalization
     c_bands:  1 eigenvalues not converged
     ethr =  3.74E-08,  avg # of iterations =  5.4

     negative rho (up, down):  5.784E-03 1.832E-03

     total cpu time spent up to now is    70460.7 secs

     total energy              =   -6225.11502418 Ry
     estimated scf accuracy    <       0.00007771 Ry

     total magnetization       =    22.93 Bohr mag/cell
     absolute magnetization    =    36.92 Bohr mag/cell

     iteration # 18     ecut=   124.00 Ry     beta= 0.20
     CG style diagonalization
     ethr =  2.20E-08,  avg # of iterations =  3.8

     negative rho (up, down):  5.803E-03 1.820E-03

     total cpu time spent up to now is    74619.6 secs

     total energy              =   -6225.11507319 Ry
     estimated scf accuracy    <       0.00001468 Ry

     total magnetization       =    22.87 Bohr mag/cell
     absolute magnetization    =    36.82 Bohr mag/cell

     iteration # 19     ecut=   124.00 Ry     beta= 0.20
     CG style diagonalization
     ethr =  4.15E-09,  avg # of iterations =  5.0

     negative rho (up, down):  5.826E-03 1.798E-03

     total cpu time spent up to now is    80713.2 secs

     total energy              =   -6225.11509360 Ry
     estimated scf accuracy    <       0.00001460 Ry

     total magnetization       =    22.85 Bohr mag/cell
     absolute magnetization    =    36.85 Bohr mag/cell

     iteration # 20     ecut=   124.00 Ry     beta= 0.20
     CG style diagonalization
     ethr =  4.12E-09,  avg # of iterations =  3.9

     negative rho (up, down):  5.837E-03 1.789E-03

     total cpu time spent up to now is    85240.2 secs

     total energy              =   -6225.11510640 Ry
     estimated scf accuracy    <       0.00000349 Ry

     total magnetization       =    22.84 Bohr mag/cell
     absolute magnetization    =    36.92 Bohr mag/cell

     iteration # 21     ecut=   124.00 Ry     beta= 0.20
     CG style diagonalization
     ethr =  9.87E-10,  avg # of iterations =  4.5

     negative rho (up, down):  5.846E-03 1.784E-03

     total cpu time spent up to now is    90076.8 secs

     total energy              =   -6225.11511182 Ry
     estimated scf accuracy    <       0.00000121 Ry

     total magnetization       =    22.81 Bohr mag/cell
     absolute magnetization    =    36.91 Bohr mag/cell

     iteration # 22     ecut=   124.00 Ry     beta= 0.20
     CG style diagonalization
     ethr =  3.42E-10,  avg # of iterations =  5.0

     negative rho (up, down):  5.856E-03 1.780E-03

     total cpu time spent up to now is    95211.7 secs

     total energy              =   -6225.11511428 Ry
     estimated scf accuracy    <       0.00000073 Ry

     total magnetization       =    22.81 Bohr mag/cell
     absolute magnetization    =    36.93 Bohr mag/cell

     iteration # 23     ecut=   124.00 Ry     beta= 0.20
     CG style diagonalization
     ethr =  2.05E-10,  avg # of iterations =  4.3

     negative rho (up, down):  5.856E-03 1.780E-03

     total cpu time spent up to now is    99455.9 secs

     total energy              =   -6225.11511542 Ry
     estimated scf accuracy    <       0.00000024 Ry

     total magnetization       =    22.80 Bohr mag/cell
     absolute magnetization    =    36.95 Bohr mag/cell

     iteration # 24     ecut=   124.00 Ry     beta= 0.20
     CG style diagonalization
     ethr =  6.65E-11,  avg # of iterations =  4.3

     negative rho (up, down):  5.862E-03 1.777E-03

     total cpu time spent up to now is   103703.7 secs

     total energy              =   -6225.11511588 Ry
     estimated scf accuracy    <       0.00000015 Ry

     total magnetization       =    22.80 Bohr mag/cell
     absolute magnetization    =    36.95 Bohr mag/cell

     iteration # 25     ecut=   124.00 Ry     beta= 0.20
     CG style diagonalization
     ethr =  4.20E-11,  avg # of iterations =  4.7

     negative rho (up, down):  5.865E-03 1.776E-03

     total cpu time spent up to now is   108462.1 secs

     total energy              =   -6225.11511634 Ry
     estimated scf accuracy    <       0.00000007 Ry

     total magnetization       =    22.80 Bohr mag/cell
     absolute magnetization    =    36.96 Bohr mag/cell

     iteration # 26     ecut=   124.00 Ry     beta= 0.20
     CG style diagonalization
     ethr =  1.97E-11,  avg # of iterations =  4.2

     negative rho (up, down):  5.865E-03 1.776E-03

     total cpu time spent up to now is   112758.2 secs

     total energy              =   -6225.11511649 Ry
     estimated scf accuracy    <       0.00000001 Ry

     total magnetization       =    22.79 Bohr mag/cell
     absolute magnetization    =    36.97 Bohr mag/cell

     iteration # 27     ecut=   124.00 Ry     beta= 0.20
     CG style diagonalization
     ethr =  3.40E-12,  avg # of iterations =  5.4

     negative rho (up, down):  5.865E-03 1.776E-03

     Magnetic moment per site  (integrated on atomic sphere of radius R)
     atom   1 (R=0.094)  charge= 11.6277  magn=  1.4614
     atom   2 (R=0.094)  charge= 11.6138  magn=  1.5321
     atom   3 (R=0.094)  charge= 11.6138  magn=  1.5321
     atom   4 (R=0.094)  charge= 11.6277  magn=  1.4614
     atom   5 (R=0.094)  charge= 11.6277  magn=  1.4614
     atom   6 (R=0.094)  charge= 11.6138  magn=  1.5321
     atom   7 (R=0.094)  charge= 11.6138  magn=  1.5321
     atom   8 (R=0.094)  charge= 11.6277  magn=  1.4614
     atom   9 (R=0.094)  charge= 11.6138  magn=  1.5321
     atom  10 (R=0.094)  charge= 11.6138  magn=  1.5321
     atom  11 (R=0.094)  charge= 11.6277  magn=  1.4614
     atom  12 (R=0.094)  charge= 11.6138  magn=  1.5321
     atom  13 (R=0.094)  charge= 11.6277  magn=  1.4614
     atom  14 (R=0.094)  charge= 11.6138  magn=  1.5321
     atom  15 (R=0.094)  charge= 11.6276  magn=  1.4614
     atom  16 (R=0.094)  charge= 11.6277  magn=  1.4614
     atom  17 (R=0.172)  charge= 10.3280  magn= -0.6110
     atom  18 (R=0.172)  charge= 10.3380  magn= -0.6337
     atom  19 (R=0.172)  charge= 10.3280  magn= -0.6110
     atom  20 (R=0.172)  charge= 10.3380  magn= -0.6337
     atom  21 (R=0.172)  charge= 10.3280  magn= -0.6110
     atom  22 (R=0.172)  charge= 10.3396  magn= -0.5973
     atom  23 (R=0.172)  charge= 10.3396  magn= -0.5973
     atom  24 (R=0.172)  charge= 10.3280  magn= -0.6110
     atom  25 (R=0.094)  charge=  1.1005  magn=  0.0009
     atom  26 (R=0.094)  charge=  1.1005  magn=  0.0009

     total cpu time spent up to now is   120613.5 secs

     End of self-consistent calculation

     Number of k-points >= 100: set verbosity='high' to print the bands.

     the Fermi energy is    16.4385 ev

!    total energy              =   -6225.11511666 Ry
     estimated scf accuracy    <          7.5E-09 Ry
     smearing contrib. (-TS)   =      -0.00024490 Ry
     internal energy E=F+TS    =   -6225.11487176 Ry

     The total energy is F=E-TS. E is the sum of the following terms:
     one-electron contribution =   -2433.09138005 Ry
     hartree contribution      =    1408.31593659 Ry
     xc contribution           =    -702.45314822 Ry
     ewald contribution        =   -3279.37427242 Ry
     one-center paw contrib.   =   -1218.51200766 Ry

     total magnetization       =    22.79 Bohr mag/cell
     absolute magnetization    =    36.96 Bohr mag/cell

     convergence has been achieved in  27 iterations

     negative rho (up, down):  5.865E-03 1.776E-03

     Forces acting on atoms (cartesian axes, Ry/au):

     atom    1 type  1   force =    -0.01461038   -0.01017519   -0.01017486
     atom    2 type  1   force =     0.01216173    0.00737217    0.00737204
     atom    3 type  1   force =    -0.01216175    0.00737229   -0.00737093
     atom    4 type  1   force =     0.01460920    0.01017414   -0.01017408
     atom    5 type  1   force =    -0.01460958   -0.01017404   -0.01017238
     atom    6 type  1   force =     0.01216319    0.00737249    0.00737294
     atom    7 type  1   force =    -0.01216222   -0.00737277    0.00737254
     atom    8 type  1   force =     0.01460822   -0.01017288    0.01017248
     atom    9 type  1   force =     0.01216337   -0.00737333   -0.00737191
     atom   10 type  1   force =     0.01216106   -0.00737216   -0.00737157
     atom   11 type  1   force =     0.01460950   -0.01017383    0.01017448
     atom   12 type  1   force =    -0.01216137   -0.00737271    0.00737166
     atom   13 type  1   force =     0.01460821    0.01017391   -0.01017481
     atom   14 type  1   force =    -0.01216250    0.00737275   -0.00737259
     atom   15 type  1   force =    -0.01461096    0.01017531    0.01017608
     atom   16 type  1   force =    -0.01460922    0.01017408    0.01017237
     atom   17 type  2   force =    -0.00517243   -0.00000009   -0.00000027
     atom   18 type  2   force =     0.00000026   -0.00000018   -0.00000022
     atom   19 type  2   force =     0.00517295   -0.00000003    0.00000000
     atom   20 type  2   force =     0.00000035   -0.00000002   -0.00000020
     atom   21 type  2   force =    -0.00517253   -0.00000010   -0.00000010
     atom   22 type  2   force =     0.00000017    0.00000003   -0.00000012
     atom   23 type  2   force =     0.00000023    0.00000004   -0.00000008
     atom   24 type  2   force =     0.00517293    0.00000004   -0.00000017
     atom   25 type  3   force =     0.00000076    0.00000007   -0.00000022
     atom   26 type  3   force =     0.00000079    0.00000002   -0.00000008

     Total force =     0.074321     Total SCF correction =     0.000055


     Computing stress (Cartesian axis) and pressure


     negative rho (up, down):  5.865E-03 1.776E-03
          total   stress  (Ry/bohr**3)                   (kbar)     P=        0.31
   0.00000103   0.00000000   0.00000000            0.15        0.00        0.00
   0.00000000   0.00000263   0.00000000            0.00        0.39        0.00
   0.00000000   0.00000000   0.00000264            0.00        0.00        0.39


     BFGS Geometry Optimization
     Energy error            =      5.5E-03 Ry
     Gradient error          =      1.5E-02 Ry/Bohr
     Cell gradient error     =      3.9E-01 kbar

     number of scf cycles    =   1
     number of bfgs steps    =   0

     enthalpy           new  =   -6225.1151166586 Ry

     new trust radius        =       0.0205077990 bohr
     new conv_thr            =       0.0000000100 Ry

     new unit-cell volume =   2156.10549 a.u.^3 (   319.50187 Ang^3 )
     density =      6.64457 g/cm^3

CELL_PARAMETERS (alat= 12.76591255)
   1.011933834   0.000000039   0.000000104
   0.000000039   1.012001159   0.000000125
   0.000000104   0.000000125   1.012001797

ATOMIC_POSITIONS (crystal)
Fe               0.1181436560        0.1185264800        0.6185264400
Fe               0.6258737522        0.6254915202        0.6254915580
Fe               0.8741261248        0.6254916030        0.8745083496
Fe               0.3818565991        0.8814736745        0.1185265975
Fe               0.1181435833        0.6185266541        0.1185266698
Fe               0.6258738413        0.1254914423        0.1254915917
Fe               0.8741260097        0.3745082271        0.1254915447
Fe               0.3818564602        0.6185266122        0.3814735559
Fe               0.6258738472        0.3745082672        0.3745084715
Fe               0.6258737923        0.8745084587        0.8745084581
Fe               0.3818566116        0.1185265660        0.8814735033
Fe               0.8741260257        0.8745082975        0.6254915599
Fe               0.3818564478        0.3814736080        0.6185264013
Fe               0.8741259204        0.1254914886        0.3745082828
Fe               0.1181434908        0.3814735805        0.8814735744
Fe               0.1181436183        0.8814734441        0.3814734378
Ti              -0.0006982282        0.0000000016       -0.0000000079
Ti               0.7500000291        0.7499999780        0.2499999887
Ti               0.5006982603        0.0000000096        0.5000000141
Ti               0.7500000363        0.2500000063        0.7499999906
Ti              -0.0006982451        0.4999999915        0.4999999862
Ti               0.2499999913        0.2500000200        0.2499999977
Ti               0.2499999956        0.7500000153        0.7500000082
Ti               0.5006982601        0.5000000114        0.0000000134
H                0.2500000609        0.2500000277        0.7499999987
H                0.2500000590        0.7500000145        0.2500000142



     Writing config-only to output data dir ./TiFe2_cub_8b_2H_far.save/ :
     XML data file     NEW-OLD atomic charge density approx. for the potential
     New effective cutoffs (rho, wfc): 1735.88  123.99

     Check: negative core charge=   -0.000002

     negative rho (up, down):  5.906E-03 1.786E-03
     Generating pointlists ...

     total cpu time spent up to now is   121557.6 secs

     per-process dynamical memory:  2930.9 Mb

     Self-consistent Calculation

     iteration #  1     ecut=   124.00 Ry     beta= 0.20
     CG style diagonalization
     c_bands:  1 eigenvalues not converged
     c_bands:  1 eigenvalues not converged
     c_bands:  1 eigenvalues not converged
     c_bands:  1 eigenvalues not converged
     c_bands:  1 eigenvalues not converged
     c_bands:  1 eigenvalues not converged
     c_bands:  1 eigenvalues not converged
     ethr =  1.00E-06,  avg # of iterations = 15.3

     negative rho (up, down):  5.907E-03 1.786E-03

     total cpu time spent up to now is   149202.8 secs

     total energy              =   -6225.11894703 Ry
     estimated scf accuracy    <       0.01595036 Ry

     total magnetization       =    22.76 Bohr mag/cell
     absolute magnetization    =    36.96 Bohr mag/cell

     iteration #  2     ecut=   124.00 Ry     beta= 0.20
     CG style diagonalization
     c_bands:  1 eigenvalues not converged
     c_bands:  1 eigenvalues not converged
     ethr =  4.51E-06,  avg # of iterations =  3.0

     negative rho (up, down):  5.907E-03 1.784E-03

     total cpu time spent up to now is   153219.4 secs

     total energy              =   -6225.11922978 Ry
     estimated scf accuracy    <       0.00233328 Ry

     total magnetization       =    22.75 Bohr mag/cell
     absolute magnetization    =    36.95 Bohr mag/cell

     iteration #  3     ecut=   124.00 Ry     beta= 0.20
     CG style diagonalization
     ethr =  6.59E-07,  avg # of iterations =  3.0

     negative rho (up, down):  5.909E-03 1.780E-03

     total cpu time spent up to now is   157258.4 secs

     total energy              =   -6225.11889950 Ry
     estimated scf accuracy    <       0.00167831 Ry

     total magnetization       =    22.74 Bohr mag/cell
     absolute magnetization    =    36.95 Bohr mag/cell

     iteration #  4     ecut=   124.00 Ry     beta= 0.20
     CG style diagonalization
     c_bands:  1 eigenvalues not converged
     ethr =  4.74E-07,  avg # of iterations =  3.2

     negative rho (up, down):  5.910E-03 1.779E-03

     total cpu time spent up to now is   161300.9 secs

     total energy              =   -6225.11907954 Ry
     estimated scf accuracy    <       0.00027690 Ry

     total magnetization       =    22.73 Bohr mag/cell
     absolute magnetization    =    36.94 Bohr mag/cell

     iteration #  5     ecut=   124.00 Ry     beta= 0.20
     CG style diagonalization
     ethr =  7.82E-08,  avg # of iterations =  4.8

     negative rho (up, down):  5.912E-03 1.778E-03

     total cpu time spent up to now is   167765.6 secs

     total energy              =   -6225.11928046 Ry
     estimated scf accuracy    <       0.00021672 Ry

     total magnetization       =    22.73 Bohr mag/cell
     absolute magnetization    =    36.94 Bohr mag/cell

     iteration #  6     ecut=   124.00 Ry     beta= 0.20
     CG style diagonalization
     ethr =  6.12E-08,  avg # of iterations =  3.3

     negative rho (up, down):  5.912E-03 1.778E-03

     total cpu time spent up to now is   171631.7 secs

     total energy              =   -6225.11931736 Ry
     estimated scf accuracy    <       0.00004403 Ry

     total magnetization       =    22.72 Bohr mag/cell
     absolute magnetization    =    36.94 Bohr mag/cell

     iteration #  7     ecut=   124.00 Ry     beta= 0.20
     CG style diagonalization
     ethr =  1.24E-08,  avg # of iterations =  4.1

     negative rho (up, down):  5.913E-03 1.778E-03

     total cpu time spent up to now is   175852.3 secs

     total energy              =   -6225.11933915 Ry
     estimated scf accuracy    <       0.00001524 Ry

     total magnetization       =    22.72 Bohr mag/cell
     absolute magnetization    =    36.94 Bohr mag/cell

     iteration #  8     ecut=   124.00 Ry     beta= 0.20
     CG style diagonalization
     ethr =  4.31E-09,  avg # of iterations =  4.6

     negative rho (up, down):  5.914E-03 1.778E-03

     total cpu time spent up to now is   181132.0 secs

     total energy              =   -6225.11935214 Ry
     estimated scf accuracy    <       0.00001225 Ry

     total magnetization       =    22.72 Bohr mag/cell
     absolute magnetization    =    36.93 Bohr mag/cell

     iteration #  9     ecut=   124.00 Ry     beta= 0.20
     CG style diagonalization
     ethr =  3.46E-09,  avg # of iterations =  3.5

     negative rho (up, down):  5.914E-03 1.778E-03

     total cpu time spent up to now is   184512.5 secs

     total energy              =   -6225.11935752 Ry
     estimated scf accuracy    <       0.00000092 Ry

     total magnetization       =    22.71 Bohr mag/cell
     absolute magnetization    =    36.93 Bohr mag/cell

     iteration # 10     ecut=   124.00 Ry     beta= 0.20
     CG style diagonalization
     ethr =  2.59E-10,  avg # of iterations =  6.0

     negative rho (up, down):  5.914E-03 1.778E-03

     total cpu time spent up to now is   190925.3 secs

     total energy              =   -6225.11936134 Ry
     estimated scf accuracy    <       0.00000036 Ry

     total magnetization       =    22.71 Bohr mag/cell
     absolute magnetization    =    36.93 Bohr mag/cell

     iteration # 11     ecut=   124.00 Ry     beta= 0.20
     CG style diagonalization
     ethr =  1.02E-10,  avg # of iterations =  4.1

     negative rho (up, down):  5.914E-03 1.779E-03

     total cpu time spent up to now is   195402.9 secs

     total energy              =   -6225.11936267 Ry
     estimated scf accuracy    <       0.00000062 Ry

     total magnetization       =    22.71 Bohr mag/cell
     absolute magnetization    =    36.93 Bohr mag/cell

     iteration # 12     ecut=   124.00 Ry     beta= 0.20
     CG style diagonalization
     ethr =  1.02E-10,  avg # of iterations =  3.3

     negative rho (up, down):  5.914E-03 1.779E-03

     total cpu time spent up to now is   198483.6 secs

     total energy              =   -6225.11936349 Ry
     estimated scf accuracy    <       0.00000014 Ry

     total magnetization       =    22.71 Bohr mag/cell
     absolute magnetization    =    36.93 Bohr mag/cell

     iteration # 13     ecut=   124.00 Ry     beta= 0.20
     CG style diagonalization
     ethr =  4.09E-11,  avg # of iterations =  3.4

     negative rho (up, down):  5.914E-03 1.779E-03

     total cpu time spent up to now is   201637.5 secs

     total energy              =   -6225.11936400 Ry
     estimated scf accuracy    <       0.00000003 Ry

     total magnetization       =    22.71 Bohr mag/cell
     absolute magnetization    =    36.93 Bohr mag/cell

     iteration # 14     ecut=   124.00 Ry     beta= 0.20
     CG style diagonalization
     ethr =  9.31E-12,  avg # of iterations =  4.8

     negative rho (up, down):  5.914E-03 1.779E-03

     total cpu time spent up to now is   206424.0 secs

     total energy              =   -6225.11936433 Ry
     estimated scf accuracy    <       0.00000001 Ry

     total magnetization       =    22.71 Bohr mag/cell
     absolute magnetization    =    36.93 Bohr mag/cell

     iteration # 15     ecut=   124.00 Ry     beta= 0.20
     CG style diagonalization
     ethr =  2.86E-12,  avg # of iterations =  4.8

     negative rho (up, down):  5.914E-03 1.779E-03

     Magnetic moment per site  (integrated on atomic sphere of radius R)
     atom   1 (R=0.094)  charge= 11.6273  magn=  1.4665
     atom   2 (R=0.094)  charge= 11.6143  magn=  1.5211
     atom   3 (R=0.094)  charge= 11.6143  magn=  1.5211
     atom   4 (R=0.094)  charge= 11.6273  magn=  1.4665
     atom   5 (R=0.094)  charge= 11.6273  magn=  1.4665
     atom   6 (R=0.094)  charge= 11.6143  magn=  1.5211
     atom   7 (R=0.094)  charge= 11.6143  magn=  1.5211
     atom   8 (R=0.094)  charge= 11.6273  magn=  1.4665
     atom   9 (R=0.094)  charge= 11.6143  magn=  1.5211
     atom  10 (R=0.094)  charge= 11.6143  magn=  1.5211
     atom  11 (R=0.094)  charge= 11.6273  magn=  1.4665
     atom  12 (R=0.094)  charge= 11.6143  magn=  1.5211
     atom  13 (R=0.094)  charge= 11.6273  magn=  1.4665
     atom  14 (R=0.094)  charge= 11.6143  magn=  1.5211
     atom  15 (R=0.094)  charge= 11.6273  magn=  1.4665
     atom  16 (R=0.094)  charge= 11.6273  magn=  1.4665
     atom  17 (R=0.172)  charge= 10.3277  magn= -0.6124
     atom  18 (R=0.172)  charge= 10.3395  magn= -0.6371
     atom  19 (R=0.172)  charge= 10.3277  magn= -0.6124
     atom  20 (R=0.172)  charge= 10.3395  magn= -0.6371
     atom  21 (R=0.172)  charge= 10.3277  magn= -0.6124
     atom  22 (R=0.172)  charge= 10.3382  magn= -0.5994
     atom  23 (R=0.172)  charge= 10.3382  magn= -0.5994
     atom  24 (R=0.172)  charge= 10.3277  magn= -0.6124
     atom  25 (R=0.094)  charge=  1.0818  magn= -0.0006
     atom  26 (R=0.094)  charge=  1.0818  magn= -0.0006

     total cpu time spent up to now is   211233.1 secs

     End of self-consistent calculation

     Number of k-points >= 100: set verbosity='high' to print the bands.

     the Fermi energy is    16.4375 ev

!    total energy              =   -6225.11936488 Ry
     estimated scf accuracy    <          7.7E-09 Ry
     smearing contrib. (-TS)   =      -0.00025268 Ry
     internal energy E=F+TS    =   -6225.11911219 Ry

     The total energy is F=E-TS. E is the sum of the following terms:
     one-electron contribution =   -2435.06427969 Ry
     hartree contribution      =    1409.28439251 Ry
     xc contribution           =    -702.44653964 Ry
     ewald contribution        =   -3278.38066441 Ry
     one-center paw contrib.   =   -1218.51202096 Ry

     total magnetization       =    22.71 Bohr mag/cell
     absolute magnetization    =    36.93 Bohr mag/cell

     convergence has been achieved in  15 iterations

     negative rho (up, down):  5.914E-03 1.779E-03

     Forces acting on atoms (cartesian axes, Ry/au):

     atom    1 type  1   force =    -0.00860117   -0.00331646   -0.00331611
     atom    2 type  1   force =     0.00906367    0.00379165    0.00379221
     atom    3 type  1   force =    -0.00906303    0.00379147   -0.00379169
     atom    4 type  1   force =     0.00859987    0.00331540   -0.00331552
     atom    5 type  1   force =    -0.00860136   -0.00331708   -0.00331670
     atom    6 type  1   force =     0.00906362    0.00379182    0.00379200
     atom    7 type  1   force =    -0.00906301   -0.00379095    0.00379216
     atom    8 type  1   force =     0.00860064   -0.00331595    0.00331551
     atom    9 type  1   force =     0.00906296   -0.00379074   -0.00379219
     atom   10 type  1   force =     0.00906336   -0.00379151   -0.00379211
     atom   11 type  1   force =     0.00860011   -0.00331563    0.00331547
     atom   12 type  1   force =    -0.00906337   -0.00379140    0.00379239
     atom   13 type  1   force =     0.00860011    0.00331535   -0.00331509
     atom   14 type  1   force =    -0.00906264    0.00379155   -0.00379174
     atom   15 type  1   force =    -0.00860015    0.00331594    0.00331570
     atom   16 type  1   force =    -0.00860108    0.00331687    0.00331662
     atom   17 type  2   force =    -0.00417269   -0.00000006   -0.00000012
     atom   18 type  2   force =     0.00000011   -0.00000014   -0.00000006
     atom   19 type  2   force =     0.00417300   -0.00000005   -0.00000004
     atom   20 type  2   force =     0.00000013   -0.00000011   -0.00000011
     atom   21 type  2   force =    -0.00417275   -0.00000006   -0.00000010
     atom   22 type  2   force =     0.00000015   -0.00000007   -0.00000007
     atom   23 type  2   force =     0.00000017   -0.00000002   -0.00000005
     atom   24 type  2   force =     0.00417301   -0.00000000   -0.00000003
     atom   25 type  3   force =    -0.00000009    0.00000004    0.00000001
     atom   26 type  3   force =     0.00000045    0.00000013   -0.00000033

     Total force =     0.041527     Total SCF correction =     0.000776


     Computing stress (Cartesian axis) and pressure


     negative rho (up, down):  5.914E-03 1.779E-03
          total   stress  (Ry/bohr**3)                   (kbar)     P=       -0.36
  -0.00000424  -0.00000000  -0.00000000           -0.62       -0.00       -0.00
  -0.00000000  -0.00000153  -0.00000000           -0.00       -0.22       -0.00
  -0.00000000  -0.00000000  -0.00000152           -0.00       -0.00       -0.22

     Energy error            =      4.2E-03 Ry
     Gradient error          =      9.1E-03 Ry/Bohr
     Cell gradient error     =      6.2E-01 kbar

     number of scf cycles    =   2
     number of bfgs steps    =   1

     enthalpy           old  =   -6225.1151166586 Ry
     enthalpy           new  =   -6225.1193648756 Ry

     CASE: enthalpy          _new < enthalpy          _old

     new trust radius        =       0.0225596050 bohr
     new conv_thr            =       0.0000000009 Ry

     new unit-cell volume =   2155.36429 a.u.^3 (   319.39204 Ang^3 )
     density =      6.64685 g/cm^3

CELL_PARAMETERS (alat= 12.76591255)
   1.011724022   0.000000030   0.000000040
   0.000000030   1.011931948   0.000000015
   0.000000040   0.000000015   1.011932908

ATOMIC_POSITIONS (crystal)
Fe               0.1167030937        0.1179330104        0.6179330280
Fe               0.6273647078        0.6261343633        0.6261344861
Fe               0.8726352674        0.6261344209        0.8738655097
Fe               0.3832969512        0.8820669725        0.1179332820
Fe               0.1167029990        0.6179331000        0.1179331879
Fe               0.6273648016        0.1261343150        0.1261344960
Fe               0.8726351509        0.3738654860        0.1261344702
Fe               0.3832969226        0.6179332400        0.3820668574
Fe               0.6273647078        0.3738655530        0.3738655468
Fe               0.6273646944        0.8738656362        0.8738655484
Fe               0.3832970033        0.1179332355        0.8820668145
Fe               0.8726351189        0.8738654872        0.6261345130
Fe               0.3832968292        0.3820668966        0.6179331449
Fe               0.8726351165        0.1261343227        0.3738654215
Fe               0.1167030808        0.3820669716        0.8820669335
Fe               0.1167030797        0.8820669670        0.3820669071
Ti              -0.0013810574       -0.0000000087       -0.0000000283
Ti               0.7500000488        0.7499999545        0.2499999770
Ti               0.5013811413        0.0000000020        0.5000000085
Ti               0.7500000585        0.2499999899        0.7499999723
Ti              -0.0013810853        0.4999999812        0.4999999695
Ti               0.2500000152        0.2500000102        0.2499999853
Ti               0.2500000229        0.7500000120        0.7499999997
Ti               0.5013811423        0.5000000112        0.0000000072
H                0.2500000538        0.2500000350        0.7499999989
H                0.2500001350        0.7500000348        0.2499999630



     Writing config-only to output data dir ./TiFe2_cub_8b_2H_far.save/ :
     XML data file     NEW-OLD atomic charge density approx. for the potential
     New effective cutoffs (rho, wfc): 1736.53  124.03

     Check: negative core charge=   -0.000002

     negative rho (up, down):  5.951E-03 1.811E-03
     Generating pointlists ...

     total cpu time spent up to now is   211559.8 secs

     per-process dynamical memory:  2930.9 Mb

     Self-consistent Calculation

     iteration #  1     ecut=   124.00 Ry     beta= 0.20
     CG style diagonalization
     c_bands:  3 eigenvalues not converged
     c_bands:  1 eigenvalues not converged
     c_bands:  1 eigenvalues not converged
     c_bands:  1 eigenvalues not converged
     c_bands:  1 eigenvalues not converged
     c_bands:  1 eigenvalues not converged
     c_bands:  1 eigenvalues not converged
     c_bands:  1 eigenvalues not converged
     c_bands:  1 eigenvalues not converged
     c_bands:  1 eigenvalues not converged
     c_bands:  1 eigenvalues not converged
     ethr =  1.00E-06,  avg # of iterations = 17.7

     negative rho (up, down):  5.953E-03 1.807E-03

     total cpu time spent up to now is   231844.2 secs

     total energy              =   -6225.12093811 Ry
     estimated scf accuracy    <       0.03117343 Ry

     total magnetization       =    22.66 Bohr mag/cell
     absolute magnetization    =    36.90 Bohr mag/cell

     iteration #  2     ecut=   124.00 Ry     beta= 0.20
     CG style diagonalization
     c_bands:  1 eigenvalues not converged
     ethr =  8.81E-06,  avg # of iterations =  3.0

     negative rho (up, down):  5.954E-03 1.802E-03

     total cpu time spent up to now is   234487.7 secs

     total energy              =   -6225.12145587 Ry
     estimated scf accuracy    <       0.00428026 Ry

     total magnetization       =    22.64 Bohr mag/cell
     absolute magnetization    =    36.89 Bohr mag/cell

     iteration #  3     ecut=   124.00 Ry     beta= 0.20
     CG style diagonalization
     c_bands:  2 eigenvalues not converged
     c_bands:  1 eigenvalues not converged
     ethr =  1.21E-06,  avg # of iterations =  3.0

     negative rho (up, down):  5.958E-03 1.788E-03

     total cpu time spent up to now is   237131.5 secs

     total energy              =   -6225.12101819 Ry
     estimated scf accuracy    <       0.00283653 Ry

     total magnetization       =    22.63 Bohr mag/cell
     absolute magnetization    =    36.89 Bohr mag/cell

     iteration #  4     ecut=   124.00 Ry     beta= 0.20
     CG style diagonalization
     c_bands:  1 eigenvalues not converged
     ethr =  8.01E-07,  avg # of iterations =  3.1

     negative rho (up, down):  5.957E-03 1.785E-03

     total cpu time spent up to now is   239949.3 secs

     total energy              =   -6225.12123296 Ry
     estimated scf accuracy    <       0.00050401 Ry

     total magnetization       =    22.61 Bohr mag/cell
     absolute magnetization    =    36.88 Bohr mag/cell

     iteration #  5     ecut=   124.00 Ry     beta= 0.20
     CG style diagonalization
     ethr =  1.42E-07,  avg # of iterations =  4.0

     negative rho (up, down):  5.959E-03 1.780E-03

     total cpu time spent up to now is   243763.9 secs

     total energy              =   -6225.12140120 Ry
     estimated scf accuracy    <       0.00069774 Ry

     total magnetization       =    22.61 Bohr mag/cell
     absolute magnetization    =    36.87 Bohr mag/cell

     iteration #  6     ecut=   124.00 Ry     beta= 0.20
     CG style diagonalization
     ethr =  1.42E-07,  avg # of iterations =  3.3

     negative rho (up, down):  5.959E-03 1.780E-03

     total cpu time spent up to now is   246716.5 secs

     total energy              =   -6225.12148548 Ry
     estimated scf accuracy    <       0.00003468 Ry

     total magnetization       =    22.60 Bohr mag/cell
     absolute magnetization    =    36.86 Bohr mag/cell

     iteration #  7     ecut=   124.00 Ry     beta= 0.20
     CG style diagonalization
