
     Program PWSCF v.7.4 starts on  4Dec2025 at  3:41:30 

     This program is part of the open-source Quantum ESPRESSO suite
     for quantum simulation of materials; please cite
         "P. Giannozzi et al., J. Phys.:Condens. Matter 21 395502 (2009);
         "P. Giannozzi et al., J. Phys.:Condens. Matter 29 465901 (2017);
         "P. Giannozzi et al., J. Chem. Phys. 152 154105 (2020);
          URL http://www.quantum-espresso.org", 
     in publications or presentations arising from this work. More details at
     http://www.quantum-espresso.org/quote

     Parallel version (MPI & OpenMP), running on      16 processor cores
     Number of MPI processes:                16
     Threads/MPI process:                     1

     MPI processes distributed on     1 nodes
     302275 MiB available memory on the printing compute node when the environment starts

     Reading input from TiFe_octa12_05_2.in

     Current dimensions of program PWSCF are:
     Max number of different atomic species (ntypx) = 10
     Max number of k-points (npk) =  40000
     Max angular momentum in pseudopotentials (lmaxx) =  4

     File ./TiFeH_supercell.update deleted, as requested
     file Fe.pbe-spn-kjpaw_psl.0.2.1.UPF: wavefunction(s)  3D renormalized

     IMPORTANT: XC functional enforced from input :
     Exchange-correlation= PBE
                           (   1   4   3   4   0   0   0)
     Any further DFT definition will be discarded
     Please, verify this is what you really want

     Message from routine setup:
     using ibrav=0 with symmetry is DISCOURAGED, use correct ibrav instead

     R & G space division:  proc/nbgrp/npool/nimage =      16
     Subspace diagonalization in iterative solution of the eigenvalue problem:
     a serial algorithm will be used


     Parallelization info
     --------------------
     sticks:   dense  smooth     PW     G-vecs:    dense   smooth      PW
     Min        1075     307     84               106249    16243    2316
     Max        1077     308     85               106252    16246    2319
     Sum       17217    4921   1353              1700005   259911   37073

     Using Slab Decomposition



     bravais-lattice index     =            0
     lattice parameter (alat)  =       5.5824  a.u.
     unit-cell volume          =    1391.7400 (a.u.)^3
     number of atoms/cell      =           20
     number of atomic types    =            3
     number of electrons       =       228.00
     number of Kohn-Sham states=          137
     kinetic-energy cutoff     =     124.0000  Ry
     charge density cutoff     =    1736.0000  Ry
     scf convergence threshold =      1.0E-08
     mixing beta               =       0.7000
     number of iterations used =            8  plain     mixing
     energy convergence thresh.=      1.0E-04
     force convergence thresh. =      1.0E-03
     press convergence thresh. =      1.0E-01
     Exchange-correlation= PBE
                           (   1   4   3   4   0   0   0)
     nstep                     =           50


     celldm(1)=   5.582423  celldm(2)=   0.000000  celldm(3)=   0.000000
     celldm(4)=   0.000000  celldm(5)=   0.000000  celldm(6)=   0.000000

     crystal axes: (cart. coord. in units of alat)
               a(1) = (   2.000000   0.000000   0.000000 )  
               a(2) = (   0.000000   2.000000   0.000000 )  
               a(3) = (   0.000000   0.000000   2.000000 )  

     reciprocal axes: (cart. coord. in units 2 pi/alat)
               b(1) = (  0.500000  0.000000  0.000000 )  
               b(2) = (  0.000000  0.500000  0.000000 )  
               b(3) = (  0.000000  0.000000  0.500000 )  


     PseudoPot. # 1 for Fe read from file:
     ../../../../pseudos/Fe.pbe-spn-kjpaw_psl.0.2.1.UPF
     MD5 check sum: e86618425769142926afa95317d90200
     Pseudo is Projector augmented-wave + core cor, Zval = 16.0
     Generated using "atomic" code by A. Dal Corso  v.5.0.99 svn rev. 10869
     Shape of augmentation charge: PSQ
     Using radial grid of 1191 points,  6 beta functions with: 
                l(1) =   0
                l(2) =   0
                l(3) =   1
                l(4) =   1
                l(5) =   2
                l(6) =   2
     Q(r) pseudized with 0 coefficients 


     PseudoPot. # 2 for Ti read from file:
     ../../../../pseudos/ti_pbe_v1.4.uspp.F.UPF
     MD5 check sum: 88a00a6731bd790ddea75d31a80cb452
     Pseudo is Ultrasoft + core correction, Zval = 12.0
     Generated by new atomic code, or converted to UPF format
     Using radial grid of  851 points,  6 beta functions with: 
                l(1) =   0
                l(2) =   0
                l(3) =   1
                l(4) =   1
                l(5) =   2
                l(6) =   2
     Q(r) pseudized with  6 coefficients,  rinner =    1.000   1.000   1.000
                                                       1.000   1.000

     PseudoPot. # 3 for H  read from file:
     ../../../../pseudos/H.pbe-rrkjus_psl.1.0.0.UPF
     MD5 check sum: f52b6d4d1c606e5624b1dc7b2218f220
     Pseudo is Ultrasoft, Zval =  1.0
     Generated using "atomic" code by A. Dal Corso  v.5.1
     Using radial grid of  929 points,  2 beta functions with: 
                l(1) =   0
                l(2) =   0
     Q(r) pseudized with 0 coefficients 


     atomic species   valence    mass     pseudopotential
     Fe               16.00    55.84500     Fe( 1.00)
     Ti               12.00    47.86700     Ti( 1.00)
     H                 1.00     1.00784     H ( 1.00)

      8 Sym. Ops., with inversion, found



   Cartesian axes

     site n.     atom                  positions (alat units)
         1        Fe     tau(   1) = (   0.0000000   0.0000000   0.0000000  )
         2        Fe     tau(   2) = (   1.0000000   1.0000000   0.0000000  )
         3        Fe     tau(   3) = (   1.0000000   0.0000000   0.0000000  )
         4        Fe     tau(   4) = (   0.0000000   1.0000000   1.0000000  )
         5        Fe     tau(   5) = (   0.0000000   0.0000000   1.0000000  )
         6        Fe     tau(   6) = (   1.0000000   1.0000000   1.0000000  )
         7        Fe     tau(   7) = (   1.0000000   0.0000000   1.0000000  )
         8        Fe     tau(   8) = (   0.0000000   1.0000000   0.0000000  )
         9        Ti     tau(   9) = (   0.5000000   0.5000000   0.5000000  )
        10        Ti     tau(  10) = (   1.5000000   1.5000000   0.5000000  )
        11        Ti     tau(  11) = (   1.5000000   0.5000000   0.5000000  )
        12        Ti     tau(  12) = (   0.5000000   1.5000000   1.5000000  )
        13        Ti     tau(  13) = (   0.5000000   0.5000000   1.5000000  )
        14        Ti     tau(  14) = (   1.5000000   1.5000000   1.5000000  )
        15        Ti     tau(  15) = (   1.5000000   0.5000000   1.5000000  )
        16        Ti     tau(  16) = (   0.5000000   1.5000000   0.5000000  )
        17        H      tau(  17) = (   0.5000000   1.0000000   1.0000000  )
        18        H      tau(  18) = (   1.0000000   0.5000000   1.5000000  )
        19        H      tau(  19) = (   1.5000000   1.0000000   1.0000000  )
        20        H      tau(  20) = (   1.0000000   1.5000000   0.5000000  )

     number of k points=   105  Marzari-Vanderbilt smearing, width (Ry)=  0.0050

     Number of k-points >= 100: set verbosity='high' to print them.

     Dense  grid:  1700005 G-vectors     FFT dimensions: ( 150, 150, 150)

     Smooth grid:   259911 G-vectors     FFT dimensions: (  80,  80,  80)

     Estimated max dynamical RAM per process >     882.08 MB

     Estimated total dynamical RAM >      13.78 GB

     Check: negative core charge=   -0.000001

     Initial potential from superposition of free atoms

     starting charge     219.9961, renormalised to     228.0000

     negative rho (up, down):  1.101E-02 0.000E+00
     Starting wfcs are  188 randomized atomic wfcs
     Checking if some PAW data can be deallocated... 

     total cpu time spent up to now is       27.8 secs

     per-process dynamical memory:   665.5 Mb

     Self-consistent Calculation

     iteration #  1     ecut=   124.00 Ry     beta= 0.70
     Davidson diagonalization with overlap
     ethr =  1.00E-02,  avg # of iterations =  2.3

     negative rho (up, down):  5.031E-04 0.000E+00

     total cpu time spent up to now is       88.8 secs

     total energy              =   -3482.81126348 Ry
     estimated scf accuracy    <     140.20180485 Ry

     iteration #  2     ecut=   124.00 Ry     beta= 0.70
     Davidson diagonalization with overlap
     ethr =  1.00E-02,  avg # of iterations =  6.8

     negative rho (up, down):  1.872E-04 0.000E+00

     total cpu time spent up to now is      216.7 secs

     total energy              =   -3590.26471298 Ry
     estimated scf accuracy    <     538.59501826 Ry

     iteration #  3     ecut=   124.00 Ry     beta= 0.70
     Davidson diagonalization with overlap
     ethr =  1.00E-02,  avg # of iterations =  3.1

     negative rho (up, down):  1.659E-03 0.000E+00

     total cpu time spent up to now is      293.9 secs

     total energy              =   -3594.49778258 Ry
     estimated scf accuracy    <     133.59511888 Ry

     iteration #  4     ecut=   124.00 Ry     beta= 0.70
     Davidson diagonalization with overlap
     ethr =  1.00E-02,  avg # of iterations =  2.3

     negative rho (up, down):  1.932E-03 0.000E+00

     total cpu time spent up to now is      353.0 secs

     total energy              =   -3597.05033106 Ry
     estimated scf accuracy    <      45.35558682 Ry

     iteration #  5     ecut=   124.00 Ry     beta= 0.70
     Davidson diagonalization with overlap
     ethr =  1.00E-02,  avg # of iterations =  1.1

     negative rho (up, down):  2.016E-03 0.000E+00

     total cpu time spent up to now is      398.8 secs

     total energy              =   -3597.09681150 Ry
     estimated scf accuracy    <      36.50686710 Ry

     iteration #  6     ecut=   124.00 Ry     beta= 0.70
     Davidson diagonalization with overlap
     ethr =  1.00E-02,  avg # of iterations =  1.1

     negative rho (up, down):  2.516E-03 0.000E+00

     total cpu time spent up to now is      444.4 secs

     total energy              =   -3595.58775662 Ry
     estimated scf accuracy    <      35.42419382 Ry

     iteration #  7     ecut=   124.00 Ry     beta= 0.70
     Davidson diagonalization with overlap
     ethr =  1.00E-02,  avg # of iterations =  1.5

     negative rho (up, down):  5.848E-03 0.000E+00

     total cpu time spent up to now is      491.5 secs

     total energy              =   -3592.80077836 Ry
     estimated scf accuracy    <      27.28784021 Ry

     iteration #  8     ecut=   124.00 Ry     beta= 0.70
     Davidson diagonalization with overlap
     ethr =  1.00E-02,  avg # of iterations =  1.5

     negative rho (up, down):  8.847E-03 0.000E+00

     total cpu time spent up to now is      539.6 secs

     total energy              =   -3591.62543141 Ry
     estimated scf accuracy    <      10.15325545 Ry

     iteration #  9     ecut=   124.00 Ry     beta= 0.70
     Davidson diagonalization with overlap
     ethr =  4.45E-03,  avg # of iterations =  3.9

     negative rho (up, down):  8.468E-03 0.000E+00

     total cpu time spent up to now is      598.5 secs

     total energy              =   -3592.89724367 Ry
     estimated scf accuracy    <       3.71945878 Ry

     iteration # 10     ecut=   124.00 Ry     beta= 0.70
     Davidson diagonalization with overlap
     ethr =  1.63E-03,  avg # of iterations =  3.2

     negative rho (up, down):  1.111E-02 0.000E+00

     total cpu time spent up to now is      653.4 secs

     total energy              =   -3593.73975909 Ry
     estimated scf accuracy    <       2.39757330 Ry

     iteration # 11     ecut=   124.00 Ry     beta= 0.70
     Davidson diagonalization with overlap
     ethr =  1.05E-03,  avg # of iterations =  6.2

     negative rho (up, down):  8.376E-03 0.000E+00

     total cpu time spent up to now is      736.1 secs

     total energy              =   -3592.08239775 Ry
     estimated scf accuracy    <      54.98866064 Ry

     iteration # 12     ecut=   124.00 Ry     beta= 0.70
     Davidson diagonalization with overlap
     ethr =  1.05E-03,  avg # of iterations =  5.3

     negative rho (up, down):  5.493E-03 0.000E+00

     total cpu time spent up to now is      804.4 secs

     total energy              =   -3592.25216000 Ry
     estimated scf accuracy    <       5.97853183 Ry

     iteration # 13     ecut=   124.00 Ry     beta= 0.70
     Davidson diagonalization with overlap
     ethr =  1.05E-03,  avg # of iterations =  5.2

     negative rho (up, down):  5.490E-03 0.000E+00

     total cpu time spent up to now is      874.5 secs

     total energy              =   -3593.13756415 Ry
     estimated scf accuracy    <       1.92849421 Ry

     iteration # 14     ecut=   124.00 Ry     beta= 0.70
     Davidson diagonalization with overlap
     ethr =  8.46E-04,  avg # of iterations =  1.4

     negative rho (up, down):  5.773E-03 0.000E+00

     total cpu time spent up to now is      921.7 secs

     total energy              =   -3593.08918286 Ry
     estimated scf accuracy    <       2.20152453 Ry

     iteration # 15     ecut=   124.00 Ry     beta= 0.70
     Davidson diagonalization with overlap
     ethr =  8.46E-04,  avg # of iterations =  1.3

     negative rho (up, down):  6.011E-03 0.000E+00

     total cpu time spent up to now is      967.6 secs

     total energy              =   -3593.02098164 Ry
     estimated scf accuracy    <       2.24202392 Ry

     iteration # 16     ecut=   124.00 Ry     beta= 0.70
     Davidson diagonalization with overlap
     ethr =  8.46E-04,  avg # of iterations =  1.1

     negative rho (up, down):  6.443E-03 0.000E+00

     total cpu time spent up to now is     1013.0 secs

     total energy              =   -3592.99739310 Ry
     estimated scf accuracy    <       0.94965559 Ry

     iteration # 17     ecut=   124.00 Ry     beta= 0.70
     Davidson diagonalization with overlap
     ethr =  4.17E-04,  avg # of iterations =  1.1

     negative rho (up, down):  6.372E-03 0.000E+00

     total cpu time spent up to now is     1058.4 secs

     total energy              =   -3593.00936673 Ry
     estimated scf accuracy    <       0.59455517 Ry

     iteration # 18     ecut=   124.00 Ry     beta= 0.70
     Davidson diagonalization with overlap
     ethr =  2.61E-04,  avg # of iterations =  1.0

     negative rho (up, down):  6.371E-03 0.000E+00

     total cpu time spent up to now is     1103.4 secs

     total energy              =   -3593.01112444 Ry
     estimated scf accuracy    <       0.57444127 Ry

     iteration # 19     ecut=   124.00 Ry     beta= 0.70
     Davidson diagonalization with overlap
     ethr =  2.52E-04,  avg # of iterations =  1.0

     negative rho (up, down):  7.097E-03 0.000E+00

     total cpu time spent up to now is     1148.5 secs

     total energy              =   -3592.96685048 Ry
     estimated scf accuracy    <       0.61422442 Ry

     iteration # 20     ecut=   124.00 Ry     beta= 0.70
     Davidson diagonalization with overlap
     ethr =  2.52E-04,  avg # of iterations =  1.6

     negative rho (up, down):  7.748E-03 0.000E+00

     total cpu time spent up to now is     1197.0 secs

     total energy              =   -3592.90712333 Ry
     estimated scf accuracy    <       0.93007266 Ry

     iteration # 21     ecut=   124.00 Ry     beta= 0.70
     Davidson diagonalization with overlap
     ethr =  2.52E-04,  avg # of iterations =  2.3

     negative rho (up, down):  7.636E-03 0.000E+00

     total cpu time spent up to now is     1250.6 secs

     total energy              =   -3592.93945945 Ry
     estimated scf accuracy    <       0.56237480 Ry

     iteration # 22     ecut=   124.00 Ry     beta= 0.70
     Davidson diagonalization with overlap
     ethr =  2.47E-04,  avg # of iterations =  1.1

     negative rho (up, down):  7.621E-03 0.000E+00

     total cpu time spent up to now is     1297.0 secs

     total energy              =   -3592.96831993 Ry
     estimated scf accuracy    <       0.06356682 Ry

     iteration # 23     ecut=   124.00 Ry     beta= 0.70
     Davidson diagonalization with overlap
     ethr =  2.79E-05,  avg # of iterations =  2.7

     negative rho (up, down):  7.631E-03 0.000E+00

     total cpu time spent up to now is     1353.2 secs

     total energy              =   -3592.97233125 Ry
     estimated scf accuracy    <       0.01591003 Ry

     iteration # 24     ecut=   124.00 Ry     beta= 0.70
     Davidson diagonalization with overlap
     c_bands:  1 eigenvalues not converged
     ethr =  6.98E-06,  avg # of iterations =  4.0

     negative rho (up, down):  7.612E-03 0.000E+00

     total cpu time spent up to now is     1409.9 secs

     total energy              =   -3592.97308424 Ry
     estimated scf accuracy    <       0.01510163 Ry

     iteration # 25     ecut=   124.00 Ry     beta= 0.70
     Davidson diagonalization with overlap
     ethr =  6.62E-06,  avg # of iterations =  1.3

     negative rho (up, down):  7.619E-03 0.000E+00

     total cpu time spent up to now is     1455.9 secs

     total energy              =   -3592.97370485 Ry
     estimated scf accuracy    <       0.00304886 Ry

     iteration # 26     ecut=   124.00 Ry     beta= 0.70
     Davidson diagonalization with overlap
     c_bands:  1 eigenvalues not converged
     c_bands:  1 eigenvalues not converged
     c_bands:  1 eigenvalues not converged
     c_bands:  1 eigenvalues not converged
     ethr =  1.34E-06,  avg # of iterations =  4.2

     negative rho (up, down):  7.633E-03 0.000E+00

     total cpu time spent up to now is     1512.8 secs

     total energy              =   -3592.97394468 Ry
     estimated scf accuracy    <       0.00113954 Ry

     iteration # 27     ecut=   124.00 Ry     beta= 0.70
     Davidson diagonalization with overlap
     ethr =  5.00E-07,  avg # of iterations =  1.8

     negative rho (up, down):  7.637E-03 0.000E+00

     total cpu time spent up to now is     1561.3 secs

     total energy              =   -3592.97400876 Ry
     estimated scf accuracy    <       0.00008779 Ry

     iteration # 28     ecut=   124.00 Ry     beta= 0.70
     Davidson diagonalization with overlap
     ethr =  3.85E-08,  avg # of iterations =  4.5

     negative rho (up, down):  7.641E-03 0.000E+00

     total cpu time spent up to now is     1627.6 secs

     total energy              =   -3592.97401639 Ry
     estimated scf accuracy    <       0.00036186 Ry

     iteration # 29     ecut=   124.00 Ry     beta= 0.70
     Davidson diagonalization with overlap
     ethr =  3.85E-08,  avg # of iterations =  2.0

     negative rho (up, down):  7.639E-03 0.000E+00

     total cpu time spent up to now is     1679.1 secs

     total energy              =   -3592.97402704 Ry
     estimated scf accuracy    <       0.00002424 Ry

     iteration # 30     ecut=   124.00 Ry     beta= 0.70
     Davidson diagonalization with overlap
     ethr =  1.06E-08,  avg # of iterations =  5.9

     negative rho (up, down):  7.642E-03 0.000E+00

     total cpu time spent up to now is     1752.5 secs

     total energy              =   -3592.97401256 Ry
     estimated scf accuracy    <       0.00054435 Ry

     iteration # 31     ecut=   124.00 Ry     beta= 0.70
     Davidson diagonalization with overlap
     ethr =  1.06E-08,  avg # of iterations =  4.6

     negative rho (up, down):  7.643E-03 0.000E+00

     total cpu time spent up to now is     1819.2 secs

     total energy              =   -3592.97403046 Ry
     estimated scf accuracy    <       0.00003212 Ry

     iteration # 32     ecut=   124.00 Ry     beta= 0.70
     Davidson diagonalization with overlap
     ethr =  1.06E-08,  avg # of iterations =  3.6

     negative rho (up, down):  7.643E-03 0.000E+00

     total cpu time spent up to now is     1876.1 secs

     total energy              =   -3592.97402982 Ry
     estimated scf accuracy    <       0.00007563 Ry

     iteration # 33     ecut=   124.00 Ry     beta= 0.70
     Davidson diagonalization with overlap
     ethr =  1.06E-08,  avg # of iterations =  1.9

     negative rho (up, down):  7.643E-03 0.000E+00

     total cpu time spent up to now is     1926.4 secs

     total energy              =   -3592.97403274 Ry
     estimated scf accuracy    <       0.00000318 Ry

     iteration # 34     ecut=   124.00 Ry     beta= 0.70
     Davidson diagonalization with overlap
     ethr =  1.40E-09,  avg # of iterations =  3.5

     negative rho (up, down):  7.643E-03 0.000E+00

     total cpu time spent up to now is     1985.5 secs

     total energy              =   -3592.97403279 Ry
     estimated scf accuracy    <       0.00000293 Ry

     iteration # 35     ecut=   124.00 Ry     beta= 0.70
     Davidson diagonalization with overlap
     ethr =  1.28E-09,  avg # of iterations =  2.8

     negative rho (up, down):  7.643E-03 0.000E+00

     total cpu time spent up to now is     2040.1 secs

     total energy              =   -3592.97403280 Ry
     estimated scf accuracy    <       0.00000587 Ry

     iteration # 36     ecut=   124.00 Ry     beta= 0.70
     Davidson diagonalization with overlap
     ethr =  1.28E-09,  avg # of iterations =  3.7

     negative rho (up, down):  7.643E-03 0.000E+00

     total cpu time spent up to now is     2098.3 secs

     total energy              =   -3592.97403245 Ry
     estimated scf accuracy    <       0.00002003 Ry

     iteration # 37     ecut=   124.00 Ry     beta= 0.70
     Davidson diagonalization with overlap
     ethr =  1.28E-09,  avg # of iterations =  2.5

     negative rho (up, down):  7.643E-03 0.000E+00

     total cpu time spent up to now is     2151.2 secs

     total energy              =   -3592.97403314 Ry
     estimated scf accuracy    <       0.00000014 Ry

     iteration # 38     ecut=   124.00 Ry     beta= 0.70
     Davidson diagonalization with overlap
     ethr =  5.94E-11,  avg # of iterations =  4.7

     negative rho (up, down):  7.643E-03 0.000E+00

     total cpu time spent up to now is     2217.1 secs

     total energy              =   -3592.97403316 Ry
     estimated scf accuracy    <       0.00000007 Ry

     iteration # 39     ecut=   124.00 Ry     beta= 0.70
     Davidson diagonalization with overlap
     ethr =  3.15E-11,  avg # of iterations =  2.5

     negative rho (up, down):  7.643E-03 0.000E+00

     total cpu time spent up to now is     2271.7 secs

     total energy              =   -3592.97403316 Ry
     estimated scf accuracy    <       0.00000025 Ry

     iteration # 40     ecut=   124.00 Ry     beta= 0.70
     Davidson diagonalization with overlap
     ethr =  3.15E-11,  avg # of iterations =  1.0

     negative rho (up, down):  7.643E-03 0.000E+00

     total cpu time spent up to now is     2316.9 secs

     End of self-consistent calculation

     Number of k-points >= 100: set verbosity='high' to print the bands.

     the Fermi energy is    17.7943 ev

!    total energy              =   -3592.97403316 Ry
     estimated scf accuracy    <          6.6E-09 Ry
     smearing contrib. (-TS)   =      -0.00005220 Ry
     internal energy E=F+TS    =   -3592.97398096 Ry

     The total energy is F=E-TS. E is the sum of the following terms:
     one-electron contribution =   -1211.27395397 Ry
     hartree contribution      =     737.09393800 Ry
     xc contribution           =    -426.95345470 Ry
     ewald contribution        =   -2082.61571441 Ry
     one-center paw contrib.   =    -609.22479589 Ry

     convergence has been achieved in  40 iterations

     negative rho (up, down):  7.643E-03 0.000E+00

     Forces acting on atoms (cartesian axes, Ry/au):

     atom    1 type  1   force =     0.00000000    0.00000000    0.00000000
     atom    2 type  1   force =     0.00000000    0.00000000    0.00000000
     atom    3 type  1   force =     0.00000000    0.00000000    0.00000000
     atom    4 type  1   force =     0.00000000    0.00000000    0.00000000
     atom    5 type  1   force =     0.00000000    0.00000000    0.00000000
     atom    6 type  1   force =     0.00000000    0.00000000    0.00000000
     atom    7 type  1   force =     0.00000000    0.00000000    0.00000000
     atom    8 type  1   force =     0.00000000    0.00000000    0.00000000
     atom    9 type  2   force =    -0.01363915   -0.01986880   -0.01986880
     atom   10 type  2   force =     0.16234646    0.01856359   -0.01856359
     atom   11 type  2   force =     0.01363915   -0.01986880   -0.01986880
     atom   12 type  2   force =    -0.01363915    0.01986880    0.01986880
     atom   13 type  2   force =    -0.16234646   -0.01856359    0.01856359
     atom   14 type  2   force =     0.01363915    0.01986880    0.01986880
     atom   15 type  2   force =     0.16234646   -0.01856359    0.01856359
     atom   16 type  2   force =    -0.16234646    0.01856359   -0.01856359
     atom   17 type  3   force =     0.00469725    0.00000000    0.00000000
     atom   18 type  3   force =     0.00000000   -0.00079439    0.00079439
     atom   19 type  3   force =    -0.00469725    0.00000000    0.00000000
     atom   20 type  3   force =     0.00000000    0.00079439   -0.00079439

     Total force =     0.334860     Total SCF correction =     0.000159


     Computing stress (Cartesian axis) and pressure


     negative rho (up, down):  7.643E-03 0.000E+00
          total   stress  (Ry/bohr**3)                   (kbar)     P=      160.62
   0.00238200   0.00000000   0.00000000          350.40        0.00        0.00
   0.00000000   0.00044677  -0.00002597            0.00       65.72       -3.82
   0.00000000  -0.00002597   0.00044677            0.00       -3.82       65.72


     BFGS Geometry Optimization
     Energy error            =      2.6E-01 Ry
     Gradient error          =      1.6E-01 Ry/Bohr
     Cell gradient error     =      3.5E+02 kbar

     number of scf cycles    =   1
     number of bfgs steps    =   0

     enthalpy           new  =   -3592.9740331637 Ry

     new trust radius        =       0.4443139366 bohr
     new conv_thr            =       0.0000000100 Ry

     new unit-cell volume =   1507.74172 a.u.^3 (   223.42427 Ang^3 )
     density =      6.19645 g/cm^3

CELL_PARAMETERS (alat=  5.58242261)
   2.119099757   0.000000000   0.000000000
   0.000000000   2.022338261  -0.001298383
   0.000000000  -0.001298383   2.022338261

ATOMIC_POSITIONS (crystal)
Fe               0.0000000000        0.0000000000        0.0000000000
Fe               0.5000000000        0.5000000000        0.0000000000
Fe               0.5000000000        0.0000000000        0.0000000000
Fe               0.0000000000        0.5000000000        0.5000000000
Fe               0.0000000000        0.0000000000        0.5000000000
Fe               0.5000000000        0.5000000000        0.5000000000
Fe               0.5000000000        0.0000000000        0.5000000000
Fe               0.0000000000        0.5000000000        0.0000000000
Ti               0.2487783841        0.2482204146        0.2482204146
Ti               0.7645408608        0.7516626823        0.2483373177
Ti               0.7512216159        0.2482204146        0.2482204146
Ti               0.2487783841        0.7517795854        0.7517795854
Ti               0.2354591392        0.2483373177        0.7516626823
Ti               0.7512216159        0.7517795854        0.7517795854
Ti               0.7645408608        0.2483373177        0.7516626823
Ti               0.2354591392        0.7516626823        0.2483373177
H                0.2504207178        0.5000000000        0.5000000000
H                0.5000000000        0.2499288486        0.7500711514
H                0.7495792822        0.5000000000        0.5000000000
H                0.5000000000        0.7500711514        0.2499288486



     Writing config-only to output data dir ./TiFeH_supercell.save/ :
     XML data file     NEW-OLD atomic charge density approx. for the potential
     New effective cutoffs (rho, wfc): 1699.82  121.41

     negative rho (up, down):  7.424E-03 0.000E+00

     total cpu time spent up to now is     2362.0 secs

     per-process dynamical memory:   691.1 Mb

     Self-consistent Calculation

     iteration #  1     ecut=   124.00 Ry     beta= 0.70
     Davidson diagonalization with overlap
     c_bands:  1 eigenvalues not converged
     c_bands:  1 eigenvalues not converged
     c_bands:  1 eigenvalues not converged
     c_bands:  1 eigenvalues not converged
     c_bands:  1 eigenvalues not converged
     c_bands:  3 eigenvalues not converged
     c_bands:  1 eigenvalues not converged
     c_bands:  1 eigenvalues not converged
     c_bands:  1 eigenvalues not converged
     c_bands:  1 eigenvalues not converged
     c_bands:  3 eigenvalues not converged
     c_bands:  1 eigenvalues not converged
     c_bands:  1 eigenvalues not converged
     c_bands:  1 eigenvalues not converged
     c_bands:  3 eigenvalues not converged
     c_bands:  1 eigenvalues not converged
     c_bands:  3 eigenvalues not converged
     c_bands:  2 eigenvalues not converged
     c_bands:  5 eigenvalues not converged
     c_bands:  3 eigenvalues not converged
     c_bands:  5 eigenvalues not converged
     c_bands:  1 eigenvalues not converged
     c_bands:  2 eigenvalues not converged
     c_bands:  1 eigenvalues not converged
     c_bands:  3 eigenvalues not converged
     c_bands:  2 eigenvalues not converged
     c_bands:  3 eigenvalues not converged
     c_bands:  1 eigenvalues not converged
     c_bands:  1 eigenvalues not converged
     c_bands:  4 eigenvalues not converged
     c_bands:  1 eigenvalues not converged
     c_bands:  2 eigenvalues not converged
     c_bands:  2 eigenvalues not converged
     c_bands:  4 eigenvalues not converged
     c_bands:  2 eigenvalues not converged
     c_bands:  4 eigenvalues not converged
     c_bands:  1 eigenvalues not converged
     c_bands:  1 eigenvalues not converged
     c_bands:  2 eigenvalues not converged
     c_bands:  2 eigenvalues not converged
     c_bands:  3 eigenvalues not converged
     c_bands:  2 eigenvalues not converged
     c_bands:  1 eigenvalues not converged
     c_bands:  2 eigenvalues not converged
     c_bands:  1 eigenvalues not converged
     c_bands:  3 eigenvalues not converged
     c_bands:  2 eigenvalues not converged
     c_bands:  1 eigenvalues not converged
     c_bands:  2 eigenvalues not converged
     c_bands:  1 eigenvalues not converged
     c_bands:  3 eigenvalues not converged
     c_bands:  3 eigenvalues not converged
     c_bands:  3 eigenvalues not converged
     c_bands:  3 eigenvalues not converged
     c_bands:  3 eigenvalues not converged
     c_bands:  1 eigenvalues not converged
     c_bands:  1 eigenvalues not converged
     c_bands:  4 eigenvalues not converged
     c_bands:  3 eigenvalues not converged
     c_bands:  2 eigenvalues not converged
     c_bands:  1 eigenvalues not converged
     c_bands:  1 eigenvalues not converged
     c_bands:  3 eigenvalues not converged
     c_bands:  3 eigenvalues not converged
     c_bands:  3 eigenvalues not converged
     c_bands:  2 eigenvalues not converged
     c_bands:  1 eigenvalues not converged
     c_bands:  3 eigenvalues not converged
     c_bands:  1 eigenvalues not converged
     c_bands:  4 eigenvalues not converged
     c_bands:  4 eigenvalues not converged
     c_bands:  4 eigenvalues not converged
     c_bands:  4 eigenvalues not converged
     c_bands:  4 eigenvalues not converged
     ethr =  1.00E-06,  avg # of iterations = 18.8

     negative rho (up, down):  7.168E-03 0.000E+00

     total cpu time spent up to now is     2684.5 secs

     total energy              =   -3590.29873734 Ry
     estimated scf accuracy    <       3.40151193 Ry

     iteration #  2     ecut=   124.00 Ry     beta= 0.70
     Davidson diagonalization with overlap
     ethr =  1.49E-03,  avg # of iterations =  6.2

     negative rho (up, down):  6.371E-03 0.000E+00

     total cpu time spent up to now is     2786.9 secs

     total energy              =   -3585.27062146 Ry
     estimated scf accuracy    <     248.96909851 Ry

     iteration #  3     ecut=   124.00 Ry     beta= 0.70
     Davidson diagonalization with overlap
     ethr =  1.49E-03,  avg # of iterations =  6.3

     negative rho (up, down):  6.504E-03 0.000E+00

     total cpu time spent up to now is     2889.0 secs

     total energy              =   -3592.16134780 Ry
     estimated scf accuracy    <      43.27855305 Ry

     iteration #  4     ecut=   124.00 Ry     beta= 0.70
     Davidson diagonalization with overlap
     ethr =  1.49E-03,  avg # of iterations =  5.5

     negative rho (up, down):  6.749E-03 0.000E+00

     total cpu time spent up to now is     2956.4 secs

     total energy              =   -3593.03913124 Ry
     estimated scf accuracy    <       6.80951179 Ry

     iteration #  5     ecut=   124.00 Ry     beta= 0.70
     Davidson diagonalization with overlap
     ethr =  1.49E-03,  avg # of iterations =  1.5

     negative rho (up, down):  6.977E-03 0.000E+00

     total cpu time spent up to now is     3004.5 secs

     total energy              =   -3593.08221443 Ry
     estimated scf accuracy    <       3.08527839 Ry

     iteration #  6     ecut=   124.00 Ry     beta= 0.70
     Davidson diagonalization with overlap
     ethr =  1.35E-03,  avg # of iterations =  1.0

     negative rho (up, down):  7.016E-03 0.000E+00

     total cpu time spent up to now is     3049.8 secs

     total energy              =   -3593.07884912 Ry
     estimated scf accuracy    <       2.11014084 Ry

     iteration #  7     ecut=   124.00 Ry     beta= 0.70
     Davidson diagonalization with overlap
     ethr =  9.26E-04,  avg # of iterations =  1.0

     negative rho (up, down):  7.099E-03 0.000E+00

     total cpu time spent up to now is     3095.2 secs

     total energy              =   -3593.12163139 Ry
     estimated scf accuracy    <       0.75079986 Ry

     iteration #  8     ecut=   124.00 Ry     beta= 0.70
     Davidson diagonalization with overlap
     ethr =  3.29E-04,  avg # of iterations =  2.3

     negative rho (up, down):  7.171E-03 0.000E+00

     total cpu time spent up to now is     3147.9 secs

     total energy              =   -3593.11712581 Ry
     estimated scf accuracy    <       1.21771761 Ry

     iteration #  9     ecut=   124.00 Ry     beta= 0.70
     Davidson diagonalization with overlap
     ethr =  3.29E-04,  avg # of iterations =  1.1

     negative rho (up, down):  7.177E-03 0.000E+00

     total cpu time spent up to now is     3193.8 secs

     total energy              =   -3593.14620571 Ry
     estimated scf accuracy    <       0.10725781 Ry

     iteration # 10     ecut=   124.00 Ry     beta= 0.70
     Davidson diagonalization with overlap
     ethr =  4.70E-05,  avg # of iterations =  4.8

     negative rho (up, down):  7.196E-03 0.000E+00

     total cpu time spent up to now is     3254.4 secs

     total energy              =   -3593.14695257 Ry
     estimated scf accuracy    <       0.11286320 Ry

     iteration # 11     ecut=   124.00 Ry     beta= 0.70
     Davidson diagonalization with overlap
     ethr =  4.70E-05,  avg # of iterations =  2.2

     negative rho (up, down):  7.134E-03 0.000E+00

     total cpu time spent up to now is     3306.9 secs

     total energy              =   -3593.15032085 Ry
     estimated scf accuracy    <       0.09642193 Ry

     iteration # 12     ecut=   124.00 Ry     beta= 0.70
     Davidson diagonalization with overlap
     ethr =  4.23E-05,  avg # of iterations =  1.3

     negative rho (up, down):  7.161E-03 0.000E+00

     total cpu time spent up to now is     3353.7 secs

     total energy              =   -3593.15301163 Ry
     estimated scf accuracy    <       0.02652401 Ry

     iteration # 13     ecut=   124.00 Ry     beta= 0.70
     Davidson diagonalization with overlap
     ethr =  1.16E-05,  avg # of iterations =  4.4

     negative rho (up, down):  7.156E-03 0.000E+00

     total cpu time spent up to now is     3411.2 secs

     total energy              =   -3593.15409437 Ry
     estimated scf accuracy    <       0.00661862 Ry

     iteration # 14     ecut=   124.00 Ry     beta= 0.70
     Davidson diagonalization with overlap
     c_bands:  1 eigenvalues not converged
     c_bands:  1 eigenvalues not converged
     c_bands:  1 eigenvalues not converged
     c_bands:  1 eigenvalues not converged
     ethr =  2.90E-06,  avg # of iterations =  8.4

     negative rho (up, down):  7.144E-03 0.000E+00

     total cpu time spent up to now is     3480.9 secs

     total energy              =   -3593.15448776 Ry
     estimated scf accuracy    <       0.00141979 Ry

     iteration # 15     ecut=   124.00 Ry     beta= 0.70
     Davidson diagonalization with overlap
     c_bands:  1 eigenvalues not converged
     ethr =  6.23E-07,  avg # of iterations =  5.2

     negative rho (up, down):  7.131E-03 0.000E+00

     total cpu time spent up to now is     3544.4 secs

     total energy              =   -3593.15460400 Ry
     estimated scf accuracy    <       0.00032270 Ry

     iteration # 16     ecut=   124.00 Ry     beta= 0.70
     Davidson diagonalization with overlap
     ethr =  1.42E-07,  avg # of iterations =  4.4

     negative rho (up, down):  7.127E-03 0.000E+00

     total cpu time spent up to now is     3610.2 secs

     total energy              =   -3593.15454678 Ry
     estimated scf accuracy    <       0.00075899 Ry

     iteration # 17     ecut=   124.00 Ry     beta= 0.70
     Davidson diagonalization with overlap
     ethr =  1.42E-07,  avg # of iterations =  5.4

     negative rho (up, down):  7.137E-03 0.000E+00

     total cpu time spent up to now is     3679.5 secs

     total energy              =   -3593.15449917 Ry
     estimated scf accuracy    <       0.00476091 Ry

     iteration # 18     ecut=   124.00 Ry     beta= 0.70
     Davidson diagonalization with overlap
     ethr =  1.42E-07,  avg # of iterations =  4.1

     negative rho (up, down):  7.136E-03 0.000E+00

     total cpu time spent up to now is     3741.2 secs

     total energy              =   -3593.15465968 Ry
     estimated scf accuracy    <       0.00004303 Ry

     iteration # 19     ecut=   124.00 Ry     beta= 0.70
     Davidson diagonalization with overlap
     ethr =  1.89E-08,  avg # of iterations =  4.3

     negative rho (up, down):  7.133E-03 0.000E+00

     total cpu time spent up to now is     3804.7 secs

     total energy              =   -3593.15465939 Ry
     estimated scf accuracy    <       0.00027092 Ry

     iteration # 20     ecut=   124.00 Ry     beta= 0.70
     Davidson diagonalization with overlap
     ethr =  1.89E-08,  avg # of iterations =  3.8

     negative rho (up, down):  7.135E-03 0.000E+00

     total cpu time spent up to now is     3863.9 secs

     total energy              =   -3593.15466080 Ry
     estimated scf accuracy    <       0.00015970 Ry

     iteration # 21     ecut=   124.00 Ry     beta= 0.70
     Davidson diagonalization with overlap
     ethr =  1.89E-08,  avg # of iterations =  3.7

     negative rho (up, down):  7.134E-03 0.000E+00

     total cpu time spent up to now is     3923.6 secs

     total energy              =   -3593.15466523 Ry
     estimated scf accuracy    <       0.00009820 Ry

     iteration # 22     ecut=   124.00 Ry     beta= 0.70
     Davidson diagonalization with overlap
     ethr =  1.89E-08,  avg # of iterations =  2.1

     negative rho (up, down):  7.133E-03 0.000E+00

     total cpu time spent up to now is     3973.2 secs

     total energy              =   -3593.15466883 Ry
     estimated scf accuracy    <       0.00000440 Ry

     iteration # 23     ecut=   124.00 Ry     beta= 0.70
     Davidson diagonalization with overlap
     ethr =  1.93E-09,  avg # of iterations =  4.0

     negative rho (up, down):  7.133E-03 0.000E+00

     total cpu time spent up to now is     4034.5 secs

     total energy              =   -3593.15466878 Ry
     estimated scf accuracy    <       0.00001442 Ry

     iteration # 24     ecut=   124.00 Ry     beta= 0.70
     Davidson diagonalization with overlap
     ethr =  1.93E-09,  avg # of iterations =  2.2

     negative rho (up, down):  7.133E-03 0.000E+00

     total cpu time spent up to now is     4086.4 secs

     total energy              =   -3593.15466927 Ry
     estimated scf accuracy    <       0.00000506 Ry

     iteration # 25     ecut=   124.00 Ry     beta= 0.70
     Davidson diagonalization with overlap
     ethr =  1.93E-09,  avg # of iterations =  1.0

     negative rho (up, down):  7.133E-03 0.000E+00

     total cpu time spent up to now is     4131.6 secs

     total energy              =   -3593.15466944 Ry
     estimated scf accuracy    <       0.00000015 Ry

     iteration # 26     ecut=   124.00 Ry     beta= 0.70
     Davidson diagonalization with overlap
     ethr =  6.65E-11,  avg # of iterations =  5.0

     negative rho (up, down):  7.133E-03 0.000E+00

     total cpu time spent up to now is     4205.7 secs

     total energy              =   -3593.15466946 Ry
     estimated scf accuracy    <       0.00000028 Ry

     iteration # 27     ecut=   124.00 Ry     beta= 0.70
     Davidson diagonalization with overlap
     ethr =  6.65E-11,  avg # of iterations =  1.6

     negative rho (up, down):  7.133E-03 0.000E+00

     total cpu time spent up to now is     4254.5 secs

     total energy              =   -3593.15466947 Ry
     estimated scf accuracy    <       0.00000006 Ry

     iteration # 28     ecut=   124.00 Ry     beta= 0.70
     Davidson diagonalization with overlap
     ethr =  2.81E-11,  avg # of iterations =  1.9

     negative rho (up, down):  7.133E-03 0.000E+00

     total cpu time spent up to now is     4305.1 secs

     total energy              =   -3593.15466947 Ry
     estimated scf accuracy    <       0.00000002 Ry

     iteration # 29     ecut=   124.00 Ry     beta= 0.70
     Davidson diagonalization with overlap
     ethr =  6.95E-12,  avg # of iterations =  3.5

     negative rho (up, down):  7.133E-03 0.000E+00

     total cpu time spent up to now is     4362.3 secs

     End of self-consistent calculation

     Number of k-points >= 100: set verbosity='high' to print the bands.

     the Fermi energy is    16.3124 ev

!    total energy              =   -3593.15466947 Ry
     estimated scf accuracy    <          9.2E-10 Ry
     smearing contrib. (-TS)   =      -0.00074489 Ry
     internal energy E=F+TS    =   -3593.15392458 Ry

     The total energy is F=E-TS. E is the sum of the following terms:
     one-electron contribution =   -1294.21030177 Ry
     hartree contribution      =     765.11859249 Ry
     xc contribution           =    -425.63392490 Ry
     ewald contribution        =   -2029.21830074 Ry
     one-center paw contrib.   =    -609.20998965 Ry

     convergence has been achieved in  29 iterations

     negative rho (up, down):  7.133E-03 0.000E+00

     Forces acting on atoms (cartesian axes, Ry/au):

     atom    1 type  1   force =     0.00000000    0.00000000    0.00000000
     atom    2 type  1   force =     0.00000000    0.00000000    0.00000000
     atom    3 type  1   force =     0.00000000    0.00000000    0.00000000
     atom    4 type  1   force =     0.00000000    0.00000000    0.00000000
     atom    5 type  1   force =     0.00000000    0.00000000    0.00000000
     atom    6 type  1   force =     0.00000000    0.00000000    0.00000000
     atom    7 type  1   force =     0.00000000    0.00000000    0.00000000
     atom    8 type  1   force =     0.00000000    0.00000000    0.00000000
     atom    9 type  2   force =    -0.00291265   -0.00737778   -0.00737778
     atom   10 type  2   force =     0.05659585    0.00726445   -0.00726445
     atom   11 type  2   force =     0.00291265   -0.00737778   -0.00737778
     atom   12 type  2   force =    -0.00291265    0.00737778    0.00737778
     atom   13 type  2   force =    -0.05659585   -0.00726445    0.00726445
     atom   14 type  2   force =     0.00291265    0.00737778    0.00737778
     atom   15 type  2   force =     0.05659585   -0.00726445    0.00726445
     atom   16 type  2   force =    -0.05659585    0.00726445   -0.00726445
     atom   17 type  3   force =     0.00161746    0.00000000    0.00000000
     atom   18 type  3   force =     0.00000000    0.00093535   -0.00093535
     atom   19 type  3   force =    -0.00161746    0.00000000    0.00000000
     atom   20 type  3   force =     0.00000000   -0.00093535    0.00093535

     Total force =     0.117101     Total SCF correction =     0.000083


     Computing stress (Cartesian axis) and pressure


     negative rho (up, down):  7.133E-03 0.000E+00
          total   stress  (Ry/bohr**3)                   (kbar)     P=      -31.29
   0.00041176   0.00000000   0.00000000           60.57        0.00        0.00
   0.00000000  -0.00052499   0.00000131            0.00      -77.23        0.19
   0.00000000   0.00000131  -0.00052499            0.00        0.19      -77.23

     Energy error            =      1.8E-01 Ry
     Gradient error          =      5.7E-02 Ry/Bohr
     Cell gradient error     =      7.7E+01 kbar

     number of scf cycles    =   2
     number of bfgs steps    =   1

     enthalpy           old  =   -3592.9740331637 Ry
     enthalpy           new  =   -3593.1546694699 Ry

     CASE: enthalpy          _new < enthalpy          _old

     new trust radius        =       0.1603902369 bohr
     new conv_thr            =       0.0000000057 Ry

     new unit-cell volume =   1492.08260 a.u.^3 (   221.10383 Ang^3 )
     density =      6.26148 g/cm^3

CELL_PARAMETERS (alat=  5.58242261)
   2.162865657   0.000000000   0.000000000
   0.000000000   1.991350498  -0.001431461
   0.000000000  -0.001431461   1.991350498

ATOMIC_POSITIONS (crystal)
Fe               0.0000000000        0.0000000000        0.0000000000
Fe               0.5000000000        0.5000000000        0.0000000000
Fe               0.5000000000        0.0000000000        0.0000000000
Fe               0.0000000000        0.5000000000        0.5000000000
Fe               0.0000000000        0.0000000000        0.5000000000
Fe               0.5000000000        0.5000000000        0.5000000000
Fe               0.5000000000        0.0000000000        0.5000000000
Fe               0.0000000000        0.5000000000        0.0000000000
Ti               0.2482555383        0.2471347706        0.2471347706
Ti               0.7733074370        0.7527191161        0.2472808839
Ti               0.7517444617        0.2471347706        0.2471347706
Ti               0.2482555383        0.7528652294        0.7528652294
Ti               0.2266925630        0.2472808839        0.7527191161
Ti               0.7517444617        0.7528652294        0.7528652294
Ti               0.7733074370        0.2472808839        0.7527191161
Ti               0.2266925630        0.7527191161        0.2472808839
H                0.2506720394        0.5000000000        0.5000000000
H                0.5000000000        0.2500216712        0.7499783288
H                0.7493279606        0.5000000000        0.5000000000
H                0.5000000000        0.7499783288        0.2500216712



     Writing config-only to output data dir ./TiFeH_supercell.save/ :
     XML data file     NEW-OLD atomic charge density approx. for the potential
     New effective cutoffs (rho, wfc): 1753.37  125.24

     Check: negative core charge=   -0.000001

     negative rho (up, down):  7.463E-03 0.000E+00

     total cpu time spent up to now is     4406.7 secs

     per-process dynamical memory:   691.1 Mb

     Self-consistent Calculation

     iteration #  1     ecut=   124.00 Ry     beta= 0.70
     Davidson diagonalization with overlap
     c_bands:  1 eigenvalues not converged
     c_bands:  2 eigenvalues not converged
     c_bands:  1 eigenvalues not converged
     c_bands:  1 eigenvalues not converged
     c_bands:  1 eigenvalues not converged
     c_bands:  1 eigenvalues not converged
     c_bands:  1 eigenvalues not converged
     c_bands:  1 eigenvalues not converged
     c_bands:  1 eigenvalues not converged
     c_bands:  1 eigenvalues not converged
     c_bands:  1 eigenvalues not converged
     c_bands:  1 eigenvalues not converged
     c_bands:  1 eigenvalues not converged
     c_bands:  1 eigenvalues not converged
     c_bands:  2 eigenvalues not converged
     c_bands:  1 eigenvalues not converged
     c_bands:  1 eigenvalues not converged
     c_bands:  1 eigenvalues not converged
     c_bands:  1 eigenvalues not converged
     c_bands:  1 eigenvalues not converged
     c_bands:  1 eigenvalues not converged
     c_bands:  1 eigenvalues not converged
     ethr =  1.00E-06,  avg # of iterations = 15.9

     negative rho (up, down):  7.411E-03 0.000E+00

     total cpu time spent up to now is     4644.7 secs

     total energy              =   -3592.41454367 Ry
     estimated scf accuracy    <       0.93089724 Ry

     iteration #  2     ecut=   124.00 Ry     beta= 0.70
     Davidson diagonalization with overlap
     ethr =  4.08E-04,  avg # of iterations =  8.4

     negative rho (up, down):  7.032E-03 0.000E+00

     total cpu time spent up to now is     4756.5 secs

     total energy              =   -3588.40202671 Ry
     estimated scf accuracy    <     155.00925312 Ry

     iteration #  3     ecut=   124.00 Ry     beta= 0.70
     Davidson diagonalization with overlap
     ethr =  4.08E-04,  avg # of iterations =  6.7

     negative rho (up, down):  7.156E-03 0.000E+00

     total cpu time spent up to now is     4863.4 secs

     total energy              =   -3592.84409092 Ry
     estimated scf accuracy    <      11.44615516 Ry

     iteration #  4     ecut=   124.00 Ry     beta= 0.70
     Davidson diagonalization with overlap
     ethr =  4.08E-04,  avg # of iterations =  4.6

     negative rho (up, down):  7.286E-03 0.000E+00

     total cpu time spent up to now is     4925.2 secs

     total energy              =   -3593.14409437 Ry
     estimated scf accuracy    <       1.04601223 Ry

     iteration #  5     ecut=   124.00 Ry     beta= 0.70
     Davidson diagonalization with overlap
     ethr =  4.08E-04,  avg # of iterations =  1.4

     negative rho (up, down):  7.414E-03 0.000E+00

     total cpu time spent up to now is     4972.0 secs

     total energy              =   -3593.17023036 Ry
     estimated scf accuracy    <       0.45493131 Ry

     iteration #  6     ecut=   124.00 Ry     beta= 0.70
     Davidson diagonalization with overlap
     ethr =  2.00E-04,  avg # of iterations =  2.3

     negative rho (up, down):  7.422E-03 0.000E+00

     total cpu time spent up to now is     5023.7 secs

     total energy              =   -3593.17601537 Ry
     estimated scf accuracy    <       0.42068011 Ry

     iteration #  7     ecut=   124.00 Ry     beta= 0.70
     Davidson diagonalization with overlap
     ethr =  1.85E-04,  avg # of iterations =  1.2

     negative rho (up, down):  7.449E-03 0.000E+00

     total cpu time spent up to now is     5069.2 secs

     total energy              =   -3593.18972872 Ry
     estimated scf accuracy    <       0.08134449 Ry

     iteration #  8     ecut=   124.00 Ry     beta= 0.70
     Davidson diagonalization with overlap
     ethr =  3.57E-05,  avg # of iterations =  5.6

     negative rho (up, down):  7.474E-03 0.000E+00

     total cpu time spent up to now is     5131.5 secs

     total energy              =   -3593.19162335 Ry
     estimated scf accuracy    <       0.13030615 Ry

     iteration #  9     ecut=   124.00 Ry     beta= 0.70
     Davidson diagonalization with overlap
     ethr =  3.57E-05,  avg # of iterations =  2.0

     negative rho (up, down):  7.451E-03 0.000E+00

     total cpu time spent up to now is     5181.4 secs

     total energy              =   -3593.19696254 Ry
     estimated scf accuracy    <       0.01539059 Ry

     iteration # 10     ecut=   124.00 Ry     beta= 0.70
     Davidson diagonalization with overlap
     c_bands:  1 eigenvalues not converged
     c_bands:  1 eigenvalues not converged
     c_bands:  1 eigenvalues not converged
     ethr =  6.75E-06,  avg # of iterations =  7.3

     negative rho (up, down):  7.457E-03 0.000E+00

     total cpu time spent up to now is     5250.3 secs

     total energy              =   -3593.19732865 Ry
     estimated scf accuracy    <       0.02347094 Ry

     iteration # 11     ecut=   124.00 Ry     beta= 0.70
     Davidson diagonalization with overlap
     ethr =  6.75E-06,  avg # of iterations =  2.2

     negative rho (up, down):  7.444E-03 0.000E+00

     total cpu time spent up to now is     5301.6 secs

     total energy              =   -3593.19870113 Ry
     estimated scf accuracy    <       0.00196234 Ry

     iteration # 12     ecut=   124.00 Ry     beta= 0.70
     Davidson diagonalization with overlap
     ethr =  8.61E-07,  avg # of iterations =  6.0

     negative rho (up, down):  7.454E-03 0.000E+00

     total cpu time spent up to now is     5370.4 secs

     total energy              =   -3593.19890818 Ry
     estimated scf accuracy    <       0.00126847 Ry

     iteration # 13     ecut=   124.00 Ry     beta= 0.70
     Davidson diagonalization with overlap
     ethr =  5.56E-07,  avg # of iterations =  1.9

     negative rho (up, down):  7.452E-03 0.000E+00

     total cpu time spent up to now is     5420.5 secs

     total energy              =   -3593.19898641 Ry
     estimated scf accuracy    <       0.00026878 Ry

     iteration # 14     ecut=   124.00 Ry     beta= 0.70
     Davidson diagonalization with overlap
     ethr =  1.18E-07,  avg # of iterations =  3.7

     negative rho (up, down):  7.447E-03 0.000E+00

     total cpu time spent up to now is     5475.2 secs

     total energy              =   -3593.19900757 Ry
     estimated scf accuracy    <       0.00021218 Ry

     iteration # 15     ecut=   124.00 Ry     beta= 0.70
     Davidson diagonalization with overlap
     ethr =  9.31E-08,  avg # of iterations =  2.0

     negative rho (up, down):  7.449E-03 0.000E+00

     total cpu time spent up to now is     5523.0 secs

     total energy              =   -3593.19899873 Ry
     estimated scf accuracy    <       0.00044283 Ry

     iteration # 16     ecut=   124.00 Ry     beta= 0.70
     Davidson diagonalization with overlap
     ethr =  9.31E-08,  avg # of iterations =  2.0

     negative rho (up, down):  7.451E-03 0.000E+00

     total cpu time spent up to now is     5571.2 secs

     total energy              =   -3593.19901784 Ry
     estimated scf accuracy    <       0.00011396 Ry

     iteration # 17     ecut=   124.00 Ry     beta= 0.70
     Davidson diagonalization with overlap
     ethr =  5.00E-08,  avg # of iterations =  3.0

     negative rho (up, down):  7.450E-03 0.000E+00

     total cpu time spent up to now is     5622.1 secs

     total energy              =   -3593.19900785 Ry
     estimated scf accuracy    <       0.00051678 Ry

     iteration # 18     ecut=   124.00 Ry     beta= 0.70
     Davidson diagonalization with overlap
     ethr =  5.00E-08,  avg # of iterations =  1.8

     negative rho (up, down):  7.449E-03 0.000E+00

     total cpu time spent up to now is     5667.3 secs

     total energy              =   -3593.19902425 Ry
     estimated scf accuracy    <       0.00001142 Ry

     iteration # 19     ecut=   124.00 Ry     beta= 0.70
     Davidson diagonalization with overlap
     ethr =  5.01E-09,  avg # of iterations =  4.4

     negative rho (up, down):  7.448E-03 0.000E+00

     total cpu time spent up to now is     5727.9 secs

     total energy              =   -3593.19902491 Ry
     estimated scf accuracy    <       0.00004263 Ry

     iteration # 20     ecut=   124.00 Ry     beta= 0.70
     Davidson diagonalization with overlap
     ethr =  5.01E-09,  avg # of iterations =  3.4

     negative rho (up, down):  7.449E-03 0.000E+00

     total cpu time spent up to now is     5781.9 secs

     total energy              =   -3593.19902600 Ry
     estimated scf accuracy    <       0.00003082 Ry

     iteration # 21     ecut=   124.00 Ry     beta= 0.70
     Davidson diagonalization with overlap
     ethr =  5.01E-09,  avg # of iterations =  1.6

     negative rho (up, down):  7.449E-03 0.000E+00

     total cpu time spent up to now is     5827.2 secs

     total energy              =   -3593.19902706 Ry
     estimated scf accuracy    <       0.00000231 Ry

     iteration # 22     ecut=   124.00 Ry     beta= 0.70
     Davidson diagonalization with overlap
     ethr =  1.01E-09,  avg # of iterations =  2.3

     negative rho (up, down):  7.449E-03 0.000E+00

     total cpu time spent up to now is     5877.0 secs

     total energy              =   -3593.19902723 Ry
     estimated scf accuracy    <       0.00000111 Ry

     iteration # 23     ecut=   124.00 Ry     beta= 0.70
     Davidson diagonalization with overlap
     ethr =  4.85E-10,  avg # of iterations =  2.6

     negative rho (up, down):  7.449E-03 0.000E+00

     total cpu time spent up to now is     5927.2 secs

     total energy              =   -3593.19902724 Ry
     estimated scf accuracy    <       0.00000155 Ry

     iteration # 24     ecut=   124.00 Ry     beta= 0.70
     Davidson diagonalization with overlap
     ethr =  4.85E-10,  avg # of iterations =  1.2

     negative rho (up, down):  7.449E-03 0.000E+00

     total cpu time spent up to now is     5970.1 secs

     total energy              =   -3593.19902732 Ry
     estimated scf accuracy    <       0.00000035 Ry

     iteration # 25     ecut=   124.00 Ry     beta= 0.70
     Davidson diagonalization with overlap
     ethr =  1.54E-10,  avg # of iterations =  2.0

     negative rho (up, down):  7.449E-03 0.000E+00

     total cpu time spent up to now is     6017.7 secs

     total energy              =   -3593.19902734 Ry
     estimated scf accuracy    <       0.00000007 Ry

     iteration # 26     ecut=   124.00 Ry     beta= 0.70
     Davidson diagonalization with overlap
     ethr =  3.22E-11,  avg # of iterations =  4.7

     negative rho (up, down):  7.449E-03 0.000E+00

     total cpu time spent up to now is     6079.1 secs

     total energy              =   -3593.19902734 Ry
     estimated scf accuracy    <       0.00000047 Ry

     iteration # 27     ecut=   124.00 Ry     beta= 0.70
     Davidson diagonalization with overlap
     ethr =  3.22E-11,  avg # of iterations =  2.9

     negative rho (up, down):  7.449E-03 0.000E+00

     total cpu time spent up to now is     6129.4 secs

     total energy              =   -3593.19902735 Ry
     estimated scf accuracy    <       0.00000002 Ry

     iteration # 28     ecut=   124.00 Ry     beta= 0.70
     Davidson diagonalization with overlap
     ethr =  7.20E-12,  avg # of iterations =  4.0

     negative rho (up, down):  7.449E-03 0.000E+00

     total cpu time spent up to now is     6183.8 secs

     End of self-consistent calculation

     Number of k-points >= 100: set verbosity='high' to print the bands.

     the Fermi energy is    16.4711 ev

!    total energy              =   -3593.19902735 Ry
     estimated scf accuracy    <          3.4E-09 Ry
     smearing contrib. (-TS)   =      -0.00040574 Ry
     internal energy E=F+TS    =   -3593.19862161 Ry

     The total energy is F=E-TS. E is the sum of the following terms:
     one-electron contribution =   -1285.52425979 Ry
     hartree contribution      =     762.61347581 Ry
     xc contribution           =    -425.73070932 Ry
     ewald contribution        =   -2035.34480714 Ry
     one-center paw contrib.   =    -609.21232117 Ry

     convergence has been achieved in  28 iterations

     negative rho (up, down):  7.449E-03 0.000E+00

     Forces acting on atoms (cartesian axes, Ry/au):

     atom    1 type  1   force =     0.00000000    0.00000000    0.00000000
     atom    2 type  1   force =     0.00000000    0.00000000    0.00000000
     atom    3 type  1   force =     0.00000000    0.00000000    0.00000000
     atom    4 type  1   force =     0.00000000    0.00000000    0.00000000
     atom    5 type  1   force =     0.00000000    0.00000000    0.00000000
     atom    6 type  1   force =     0.00000000    0.00000000    0.00000000
     atom    7 type  1   force =     0.00000000    0.00000000    0.00000000
     atom    8 type  1   force =     0.00000000    0.00000000    0.00000000
     atom    9 type  2   force =     0.00577812   -0.00291157   -0.00291157
     atom   10 type  2   force =     0.00988055    0.00232744   -0.00232744
     atom   11 type  2   force =    -0.00577812   -0.00291157   -0.00291157
     atom   12 type  2   force =     0.00577812    0.00291157    0.00291157
     atom   13 type  2   force =    -0.00988055   -0.00232744    0.00232744
     atom   14 type  2   force =    -0.00577812    0.00291157    0.00291157
     atom   15 type  2   force =     0.00988055   -0.00232744    0.00232744
     atom   16 type  2   force =    -0.00988055    0.00232744   -0.00232744
     atom   17 type  3   force =     0.00137086    0.00000000    0.00000000
     atom   18 type  3   force =     0.00000000    0.00155268   -0.00155268
     atom   19 type  3   force =    -0.00137086    0.00000000    0.00000000
     atom   20 type  3   force =     0.00000000   -0.00155268    0.00155268

     Total force =     0.025468     Total SCF correction =     0.000154


     Computing stress (Cartesian axis) and pressure


     negative rho (up, down):  7.449E-03 0.000E+00
          total   stress  (Ry/bohr**3)                   (kbar)     P=      -21.50
   0.00019922   0.00000000   0.00000000           29.31        0.00        0.00
   0.00000000  -0.00031887   0.00000506            0.00      -46.91        0.74
   0.00000000   0.00000506  -0.00031887            0.00        0.74      -46.91

     Energy error            =      4.4E-02 Ry
     Gradient error          =      9.9E-03 Ry/Bohr
     Cell gradient error     =      4.7E+01 kbar

     number of scf cycles    =   3
     number of bfgs steps    =   2

     enthalpy           old  =   -3593.1546694699 Ry
     enthalpy           new  =   -3593.1990273489 Ry

     CASE: enthalpy          _new < enthalpy          _old

     new trust radius        =       0.1287773870 bohr
     new conv_thr            =       0.0000000010 Ry

     new unit-cell volume =   1469.61898 a.u.^3 (   217.77507 Ang^3 )
     density =      6.35719 g/cm^3

CELL_PARAMETERS (alat=  5.58242261)
   2.198918766   0.000000000   0.000000000
   0.000000000   1.960034845  -0.001150991
   0.000000000  -0.001150991   1.960034845

ATOMIC_POSITIONS (crystal)
Fe               0.0000000000        0.0000000000        0.0000000000
Fe               0.5000000000        0.5000000000       -0.0000000000
Fe               0.5000000000        0.0000000000        0.0000000000
Fe               0.0000000000        0.5000000000        0.5000000000
Fe               0.0000000000        0.0000000000        0.5000000000
Fe               0.5000000000        0.5000000000        0.5000000000
Fe               0.5000000000        0.0000000000        0.5000000000
Fe               0.0000000000        0.5000000000       -0.0000000000
Ti               0.2489927062        0.2463417203        0.2463417203
Ti               0.7778042666        0.7534076929        0.2465923071
Ti               0.7510072938        0.2463417203        0.2463417203
Ti               0.2489927062        0.7536582797        0.7536582797
Ti               0.2221957334        0.2465923071        0.7534076929
Ti               0.7510072938        0.7536582797        0.7536582797
Ti               0.7778042666        0.2465923071        0.7534076929
Ti               0.2221957334        0.7534076929        0.2465923071
H                0.2509795743        0.5000000000        0.5000000000
H                0.5000000000        0.2502624386        0.7497375614
H                0.7490204257        0.5000000000        0.5000000000
H                0.5000000000        0.7497375614        0.2502624386



     Writing config-only to output data dir ./TiFeH_supercell.save/ :
     XML data file     NEW-OLD atomic charge density approx. for the potential
     New effective cutoffs (rho, wfc): 1809.37  129.24

     Check: negative core charge=   -0.000002

     negative rho (up, down):  7.238E-03 0.000E+00

     total cpu time spent up to now is     6227.3 secs

     per-process dynamical memory:   691.1 Mb

     Self-consistent Calculation

     iteration #  1     ecut=   124.00 Ry     beta= 0.70
     Davidson diagonalization with overlap
     c_bands:  1 eigenvalues not converged
     c_bands:  1 eigenvalues not converged
     c_bands:  1 eigenvalues not converged
     c_bands:  1 eigenvalues not converged
     c_bands:  1 eigenvalues not converged
     c_bands:  2 eigenvalues not converged
     ethr =  1.00E-06,  avg # of iterations = 13.8

     negative rho (up, down):  7.196E-03 0.000E+00

     total cpu time spent up to now is     6428.8 secs

     total energy              =   -3593.05032009 Ry
     estimated scf accuracy    <       0.18800284 Ry

     iteration #  2     ecut=   124.00 Ry     beta= 0.70
     Davidson diagonalization with overlap
     c_bands:  1 eigenvalues not converged
     c_bands:  1 eigenvalues not converged
     ethr =  8.25E-05,  avg # of iterations = 11.8

     negative rho (up, down):  7.085E-03 0.000E+00

     total cpu time spent up to now is     6548.5 secs

     total energy              =   -3591.35393402 Ry
     estimated scf accuracy    <      60.36208493 Ry

     iteration #  3     ecut=   124.00 Ry     beta= 0.70
     Davidson diagonalization with overlap
     ethr =  8.25E-05,  avg # of iterations =  6.8

     negative rho (up, down):  7.122E-03 0.000E+00

     total cpu time spent up to now is     6649.8 secs

     total energy              =   -3593.14314251 Ry
     estimated scf accuracy    <       1.81836092 Ry

     iteration #  4     ecut=   124.00 Ry     beta= 0.70
     Davidson diagonalization with overlap
     ethr =  8.25E-05,  avg # of iterations =  4.1

     negative rho (up, down):  7.195E-03 0.000E+00

     total cpu time spent up to now is     6704.2 secs

     total energy              =   -3593.19662570 Ry
     estimated scf accuracy    <       0.07915664 Ry

     iteration #  5     ecut=   124.00 Ry     beta= 0.70
     Davidson diagonalization with overlap
     ethr =  3.47E-05,  avg # of iterations =  3.9

     negative rho (up, down):  7.245E-03 0.000E+00

     total cpu time spent up to now is     6758.4 secs

     total energy              =   -3593.19975150 Ry
     estimated scf accuracy    <       0.19276652 Ry

     iteration #  6     ecut=   124.00 Ry     beta= 0.70
     Davidson diagonalization with overlap
     ethr =  3.47E-05,  avg # of iterations =  2.4

     negative rho (up, down):  7.235E-03 0.000E+00

     total cpu time spent up to now is     6808.1 secs

     total energy              =   -3593.20259513 Ry
     estimated scf accuracy    <       0.16873593 Ry

     iteration #  7     ecut=   124.00 Ry     beta= 0.70
     Davidson diagonalization with overlap
     ethr =  3.47E-05,  avg # of iterations =  1.2

     negative rho (up, down):  7.233E-03 0.000E+00

     total cpu time spent up to now is     6850.7 secs

     total energy              =   -3593.20819610 Ry
     estimated scf accuracy    <       0.00555406 Ry

     iteration #  8     ecut=   124.00 Ry     beta= 0.70
     Davidson diagonalization with overlap
     c_bands:  1 eigenvalues not converged
     ethr =  2.44E-06,  avg # of iterations =  7.4

     negative rho (up, down):  7.223E-03 0.000E+00

     total cpu time spent up to now is     6917.5 secs

     total energy              =   -3593.20862127 Ry
     estimated scf accuracy    <       0.02038662 Ry

     iteration #  9     ecut=   124.00 Ry     beta= 0.70
     Davidson diagonalization with overlap
     ethr =  2.44E-06,  avg # of iterations =  2.2

     negative rho (up, down):  7.221E-03 0.000E+00

     total cpu time spent up to now is     6965.9 secs

     total energy              =   -3593.20928762 Ry
     estimated scf accuracy    <       0.00062121 Ry

     iteration # 10     ecut=   124.00 Ry     beta= 0.70
     Davidson diagonalization with overlap
     ethr =  2.72E-07,  avg # of iterations =  4.3

     negative rho (up, down):  7.221E-03 0.000E+00

     total cpu time spent up to now is     7026.5 secs

     total energy              =   -3593.20934105 Ry
     estimated scf accuracy    <       0.00133163 Ry

     iteration # 11     ecut=   124.00 Ry     beta= 0.70
     Davidson diagonalization with overlap
     ethr =  2.72E-07,  avg # of iterations =  3.2

     negative rho (up, down):  7.226E-03 0.000E+00

     total cpu time spent up to now is     7079.2 secs

     total energy              =   -3593.20940236 Ry
     estimated scf accuracy    <       0.00071004 Ry

     iteration # 12     ecut=   124.00 Ry     beta= 0.70
     Davidson diagonalization with overlap
     ethr =  2.72E-07,  avg # of iterations =  2.6

     negative rho (up, down):  7.224E-03 0.000E+00

     total cpu time spent up to now is     7128.9 secs

     total energy              =   -3593.20938469 Ry
     estimated scf accuracy    <       0.00193565 Ry

     iteration # 13     ecut=   124.00 Ry     beta= 0.70
     Davidson diagonalization with overlap
     ethr =  2.72E-07,  avg # of iterations =  1.6

     negative rho (up, down):  7.227E-03 0.000E+00

     total cpu time spent up to now is     7173.6 secs

     total energy              =   -3593.20941493 Ry
     estimated scf accuracy    <       0.00066452 Ry

     iteration # 14     ecut=   124.00 Ry     beta= 0.70
     Davidson diagonalization with overlap
     ethr =  2.72E-07,  avg # of iterations =  1.6

     negative rho (up, down):  7.224E-03 0.000E+00

     total cpu time spent up to now is     7218.4 secs

     total energy              =   -3593.20945097 Ry
     estimated scf accuracy    <       0.00011914 Ry

     iteration # 15     ecut=   124.00 Ry     beta= 0.70
     Davidson diagonalization with overlap
     ethr =  5.23E-08,  avg # of iterations =  1.9

     negative rho (up, down):  7.224E-03 0.000E+00

     total cpu time spent up to now is     7265.0 secs

     total energy              =   -3593.20945557 Ry
     estimated scf accuracy    <       0.00003705 Ry

     iteration # 16     ecut=   124.00 Ry     beta= 0.70
     Davidson diagonalization with overlap
     ethr =  1.63E-08,  avg # of iterations =  2.1

     negative rho (up, down):  7.224E-03 0.000E+00

     total cpu time spent up to now is     7313.1 secs

     total energy              =   -3593.20945829 Ry
     estimated scf accuracy    <       0.00002506 Ry

     iteration # 17     ecut=   124.00 Ry     beta= 0.70
     Davidson diagonalization with overlap
     ethr =  1.10E-08,  avg # of iterations =  1.0

     negative rho (up, down):  7.224E-03 0.000E+00

     total cpu time spent up to now is     7354.8 secs

     total energy              =   -3593.20945909 Ry
     estimated scf accuracy    <       0.00000228 Ry

     iteration # 18     ecut=   124.00 Ry     beta= 0.70
     Davidson diagonalization with overlap
     ethr =  9.98E-10,  avg # of iterations =  4.8

     negative rho (up, down):  7.225E-03 0.000E+00

     total cpu time spent up to now is     7420.1 secs

     total energy              =   -3593.20945903 Ry
     estimated scf accuracy    <       0.00001359 Ry

     iteration # 19     ecut=   124.00 Ry     beta= 0.70
     Davidson diagonalization with overlap
     ethr =  9.98E-10,  avg # of iterations =  4.0

     negative rho (up, down):  7.225E-03 0.000E+00

     total cpu time spent up to now is     7477.8 secs

     total energy              =   -3593.20945938 Ry
     estimated scf accuracy    <       0.00000753 Ry

     iteration # 20     ecut=   124.00 Ry     beta= 0.70
     Davidson diagonalization with overlap
     ethr =  9.98E-10,  avg # of iterations =  3.0

     negative rho (up, down):  7.224E-03 0.000E+00

     total cpu time spent up to now is     7527.8 secs

     total energy              =   -3593.20945964 Ry
     estimated scf accuracy    <       0.00000104 Ry

     iteration # 21     ecut=   124.00 Ry     beta= 0.70
     Davidson diagonalization with overlap
     ethr =  4.57E-10,  avg # of iterations =  1.8

     negative rho (up, down):  7.224E-03 0.000E+00

     total cpu time spent up to now is     7574.1 secs

     total energy              =   -3593.20945971 Ry
     estimated scf accuracy    <       0.00000003 Ry

     iteration # 22     ecut=   124.00 Ry     beta= 0.70
     Davidson diagonalization with overlap
     ethr =  1.35E-11,  avg # of iterations =  5.5

     negative rho (up, down):  7.224E-03 0.000E+00

     total cpu time spent up to now is     7653.9 secs

     total energy              =   -3593.20945971 Ry
     estimated scf accuracy    <       0.00000031 Ry

     iteration # 23     ecut=   124.00 Ry     beta= 0.70
     Davidson diagonalization with overlap
     ethr =  1.35E-11,  avg # of iterations =  4.3

     negative rho (up, down):  7.224E-03 0.000E+00

     total cpu time spent up to now is     7714.1 secs

     total energy              =   -3593.20945973 Ry
     estimated scf accuracy    <       0.00000020 Ry

     iteration # 24     ecut=   124.00 Ry     beta= 0.70
     Davidson diagonalization with overlap
     ethr =  1.35E-11,  avg # of iterations =  4.0

     negative rho (up, down):  7.224E-03 0.000E+00

     total cpu time spent up to now is     7769.6 secs

     total energy              =   -3593.20945973 Ry
     estimated scf accuracy    <       0.00000003 Ry

     iteration # 25     ecut=   124.00 Ry     beta= 0.70
     Davidson diagonalization with overlap
     ethr =  1.15E-11,  avg # of iterations =  3.5

     negative rho (up, down):  7.224E-03 0.000E+00

     total cpu time spent up to now is     7822.6 secs

     total energy              =   -3593.20945973 Ry
     estimated scf accuracy    <       0.00000010 Ry

     iteration # 26     ecut=   124.00 Ry     beta= 0.70
     Davidson diagonalization with overlap
     ethr =  1.15E-11,  avg # of iterations =  2.1

     negative rho (up, down):  7.224E-03 0.000E+00

     total cpu time spent up to now is     7870.4 secs

     total energy              =   -3593.20945973 Ry
     estimated scf accuracy    <       0.00000004 Ry

     iteration # 27     ecut=   124.00 Ry     beta= 0.70
     Davidson diagonalization with overlap
     ethr =  1.15E-11,  avg # of iterations =  1.1

     negative rho (up, down):  7.224E-03 0.000E+00

     total cpu time spent up to now is     7912.3 secs

     total energy              =   -3593.20945973 Ry
     estimated scf accuracy    <          2.1E-09 Ry

     iteration # 28     ecut=   124.00 Ry     beta= 0.70
     Davidson diagonalization with overlap
     ethr =  9.15E-13,  avg # of iterations =  3.5

     negative rho (up, down):  7.224E-03 0.000E+00

     total cpu time spent up to now is     7966.3 secs

     total energy              =   -3593.20945973 Ry
     estimated scf accuracy    <          3.4E-09 Ry

     iteration # 29     ecut=   124.00 Ry     beta= 0.70
     Davidson diagonalization with overlap
     ethr =  9.15E-13,  avg # of iterations =  2.0

     negative rho (up, down):  7.224E-03 0.000E+00

     total cpu time spent up to now is     8013.7 secs

     total energy              =   -3593.20945973 Ry
     estimated scf accuracy    <          1.2E-09 Ry

     iteration # 30     ecut=   124.00 Ry     beta= 0.70
     Davidson diagonalization with overlap
     ethr =  5.23E-13,  avg # of iterations =  1.1

     negative rho (up, down):  7.224E-03 0.000E+00

     total cpu time spent up to now is     8055.6 secs

     End of self-consistent calculation

     Number of k-points >= 100: set verbosity='high' to print the bands.

     the Fermi energy is    16.6856 ev

!    total energy              =   -3593.20945973 Ry
     estimated scf accuracy    <          3.7E-11 Ry
     smearing contrib. (-TS)   =      -0.00024225 Ry
     internal energy E=F+TS    =   -3593.20921749 Ry

     The total energy is F=E-TS. E is the sum of the following terms:
     one-electron contribution =   -1271.82028821 Ry
     hartree contribution      =     758.39463627 Ry
     xc contribution           =    -425.92610674 Ry
     ewald contribution        =   -2044.64197407 Ry
     one-center paw contrib.   =    -609.21548474 Ry

     convergence has been achieved in  30 iterations

     negative rho (up, down):  7.224E-03 0.000E+00

     Forces acting on atoms (cartesian axes, Ry/au):

     atom    1 type  1   force =     0.00000000    0.00000000    0.00000000
     atom    2 type  1   force =    -0.00000000    0.00000000    0.00000000
     atom    3 type  1   force =     0.00000000    0.00000000    0.00000000
     atom    4 type  1   force =     0.00000000    0.00000000    0.00000000
     atom    5 type  1   force =     0.00000000    0.00000000    0.00000000
     atom    6 type  1   force =     0.00000000    0.00000000    0.00000000
     atom    7 type  1   force =     0.00000000    0.00000000    0.00000000
     atom    8 type  1   force =     0.00000000    0.00000000    0.00000000
     atom    9 type  2   force =     0.00948720    0.00042208    0.00042208
     atom   10 type  2   force =    -0.01217347   -0.00108559    0.00108559
     atom   11 type  2   force =    -0.00948720    0.00042208    0.00042208
     atom   12 type  2   force =     0.00948720   -0.00042208   -0.00042208
     atom   13 type  2   force =     0.01217347    0.00108559   -0.00108559
     atom   14 type  2   force =    -0.00948720   -0.00042208   -0.00042208
     atom   15 type  2   force =    -0.01217347    0.00108559   -0.00108559
     atom   16 type  2   force =     0.01217347   -0.00108559    0.00108559
     atom   17 type  3   force =     0.00120471    0.00000000    0.00000000
     atom   18 type  3   force =     0.00000000    0.00159559   -0.00159559
     atom   19 type  3   force =    -0.00120471    0.00000000    0.00000000
     atom   20 type  3   force =     0.00000000   -0.00159559    0.00159559

     Total force =     0.031253     Total SCF correction =     0.000014


     Computing stress (Cartesian axis) and pressure


     negative rho (up, down):  7.224E-03 0.000E+00
          total   stress  (Ry/bohr**3)                   (kbar)     P=        3.22
   0.00003977   0.00000000   0.00000000            5.85        0.00        0.00
   0.00000000   0.00001292   0.00000908            0.00        1.90        1.34
   0.00000000   0.00000908   0.00001292            0.00        1.34        1.90

     Energy error            =      1.0E-02 Ry
     Gradient error          =      1.2E-02 Ry/Bohr
     Cell gradient error     =      5.9E+00 kbar

     number of scf cycles    =   4
     number of bfgs steps    =   3

     enthalpy           old  =   -3593.1990273489 Ry
     enthalpy           new  =   -3593.2094597344 Ry

     CASE: enthalpy          _new < enthalpy          _old

     new trust radius        =       0.0154993314 bohr
     new conv_thr            =       0.0000000012 Ry

     new unit-cell volume =   1471.32215 a.u.^3 (   218.02745 Ang^3 )
     density =      6.34983 g/cm^3

CELL_PARAMETERS (alat=  5.58242261)
   2.199116350   0.000000000   0.000000000
   0.000000000   1.961081960  -0.000701495
   0.000000000  -0.000701495   1.961081960

ATOMIC_POSITIONS (crystal)
Fe               0.0000000000        0.0000000000        0.0000000000
Fe               0.5000000000        0.5000000000       -0.0000000000
Fe               0.5000000000        0.0000000000        0.0000000000
Fe               0.0000000000        0.5000000000        0.5000000000
Fe               0.0000000000        0.0000000000        0.5000000000
Fe               0.5000000000        0.5000000000        0.5000000000
Fe               0.5000000000        0.0000000000        0.5000000000
Fe               0.0000000000        0.5000000000       -0.0000000000
Ti               0.2498318376        0.2464017452        0.2464017452
Ti               0.7765492391        0.7532979020        0.2467020980
Ti               0.7501681624        0.2464017452        0.2464017452
Ti               0.2498318376        0.7535982548        0.7535982548
Ti               0.2234507609        0.2467020980        0.7532979020
Ti               0.7501681624        0.7535982548        0.7535982548
Ti               0.7765492391        0.2467020980        0.7532979020
Ti               0.2234507609        0.7532979020        0.2467020980
H                0.2510785842        0.5000000000        0.5000000000
H                0.5000000000        0.2503854054        0.7496145946
H                0.7489214158        0.5000000000        0.5000000000
H                0.5000000000        0.7496145946        0.2503854054



     Writing config-only to output data dir ./TiFeH_supercell.save/ :
     XML data file     NEW-OLD atomic charge density approx. for the potential
     New effective cutoffs (rho, wfc): 1806.63  129.05

     Check: negative core charge=   -0.000002

     negative rho (up, down):  7.014E-03 0.000E+00

     total cpu time spent up to now is     8099.0 secs

     per-process dynamical memory:   691.1 Mb

     Self-consistent Calculation

     iteration #  1     ecut=   124.00 Ry     beta= 0.70
     Davidson diagonalization with overlap
     ethr =  1.00E-06,  avg # of iterations =  6.2

     negative rho (up, down):  7.021E-03 0.000E+00

     total cpu time spent up to now is     8201.2 secs

     total energy              =   -3593.17913642 Ry
     estimated scf accuracy    <       0.03682676 Ry

     iteration #  2     ecut=   124.00 Ry     beta= 0.70
     Davidson diagonalization with overlap
     c_bands:  2 eigenvalues not converged
     c_bands:  1 eigenvalues not converged
     c_bands:  1 eigenvalues not converged
     ethr =  1.62E-05,  avg # of iterations = 10.0

     negative rho (up, down):  6.972E-03 0.000E+00

     total cpu time spent up to now is     8312.4 secs

     total energy              =   -3592.63183729 Ry
     estimated scf accuracy    <      20.65182505 Ry

     iteration #  3     ecut=   124.00 Ry     beta= 0.70
     Davidson diagonalization with overlap
     c_bands:  1 eigenvalues not converged
     ethr =  1.62E-05,  avg # of iterations =  7.9

     negative rho (up, down):  6.999E-03 0.000E+00

     total cpu time spent up to now is     8414.2 secs

     total energy              =   -3593.20615288 Ry
     estimated scf accuracy    <       0.08079884 Ry

     iteration #  4     ecut=   124.00 Ry     beta= 0.70
     Davidson diagonalization with overlap
     ethr =  1.62E-05,  avg # of iterations =  2.0

     negative rho (up, down):  7.011E-03 0.000E+00

     total cpu time spent up to now is     8461.7 secs

     total energy              =   -3593.20897154 Ry
     estimated scf accuracy    <       0.00780987 Ry

     iteration #  5     ecut=   124.00 Ry     beta= 0.70
     Davidson diagonalization with overlap
     ethr =  3.43E-06,  avg # of iterations =  5.9

     negative rho (up, down):  7.017E-03 0.000E+00

     total cpu time spent up to now is     8523.4 secs

     total energy              =   -3593.20953783 Ry
     estimated scf accuracy    <       0.02052266 Ry

     iteration #  6     ecut=   124.00 Ry     beta= 0.70
     Davidson diagonalization with overlap
     ethr =  3.43E-06,  avg # of iterations =  2.2

     negative rho (up, down):  7.014E-03 0.000E+00

     total cpu time spent up to now is     8571.5 secs

     total energy              =   -3593.21006604 Ry
     estimated scf accuracy    <       0.00574484 Ry

     iteration #  7     ecut=   124.00 Ry     beta= 0.70
     Davidson diagonalization with overlap
     ethr =  2.52E-06,  avg # of iterations =  1.1

     negative rho (up, down):  7.014E-03 0.000E+00

     total cpu time spent up to now is     8613.9 secs

     total energy              =   -3593.21029680 Ry
     estimated scf accuracy    <       0.00084682 Ry

     iteration #  8     ecut=   124.00 Ry     beta= 0.70
     Davidson diagonalization with overlap
     ethr =  3.71E-07,  avg # of iterations =  2.3

     negative rho (up, down):  7.013E-03 0.000E+00

     total cpu time spent up to now is     8662.8 secs

     total energy              =   -3593.21031159 Ry
     estimated scf accuracy    <       0.00115010 Ry

     iteration #  9     ecut=   124.00 Ry     beta= 0.70
     Davidson diagonalization with overlap
     ethr =  3.71E-07,  avg # of iterations =  1.0

     negative rho (up, down):  7.012E-03 0.000E+00

     total cpu time spent up to now is     8704.9 secs

     total energy              =   -3593.21033619 Ry
     estimated scf accuracy    <       0.00044979 Ry

     iteration # 10     ecut=   124.00 Ry     beta= 0.70
     Davidson diagonalization with overlap
     ethr =  1.97E-07,  avg # of iterations =  1.2

     negative rho (up, down):  7.010E-03 0.000E+00

     total cpu time spent up to now is     8748.3 secs

     total energy              =   -3593.21032715 Ry
     estimated scf accuracy    <       0.00034145 Ry

     iteration # 11     ecut=   124.00 Ry     beta= 0.70
     Davidson diagonalization with overlap
     ethr =  1.50E-07,  avg # of iterations =  1.0

     negative rho (up, down):  7.014E-03 0.000E+00

     total cpu time spent up to now is     8790.1 secs

     total energy              =   -3593.21033720 Ry
     estimated scf accuracy    <       0.00003570 Ry

     iteration # 12     ecut=   124.00 Ry     beta= 0.70
     Davidson diagonalization with overlap
     ethr =  1.57E-08,  avg # of iterations =  4.6

     negative rho (up, down):  7.012E-03 0.000E+00

     total cpu time spent up to now is     8850.2 secs

     total energy              =   -3593.21034250 Ry
     estimated scf accuracy    <       0.00004312 Ry

     iteration # 13     ecut=   124.00 Ry     beta= 0.70
     Davidson diagonalization with overlap
     ethr =  1.57E-08,  avg # of iterations =  1.3

     negative rho (up, down):  7.013E-03 0.000E+00

     total cpu time spent up to now is     8893.5 secs

     total energy              =   -3593.21034341 Ry
     estimated scf accuracy    <       0.00001817 Ry

     iteration # 14     ecut=   124.00 Ry     beta= 0.70
     Davidson diagonalization with overlap
     ethr =  7.97E-09,  avg # of iterations =  1.4

     negative rho (up, down):  7.012E-03 0.000E+00

     total cpu time spent up to now is     8937.3 secs

     total energy              =   -3593.21034466 Ry
     estimated scf accuracy    <       0.00000090 Ry

     iteration # 15     ecut=   124.00 Ry     beta= 0.70
     Davidson diagonalization with overlap
     ethr =  3.93E-10,  avg # of iterations =  5.0

     negative rho (up, down):  7.012E-03 0.000E+00

     total cpu time spent up to now is     9016.8 secs

     total energy              =   -3593.21034484 Ry
     estimated scf accuracy    <       0.00000672 Ry

     iteration # 16     ecut=   124.00 Ry     beta= 0.70
     Davidson diagonalization with overlap
     ethr =  3.93E-10,  avg # of iterations =  4.2

     negative rho (up, down):  7.012E-03 0.000E+00

     total cpu time spent up to now is     9075.1 secs

     total energy              =   -3593.21034487 Ry
     estimated scf accuracy    <       0.00000495 Ry

     iteration # 17     ecut=   124.00 Ry     beta= 0.70
     Davidson diagonalization with overlap
     ethr =  3.93E-10,  avg # of iterations =  3.9

     negative rho (up, down):  7.012E-03 0.000E+00

     total cpu time spent up to now is     9129.7 secs

     total energy              =   -3593.21034508 Ry
     estimated scf accuracy    <       0.00000083 Ry

     iteration # 18     ecut=   124.00 Ry     beta= 0.70
     Davidson diagonalization with overlap
     ethr =  3.63E-10,  avg # of iterations =  2.3

     negative rho (up, down):  7.012E-03 0.000E+00

     total cpu time spent up to now is     9178.5 secs

     total energy              =   -3593.21034502 Ry
     estimated scf accuracy    <       0.00000212 Ry

     iteration # 19     ecut=   124.00 Ry     beta= 0.70
     Davidson diagonalization with overlap
     ethr =  3.63E-10,  avg # of iterations =  1.3

     negative rho (up, down):  7.012E-03 0.000E+00

     total cpu time spent up to now is     9222.0 secs

     total energy              =   -3593.21034510 Ry
     estimated scf accuracy    <       0.00000042 Ry

     iteration # 20     ecut=   124.00 Ry     beta= 0.70
     Davidson diagonalization with overlap
     ethr =  1.85E-10,  avg # of iterations =  1.2

     negative rho (up, down):  7.012E-03 0.000E+00

     total cpu time spent up to now is     9265.0 secs

     total energy              =   -3593.21034511 Ry
     estimated scf accuracy    <       0.00000010 Ry

     iteration # 21     ecut=   124.00 Ry     beta= 0.70
     Davidson diagonalization with overlap
     ethr =  4.24E-11,  avg # of iterations =  4.1

     negative rho (up, down):  7.012E-03 0.000E+00

     total cpu time spent up to now is     9323.1 secs

     total energy              =   -3593.21034510 Ry
     estimated scf accuracy    <       0.00000069 Ry

     iteration # 22     ecut=   124.00 Ry     beta= 0.70
     Davidson diagonalization with overlap
     ethr =  4.24E-11,  avg # of iterations =  3.5

     negative rho (up, down):  7.012E-03 0.000E+00

     total cpu time spent up to now is     9375.4 secs

     total energy              =   -3593.21034513 Ry
     estimated scf accuracy    <       0.00000001 Ry

     iteration # 23     ecut=   124.00 Ry     beta= 0.70
     Davidson diagonalization with overlap
     ethr =  4.93E-12,  avg # of iterations =  4.2

     negative rho (up, down):  7.012E-03 0.000E+00

     total cpu time spent up to now is     9432.6 secs

     total energy              =   -3593.21034513 Ry
     estimated scf accuracy    <          4.2E-09 Ry

     iteration # 24     ecut=   124.00 Ry     beta= 0.70
     Davidson diagonalization with overlap
     ethr =  1.84E-12,  avg # of iterations =  4.2

     negative rho (up, down):  7.012E-03 0.000E+00

     total cpu time spent up to now is     9492.0 secs

     total energy              =   -3593.21034513 Ry
     estimated scf accuracy    <       0.00000004 Ry

     iteration # 25     ecut=   124.00 Ry     beta= 0.70
     Davidson diagonalization with overlap
     ethr =  1.84E-12,  avg # of iterations =  4.0

     negative rho (up, down):  7.012E-03 0.000E+00

     total cpu time spent up to now is     9547.5 secs

     End of self-consistent calculation

     Number of k-points >= 100: set verbosity='high' to print the bands.

     the Fermi energy is    16.6647 ev

!    total energy              =   -3593.21034513 Ry
     estimated scf accuracy    <          7.3E-10 Ry
     smearing contrib. (-TS)   =      -0.00022467 Ry
     internal energy E=F+TS    =   -3593.21012046 Ry

     The total energy is F=E-TS. E is the sum of the following terms:
     one-electron contribution =   -1272.12620650 Ry
     hartree contribution      =     758.34783249 Ry
     xc contribution           =    -425.90615711 Ry
     ewald contribution        =   -2044.31029379 Ry
     one-center paw contrib.   =    -609.21529554 Ry

     convergence has been achieved in  25 iterations

     negative rho (up, down):  7.012E-03 0.000E+00

     Forces acting on atoms (cartesian axes, Ry/au):

     atom    1 type  1   force =     0.00000000    0.00000000    0.00000000
     atom    2 type  1   force =     0.00000000    0.00000000    0.00000000
     atom    3 type  1   force =     0.00000000    0.00000000    0.00000000
     atom    4 type  1   force =     0.00000000    0.00000000    0.00000000
     atom    5 type  1   force =     0.00000000    0.00000000    0.00000000
     atom    6 type  1   force =     0.00000000    0.00000000    0.00000000
     atom    7 type  1   force =     0.00000000    0.00000000    0.00000000
     atom    8 type  1   force =     0.00000000    0.00000000    0.00000000
     atom    9 type  2   force =     0.00557134    0.00005659    0.00005659
     atom   10 type  2   force =    -0.00537283   -0.00056783    0.00056783
     atom   11 type  2   force =    -0.00557134    0.00005659    0.00005659
     atom   12 type  2   force =     0.00557134   -0.00005659   -0.00005659
     atom   13 type  2   force =     0.00537283    0.00056783   -0.00056783
     atom   14 type  2   force =    -0.00557134   -0.00005659   -0.00005659
     atom   15 type  2   force =    -0.00537283    0.00056783   -0.00056783
     atom   16 type  2   force =     0.00537283   -0.00056783    0.00056783
     atom   17 type  3   force =     0.00061897    0.00000000    0.00000000
     atom   18 type  3   force =     0.00000000    0.00167799   -0.00167799
     atom   19 type  3   force =    -0.00061897    0.00000000    0.00000000
     atom   20 type  3   force =     0.00000000   -0.00167799    0.00167799

     Total force =     0.015946     Total SCF correction =     0.000051


     Computing stress (Cartesian axis) and pressure


     negative rho (up, down):  7.012E-03 0.000E+00
          total   stress  (Ry/bohr**3)                   (kbar)     P=        0.67
   0.00002764   0.00000000   0.00000000            4.07        0.00        0.00
   0.00000000  -0.00000696   0.00000688            0.00       -1.02        1.01
   0.00000000   0.00000688  -0.00000696            0.00        1.01       -1.02

     Energy error            =      8.9E-04 Ry
     Gradient error          =      5.6E-03 Ry/Bohr
     Cell gradient error     =      4.1E+00 kbar

     number of scf cycles    =   5
     number of bfgs steps    =   4

     enthalpy           old  =   -3593.2094597344 Ry
     enthalpy           new  =   -3593.2103451291 Ry

     CASE: enthalpy          _new < enthalpy          _old

     new trust radius        =       0.0145361786 bohr
     new conv_thr            =       0.0000000006 Ry

     new unit-cell volume =   1471.39829 a.u.^3 (   218.03873 Ang^3 )
     density =      6.34950 g/cm^3

CELL_PARAMETERS (alat=  5.58242261)
   2.202399239   0.000000000   0.000000000
   0.000000000   1.959670400   0.000084729
   0.000000000   0.000084729   1.959670400

ATOMIC_POSITIONS (crystal)
Fe               0.0000000000        0.0000000000        0.0000000000
Fe               0.5000000000        0.5000000000       -0.0000000000
Fe               0.5000000000        0.0000000000        0.0000000000
Fe               0.0000000000        0.5000000000        0.5000000000
Fe               0.0000000000        0.0000000000        0.5000000000
Fe               0.5000000000        0.5000000000        0.5000000000
Fe               0.5000000000        0.0000000000        0.5000000000
Fe               0.0000000000        0.5000000000       -0.0000000000
Ti               0.2510159117        0.2464004138        0.2464004138
Ti               0.7754872767        0.7532042585        0.2467957415
Ti               0.7489840883        0.2464004138        0.2464004138
Ti               0.2510159117        0.7535995862        0.7535995862
Ti               0.2245127233        0.2467957415        0.7532042585
Ti               0.7489840883        0.7535995862        0.7535995862
Ti               0.7754872767        0.2467957415        0.7532042585
Ti               0.2245127233        0.7532042585        0.2467957415
H                0.2512166512        0.5000000000        0.5000000000
H                0.5000000000        0.2506914949        0.7493085051
H                0.7487833488        0.5000000000        0.5000000000
H                0.5000000000        0.7493085051        0.2506914949



     Writing config-only to output data dir ./TiFeH_supercell.save/ :
     XML data file     NEW-OLD atomic charge density approx. for the potential
     New effective cutoffs (rho, wfc): 1808.12  129.16

     Check: negative core charge=   -0.000002

     negative rho (up, down):  7.234E-03 0.000E+00

     total cpu time spent up to now is     9590.8 secs

     per-process dynamical memory:   691.1 Mb

     Self-consistent Calculation

     iteration #  1     ecut=   124.00 Ry     beta= 0.70
     Davidson diagonalization with overlap
     ethr =  1.00E-06,  avg # of iterations =  6.7

     negative rho (up, down):  7.233E-03 0.000E+00

     total cpu time spent up to now is     9699.1 secs

     total energy              =   -3593.17398518 Ry
     estimated scf accuracy    <       0.04327716 Ry

     iteration #  2     ecut=   124.00 Ry     beta= 0.70
     Davidson diagonalization with overlap
     c_bands:  2 eigenvalues not converged
     c_bands:  1 eigenvalues not converged
     ethr =  1.90E-05,  avg # of iterations = 10.0

     negative rho (up, down):  7.181E-03 0.000E+00

     total cpu time spent up to now is     9810.6 secs

     total energy              =   -3592.52862105 Ry
     estimated scf accuracy    <      24.45598881 Ry

     iteration #  3     ecut=   124.00 Ry     beta= 0.70
     Davidson diagonalization with overlap
     ethr =  1.90E-05,  avg # of iterations =  7.9

     negative rho (up, down):  7.214E-03 0.000E+00

     total cpu time spent up to now is     9912.5 secs

     total energy              =   -3593.20588844 Ry
     estimated scf accuracy    <       0.09160818 Ry

     iteration #  4     ecut=   124.00 Ry     beta= 0.70
     Davidson diagonalization with overlap
     ethr =  1.90E-05,  avg # of iterations =  2.0

     negative rho (up, down):  7.224E-03 0.000E+00

     total cpu time spent up to now is     9960.1 secs

     total energy              =   -3593.20920896 Ry
     estimated scf accuracy    <       0.00738596 Ry

     iteration #  5     ecut=   124.00 Ry     beta= 0.70
     Davidson diagonalization with overlap
     ethr =  3.24E-06,  avg # of iterations =  6.3

     negative rho (up, down):  7.232E-03 0.000E+00

     total cpu time spent up to now is    10024.0 secs

     total energy              =   -3593.20982873 Ry
     estimated scf accuracy    <       0.02521104 Ry

     iteration #  6     ecut=   124.00 Ry     beta= 0.70
     Davidson diagonalization with overlap
     ethr =  3.24E-06,  avg # of iterations =  2.0

     negative rho (up, down):  7.232E-03 0.000E+00

     total cpu time spent up to now is    10071.5 secs

     total energy              =   -3593.21054237 Ry
     estimated scf accuracy    <       0.00309749 Ry

     iteration #  7     ecut=   124.00 Ry     beta= 0.70
     Davidson diagonalization with overlap
     ethr =  1.36E-06,  avg # of iterations =  1.7

     negative rho (up, down):  7.231E-03 0.000E+00

     total cpu time spent up to now is    10117.1 secs

     total energy              =   -3593.21067692 Ry
     estimated scf accuracy    <       0.00104270 Ry

     iteration #  8     ecut=   124.00 Ry     beta= 0.70
     Davidson diagonalization with overlap
     ethr =  4.57E-07,  avg # of iterations =  2.0

     negative rho (up, down):  7.231E-03 0.000E+00

     total cpu time spent up to now is    10164.7 secs

     total energy              =   -3593.21069386 Ry
     estimated scf accuracy    <       0.00119647 Ry

     iteration #  9     ecut=   124.00 Ry     beta= 0.70
     Davidson diagonalization with overlap
     ethr =  4.57E-07,  avg # of iterations =  1.0

     negative rho (up, down):  7.229E-03 0.000E+00

     total cpu time spent up to now is    10206.5 secs

     total energy              =   -3593.21071934 Ry
     estimated scf accuracy    <       0.00050865 Ry

     iteration # 10     ecut=   124.00 Ry     beta= 0.70
     Davidson diagonalization with overlap
     ethr =  2.23E-07,  avg # of iterations =  1.1

     negative rho (up, down):  7.228E-03 0.000E+00

     total cpu time spent up to now is    10248.5 secs

     total energy              =   -3593.21071453 Ry
     estimated scf accuracy    <       0.00030241 Ry

     iteration # 11     ecut=   124.00 Ry     beta= 0.70
     Davidson diagonalization with overlap
     ethr =  1.33E-07,  avg # of iterations =  1.1

     negative rho (up, down):  7.232E-03 0.000E+00

     total cpu time spent up to now is    10290.8 secs

     total energy              =   -3593.21072321 Ry
     estimated scf accuracy    <       0.00004305 Ry

     iteration # 12     ecut=   124.00 Ry     beta= 0.70
     Davidson diagonalization with overlap
     ethr =  1.89E-08,  avg # of iterations =  4.5

     negative rho (up, down):  7.230E-03 0.000E+00

     total cpu time spent up to now is    10350.0 secs

     total energy              =   -3593.21072926 Ry
     estimated scf accuracy    <       0.00005165 Ry

     iteration # 13     ecut=   124.00 Ry     beta= 0.70
     Davidson diagonalization with overlap
     ethr =  1.89E-08,  avg # of iterations =  1.1

     negative rho (up, down):  7.231E-03 0.000E+00

     total cpu time spent up to now is    10391.3 secs

     total energy              =   -3593.21073089 Ry
     estimated scf accuracy    <       0.00000828 Ry

     iteration # 14     ecut=   124.00 Ry     beta= 0.70
     Davidson diagonalization with overlap
     ethr =  3.63E-09,  avg # of iterations =  2.9

     negative rho (up, down):  7.230E-03 0.000E+00

     total cpu time spent up to now is    10443.1 secs

     total energy              =   -3593.21073194 Ry
     estimated scf accuracy    <       0.00000191 Ry

     iteration # 15     ecut=   124.00 Ry     beta= 0.70
     Davidson diagonalization with overlap
     ethr =  8.37E-10,  avg # of iterations =  4.5

     negative rho (up, down):  7.230E-03 0.000E+00

     total cpu time spent up to now is    10502.2 secs

     total energy              =   -3593.21073213 Ry
     estimated scf accuracy    <       0.00000213 Ry

     iteration # 16     ecut=   124.00 Ry     beta= 0.70
     Davidson diagonalization with overlap
     ethr =  8.37E-10,  avg # of iterations =  2.7

     negative rho (up, down):  7.230E-03 0.000E+00

     total cpu time spent up to now is    10552.2 secs

     total energy              =   -3593.21073204 Ry
     estimated scf accuracy    <       0.00000511 Ry

     iteration # 17     ecut=   124.00 Ry     beta= 0.70
     Davidson diagonalization with overlap
     ethr =  8.37E-10,  avg # of iterations =  2.1

     negative rho (up, down):  7.230E-03 0.000E+00

     total cpu time spent up to now is    10599.7 secs

     total energy              =   -3593.21073222 Ry
     estimated scf accuracy    <       0.00000263 Ry

     iteration # 18     ecut=   124.00 Ry     beta= 0.70
     Davidson diagonalization with overlap
     ethr =  8.37E-10,  avg # of iterations =  1.3

     negative rho (up, down):  7.230E-03 0.000E+00

     total cpu time spent up to now is    10642.0 secs

     total energy              =   -3593.21073226 Ry
     estimated scf accuracy    <       0.00000118 Ry

     iteration # 19     ecut=   124.00 Ry     beta= 0.70
     Davidson diagonalization with overlap
     ethr =  5.18E-10,  avg # of iterations =  1.0

     negative rho (up, down):  7.230E-03 0.000E+00

     total cpu time spent up to now is    10682.8 secs

     total energy              =   -3593.21073231 Ry
     estimated scf accuracy    <       0.00000045 Ry

     iteration # 20     ecut=   124.00 Ry     beta= 0.70
     Davidson diagonalization with overlap
     ethr =  2.00E-10,  avg # of iterations =  1.2

     negative rho (up, down):  7.230E-03 0.000E+00

     total cpu time spent up to now is    10724.3 secs

     total energy              =   -3593.21073233 Ry
     estimated scf accuracy    <       0.00000009 Ry

     iteration # 21     ecut=   124.00 Ry     beta= 0.70
     Davidson diagonalization with overlap
     ethr =  3.91E-11,  avg # of iterations =  2.0

     negative rho (up, down):  7.230E-03 0.000E+00

     total cpu time spent up to now is    10771.2 secs

     total energy              =   -3593.21073233 Ry
     estimated scf accuracy    <          3.7E-09 Ry

     iteration # 22     ecut=   124.00 Ry     beta= 0.70
     Davidson diagonalization with overlap
     ethr =  1.63E-12,  avg # of iterations =  5.7

     negative rho (up, down):  7.230E-03 0.000E+00

     total cpu time spent up to now is    10861.7 secs

     total energy              =   -3593.21073233 Ry
     estimated scf accuracy    <       0.00000017 Ry

     iteration # 23     ecut=   124.00 Ry     beta= 0.70
     Davidson diagonalization with overlap
     ethr =  1.63E-12,  avg # of iterations =  5.2

     negative rho (up, down):  7.230E-03 0.000E+00

     total cpu time spent up to now is    10929.7 secs

     total energy              =   -3593.21073234 Ry
     estimated scf accuracy    <          3.6E-09 Ry

     iteration # 24     ecut=   124.00 Ry     beta= 0.70
     Davidson diagonalization with overlap
     ethr =  1.59E-12,  avg # of iterations =  2.4

     negative rho (up, down):  7.230E-03 0.000E+00

     total cpu time spent up to now is    10978.8 secs

     total energy              =   -3593.21073234 Ry
     estimated scf accuracy    <          6.9E-09 Ry

     iteration # 25     ecut=   124.00 Ry     beta= 0.70
     Davidson diagonalization with overlap
     ethr =  1.59E-12,  avg # of iterations =  1.3

     negative rho (up, down):  7.230E-03 0.000E+00

     total cpu time spent up to now is    11020.9 secs

     total energy              =   -3593.21073234 Ry
     estimated scf accuracy    <          1.6E-09 Ry

     iteration # 26     ecut=   124.00 Ry     beta= 0.70
     Davidson diagonalization with overlap
     ethr =  6.81E-13,  avg # of iterations =  1.1

     negative rho (up, down):  7.230E-03 0.000E+00

     total cpu time spent up to now is    11062.0 secs

     End of self-consistent calculation

     Number of k-points >= 100: set verbosity='high' to print the bands.

     the Fermi energy is    16.6593 ev

!    total energy              =   -3593.21073234 Ry
     estimated scf accuracy    <          1.1E-10 Ry
     smearing contrib. (-TS)   =      -0.00021205 Ry
     internal energy E=F+TS    =   -3593.21052029 Ry

     The total energy is F=E-TS. E is the sum of the following terms:
     one-electron contribution =   -1271.41005319 Ry
     hartree contribution      =     757.98593482 Ry
     xc contribution           =    -425.90164296 Ry
     ewald contribution        =   -2044.66943805 Ry
     one-center paw contrib.   =    -609.21532091 Ry

     convergence has been achieved in  26 iterations

     negative rho (up, down):  7.230E-03 0.000E+00

     Forces acting on atoms (cartesian axes, Ry/au):

     atom    1 type  1   force =     0.00000000    0.00000000    0.00000000
     atom    2 type  1   force =     0.00000000    0.00000000    0.00000000
     atom    3 type  1   force =     0.00000000    0.00000000    0.00000000
     atom    4 type  1   force =     0.00000000    0.00000000    0.00000000
     atom    5 type  1   force =     0.00000000    0.00000000    0.00000000
     atom    6 type  1   force =     0.00000000    0.00000000    0.00000000
     atom    7 type  1   force =     0.00000000    0.00000000    0.00000000
     atom    8 type  1   force =     0.00000000    0.00000000    0.00000000
     atom    9 type  2   force =     0.00101395   -0.00015226   -0.00015226
     atom   10 type  2   force =     0.00083122   -0.00013116    0.00013116
     atom   11 type  2   force =    -0.00101395   -0.00015226   -0.00015226
     atom   12 type  2   force =     0.00101395    0.00015226    0.00015226
     atom   13 type  2   force =    -0.00083122    0.00013116   -0.00013116
     atom   14 type  2   force =    -0.00101395    0.00015226    0.00015226
     atom   15 type  2   force =     0.00083122    0.00013116   -0.00013116
     atom   16 type  2   force =    -0.00083122   -0.00013116    0.00013116
     atom   17 type  3   force =    -0.00004671    0.00000000    0.00000000
     atom   18 type  3   force =     0.00000000    0.00184137   -0.00184137
     atom   19 type  3   force =     0.00004671    0.00000000    0.00000000
     atom   20 type  3   force =     0.00000000   -0.00184137    0.00184137

     Total force =     0.004557     Total SCF correction =     0.000025


     Computing stress (Cartesian axis) and pressure


     negative rho (up, down):  7.230E-03 0.000E+00
          total   stress  (Ry/bohr**3)                   (kbar)     P=        0.13
   0.00000470   0.00000000   0.00000000            0.69        0.00        0.00
   0.00000000  -0.00000100   0.00000424            0.00       -0.15        0.62
   0.00000000   0.00000424  -0.00000100            0.00        0.62       -0.15

     Energy error            =      3.9E-04 Ry
     Gradient error          =      1.8E-03 Ry/Bohr
     Cell gradient error     =      6.9E-01 kbar

     number of scf cycles    =   6
     number of bfgs steps    =   5

     enthalpy           old  =   -3593.2103451291 Ry
     enthalpy           new  =   -3593.2107323380 Ry

     CASE: enthalpy          _new < enthalpy          _old

     new trust radius        =       0.0033960422 bohr
     new conv_thr            =       0.0000000002 Ry

     new unit-cell volume =   1471.39253 a.u.^3 (   218.03788 Ang^3 )
     density =      6.34952 g/cm^3

CELL_PARAMETERS (alat=  5.58242261)
   2.203374170   0.000000000   0.000000000
   0.000000000   1.959233008   0.000401301
   0.000000000   0.000401301   1.959233008

ATOMIC_POSITIONS (crystal)
Fe               0.0000000000        0.0000000000        0.0000000000
Fe               0.5000000000        0.5000000000       -0.0000000000
Fe               0.5000000000        0.0000000000        0.0000000000
Fe               0.0000000000        0.5000000000        0.5000000000
Fe               0.0000000000        0.0000000000        0.5000000000
Fe               0.5000000000        0.5000000000        0.5000000000
Fe               0.5000000000        0.0000000000        0.5000000000
Fe               0.0000000000        0.5000000000       -0.0000000000
Ti               0.2512409150        0.2463776790        0.2463776790
Ti               0.7755222532        0.7531910151        0.2468089849
Ti               0.7487590850        0.2463776790        0.2463776790
Ti               0.2512409150        0.7536223210        0.7536223210
Ti               0.2244777468        0.2468089849        0.7531910151
Ti               0.7487590850        0.7536223210        0.7536223210
Ti               0.7755222532        0.2468089849        0.7531910151
Ti               0.2244777468        0.7531910151        0.2468089849
H                0.2512287683        0.5000000000        0.5000000000
H                0.5000000000        0.2508922325        0.7491077675
H                0.7487712317        0.5000000000        0.5000000000
H                0.5000000000        0.7491077675        0.2508922325



     Writing config-only to output data dir ./TiFeH_supercell.save/ :
     XML data file     NEW-OLD atomic charge density approx. for the potential
     New effective cutoffs (rho, wfc): 1809.50  129.26

     Check: negative core charge=   -0.000002

     negative rho (up, down):  7.240E-03 0.000E+00

     total cpu time spent up to now is    11103.5 secs

     per-process dynamical memory:   691.1 Mb

     Self-consistent Calculation

     iteration #  1     ecut=   124.00 Ry     beta= 0.70
     Davidson diagonalization with overlap
     ethr =  1.00E-06,  avg # of iterations =  3.1

     negative rho (up, down):  7.239E-03 0.000E+00

     total cpu time spent up to now is    11171.8 secs

     total energy              =   -3593.21054763 Ry
     estimated scf accuracy    <       0.00024469 Ry

     iteration #  2     ecut=   124.00 Ry     beta= 0.70
     Davidson diagonalization with overlap
     ethr =  1.07E-07,  avg # of iterations =  7.4

     negative rho (up, down):  7.238E-03 0.000E+00

     total cpu time spent up to now is    11258.5 secs

     total energy              =   -3593.20771672 Ry
     estimated scf accuracy    <       0.09831904 Ry

     iteration #  3     ecut=   124.00 Ry     beta= 0.70
     Davidson diagonalization with overlap
     ethr =  1.07E-07,  avg # of iterations =  7.3

     negative rho (up, down):  7.238E-03 0.000E+00

     total cpu time spent up to now is    11343.7 secs

     total energy              =   -3593.21074147 Ry
     estimated scf accuracy    <       0.00021264 Ry

     iteration #  4     ecut=   124.00 Ry     beta= 0.70
     Davidson diagonalization with overlap
     ethr =  9.33E-08,  avg # of iterations =  2.0

     negative rho (up, down):  7.239E-03 0.000E+00

     total cpu time spent up to now is    11389.9 secs

     total energy              =   -3593.21075155 Ry
     estimated scf accuracy    <       0.00017576 Ry

     iteration #  5     ecut=   124.00 Ry     beta= 0.70
     Davidson diagonalization with overlap
     ethr =  7.71E-08,  avg # of iterations =  1.9

     negative rho (up, down):  7.239E-03 0.000E+00

     total cpu time spent up to now is    11435.3 secs

     total energy              =   -3593.21075330 Ry
     estimated scf accuracy    <       0.00016850 Ry

     iteration #  6     ecut=   124.00 Ry     beta= 0.70
     Davidson diagonalization with overlap
     ethr =  7.39E-08,  avg # of iterations =  1.0

     negative rho (up, down):  7.238E-03 0.000E+00

     total cpu time spent up to now is    11475.9 secs

     total energy              =   -3593.21075970 Ry
     estimated scf accuracy    <       0.00001548 Ry

     iteration #  7     ecut=   124.00 Ry     beta= 0.70
     Davidson diagonalization with overlap
     ethr =  6.79E-09,  avg # of iterations =  2.1

     negative rho (up, down):  7.238E-03 0.000E+00

     total cpu time spent up to now is    11523.4 secs

     total energy              =   -3593.21075993 Ry
     estimated scf accuracy    <       0.00003214 Ry

     iteration #  8     ecut=   124.00 Ry     beta= 0.70
     Davidson diagonalization with overlap
     ethr =  6.79E-09,  avg # of iterations =  1.2

     negative rho (up, down):  7.239E-03 0.000E+00

     total cpu time spent up to now is    11565.2 secs

     total energy              =   -3593.21076087 Ry
     estimated scf accuracy    <       0.00000526 Ry

     iteration #  9     ecut=   124.00 Ry     beta= 0.70
     Davidson diagonalization with overlap
     ethr =  2.31E-09,  avg # of iterations =  2.1

     negative rho (up, down):  7.239E-03 0.000E+00

     total cpu time spent up to now is    11613.2 secs

     total energy              =   -3593.21076101 Ry
     estimated scf accuracy    <       0.00000560 Ry

     iteration # 10     ecut=   124.00 Ry     beta= 0.70
     Davidson diagonalization with overlap
     ethr =  2.31E-09,  avg # of iterations =  1.0

     negative rho (up, down):  7.239E-03 0.000E+00

     total cpu time spent up to now is    11653.9 secs

     total energy              =   -3593.21076123 Ry
     estimated scf accuracy    <       0.00000087 Ry

     iteration # 11     ecut=   124.00 Ry     beta= 0.70
     Davidson diagonalization with overlap
     ethr =  3.80E-10,  avg # of iterations =  2.2

     negative rho (up, down):  7.239E-03 0.000E+00

     total cpu time spent up to now is    11702.4 secs

     total energy              =   -3593.21076130 Ry
     estimated scf accuracy    <       0.00000066 Ry

     iteration # 12     ecut=   124.00 Ry     beta= 0.70
     Davidson diagonalization with overlap
     ethr =  2.89E-10,  avg # of iterations =  1.6

     negative rho (up, down):  7.239E-03 0.000E+00

     total cpu time spent up to now is    11746.0 secs

     total energy              =   -3593.21076133 Ry
     estimated scf accuracy    <       0.00000018 Ry

     iteration # 13     ecut=   124.00 Ry     beta= 0.70
     Davidson diagonalization with overlap
     ethr =  7.72E-11,  avg # of iterations =  2.1

     negative rho (up, down):  7.239E-03 0.000E+00

     total cpu time spent up to now is    11792.6 secs

     total energy              =   -3593.21076134 Ry
     estimated scf accuracy    <       0.00000002 Ry

     iteration # 14     ecut=   124.00 Ry     beta= 0.70
     Davidson diagonalization with overlap
     ethr =  7.36E-12,  avg # of iterations =  5.0

     negative rho (up, down):  7.239E-03 0.000E+00

     total cpu time spent up to now is    11865.9 secs

     total energy              =   -3593.21076134 Ry
     estimated scf accuracy    <       0.00000023 Ry

     iteration # 15     ecut=   124.00 Ry     beta= 0.70
     Davidson diagonalization with overlap
     ethr =  7.36E-12,  avg # of iterations =  3.8

     negative rho (up, down):  7.239E-03 0.000E+00

     total cpu time spent up to now is    11919.5 secs

     total energy              =   -3593.21076135 Ry
     estimated scf accuracy    <       0.00000002 Ry

     iteration # 16     ecut=   124.00 Ry     beta= 0.70
     Davidson diagonalization with overlap
     ethr =  7.36E-12,  avg # of iterations =  1.7

     negative rho (up, down):  7.239E-03 0.000E+00

     total cpu time spent up to now is    11963.8 secs

     total energy              =   -3593.21076135 Ry
     estimated scf accuracy    <          2.4E-09 Ry

     iteration # 17     ecut=   124.00 Ry     beta= 0.70
     Davidson diagonalization with overlap
     ethr =  1.06E-12,  avg # of iterations =  5.0

     negative rho (up, down):  7.239E-03 0.000E+00

     total cpu time spent up to now is    12025.3 secs

     total energy              =   -3593.21076135 Ry
     estimated scf accuracy    <       0.00000005 Ry

     iteration # 18     ecut=   124.00 Ry     beta= 0.70
     Davidson diagonalization with overlap
     ethr =  1.06E-12,  avg # of iterations =  4.5

     negative rho (up, down):  7.239E-03 0.000E+00

     total cpu time spent up to now is    12083.1 secs

     total energy              =   -3593.21076135 Ry
     estimated scf accuracy    <          7.1E-10 Ry

     iteration # 19     ecut=   124.00 Ry     beta= 0.70
     Davidson diagonalization with overlap
     ethr =  3.13E-13,  avg # of iterations =  3.7

     negative rho (up, down):  7.239E-03 0.000E+00

     total cpu time spent up to now is    12136.0 secs

     total energy              =   -3593.21076135 Ry
     estimated scf accuracy    <          7.9E-10 Ry

     iteration # 20     ecut=   124.00 Ry     beta= 0.70
     Davidson diagonalization with overlap
     ethr =  3.13E-13,  avg # of iterations =  1.8

     negative rho (up, down):  7.239E-03 0.000E+00

     total cpu time spent up to now is    12179.9 secs

     End of self-consistent calculation

     Number of k-points >= 100: set verbosity='high' to print the bands.

     the Fermi energy is    16.6580 ev

!    total energy              =   -3593.21076135 Ry
     estimated scf accuracy    <          1.4E-10 Ry
     smearing contrib. (-TS)   =      -0.00021240 Ry
     internal energy E=F+TS    =   -3593.21054895 Ry

     The total energy is F=E-TS. E is the sum of the following terms:
     one-electron contribution =   -1271.39076641 Ry
     hartree contribution      =     757.98003112 Ry
     xc contribution           =    -425.90141579 Ry
     ewald contribution        =   -2044.68307459 Ry
     one-center paw contrib.   =    -609.21532328 Ry

     convergence has been achieved in  20 iterations

     negative rho (up, down):  7.239E-03 0.000E+00

     Forces acting on atoms (cartesian axes, Ry/au):

     atom    1 type  1   force =     0.00000000    0.00000000    0.00000000
     atom    2 type  1   force =    -0.00000000    0.00000000    0.00000000
     atom    3 type  1   force =     0.00000000    0.00000000    0.00000000
     atom    4 type  1   force =     0.00000000    0.00000000    0.00000000
     atom    5 type  1   force =     0.00000000    0.00000000    0.00000000
     atom    6 type  1   force =     0.00000000    0.00000000    0.00000000
     atom    7 type  1   force =     0.00000000    0.00000000    0.00000000
     atom    8 type  1   force =     0.00000000    0.00000000    0.00000000
     atom    9 type  2   force =     0.00043006   -0.00014757   -0.00014757
     atom   10 type  2   force =     0.00089654   -0.00006383    0.00006383
     atom   11 type  2   force =    -0.00043006   -0.00014757   -0.00014757
     atom   12 type  2   force =     0.00043006    0.00014757    0.00014757
     atom   13 type  2   force =    -0.00089654    0.00006383   -0.00006383
     atom   14 type  2   force =    -0.00043006    0.00014757    0.00014757
     atom   15 type  2   force =     0.00089654    0.00006383   -0.00006383
     atom   16 type  2   force =    -0.00089654   -0.00006383    0.00006383
     atom   17 type  3   force =    -0.00008873    0.00000000    0.00000000
     atom   18 type  3   force =     0.00000000    0.00194400   -0.00194400
     atom   19 type  3   force =     0.00008873    0.00000000    0.00000000
     atom   20 type  3   force =     0.00000000   -0.00194400    0.00194400

     Total force =     0.004393     Total SCF correction =     0.000056


     Computing stress (Cartesian axis) and pressure


     negative rho (up, down):  7.239E-03 0.000E+00
          total   stress  (Ry/bohr**3)                   (kbar)     P=        0.08
  -0.00000163   0.00000000   0.00000000           -0.24        0.00        0.00
   0.00000000   0.00000166   0.00000325            0.00        0.24        0.48
   0.00000000   0.00000325   0.00000166            0.00        0.48        0.24

     Energy error            =      2.9E-05 Ry
     Gradient error          =      1.9E-03 Ry/Bohr
     Cell gradient error     =      4.8E-01 kbar

     number of scf cycles    =   7
     number of bfgs steps    =   6

     enthalpy           old  =   -3593.2107323380 Ry
     enthalpy           new  =   -3593.2107613522 Ry

     CASE: enthalpy          _new < enthalpy          _old

     new trust radius        =       0.0050917993 bohr
     new conv_thr            =            1.0E-10 Ry

     new unit-cell volume =   1471.46859 a.u.^3 (   218.04915 Ang^3 )
     density =      6.34920 g/cm^3

CELL_PARAMETERS (alat=  5.58242261)
   2.204084000   0.000000000   0.000000000
   0.000000000   1.958968258   0.000819289
   0.000000000   0.000819289   1.958968258

ATOMIC_POSITIONS (crystal)
Fe               0.0000000000        0.0000000000        0.0000000000
Fe               0.5000000000        0.5000000000       -0.0000000000
Fe               0.5000000000        0.0000000000        0.0000000000
Fe               0.0000000000        0.5000000000        0.5000000000
Fe               0.0000000000        0.0000000000        0.5000000000
Fe               0.5000000000        0.5000000000        0.5000000000
Fe               0.5000000000        0.0000000000        0.5000000000
Fe               0.0000000000        0.5000000000       -0.0000000000
Ti               0.2514673726        0.2463469314        0.2463469314
Ti               0.7756174914        0.7531754767        0.2468245233
Ti               0.7485326274        0.2463469314        0.2463469314
Ti               0.2514673726        0.7536530686        0.7536530686
Ti               0.2243825086        0.2468245233        0.7531754767
Ti               0.7485326274        0.7536530686        0.7536530686
Ti               0.7756174914        0.2468245233        0.7531754767
Ti               0.2243825086        0.7531754767        0.2468245233
H                0.2512318800        0.5000000000        0.5000000000
H                0.5000000000        0.2512214906        0.7487785094
H                0.7487681200        0.5000000000        0.5000000000
H                0.5000000000        0.7487785094        0.2512214906



     Writing config-only to output data dir ./TiFeH_supercell.save/ :
     XML data file     NEW-OLD atomic charge density approx. for the potential
     New effective cutoffs (rho, wfc): 1810.74  129.34

     Check: negative core charge=   -0.000002

     negative rho (up, down):  7.238E-03 0.000E+00

     total cpu time spent up to now is    12221.3 secs

     per-process dynamical memory:   691.9 Mb

     Self-consistent Calculation

     iteration #  1     ecut=   124.00 Ry     beta= 0.70
     Davidson diagonalization with overlap
     ethr =  1.00E-06,  avg # of iterations =  3.2

     Threshold (ethr) on eigenvalues was too large:
     Diagonalizing with lowered threshold

     Davidson diagonalization with overlap
     ethr =  6.10E-08,  avg # of iterations =  2.0

     negative rho (up, down):  7.238E-03 0.000E+00

     total cpu time spent up to now is    12336.2 secs

     total energy              =   -3593.21066006 Ry
     estimated scf accuracy    <       0.00016034 Ry

     iteration #  2     ecut=   124.00 Ry     beta= 0.70
     Davidson diagonalization with overlap
     ethr =  7.03E-08,  avg # of iterations =  7.2

     negative rho (up, down):  7.236E-03 0.000E+00

     total cpu time spent up to now is    12421.0 secs

     total energy              =   -3593.20884388 Ry
     estimated scf accuracy    <       0.06387556 Ry

     iteration #  3     ecut=   124.00 Ry     beta= 0.70
     Davidson diagonalization with overlap
     ethr =  7.03E-08,  avg # of iterations =  7.2

     negative rho (up, down):  7.237E-03 0.000E+00

     total cpu time spent up to now is    12505.2 secs

     total energy              =   -3593.21077501 Ry
     estimated scf accuracy    <       0.00020795 Ry

     iteration #  4     ecut=   124.00 Ry     beta= 0.70
     Davidson diagonalization with overlap
     ethr =  7.03E-08,  avg # of iterations =  2.1

     negative rho (up, down):  7.237E-03 0.000E+00

     total cpu time spent up to now is    12552.1 secs

     total energy              =   -3593.21078589 Ry
     estimated scf accuracy    <       0.00021432 Ry

     iteration #  5     ecut=   124.00 Ry     beta= 0.70
     Davidson diagonalization with overlap
     ethr =  7.03E-08,  avg # of iterations =  1.8

     negative rho (up, down):  7.237E-03 0.000E+00

     total cpu time spent up to now is    12596.7 secs

     total energy              =   -3593.21078609 Ry
     estimated scf accuracy    <       0.00021818 Ry

     iteration #  6     ecut=   124.00 Ry     beta= 0.70
     Davidson diagonalization with overlap
     ethr =  7.03E-08,  avg # of iterations =  1.0

     negative rho (up, down):  7.237E-03 0.000E+00

     total cpu time spent up to now is    12637.2 secs

     total energy              =   -3593.21079402 Ry
     estimated scf accuracy    <       0.00000890 Ry

     iteration #  7     ecut=   124.00 Ry     beta= 0.70
     Davidson diagonalization with overlap
     ethr =  3.90E-09,  avg # of iterations =  2.7

     negative rho (up, down):  7.237E-03 0.000E+00

     total cpu time spent up to now is    12686.7 secs

     total energy              =   -3593.21079435 Ry
     estimated scf accuracy    <       0.00002313 Ry

     iteration #  8     ecut=   124.00 Ry     beta= 0.70
     Davidson diagonalization with overlap
     ethr =  3.90E-09,  avg # of iterations =  1.4

     negative rho (up, down):  7.237E-03 0.000E+00

     total cpu time spent up to now is    12729.6 secs

     total energy              =   -3593.21079498 Ry
     estimated scf accuracy    <       0.00000218 Ry

     iteration #  9     ecut=   124.00 Ry     beta= 0.70
     Davidson diagonalization with overlap
     ethr =  9.57E-10,  avg # of iterations =  2.4

     negative rho (up, down):  7.237E-03 0.000E+00

     total cpu time spent up to now is    12778.4 secs

     total energy              =   -3593.21079509 Ry
     estimated scf accuracy    <       0.00000267 Ry

     iteration # 10     ecut=   124.00 Ry     beta= 0.70
     Davidson diagonalization with overlap
     ethr =  9.57E-10,  avg # of iterations =  1.1

     negative rho (up, down):  7.237E-03 0.000E+00

     total cpu time spent up to now is    12819.6 secs

     total energy              =   -3593.21079521 Ry
     estimated scf accuracy    <       0.00000025 Ry

     iteration # 11     ecut=   124.00 Ry     beta= 0.70
     Davidson diagonalization with overlap
     ethr =  1.08E-10,  avg # of iterations =  4.1

     negative rho (up, down):  7.237E-03 0.000E+00

     total cpu time spent up to now is    12877.6 secs

     total energy              =   -3593.21079518 Ry
     estimated scf accuracy    <       0.00000099 Ry

     iteration # 12     ecut=   124.00 Ry     beta= 0.70
     Davidson diagonalization with overlap
     ethr =  1.08E-10,  avg # of iterations =  4.7

     negative rho (up, down):  7.237E-03 0.000E+00

     total cpu time spent up to now is    12937.5 secs

     total energy              =   -3593.21079514 Ry
     estimated scf accuracy    <       0.00000344 Ry

     iteration # 13     ecut=   124.00 Ry     beta= 0.70
     Davidson diagonalization with overlap
     ethr =  1.08E-10,  avg # of iterations =  4.0

     negative rho (up, down):  7.237E-03 0.000E+00

     total cpu time spent up to now is    12992.1 secs

     total energy              =   -3593.21079525 Ry
     estimated scf accuracy    <       0.00000003 Ry

     iteration # 14     ecut=   124.00 Ry     beta= 0.70
     Davidson diagonalization with overlap
     ethr =  1.13E-11,  avg # of iterations =  4.4

     negative rho (up, down):  7.237E-03 0.000E+00

     total cpu time spent up to now is    13049.3 secs

     total energy              =   -3593.21079526 Ry
     estimated scf accuracy    <       0.00000003 Ry

     iteration # 15     ecut=   124.00 Ry     beta= 0.70
     Davidson diagonalization with overlap
     ethr =  1.13E-11,  avg # of iterations =  1.1

     negative rho (up, down):  7.237E-03 0.000E+00

     total cpu time spent up to now is    13090.2 secs

     total energy              =   -3593.21079526 Ry
     estimated scf accuracy    <          5.7E-09 Ry

     iteration # 16     ecut=   124.00 Ry     beta= 0.70
     Davidson diagonalization with overlap
     ethr =  2.48E-12,  avg # of iterations =  2.2

     negative rho (up, down):  7.237E-03 0.000E+00

     total cpu time spent up to now is    13138.3 secs

     total energy              =   -3593.21079526 Ry
     estimated scf accuracy    <          5.3E-09 Ry

     iteration # 17     ecut=   124.00 Ry     beta= 0.70
     Davidson diagonalization with overlap
     ethr =  2.34E-12,  avg # of iterations =  2.3

     negative rho (up, down):  7.237E-03 0.000E+00

     total cpu time spent up to now is    13185.5 secs

     total energy              =   -3593.21079526 Ry
     estimated scf accuracy    <       0.00000002 Ry

     iteration # 18     ecut=   124.00 Ry     beta= 0.70
     Davidson diagonalization with overlap
     ethr =  2.34E-12,  avg # of iterations =  1.3

     negative rho (up, down):  7.237E-03 0.000E+00

     total cpu time spent up to now is    13227.3 secs

     total energy              =   -3593.21079526 Ry
     estimated scf accuracy    <          3.6E-10 Ry

     iteration # 19     ecut=   124.00 Ry     beta= 0.70
     Davidson diagonalization with overlap
     ethr =  1.57E-13,  avg # of iterations =  4.8

     negative rho (up, down):  7.237E-03 0.000E+00

     total cpu time spent up to now is    13300.2 secs

     total energy              =   -3593.21079526 Ry
     estimated scf accuracy    <          6.0E-09 Ry

     iteration # 20     ecut=   124.00 Ry     beta= 0.70
     Davidson diagonalization with overlap
     ethr =  1.57E-13,  avg # of iterations =  4.1

     negative rho (up, down):  7.237E-03 0.000E+00

     total cpu time spent up to now is    13358.0 secs

     End of self-consistent calculation

     Number of k-points >= 100: set verbosity='high' to print the bands.

     the Fermi energy is    16.6561 ev

!    total energy              =   -3593.21079526 Ry
     estimated scf accuracy    <          7.3E-11 Ry
     smearing contrib. (-TS)   =      -0.00021202 Ry
     internal energy E=F+TS    =   -3593.21058324 Ry

     The total energy is F=E-TS. E is the sum of the following terms:
     one-electron contribution =   -1271.46016432 Ry
     hartree contribution      =     758.00877261 Ry
     xc contribution           =    -425.90064105 Ry
     ewald contribution        =   -2044.64323803 Ry
     one-center paw contrib.   =    -609.21531245 Ry

     convergence has been achieved in  20 iterations

     negative rho (up, down):  7.237E-03 0.000E+00

     Forces acting on atoms (cartesian axes, Ry/au):

     atom    1 type  1   force =     0.00000000    0.00000000    0.00000000
     atom    2 type  1   force =     0.00000000    0.00000000    0.00000000
     atom    3 type  1   force =     0.00000000    0.00000000    0.00000000
     atom    4 type  1   force =     0.00000000    0.00000000    0.00000000
     atom    5 type  1   force =     0.00000000    0.00000000    0.00000000
     atom    6 type  1   force =     0.00000000    0.00000000    0.00000000
     atom    7 type  1   force =     0.00000000    0.00000000    0.00000000
     atom    8 type  1   force =     0.00000000    0.00000000    0.00000000
     atom    9 type  2   force =    -0.00010489   -0.00014646   -0.00014646
     atom   10 type  2   force =     0.00068597    0.00002925   -0.00002925
     atom   11 type  2   force =     0.00010489   -0.00014646   -0.00014646
     atom   12 type  2   force =    -0.00010489    0.00014646    0.00014646
     atom   13 type  2   force =    -0.00068597   -0.00002925    0.00002925
     atom   14 type  2   force =     0.00010489    0.00014646    0.00014646
     atom   15 type  2   force =     0.00068597   -0.00002925    0.00002925
     atom   16 type  2   force =    -0.00068597    0.00002925   -0.00002925
     atom   17 type  3   force =    -0.00009870    0.00000000    0.00000000
     atom   18 type  3   force =    -0.00000000    0.00212001   -0.00212001
     atom   19 type  3   force =     0.00009870    0.00000000    0.00000000
     atom   20 type  3   force =    -0.00000000   -0.00212001    0.00212001

     Total force =     0.004484     Total SCF correction =     0.000024


     Computing stress (Cartesian axis) and pressure


     negative rho (up, down):  7.237E-03 0.000E+00
          total   stress  (Ry/bohr**3)                   (kbar)     P=       -0.05
  -0.00000656   0.00000000   0.00000000           -0.97        0.00        0.00
   0.00000000   0.00000282   0.00000184            0.00        0.41        0.27
   0.00000000   0.00000184   0.00000282            0.00        0.27        0.41

     Energy error            =      3.4E-05 Ry
     Gradient error          =      2.1E-03 Ry/Bohr
     Cell gradient error     =      9.7E-01 kbar

     number of scf cycles    =   8
     number of bfgs steps    =   7

     enthalpy           old  =   -3593.2107613522 Ry
     enthalpy           new  =   -3593.2107952610 Ry

     CASE: enthalpy          _new < enthalpy          _old

     new trust radius        =       0.0076350369 bohr
     new conv_thr            =            1.0E-10 Ry

     new unit-cell volume =   1471.56165 a.u.^3 (   218.06294 Ang^3 )
     density =      6.34879 g/cm^3

CELL_PARAMETERS (alat=  5.58242261)
   2.204631098   0.000000000   0.000000000
   0.000000000   1.958787400   0.001340357
   0.000000000   0.001340357   1.958787400

ATOMIC_POSITIONS (crystal)
Fe               0.0000000000        0.0000000000        0.0000000000
Fe               0.5000000000        0.5000000000       -0.0000000000
Fe               0.5000000000        0.0000000000        0.0000000000
Fe               0.0000000000        0.5000000000        0.5000000000
Fe               0.0000000000        0.0000000000        0.5000000000
Fe               0.5000000000        0.5000000000        0.5000000000
Fe               0.5000000000        0.0000000000        0.5000000000
Fe               0.0000000000        0.5000000000       -0.0000000000
Ti               0.2517177706        0.2463057174        0.2463057174
Ti               0.7757390051        0.7531592485        0.2468407515
Ti               0.7482822294        0.2463057174        0.2463057174
Ti               0.2517177706        0.7536942826        0.7536942826
Ti               0.2242609949        0.2468407515        0.7531592485
Ti               0.7482822294        0.7536942826        0.7536942826
Ti               0.7757390051        0.2468407515        0.7531592485
Ti               0.2242609949        0.7531592485        0.2468407515
H                0.2512303953        0.5000000000        0.5000000000
H                0.5000000000        0.2517153777        0.7482846223
H                0.7487696047        0.5000000000        0.5000000000
H                0.5000000000        0.7482846223        0.2517153777



     Writing config-only to output data dir ./TiFeH_supercell.save/ :
     XML data file     NEW-OLD atomic charge density approx. for the potential
     New effective cutoffs (rho, wfc): 1812.01  129.43

     Check: negative core charge=   -0.000002

     negative rho (up, down):  7.241E-03 0.000E+00

     total cpu time spent up to now is    13399.5 secs

     per-process dynamical memory:   691.9 Mb

     Self-consistent Calculation

     iteration #  1     ecut=   124.00 Ry     beta= 0.70
     Davidson diagonalization with overlap
     ethr =  1.00E-06,  avg # of iterations =  3.7

     Threshold (ethr) on eigenvalues was too large:
     Diagonalizing with lowered threshold

     Davidson diagonalization with overlap
     ethr =  6.49E-08,  avg # of iterations =  2.1

     negative rho (up, down):  7.241E-03 0.000E+00

     total cpu time spent up to now is    13515.6 secs

     total energy              =   -3593.21069696 Ry
     estimated scf accuracy    <       0.00017017 Ry

     iteration #  2     ecut=   124.00 Ry     beta= 0.70
     Davidson diagonalization with overlap
     ethr =  7.46E-08,  avg # of iterations =  7.2

     negative rho (up, down):  7.239E-03 0.000E+00

     total cpu time spent up to now is    13600.8 secs

     total energy              =   -3593.20877581 Ry
     estimated scf accuracy    <       0.06818345 Ry

     iteration #  3     ecut=   124.00 Ry     beta= 0.70
     Davidson diagonalization with overlap
     ethr =  7.46E-08,  avg # of iterations =  7.1

     negative rho (up, down):  7.239E-03 0.000E+00

     total cpu time spent up to now is    13684.6 secs

     total energy              =   -3593.21081198 Ry
     estimated scf accuracy    <       0.00031694 Ry

     iteration #  4     ecut=   124.00 Ry     beta= 0.70
     Davidson diagonalization with overlap
     ethr =  7.46E-08,  avg # of iterations =  2.4

     negative rho (up, down):  7.240E-03 0.000E+00

     total cpu time spent up to now is    13732.3 secs

     total energy              =   -3593.21082870 Ry
     estimated scf accuracy    <       0.00024885 Ry

     iteration #  5     ecut=   124.00 Ry     beta= 0.70
     Davidson diagonalization with overlap
     ethr =  7.46E-08,  avg # of iterations =  1.9

     negative rho (up, down):  7.240E-03 0.000E+00

     total cpu time spent up to now is    13777.8 secs

     total energy              =   -3593.21082783 Ry
     estimated scf accuracy    <       0.00027510 Ry

     iteration #  6     ecut=   124.00 Ry     beta= 0.70
     Davidson diagonalization with overlap
     ethr =  7.46E-08,  avg # of iterations =  1.0

     negative rho (up, down):  7.240E-03 0.000E+00

     total cpu time spent up to now is    13818.3 secs

     total energy              =   -3593.21083777 Ry
     estimated scf accuracy    <       0.00001099 Ry

     iteration #  7     ecut=   124.00 Ry     beta= 0.70
     Davidson diagonalization with overlap
     ethr =  4.82E-09,  avg # of iterations =  3.3

     negative rho (up, down):  7.240E-03 0.000E+00

     total cpu time spent up to now is    13869.4 secs

     total energy              =   -3593.21083814 Ry
     estimated scf accuracy    <       0.00003449 Ry

     iteration #  8     ecut=   124.00 Ry     beta= 0.70
     Davidson diagonalization with overlap
     ethr =  4.82E-09,  avg # of iterations =  2.0

     negative rho (up, down):  7.239E-03 0.000E+00

     total cpu time spent up to now is    13914.8 secs

     total energy              =   -3593.21083909 Ry
     estimated scf accuracy    <       0.00000244 Ry

     iteration #  9     ecut=   124.00 Ry     beta= 0.70
     Davidson diagonalization with overlap
     ethr =  1.07E-09,  avg # of iterations =  2.4

     negative rho (up, down):  7.239E-03 0.000E+00

     total cpu time spent up to now is    13962.7 secs

     total energy              =   -3593.21083929 Ry
     estimated scf accuracy    <       0.00000132 Ry

     iteration # 10     ecut=   124.00 Ry     beta= 0.70
     Davidson diagonalization with overlap
     ethr =  5.79E-10,  avg # of iterations =  1.5

     negative rho (up, down):  7.239E-03 0.000E+00

     total cpu time spent up to now is    14005.7 secs

     total energy              =   -3593.21083932 Ry
     estimated scf accuracy    <       0.00000041 Ry

     iteration # 11     ecut=   124.00 Ry     beta= 0.70
     Davidson diagonalization with overlap
     ethr =  1.80E-10,  avg # of iterations =  2.3

     negative rho (up, down):  7.239E-03 0.000E+00

     total cpu time spent up to now is    14054.1 secs

     total energy              =   -3593.21083937 Ry
     estimated scf accuracy    <       0.00000010 Ry

     iteration # 12     ecut=   124.00 Ry     beta= 0.70
     Davidson diagonalization with overlap
     ethr =  4.37E-11,  avg # of iterations =  4.6

     negative rho (up, down):  7.239E-03 0.000E+00

     total cpu time spent up to now is    14112.8 secs

     total energy              =   -3593.21083938 Ry
     estimated scf accuracy    <       0.00000009 Ry

     iteration # 13     ecut=   124.00 Ry     beta= 0.70
     Davidson diagonalization with overlap
     ethr =  4.14E-11,  avg # of iterations =  2.5

     negative rho (up, down):  7.239E-03 0.000E+00

     total cpu time spent up to now is    14159.8 secs

     total energy              =   -3593.21083939 Ry
     estimated scf accuracy    <          3.1E-09 Ry

     iteration # 14     ecut=   124.00 Ry     beta= 0.70
     Davidson diagonalization with overlap
     ethr =  1.34E-12,  avg # of iterations =  5.7

     negative rho (up, down):  7.239E-03 0.000E+00

     total cpu time spent up to now is    14247.5 secs

     total energy              =   -3593.21083939 Ry
     estimated scf accuracy    <       0.00000001 Ry

     iteration # 15     ecut=   124.00 Ry     beta= 0.70
     Davidson diagonalization with overlap
     ethr =  1.34E-12,  avg # of iterations =  5.0

     negative rho (up, down):  7.239E-03 0.000E+00

     total cpu time spent up to now is    14309.8 secs

     total energy              =   -3593.21083939 Ry
     estimated scf accuracy    <       0.00000008 Ry

     iteration # 16     ecut=   124.00 Ry     beta= 0.70
     Davidson diagonalization with overlap
     ethr =  1.34E-12,  avg # of iterations =  4.7

     negative rho (up, down):  7.239E-03 0.000E+00

     total cpu time spent up to now is    14367.8 secs

     total energy              =   -3593.21083939 Ry
     estimated scf accuracy    <          1.7E-09 Ry

     iteration # 17     ecut=   124.00 Ry     beta= 0.70
     Davidson diagonalization with overlap
     ethr =  7.35E-13,  avg # of iterations =  4.0

     negative rho (up, down):  7.239E-03 0.000E+00

     total cpu time spent up to now is    14420.7 secs

     total energy              =   -3593.21083939 Ry
     estimated scf accuracy    <          7.1E-09 Ry

     iteration # 18     ecut=   124.00 Ry     beta= 0.70
     Davidson diagonalization with overlap
     ethr =  7.35E-13,  avg # of iterations =  2.2

     negative rho (up, down):  7.239E-03 0.000E+00

     total cpu time spent up to now is    14467.0 secs

     total energy              =   -3593.21083939 Ry
     estimated scf accuracy    <          2.1E-10 Ry

     iteration # 19     ecut=   124.00 Ry     beta= 0.70
     Davidson diagonalization with overlap
     ethr =  1.00E-13,  avg # of iterations =  4.1

     negative rho (up, down):  7.239E-03 0.000E+00

     total cpu time spent up to now is    14521.2 secs

     total energy              =   -3593.21083939 Ry
     estimated scf accuracy    <          2.3E-10 Ry

     iteration # 20     ecut=   124.00 Ry     beta= 0.70
     Davidson diagonalization with overlap
     ethr =  1.00E-13,  avg # of iterations =  2.0

     negative rho (up, down):  7.239E-03 0.000E+00

     total cpu time spent up to now is    14566.9 secs

     total energy              =   -3593.21083939 Ry
     estimated scf accuracy    <          2.5E-10 Ry

     iteration # 21     ecut=   124.00 Ry     beta= 0.70
     Davidson diagonalization with overlap
     ethr =  1.00E-13,  avg # of iterations =  1.0

     negative rho (up, down):  7.239E-03 0.000E+00

     total cpu time spent up to now is    14607.5 secs

     End of self-consistent calculation

     Number of k-points >= 100: set verbosity='high' to print the bands.

     the Fermi energy is    16.6544 ev

!    total energy              =   -3593.21083939 Ry
     estimated scf accuracy    <          1.5E-11 Ry
     smearing contrib. (-TS)   =      -0.00021057 Ry
     internal energy E=F+TS    =   -3593.21062882 Ry

     The total energy is F=E-TS. E is the sum of the following terms:
     one-electron contribution =   -1271.55197335 Ry
     hartree contribution      =     758.04650970 Ry
     xc contribution           =    -425.89981969 Ry
     ewald contribution        =   -2044.59004755 Ry
     one-center paw contrib.   =    -609.21529792 Ry

     convergence has been achieved in  21 iterations

     negative rho (up, down):  7.239E-03 0.000E+00

     Forces acting on atoms (cartesian axes, Ry/au):

     atom    1 type  1   force =     0.00000000    0.00000000    0.00000000
     atom    2 type  1   force =     0.00000000    0.00000000    0.00000000
     atom    3 type  1   force =     0.00000000    0.00000000    0.00000000
     atom    4 type  1   force =     0.00000000    0.00000000    0.00000000
     atom    5 type  1   force =     0.00000000    0.00000000    0.00000000
     atom    6 type  1   force =     0.00000000    0.00000000    0.00000000
     atom    7 type  1   force =     0.00000000    0.00000000    0.00000000
     atom    8 type  1   force =     0.00000000    0.00000000    0.00000000
     atom    9 type  2   force =    -0.00068542   -0.00014626   -0.00014626
     atom   10 type  2   force =     0.00036996    0.00014928   -0.00014928
     atom   11 type  2   force =     0.00068542   -0.00014626   -0.00014626
     atom   12 type  2   force =    -0.00068542    0.00014626    0.00014626
     atom   13 type  2   force =    -0.00036996   -0.00014928    0.00014928
     atom   14 type  2   force =     0.00068542    0.00014626    0.00014626
     atom   15 type  2   force =     0.00036996   -0.00014928    0.00014928
     atom   16 type  2   force =    -0.00036996    0.00014928   -0.00014928
     atom   17 type  3   force =    -0.00009680    0.00000000    0.00000000
     atom   18 type  3   force =     0.00000000    0.00239067   -0.00239067
     atom   19 type  3   force =     0.00009680    0.00000000    0.00000000
     atom   20 type  3   force =     0.00000000   -0.00239067    0.00239067

     Total force =     0.005065     Total SCF correction =     0.000007


     Computing stress (Cartesian axis) and pressure


     negative rho (up, down):  7.239E-03 0.000E+00
          total   stress  (Ry/bohr**3)                   (kbar)     P=       -0.18
  -0.00001040   0.00000000   0.00000000           -1.53        0.00        0.00
   0.00000000   0.00000341   0.00000002            0.00        0.50        0.00
   0.00000000   0.00000002   0.00000341            0.00        0.00        0.50

     Energy error            =      4.4E-05 Ry
     Gradient error          =      2.4E-03 Ry/Bohr
     Cell gradient error     =      1.5E+00 kbar

     number of scf cycles    =   9
     number of bfgs steps    =   8

     enthalpy           old  =   -3593.2107952610 Ry
     enthalpy           new  =   -3593.2108393885 Ry

     CASE: enthalpy          _new < enthalpy          _old

     new trust radius        =       0.0114484500 bohr
     new conv_thr            =            1.0E-10 Ry

     new unit-cell volume =   1471.67086 a.u.^3 (   218.07912 Ang^3 )
     density =      6.34832 g/cm^3

CELL_PARAMETERS (alat=  5.58242261)
   2.205164825   0.000000000   0.000000000
   0.000000000   1.958623586   0.002014547
   0.000000000   0.002014547   1.958623586

ATOMIC_POSITIONS (crystal)
Fe               0.0000000000        0.0000000000        0.0000000000
Fe               0.5000000000        0.5000000000       -0.0000000000
Fe               0.5000000000        0.0000000000        0.0000000000
Fe               0.0000000000        0.5000000000        0.5000000000
Fe               0.0000000000       -0.0000000000        0.5000000000
Fe               0.5000000000        0.5000000000        0.5000000000
Fe               0.5000000000       -0.0000000000        0.5000000000
Fe               0.0000000000        0.5000000000       -0.0000000000
Ti               0.2520249633        0.2462476834        0.2462476834
Ti               0.7758900644        0.7531429175        0.2468570825
Ti               0.7479750367        0.2462476834        0.2462476834
Ti               0.2520249633        0.7537523166        0.7537523166
Ti               0.2241099356        0.2468570825        0.7531429175
Ti               0.7479750367        0.7537523166        0.7537523166
Ti               0.7758900644        0.2468570825        0.7531429175
Ti               0.2241099356        0.7531429175        0.2468570825
H                0.2512259389        0.5000000000        0.5000000000
H                0.5000000000        0.2524562084        0.7475437916
H                0.7487740611        0.5000000000        0.5000000000
H                0.5000000000        0.7475437916        0.2524562084



     Writing config-only to output data dir ./TiFeH_supercell.save/ :
     XML data file     NEW-OLD atomic charge density approx. for the potential
     New effective cutoffs (rho, wfc): 1813.53  129.53

     Check: negative core charge=   -0.000002

     negative rho (up, down):  7.265E-03 0.000E+00

     total cpu time spent up to now is    14649.1 secs

     per-process dynamical memory:   692.7 Mb

     Self-consistent Calculation

     iteration #  1     ecut=   124.00 Ry     beta= 0.70
     Davidson diagonalization with overlap
     ethr =  1.00E-06,  avg # of iterations =  4.0

     negative rho (up, down):  7.264E-03 0.000E+00

     total cpu time spent up to now is    14721.4 secs

     total energy              =   -3593.21069705 Ry
     estimated scf accuracy    <       0.00023508 Ry

     iteration #  2     ecut=   124.00 Ry     beta= 0.70
     Davidson diagonalization with overlap
     ethr =  1.03E-07,  avg # of iterations =  7.3

     negative rho (up, down):  7.262E-03 0.000E+00

     total cpu time spent up to now is    14809.4 secs

     total energy              =   -3593.20801064 Ry
     estimated scf accuracy    <       0.09623371 Ry

     iteration #  3     ecut=   124.00 Ry     beta= 0.70
     Davidson diagonalization with overlap
     ethr =  1.03E-07,  avg # of iterations =  7.3

     negative rho (up, down):  7.262E-03 0.000E+00

     total cpu time spent up to now is    14893.5 secs

     total energy              =   -3593.21086259 Ry
     estimated scf accuracy    <       0.00055024 Ry

     iteration #  4     ecut=   124.00 Ry     beta= 0.70
     Davidson diagonalization with overlap
     ethr =  1.03E-07,  avg # of iterations =  2.2

     negative rho (up, down):  7.262E-03 0.000E+00

     total cpu time spent up to now is    14940.7 secs

     total energy              =   -3593.21089072 Ry
     estimated scf accuracy    <       0.00024661 Ry

     iteration #  5     ecut=   124.00 Ry     beta= 0.70
     Davidson diagonalization with overlap
     ethr =  1.03E-07,  avg # of iterations =  2.0

     negative rho (up, down):  7.263E-03 0.000E+00

     total cpu time spent up to now is    14986.5 secs

     total energy              =   -3593.21088652 Ry
     estimated scf accuracy    <       0.00037332 Ry

     iteration #  6     ecut=   124.00 Ry     beta= 0.70
     Davidson diagonalization with overlap
     ethr =  1.03E-07,  avg # of iterations =  1.0

     negative rho (up, down):  7.263E-03 0.000E+00

     total cpu time spent up to now is    15026.9 secs

     total energy              =   -3593.21089999 Ry
     estimated scf accuracy    <       0.00001710 Ry

     iteration #  7     ecut=   124.00 Ry     beta= 0.70
     Davidson diagonalization with overlap
     ethr =  7.50E-09,  avg # of iterations =  3.9

     negative rho (up, down):  7.263E-03 0.000E+00

     total cpu time spent up to now is    15080.1 secs

     total energy              =   -3593.21089972 Ry
     estimated scf accuracy    <       0.00008768 Ry

     iteration #  8     ecut=   124.00 Ry     beta= 0.70
     Davidson diagonalization with overlap
     ethr =  7.50E-09,  avg # of iterations =  2.6

     negative rho (up, down):  7.262E-03 0.000E+00

     total cpu time spent up to now is    15128.0 secs

     total energy              =   -3593.21090210 Ry
     estimated scf accuracy    <       0.00000699 Ry

     iteration #  9     ecut=   124.00 Ry     beta= 0.70
     Davidson diagonalization with overlap
     ethr =  3.07E-09,  avg # of iterations =  2.0

     negative rho (up, down):  7.262E-03 0.000E+00

     total cpu time spent up to now is    15174.2 secs

     total energy              =   -3593.21090253 Ry
     estimated scf accuracy    <       0.00000196 Ry

     iteration # 10     ecut=   124.00 Ry     beta= 0.70
     Davidson diagonalization with overlap
     ethr =  8.59E-10,  avg # of iterations =  3.2

     negative rho (up, down):  7.262E-03 0.000E+00

     total cpu time spent up to now is    15225.9 secs

     total energy              =   -3593.21090247 Ry
     estimated scf accuracy    <       0.00000481 Ry

     iteration # 11     ecut=   124.00 Ry     beta= 0.70
     Davidson diagonalization with overlap
     ethr =  8.59E-10,  avg # of iterations =  2.1

     negative rho (up, down):  7.262E-03 0.000E+00

     total cpu time spent up to now is    15272.2 secs

     total energy              =   -3593.21090269 Ry
     estimated scf accuracy    <       0.00000042 Ry

     iteration # 12     ecut=   124.00 Ry     beta= 0.70
     Davidson diagonalization with overlap
     ethr =  1.86E-10,  avg # of iterations =  4.0

     negative rho (up, down):  7.262E-03 0.000E+00

     total cpu time spent up to now is    15328.4 secs

     total energy              =   -3593.21090271 Ry
     estimated scf accuracy    <       0.00000136 Ry

     iteration # 13     ecut=   124.00 Ry     beta= 0.70
     Davidson diagonalization with overlap
     ethr =  1.86E-10,  avg # of iterations =  2.0

     negative rho (up, down):  7.262E-03 0.000E+00

     total cpu time spent up to now is    15374.3 secs

     total energy              =   -3593.21090276 Ry
     estimated scf accuracy    <       0.00000012 Ry

     iteration # 14     ecut=   124.00 Ry     beta= 0.70
     Davidson diagonalization with overlap
     ethr =  5.23E-11,  avg # of iterations =  2.8

     negative rho (up, down):  7.262E-03 0.000E+00

     total cpu time spent up to now is    15425.4 secs

     total energy              =   -3593.21090277 Ry
     estimated scf accuracy    <       0.00000004 Ry

     iteration # 15     ecut=   124.00 Ry     beta= 0.70
     Davidson diagonalization with overlap
     ethr =  1.87E-11,  avg # of iterations =  2.9

     negative rho (up, down):  7.262E-03 0.000E+00

     total cpu time spent up to now is    15476.9 secs

     total energy              =   -3593.21090277 Ry
     estimated scf accuracy    <       0.00000003 Ry

     iteration # 16     ecut=   124.00 Ry     beta= 0.70
     Davidson diagonalization with overlap
     ethr =  1.47E-11,  avg # of iterations =  1.4

     negative rho (up, down):  7.262E-03 0.000E+00

     total cpu time spent up to now is    15522.5 secs

     total energy              =   -3593.21090278 Ry
     estimated scf accuracy    <       0.00000001 Ry

     iteration # 17     ecut=   124.00 Ry     beta= 0.70
     Davidson diagonalization with overlap
     ethr =  5.62E-12,  avg # of iterations =  2.2

     negative rho (up, down):  7.262E-03 0.000E+00

     total cpu time spent up to now is    15571.6 secs

     total energy              =   -3593.21090278 Ry
     estimated scf accuracy    <          2.2E-09 Ry

     iteration # 18     ecut=   124.00 Ry     beta= 0.70
     Davidson diagonalization with overlap
     ethr =  9.43E-13,  avg # of iterations =  5.0

     negative rho (up, down):  7.262E-03 0.000E+00

     total cpu time spent up to now is    15635.4 secs

     total energy              =   -3593.21090278 Ry
     estimated scf accuracy    <          1.9E-10 Ry

     iteration # 19     ecut=   124.00 Ry     beta= 0.70
     Davidson diagonalization with overlap
     ethr =  1.00E-13,  avg # of iterations =  4.7

     negative rho (up, down):  7.262E-03 0.000E+00

     total cpu time spent up to now is    15707.0 secs

     End of self-consistent calculation

     Number of k-points >= 100: set verbosity='high' to print the bands.

     the Fermi energy is    16.6525 ev

!    total energy              =   -3593.21090278 Ry
     estimated scf accuracy    <          5.1E-11 Ry
     smearing contrib. (-TS)   =      -0.00020786 Ry
     internal energy E=F+TS    =   -3593.21069492 Ry

     The total energy is F=E-TS. E is the sum of the following terms:
     one-electron contribution =   -1271.66459300 Ry
     hartree contribution      =     758.09318830 Ry
     xc contribution           =    -425.89896392 Ry
     ewald contribution        =   -2044.52504470 Ry
     one-center paw contrib.   =    -609.21528160 Ry

     convergence has been achieved in  19 iterations

     negative rho (up, down):  7.262E-03 0.000E+00

     Forces acting on atoms (cartesian axes, Ry/au):

     atom    1 type  1   force =     0.00000000    0.00000000    0.00000000
     atom    2 type  1   force =     0.00000000    0.00000000    0.00000000
     atom    3 type  1   force =     0.00000000    0.00000000    0.00000000
     atom    4 type  1   force =     0.00000000    0.00000000    0.00000000
     atom    5 type  1   force =     0.00000000    0.00000000    0.00000000
     atom    6 type  1   force =     0.00000000    0.00000000    0.00000000
     atom    7 type  1   force =     0.00000000    0.00000000    0.00000000
     atom    8 type  1   force =     0.00000000    0.00000000    0.00000000
     atom    9 type  2   force =    -0.00139723   -0.00014374   -0.00014374
     atom   10 type  2   force =    -0.00003997    0.00030598   -0.00030598
     atom   11 type  2   force =     0.00139723   -0.00014374   -0.00014374
     atom   12 type  2   force =    -0.00139723    0.00014374    0.00014374
     atom   13 type  2   force =     0.00003997   -0.00030598    0.00030598
     atom   14 type  2   force =     0.00139723    0.00014374    0.00014374
     atom   15 type  2   force =    -0.00003997   -0.00030598    0.00030598
     atom   16 type  2   force =     0.00003997    0.00030598   -0.00030598
     atom   17 type  3   force =    -0.00008994    0.00000000    0.00000000
     atom   18 type  3   force =     0.00000000    0.00279900   -0.00279900
     atom   19 type  3   force =     0.00008994    0.00000000    0.00000000
     atom   20 type  3   force =     0.00000000   -0.00279900    0.00279900

     Total force =     0.006331     Total SCF correction =     0.000013


     Computing stress (Cartesian axis) and pressure


     negative rho (up, down):  7.262E-03 0.000E+00
          total   stress  (Ry/bohr**3)                   (kbar)     P=       -0.32
  -0.00001420   0.00000000   0.00000000           -2.09        0.00        0.00
   0.00000000   0.00000382  -0.00000239            0.00        0.56       -0.35
   0.00000000  -0.00000239   0.00000382            0.00       -0.35        0.56

     Energy error            =      6.3E-05 Ry
     Gradient error          =      2.8E-03 Ry/Bohr
     Cell gradient error     =      2.1E+00 kbar

     number of scf cycles    =  10
     number of bfgs steps    =   9

     enthalpy           old  =   -3593.2108393885 Ry
     enthalpy           new  =   -3593.2109027779 Ry

     CASE: enthalpy          _new < enthalpy          _old

     new trust radius        =       0.0171653232 bohr
     new conv_thr            =            1.0E-10 Ry

     new unit-cell volume =   1471.80849 a.u.^3 (   218.09952 Ang^3 )
     density =      6.34773 g/cm^3

CELL_PARAMETERS (alat=  5.58242261)
   2.205819821   0.000000000   0.000000000
   0.000000000   1.958425496   0.002933115
   0.000000000   0.002933115   1.958425496

ATOMIC_POSITIONS (crystal)
Fe               0.0000000000        0.0000000000        0.0000000000
Fe               0.5000000000        0.5000000000       -0.0000000000
Fe               0.5000000000        0.0000000000        0.0000000000
Fe               0.0000000000        0.5000000000        0.5000000000
Fe               0.0000000000        0.0000000000        0.5000000000
Fe               0.5000000000        0.5000000000        0.5000000000
Fe               0.5000000000        0.0000000000        0.5000000000
Fe               0.0000000000        0.5000000000       -0.0000000000
Ti               0.2524360812        0.2461636904        0.2461636904
Ti               0.7760891076        0.7531254573        0.2468745427
Ti               0.7475639188        0.2461636904        0.2461636904
Ti               0.2524360812        0.7538363096        0.7538363096
Ti               0.2239108924        0.2468745427        0.7531254573
Ti               0.7475639188        0.7538363096        0.7538363096
Ti               0.7760891076        0.2468745427        0.7531254573
Ti               0.2239108924        0.7531254573        0.2468745427
H                0.2512187473        0.5000000000        0.5000000000
H                0.5000000000        0.2535674544        0.7464325456
H                0.7487812527        0.5000000000        0.5000000000
H                0.5000000000        0.7464325456        0.2535674544



     Writing config-only to output data dir ./TiFeH_supercell.save/ :
     XML data file     NEW-OLD atomic charge density approx. for the potential
     New effective cutoffs (rho, wfc): 1815.56  129.67

     Check: negative core charge=   -0.000002

     negative rho (up, down):  7.291E-03 0.000E+00

     total cpu time spent up to now is    15750.7 secs

     per-process dynamical memory:   692.7 Mb

     Self-consistent Calculation

     iteration #  1     ecut=   124.00 Ry     beta= 0.70
     Davidson diagonalization with overlap
     ethr =  1.00E-06,  avg # of iterations =  4.0

     negative rho (up, down):  7.291E-03 0.000E+00

     total cpu time spent up to now is    15830.2 secs

     total energy              =   -3593.21058002 Ry
     estimated scf accuracy    <       0.00049361 Ry

     iteration #  2     ecut=   124.00 Ry     beta= 0.70
     Davidson diagonalization with overlap
     ethr =  2.16E-07,  avg # of iterations =  6.6

     negative rho (up, down):  7.287E-03 0.000E+00

     total cpu time spent up to now is    15923.1 secs

     total energy              =   -3593.20482896 Ry
     estimated scf accuracy    <       0.20769204 Ry

     iteration #  3     ecut=   124.00 Ry     beta= 0.70
     Davidson diagonalization with overlap
     ethr =  2.16E-07,  avg # of iterations =  7.5

     negative rho (up, down):  7.287E-03 0.000E+00

     total cpu time spent up to now is    16013.4 secs

     total energy              =   -3593.21091065 Ry
     estimated scf accuracy    <       0.00120736 Ry

     iteration #  4     ecut=   124.00 Ry     beta= 0.70
     Davidson diagonalization with overlap
     ethr =  2.16E-07,  avg # of iterations =  2.5

     negative rho (up, down):  7.289E-03 0.000E+00

     total cpu time spent up to now is    16063.7 secs

     total energy              =   -3593.21097289 Ry
     estimated scf accuracy    <       0.00056044 Ry

     iteration #  5     ecut=   124.00 Ry     beta= 0.70
     Davidson diagonalization with overlap
     ethr =  2.16E-07,  avg # of iterations =  1.8

     negative rho (up, down):  7.288E-03 0.000E+00

     total cpu time spent up to now is    16110.6 secs

     total energy              =   -3593.21096994 Ry
     estimated scf accuracy    <       0.00061499 Ry

     iteration #  6     ecut=   124.00 Ry     beta= 0.70
     Davidson diagonalization with overlap
     ethr =  2.16E-07,  avg # of iterations =  1.0

     negative rho (up, down):  7.288E-03 0.000E+00

     total cpu time spent up to now is    16153.7 secs

     total energy              =   -3593.21099383 Ry
     estimated scf accuracy    <       0.00002384 Ry

     iteration #  7     ecut=   124.00 Ry     beta= 0.70
     Davidson diagonalization with overlap
     ethr =  1.05E-08,  avg # of iterations =  4.3

     negative rho (up, down):  7.288E-03 0.000E+00

     total cpu time spent up to now is    16212.6 secs

     total energy              =   -3593.21099066 Ry
     estimated scf accuracy    <       0.00023996 Ry

     iteration #  8     ecut=   124.00 Ry     beta= 0.70
     Davidson diagonalization with overlap
     ethr =  1.05E-08,  avg # of iterations =  4.1

     negative rho (up, down):  7.288E-03 0.000E+00

     total cpu time spent up to now is    16268.1 secs

     total energy              =   -3593.21099736 Ry
     estimated scf accuracy    <       0.00001282 Ry

     iteration #  9     ecut=   124.00 Ry     beta= 0.70
     Davidson diagonalization with overlap
     ethr =  5.62E-09,  avg # of iterations =  1.9

     negative rho (up, down):  7.288E-03 0.000E+00

     total cpu time spent up to now is    16316.2 secs

     total energy              =   -3593.21099816 Ry
     estimated scf accuracy    <       0.00000363 Ry

     iteration # 10     ecut=   124.00 Ry     beta= 0.70
     Davidson diagonalization with overlap
     ethr =  1.59E-09,  avg # of iterations =  3.5

     negative rho (up, down):  7.288E-03 0.000E+00

     total cpu time spent up to now is    16371.2 secs

     total energy              =   -3593.21099804 Ry
     estimated scf accuracy    <       0.00001011 Ry

     iteration # 11     ecut=   124.00 Ry     beta= 0.70
     Davidson diagonalization with overlap
     ethr =  1.59E-09,  avg # of iterations =  2.3

     negative rho (up, down):  7.288E-03 0.000E+00

     total cpu time spent up to now is    16420.4 secs

     total energy              =   -3593.21099847 Ry
     estimated scf accuracy    <       0.00000029 Ry

     iteration # 12     ecut=   124.00 Ry     beta= 0.70
     Davidson diagonalization with overlap
     ethr =  1.28E-10,  avg # of iterations =  5.0

     negative rho (up, down):  7.288E-03 0.000E+00

     total cpu time spent up to now is    16493.8 secs

     total energy              =   -3593.21099839 Ry
     estimated scf accuracy    <       0.00000454 Ry

     iteration # 13     ecut=   124.00 Ry     beta= 0.70
     Davidson diagonalization with overlap
     ethr =  1.28E-10,  avg # of iterations =  4.8

     negative rho (up, down):  7.288E-03 0.000E+00

     total cpu time spent up to now is    16558.6 secs

     total energy              =   -3593.21099858 Ry
     estimated scf accuracy    <       0.00000030 Ry

     iteration # 14     ecut=   124.00 Ry     beta= 0.70
     Davidson diagonalization with overlap
     ethr =  1.28E-10,  avg # of iterations =  1.2

     negative rho (up, down):  7.288E-03 0.000E+00

     total cpu time spent up to now is    16601.6 secs

     total energy              =   -3593.21099859 Ry
     estimated scf accuracy    <       0.00000015 Ry

     iteration # 15     ecut=   124.00 Ry     beta= 0.70
     Davidson diagonalization with overlap
     ethr =  6.48E-11,  avg # of iterations =  1.9

     negative rho (up, down):  7.288E-03 0.000E+00

     total cpu time spent up to now is    16649.0 secs

     total energy              =   -3593.21099859 Ry
     estimated scf accuracy    <       0.00000013 Ry

     iteration # 16     ecut=   124.00 Ry     beta= 0.70
     Davidson diagonalization with overlap
     ethr =  5.57E-11,  avg # of iterations =  1.0

     negative rho (up, down):  7.288E-03 0.000E+00

     total cpu time spent up to now is    16691.3 secs

     total energy              =   -3593.21099860 Ry
     estimated scf accuracy    <       0.00000002 Ry

     iteration # 17     ecut=   124.00 Ry     beta= 0.70
     Davidson diagonalization with overlap
     ethr =  8.16E-12,  avg # of iterations =  2.0

     negative rho (up, down):  7.288E-03 0.000E+00

     total cpu time spent up to now is    16740.1 secs

     total energy              =   -3593.21099860 Ry
     estimated scf accuracy    <          4.4E-09 Ry

     iteration # 18     ecut=   124.00 Ry     beta= 0.70
     Davidson diagonalization with overlap
     ethr =  1.91E-12,  avg # of iterations =  3.7

     negative rho (up, down):  7.288E-03 0.000E+00

     total cpu time spent up to now is    16793.9 secs

     total energy              =   -3593.21099860 Ry
     estimated scf accuracy    <          1.1E-09 Ry

     iteration # 19     ecut=   124.00 Ry     beta= 0.70
     Davidson diagonalization with overlap
     ethr =  4.65E-13,  avg # of iterations =  4.3

     negative rho (up, down):  7.288E-03 0.000E+00

     total cpu time spent up to now is    16855.1 secs

     total energy              =   -3593.21099860 Ry
     estimated scf accuracy    <          3.5E-09 Ry

     iteration # 20     ecut=   124.00 Ry     beta= 0.70
     Davidson diagonalization with overlap
     ethr =  4.65E-13,  avg # of iterations =  2.4

     negative rho (up, down):  7.288E-03 0.000E+00

     total cpu time spent up to now is    16906.2 secs

     total energy              =   -3593.21099860 Ry
     estimated scf accuracy    <          8.3E-10 Ry

     iteration # 21     ecut=   124.00 Ry     beta= 0.70
     Davidson diagonalization with overlap
     ethr =  3.63E-13,  avg # of iterations =  2.2

     negative rho (up, down):  7.288E-03 0.000E+00

     total cpu time spent up to now is    16955.5 secs

     total energy              =   -3593.21099860 Ry
     estimated scf accuracy    <          6.2E-10 Ry

     iteration # 22     ecut=   124.00 Ry     beta= 0.70
     Davidson diagonalization with overlap
     ethr =  2.71E-13,  avg # of iterations =  1.6

     negative rho (up, down):  7.288E-03 0.000E+00

     total cpu time spent up to now is    17001.1 secs

     total energy              =   -3593.21099860 Ry
     estimated scf accuracy    <          1.8E-10 Ry

     iteration # 23     ecut=   124.00 Ry     beta= 0.70
     Davidson diagonalization with overlap
     ethr =  1.00E-13,  avg # of iterations =  1.3

     negative rho (up, down):  7.288E-03 0.000E+00

     total cpu time spent up to now is    17045.4 secs

     End of self-consistent calculation

     Number of k-points >= 100: set verbosity='high' to print the bands.

     the Fermi energy is    16.6502 ev

!    total energy              =   -3593.21099860 Ry
     estimated scf accuracy    <          4.3E-11 Ry
     smearing contrib. (-TS)   =      -0.00020318 Ry
     internal energy E=F+TS    =   -3593.21079542 Ry

     The total energy is F=E-TS. E is the sum of the following terms:
     one-electron contribution =   -1271.81280313 Ry
     hartree contribution      =     758.15522636 Ry
     xc contribution           =    -425.89799262 Ry
     ewald contribution        =   -2044.43996366 Ry
     one-center paw contrib.   =    -609.21526238 Ry

     convergence has been achieved in  23 iterations

     negative rho (up, down):  7.288E-03 0.000E+00

     Forces acting on atoms (cartesian axes, Ry/au):

     atom    1 type  1   force =     0.00000000    0.00000000    0.00000000
     atom    2 type  1   force =     0.00000000    0.00000000    0.00000000
     atom    3 type  1   force =     0.00000000    0.00000000    0.00000000
     atom    4 type  1   force =     0.00000000    0.00000000    0.00000000
     atom    5 type  1   force =     0.00000000    0.00000000    0.00000000
     atom    6 type  1   force =     0.00000000    0.00000000    0.00000000
     atom    7 type  1   force =     0.00000000    0.00000000    0.00000000
     atom    8 type  1   force =     0.00000000    0.00000000    0.00000000
     atom    9 type  2   force =    -0.00235337   -0.00013750   -0.00013750
     atom   10 type  2   force =    -0.00059199    0.00051687   -0.00051687
     atom   11 type  2   force =     0.00235337   -0.00013750   -0.00013750
     atom   12 type  2   force =    -0.00235337    0.00013750    0.00013750
     atom   13 type  2   force =     0.00059199   -0.00051687    0.00051687
     atom   14 type  2   force =     0.00235337    0.00013750    0.00013750
     atom   15 type  2   force =    -0.00059199   -0.00051687    0.00051687
     atom   16 type  2   force =     0.00059199    0.00051687   -0.00051687
     atom   17 type  3   force =    -0.00008005    0.00000000    0.00000000
     atom   18 type  3   force =     0.00000000    0.00340423   -0.00340423
     atom   19 type  3   force =     0.00008005    0.00000000    0.00000000
     atom   20 type  3   force =     0.00000000   -0.00340423    0.00340423

     Total force =     0.008498     Total SCF correction =     0.000021


     Computing stress (Cartesian axis) and pressure


     negative rho (up, down):  7.288E-03 0.000E+00
          total   stress  (Ry/bohr**3)                   (kbar)     P=       -0.49
  -0.00001883   0.00000000   0.00000000           -2.77        0.00        0.00
   0.00000000   0.00000443  -0.00000575            0.00        0.65       -0.85
   0.00000000  -0.00000575   0.00000443            0.00       -0.85        0.65

     Energy error            =      9.6E-05 Ry
     Gradient error          =      3.4E-03 Ry/Bohr
     Cell gradient error     =      2.8E+00 kbar

     number of scf cycles    =  11
     number of bfgs steps    =  10

     enthalpy           old  =   -3593.2109027779 Ry
     enthalpy           new  =   -3593.2109986013 Ry

     CASE: enthalpy          _new < enthalpy          _old

     new trust radius        =       0.0257332901 bohr
     new conv_thr            =            1.0E-10 Ry

     new unit-cell volume =   1472.00846 a.u.^3 (   218.12915 Ang^3 )
     density =      6.34687 g/cm^3

CELL_PARAMETERS (alat=  5.58242261)
   2.206744162   0.000000000   0.000000000
   0.000000000   1.958150720   0.004252038
   0.000000000   0.004252038   1.958150720

ATOMIC_POSITIONS (crystal)
Fe               0.0000000000        0.0000000000        0.0000000000
Fe               0.5000000000        0.5000000000       -0.0000000000
Fe               0.5000000000        0.0000000000        0.0000000000
Fe               0.0000000000        0.5000000000        0.5000000000
Fe               0.0000000000        0.0000000000        0.5000000000
Fe               0.5000000000        0.5000000000        0.5000000000
Fe               0.5000000000        0.0000000000        0.5000000000
Fe               0.0000000000        0.5000000000       -0.0000000000
Ti               0.2530248826        0.2460397344        0.2460397344
Ti               0.7763706325        0.7531033517        0.2468966483
Ti               0.7469751174        0.2460397344        0.2460397344
Ti               0.2530248826        0.7539602656        0.7539602656
Ti               0.2236293675        0.2468966483        0.7531033517
Ti               0.7469751174        0.7539602656        0.7539602656
Ti               0.7763706325        0.2468966483        0.7531033517
Ti               0.2236293675        0.7531033517        0.2468966483
H                0.2512079996        0.5000000000        0.5000000000
H                0.5000000000        0.2552343235        0.7447656765
H                0.7487920004        0.5000000000        0.5000000000
H                0.5000000000        0.7447656765        0.2552343235



     Writing config-only to output data dir ./TiFeH_supercell.save/ :
     XML data file     NEW-OLD atomic charge density approx. for the potential
     New effective cutoffs (rho, wfc): 1818.46  129.88

     Check: negative core charge=   -0.000002

     negative rho (up, down):  7.286E-03 0.000E+00

     total cpu time spent up to now is    17089.1 secs

     per-process dynamical memory:   692.7 Mb

     Self-consistent Calculation

     iteration #  1     ecut=   124.00 Ry     beta= 0.70
     Davidson diagonalization with overlap
     ethr =  1.00E-06,  avg # of iterations =  4.9

     negative rho (up, down):  7.286E-03 0.000E+00

     total cpu time spent up to now is    17176.2 secs

     total energy              =   -3593.21023328 Ry
     estimated scf accuracy    <       0.00109143 Ry

     iteration #  2     ecut=   124.00 Ry     beta= 0.70
     Davidson diagonalization with overlap
     ethr =  4.79E-07,  avg # of iterations =  6.4

     negative rho (up, down):  7.280E-03 0.000E+00

     total cpu time spent up to now is    17270.0 secs

     total energy              =   -3593.19753156 Ry
     estimated scf accuracy    <       0.45967134 Ry

     iteration #  3     ecut=   124.00 Ry     beta= 0.70
     Davidson diagonalization with overlap
     c_bands:  1 eigenvalues not converged
     ethr =  4.79E-07,  avg # of iterations =  7.1

     negative rho (up, down):  7.280E-03 0.000E+00

     total cpu time spent up to now is    17363.5 secs

     total energy              =   -3593.21095945 Ry
     estimated scf accuracy    <       0.00241256 Ry

     iteration #  4     ecut=   124.00 Ry     beta= 0.70
     Davidson diagonalization with overlap
     ethr =  4.79E-07,  avg # of iterations =  2.6

     negative rho (up, down):  7.284E-03 0.000E+00

     total cpu time spent up to now is    17413.8 secs

     total energy              =   -3593.21108263 Ry
     estimated scf accuracy    <       0.00141726 Ry

     iteration #  5     ecut=   124.00 Ry     beta= 0.70
     Davidson diagonalization with overlap
     ethr =  4.79E-07,  avg # of iterations =  1.6

     negative rho (up, down):  7.283E-03 0.000E+00

     total cpu time spent up to now is    17459.5 secs

     total energy              =   -3593.21108588 Ry
     estimated scf accuracy    <       0.00119495 Ry

     iteration #  6     ecut=   124.00 Ry     beta= 0.70
     Davidson diagonalization with overlap
     ethr =  4.79E-07,  avg # of iterations =  1.0

     negative rho (up, down):  7.281E-03 0.000E+00

     total cpu time spent up to now is    17502.5 secs

     total energy              =   -3593.21113632 Ry
     estimated scf accuracy    <       0.00003373 Ry

     iteration #  7     ecut=   124.00 Ry     beta= 0.70
     Davidson diagonalization with overlap
     ethr =  1.48E-08,  avg # of iterations =  4.5

     negative rho (up, down):  7.281E-03 0.000E+00

     total cpu time spent up to now is    17564.2 secs

     total energy              =   -3593.21113074 Ry
     estimated scf accuracy    <       0.00034831 Ry

     iteration #  8     ecut=   124.00 Ry     beta= 0.70
     Davidson diagonalization with overlap
     ethr =  1.48E-08,  avg # of iterations =  4.2

     negative rho (up, down):  7.282E-03 0.000E+00

     total cpu time spent up to now is    17621.2 secs

     total energy              =   -3593.21113942 Ry
     estimated scf accuracy    <       0.00010098 Ry

     iteration #  9     ecut=   124.00 Ry     beta= 0.70
     Davidson diagonalization with overlap
     ethr =  1.48E-08,  avg # of iterations =  2.0

     negative rho (up, down):  7.282E-03 0.000E+00

     total cpu time spent up to now is    17670.0 secs

     total energy              =   -3593.21114357 Ry
     estimated scf accuracy    <       0.00000560 Ry

     iteration # 10     ecut=   124.00 Ry     beta= 0.70
     Davidson diagonalization with overlap
     ethr =  2.46E-09,  avg # of iterations =  4.1

     negative rho (up, down):  7.282E-03 0.000E+00

     total cpu time spent up to now is    17728.6 secs

     total energy              =   -3593.21114377 Ry
     estimated scf accuracy    <       0.00001284 Ry

     iteration # 11     ecut=   124.00 Ry     beta= 0.70
     Davidson diagonalization with overlap
     ethr =  2.46E-09,  avg # of iterations =  2.6

     negative rho (up, down):  7.282E-03 0.000E+00

     total cpu time spent up to now is    17778.6 secs

     total energy              =   -3593.21114415 Ry
     estimated scf accuracy    <       0.00000564 Ry

     iteration # 12     ecut=   124.00 Ry     beta= 0.70
     Davidson diagonalization with overlap
     ethr =  2.46E-09,  avg # of iterations =  3.0

     negative rho (up, down):  7.282E-03 0.000E+00

     total cpu time spent up to now is    17829.8 secs

     total energy              =   -3593.21114392 Ry
     estimated scf accuracy    <       0.00002038 Ry

     iteration # 13     ecut=   124.00 Ry     beta= 0.70
     Davidson diagonalization with overlap
     ethr =  2.46E-09,  avg # of iterations =  1.5

     negative rho (up, down):  7.282E-03 0.000E+00

     total cpu time spent up to now is    17873.4 secs

     total energy              =   -3593.21114464 Ry
     estimated scf accuracy    <       0.00000059 Ry

     iteration # 14     ecut=   124.00 Ry     beta= 0.70
     Davidson diagonalization with overlap
     ethr =  2.60E-10,  avg # of iterations =  3.0

     negative rho (up, down):  7.282E-03 0.000E+00

     total cpu time spent up to now is    17924.5 secs

     total energy              =   -3593.21114468 Ry
     estimated scf accuracy    <       0.00000042 Ry

     iteration # 15     ecut=   124.00 Ry     beta= 0.70
     Davidson diagonalization with overlap
     ethr =  1.84E-10,  avg # of iterations =  1.2

     negative rho (up, down):  7.282E-03 0.000E+00

     total cpu time spent up to now is    17966.8 secs

     total energy              =   -3593.21114470 Ry
     estimated scf accuracy    <       0.00000004 Ry

     iteration # 16     ecut=   124.00 Ry     beta= 0.70
     Davidson diagonalization with overlap
     ethr =  1.92E-11,  avg # of iterations =  4.2

     negative rho (up, down):  7.282E-03 0.000E+00

     total cpu time spent up to now is    18023.3 secs

     total energy              =   -3593.21114471 Ry
     estimated scf accuracy    <       0.00000003 Ry

     iteration # 17     ecut=   124.00 Ry     beta= 0.70
     Davidson diagonalization with overlap
     ethr =  1.12E-11,  avg # of iterations =  2.0

     negative rho (up, down):  7.282E-03 0.000E+00

     total cpu time spent up to now is    18070.8 secs

     total energy              =   -3593.21114471 Ry
     estimated scf accuracy    <       0.00000001 Ry

     iteration # 18     ecut=   124.00 Ry     beta= 0.70
     Davidson diagonalization with overlap
     ethr =  6.35E-12,  avg # of iterations =  3.4

     negative rho (up, down):  7.282E-03 0.000E+00

     total cpu time spent up to now is    18124.0 secs

     total energy              =   -3593.21114471 Ry
     estimated scf accuracy    <       0.00000011 Ry

     iteration # 19     ecut=   124.00 Ry     beta= 0.70
     Davidson diagonalization with overlap
     ethr =  6.35E-12,  avg # of iterations =  2.7

     negative rho (up, down):  7.282E-03 0.000E+00

     total cpu time spent up to now is    18173.7 secs

     total energy              =   -3593.21114471 Ry
     estimated scf accuracy    <          1.6E-09 Ry

     iteration # 20     ecut=   124.00 Ry     beta= 0.70
     Davidson diagonalization with overlap
     ethr =  7.19E-13,  avg # of iterations =  4.7

     negative rho (up, down):  7.282E-03 0.000E+00

     total cpu time spent up to now is    18238.3 secs

     total energy              =   -3593.21114471 Ry
     estimated scf accuracy    <          1.8E-09 Ry

     iteration # 21     ecut=   124.00 Ry     beta= 0.70
     Davidson diagonalization with overlap
     ethr =  7.19E-13,  avg # of iterations =  3.6

     negative rho (up, down):  7.282E-03 0.000E+00

     total cpu time spent up to now is    18291.3 secs

     total energy              =   -3593.21114471 Ry
     estimated scf accuracy    <          5.0E-09 Ry

     iteration # 22     ecut=   124.00 Ry     beta= 0.70
     Davidson diagonalization with overlap
     ethr =  7.19E-13,  avg # of iterations =  2.3

     negative rho (up, down):  7.282E-03 0.000E+00

     total cpu time spent up to now is    18338.8 secs

     total energy              =   -3593.21114471 Ry
     estimated scf accuracy    <          1.9E-10 Ry

     iteration # 23     ecut=   124.00 Ry     beta= 0.70
     Davidson diagonalization with overlap
     ethr =  1.00E-13,  avg # of iterations =  4.0

     negative rho (up, down):  7.282E-03 0.000E+00

     total cpu time spent up to now is    18397.0 secs

     total energy              =   -3593.21114471 Ry
     estimated scf accuracy    <          1.0E-09 Ry

     iteration # 24     ecut=   124.00 Ry     beta= 0.70
     Davidson diagonalization with overlap
     ethr =  1.00E-13,  avg # of iterations =  2.8

     negative rho (up, down):  7.282E-03 0.000E+00

     total cpu time spent up to now is    18447.2 secs

     End of self-consistent calculation

     Number of k-points >= 100: set verbosity='high' to print the bands.

     the Fermi energy is    16.6469 ev

!    total energy              =   -3593.21114471 Ry
     estimated scf accuracy    <          6.8E-11 Ry
     smearing contrib. (-TS)   =      -0.00019506 Ry
     internal energy E=F+TS    =   -3593.21094965 Ry

     The total energy is F=E-TS. E is the sum of the following terms:
     one-electron contribution =   -1272.03597156 Ry
     hartree contribution      =     758.24898899 Ry
     xc contribution           =    -425.89670661 Ry
     ewald contribution        =   -2044.31202184 Ry
     one-center paw contrib.   =    -609.21523863 Ry

     convergence has been achieved in  24 iterations

     negative rho (up, down):  7.282E-03 0.000E+00

     Forces acting on atoms (cartesian axes, Ry/au):

     atom    1 type  1   force =     0.00000000    0.00000000    0.00000000
     atom    2 type  1   force =     0.00000000    0.00000000    0.00000000
     atom    3 type  1   force =     0.00000000    0.00000000    0.00000000
     atom    4 type  1   force =     0.00000000    0.00000000    0.00000000
     atom    5 type  1   force =     0.00000000    0.00000000    0.00000000
     atom    6 type  1   force =     0.00000000    0.00000000    0.00000000
     atom    7 type  1   force =     0.00000000    0.00000000    0.00000000
     atom    8 type  1   force =     0.00000000    0.00000000    0.00000000
     atom    9 type  2   force =    -0.00372136   -0.00013052   -0.00013052
     atom   10 type  2   force =    -0.00139458    0.00081171   -0.00081171
     atom   11 type  2   force =     0.00372136   -0.00013052   -0.00013052
     atom   12 type  2   force =    -0.00372136    0.00013052    0.00013052
     atom   13 type  2   force =     0.00139458   -0.00081171    0.00081171
     atom   14 type  2   force =     0.00372136    0.00013052    0.00013052
     atom   15 type  2   force =    -0.00139458   -0.00081171    0.00081171
     atom   16 type  2   force =     0.00139458    0.00081171   -0.00081171
     atom   17 type  3   force =    -0.00006655    0.00000000    0.00000000
     atom   18 type  3   force =     0.00000000    0.00428220   -0.00428220
     atom   19 type  3   force =     0.00006655    0.00000000    0.00000000
     atom   20 type  3   force =     0.00000000   -0.00428220    0.00428220

     Total force =     0.011914     Total SCF correction =     0.000005


     Computing stress (Cartesian axis) and pressure


     negative rho (up, down):  7.282E-03 0.000E+00
          total   stress  (Ry/bohr**3)                   (kbar)     P=       -0.72
  -0.00002540   0.00000000   0.00000000           -3.74        0.00        0.00
   0.00000000   0.00000539  -0.00001070            0.00        0.79       -1.57
   0.00000000  -0.00001070   0.00000539            0.00       -1.57        0.79

     Energy error            =      1.5E-04 Ry
     Gradient error          =      4.3E-03 Ry/Bohr
     Cell gradient error     =      3.7E+00 kbar

     number of scf cycles    =  12
     number of bfgs steps    =  11

     enthalpy           old  =   -3593.2109986013 Ry
     enthalpy           new  =   -3593.2111447121 Ry

     CASE: enthalpy          _new < enthalpy          _old

     new trust radius        =       0.0385684768 bohr
     new conv_thr            =       0.0000000001 Ry

     new unit-cell volume =   1472.30700 a.u.^3 (   218.17339 Ang^3 )
     density =      6.34558 g/cm^3

CELL_PARAMETERS (alat=  5.58242261)
   2.208098803   0.000000000   0.000000000
   0.000000000   1.957753654   0.006192903
   0.000000000   0.006192903   1.957753654

ATOMIC_POSITIONS (crystal)
Fe               0.0000000000        0.0000000000        0.0000000000
Fe               0.5000000000        0.5000000000       -0.0000000000
Fe               0.5000000000        0.0000000000        0.0000000000
Fe               0.0000000000        0.5000000000        0.5000000000
Fe               0.0000000000        0.0000000000        0.5000000000
Fe               0.5000000000        0.5000000000        0.5000000000
Fe               0.5000000000        0.0000000000        0.5000000000
Fe               0.0000000000        0.5000000000       -0.0000000000
Ti               0.2538928507        0.2458549136        0.2458549136
Ti               0.7767821467        0.7530719935        0.2469280065
Ti               0.7461071493        0.2458549136        0.2458549136
Ti               0.2538928507        0.7541450864        0.7541450864
Ti               0.2232178533        0.2469280065        0.7530719935
Ti               0.7461071493        0.7541450864        0.7541450864
Ti               0.7767821467        0.2469280065        0.7530719935
Ti               0.2232178533        0.7530719935        0.2469280065
H                0.2511918910        0.5000000000        0.5000000000
H                0.5000000000        0.2577346270        0.7422653730
H                0.7488081090        0.5000000000        0.5000000000
H                0.5000000000        0.7422653730        0.2577346270



     Writing config-only to output data dir ./TiFeH_supercell.save/ :
     XML data file     NEW-OLD atomic charge density approx. for the potential
     New effective cutoffs (rho, wfc): 1822.72  130.19

     Check: negative core charge=   -0.000002

     negative rho (up, down):  7.257E-03 0.000E+00

     total cpu time spent up to now is    18491.2 secs

     per-process dynamical memory:   702.0 Mb

     Self-consistent Calculation

     iteration #  1     ecut=   124.00 Ry     beta= 0.70
     Davidson diagonalization with overlap
     ethr =  1.00E-06,  avg # of iterations =  5.0

     negative rho (up, down):  7.258E-03 0.000E+00

     total cpu time spent up to now is    18583.2 secs

     total energy              =   -3593.20925613 Ry
     estimated scf accuracy    <       0.00253615 Ry

     iteration #  2     ecut=   124.00 Ry     beta= 0.70
     Davidson diagonalization with overlap
     ethr =  1.11E-06,  avg # of iterations =  8.4

     negative rho (up, down):  7.248E-03 0.000E+00

     total cpu time spent up to now is    18686.8 secs

     total energy              =   -3593.17919847 Ry
     estimated scf accuracy    <       1.09038241 Ry

     iteration #  3     ecut=   124.00 Ry     beta= 0.70
     Davidson diagonalization with overlap
     c_bands:  1 eigenvalues not converged
     c_bands:  1 eigenvalues not converged
     ethr =  1.11E-06,  avg # of iterations =  7.5

     negative rho (up, down):  7.249E-03 0.000E+00

     total cpu time spent up to now is    18784.3 secs

     total energy              =   -3593.21094938 Ry
     estimated scf accuracy    <       0.00519863 Ry

     iteration #  4     ecut=   124.00 Ry     beta= 0.70
     Davidson diagonalization with overlap
     ethr =  1.11E-06,  avg # of iterations =  2.8

     negative rho (up, down):  7.254E-03 0.000E+00

     total cpu time spent up to now is    18835.2 secs

     total energy              =   -3593.21120821 Ry
     estimated scf accuracy    <       0.00331035 Ry

     iteration #  5     ecut=   124.00 Ry     beta= 0.70
     Davidson diagonalization with overlap
     ethr =  1.11E-06,  avg # of iterations =  1.8

     negative rho (up, down):  7.253E-03 0.000E+00

     total cpu time spent up to now is    18882.5 secs

     total energy              =   -3593.21120869 Ry
     estimated scf accuracy    <       0.00313127 Ry

     iteration #  6     ecut=   124.00 Ry     beta= 0.70
     Davidson diagonalization with overlap
     ethr =  1.11E-06,  avg # of iterations =  1.0

     negative rho (up, down):  7.250E-03 0.000E+00

     total cpu time spent up to now is    18925.2 secs

     total energy              =   -3593.21134208 Ry
     estimated scf accuracy    <       0.00007872 Ry

     iteration #  7     ecut=   124.00 Ry     beta= 0.70
     Davidson diagonalization with overlap
     ethr =  3.45E-08,  avg # of iterations =  4.4

     negative rho (up, down):  7.251E-03 0.000E+00

     total cpu time spent up to now is    18987.2 secs

     total energy              =   -3593.21134180 Ry
     estimated scf accuracy    <       0.00037195 Ry

     iteration #  8     ecut=   124.00 Ry     beta= 0.70
     Davidson diagonalization with overlap
     ethr =  3.45E-08,  avg # of iterations =  3.8

     negative rho (up, down):  7.251E-03 0.000E+00

     total cpu time spent up to now is    19043.7 secs

     total energy              =   -3593.21135751 Ry
     estimated scf accuracy    <       0.00003777 Ry

     iteration #  9     ecut=   124.00 Ry     beta= 0.70
     Davidson diagonalization with overlap
     ethr =  1.66E-08,  avg # of iterations =  2.8

     negative rho (up, down):  7.251E-03 0.000E+00

     total cpu time spent up to now is    19096.0 secs

     total energy              =   -3593.21135815 Ry
     estimated scf accuracy    <       0.00007859 Ry

     iteration # 10     ecut=   124.00 Ry     beta= 0.70
     Davidson diagonalization with overlap
     ethr =  1.66E-08,  avg # of iterations =  2.0

     negative rho (up, down):  7.251E-03 0.000E+00

     total cpu time spent up to now is    19145.8 secs

     total energy              =   -3593.21136092 Ry
     estimated scf accuracy    <       0.00001875 Ry

     iteration # 11     ecut=   124.00 Ry     beta= 0.70
     Davidson diagonalization with overlap
     ethr =  8.22E-09,  avg # of iterations =  2.0

     negative rho (up, down):  7.251E-03 0.000E+00

     total cpu time spent up to now is    19195.5 secs

     total energy              =   -3593.21136044 Ry
     estimated scf accuracy    <       0.00002972 Ry

     iteration # 12     ecut=   124.00 Ry     beta= 0.70
     Davidson diagonalization with overlap
     ethr =  8.22E-09,  avg # of iterations =  4.0

     negative rho (up, down):  7.251E-03 0.000E+00

     total cpu time spent up to now is    19253.1 secs

     total energy              =   -3593.21135786 Ry
     estimated scf accuracy    <       0.00014592 Ry

     iteration # 13     ecut=   124.00 Ry     beta= 0.70
     Davidson diagonalization with overlap
     ethr =  8.22E-09,  avg # of iterations =  3.5

     negative rho (up, down):  7.251E-03 0.000E+00

     total cpu time spent up to now is    19306.0 secs

     total energy              =   -3593.21136241 Ry
     estimated scf accuracy    <       0.00000118 Ry

     iteration # 14     ecut=   124.00 Ry     beta= 0.70
     Davidson diagonalization with overlap
     ethr =  5.17E-10,  avg # of iterations =  5.0

     negative rho (up, down):  7.250E-03 0.000E+00

     total cpu time spent up to now is    19367.6 secs

     total energy              =   -3593.21136259 Ry
     estimated scf accuracy    <       0.00000220 Ry

     iteration # 15     ecut=   124.00 Ry     beta= 0.70
     Davidson diagonalization with overlap
     ethr =  5.17E-10,  avg # of iterations =  1.4

     negative rho (up, down):  7.250E-03 0.000E+00

     total cpu time spent up to now is    19412.5 secs

     total energy              =   -3593.21136267 Ry
     estimated scf accuracy    <       0.00000018 Ry

     iteration # 16     ecut=   124.00 Ry     beta= 0.70
     Davidson diagonalization with overlap
     ethr =  7.89E-11,  avg # of iterations =  3.2

     negative rho (up, down):  7.250E-03 0.000E+00

     total cpu time spent up to now is    19466.7 secs

     total energy              =   -3593.21136269 Ry
     estimated scf accuracy    <       0.00000003 Ry

     iteration # 17     ecut=   124.00 Ry     beta= 0.70
     Davidson diagonalization with overlap
     ethr =  1.10E-11,  avg # of iterations =  5.0

     negative rho (up, down):  7.250E-03 0.000E+00

     total cpu time spent up to now is    19534.8 secs

     total energy              =   -3593.21136269 Ry
     estimated scf accuracy    <       0.00000003 Ry

     iteration # 18     ecut=   124.00 Ry     beta= 0.70
     Davidson diagonalization with overlap
     ethr =  1.10E-11,  avg # of iterations =  2.6

     negative rho (up, down):  7.250E-03 0.000E+00

     total cpu time spent up to now is    19587.0 secs

     total energy              =   -3593.21136270 Ry
     estimated scf accuracy    <       0.00000003 Ry

     iteration # 19     ecut=   124.00 Ry     beta= 0.70
     Davidson diagonalization with overlap
     ethr =  1.10E-11,  avg # of iterations =  2.1

     negative rho (up, down):  7.250E-03 0.000E+00

     total cpu time spent up to now is    19636.6 secs

     total energy              =   -3593.21136270 Ry
     estimated scf accuracy    <       0.00000005 Ry

     iteration # 20     ecut=   124.00 Ry     beta= 0.70
     Davidson diagonalization with overlap
     ethr =  1.10E-11,  avg # of iterations =  1.3

     negative rho (up, down):  7.250E-03 0.000E+00

     total cpu time spent up to now is    19681.3 secs

     total energy              =   -3593.21136270 Ry
     estimated scf accuracy    <       0.00000001 Ry

     iteration # 21     ecut=   124.00 Ry     beta= 0.70
     Davidson diagonalization with overlap
     ethr =  6.08E-12,  avg # of iterations =  1.7

     negative rho (up, down):  7.250E-03 0.000E+00

     total cpu time spent up to now is    19728.3 secs

     total energy              =   -3593.21136270 Ry
     estimated scf accuracy    <          4.7E-09 Ry

     iteration # 22     ecut=   124.00 Ry     beta= 0.70
     Davidson diagonalization with overlap
     ethr =  2.06E-12,  avg # of iterations =  2.0

     negative rho (up, down):  7.250E-03 0.000E+00

     total cpu time spent up to now is    19777.7 secs

     total energy              =   -3593.21136270 Ry
     estimated scf accuracy    <          5.9E-09 Ry

     iteration # 23     ecut=   124.00 Ry     beta= 0.70
     Davidson diagonalization with overlap
     ethr =  2.06E-12,  avg # of iterations =  1.3

     negative rho (up, down):  7.250E-03 0.000E+00

     total cpu time spent up to now is    19822.0 secs

     total energy              =   -3593.21136270 Ry
     estimated scf accuracy    <          1.0E-09 Ry

     iteration # 24     ecut=   124.00 Ry     beta= 0.70
     Davidson diagonalization with overlap
     ethr =  4.55E-13,  avg # of iterations =  2.5

     negative rho (up, down):  7.250E-03 0.000E+00

     total cpu time spent up to now is    19873.1 secs

     total energy              =   -3593.21136270 Ry
     estimated scf accuracy    <          3.0E-09 Ry

     iteration # 25     ecut=   124.00 Ry     beta= 0.70
     Davidson diagonalization with overlap
     ethr =  4.55E-13,  avg # of iterations =  1.2

     negative rho (up, down):  7.250E-03 0.000E+00

     total cpu time spent up to now is    19917.6 secs

     End of self-consistent calculation

     Number of k-points >= 100: set verbosity='high' to print the bands.

     the Fermi energy is    16.6420 ev

!    total energy              =   -3593.21136270 Ry
     estimated scf accuracy    <          2.6E-11 Ry
     smearing contrib. (-TS)   =      -0.00018081 Ry
     internal energy E=F+TS    =   -3593.21118189 Ry

     The total energy is F=E-TS. E is the sum of the following terms:
     one-electron contribution =   -1272.38886798 Ry
     hartree contribution      =     758.39832493 Ry
     xc contribution           =    -425.89508937 Ry
     ewald contribution        =   -2044.11033754 Ry
     one-center paw contrib.   =    -609.21521193 Ry

     convergence has been achieved in  25 iterations

     negative rho (up, down):  7.250E-03 0.000E+00

     Forces acting on atoms (cartesian axes, Ry/au):

     atom    1 type  1   force =     0.00000000    0.00000000    0.00000000
     atom    2 type  1   force =     0.00000000    0.00000000    0.00000000
     atom    3 type  1   force =     0.00000000    0.00000000    0.00000000
     atom    4 type  1   force =     0.00000000    0.00000000    0.00000000
     atom    5 type  1   force =     0.00000000    0.00000000    0.00000000
     atom    6 type  1   force =     0.00000000    0.00000000    0.00000000
     atom    7 type  1   force =     0.00000000    0.00000000    0.00000000
     atom    8 type  1   force =     0.00000000    0.00000000    0.00000000
     atom    9 type  2   force =    -0.00573410   -0.00012626   -0.00012626
     atom   10 type  2   force =    -0.00261211    0.00122249   -0.00122249
     atom   11 type  2   force =     0.00573410   -0.00012626   -0.00012626
     atom   12 type  2   force =    -0.00573410    0.00012626    0.00012626
     atom   13 type  2   force =     0.00261211   -0.00122249    0.00122249
     atom   14 type  2   force =     0.00573410    0.00012626    0.00012626
     atom   15 type  2   force =    -0.00261211   -0.00122249    0.00122249
     atom   16 type  2   force =     0.00261211    0.00122249   -0.00122249
     atom   17 type  3   force =    -0.00004659    0.00000000    0.00000000
     atom   18 type  3   force =     0.00000000    0.00551425   -0.00551425
     atom   19 type  3   force =     0.00004659    0.00000000    0.00000000
     atom   20 type  3   force =     0.00000000   -0.00551425    0.00551425

     Total force =     0.017103     Total SCF correction =     0.000009


     Computing stress (Cartesian axis) and pressure


     negative rho (up, down):  7.250E-03 0.000E+00
          total   stress  (Ry/bohr**3)                   (kbar)     P=       -1.01
  -0.00003497   0.00000000   0.00000000           -5.14        0.00        0.00
   0.00000000   0.00000718  -0.00001831            0.00        1.06       -2.69
   0.00000000  -0.00001831   0.00000718            0.00       -2.69        1.06

     Energy error            =      2.2E-04 Ry
     Gradient error          =      5.7E-03 Ry/Bohr
     Cell gradient error     =      5.1E+00 kbar

     number of scf cycles    =  13
     number of bfgs steps    =  12

     enthalpy           old  =   -3593.2111447121 Ry
     enthalpy           new  =   -3593.2113626984 Ry

     CASE: enthalpy          _new < enthalpy          _old

     new trust radius        =       0.0577834917 bohr
     new conv_thr            =       0.0000000002 Ry

     new unit-cell volume =   1472.78787 a.u.^3 (   218.24465 Ang^3 )
     density =      6.34351 g/cm^3

CELL_PARAMETERS (alat=  5.58242261)
   2.210069493   0.000000000   0.000000000
   0.000000000   1.957211271   0.009046826
   0.000000000   0.009046826   1.957211271

ATOMIC_POSITIONS (crystal)
Fe               0.0000000000        0.0000000000        0.0000000000
Fe               0.5000000000        0.5000000000       -0.0000000000
Fe               0.5000000000        0.0000000000        0.0000000000
Fe               0.0000000000        0.5000000000        0.5000000000
Fe               0.0000000000        0.0000000000        0.5000000000
Fe               0.5000000000        0.5000000000        0.5000000000
Fe               0.5000000000        0.0000000000        0.5000000000
Fe               0.0000000000        0.5000000000       -0.0000000000
Ti               0.2551779975        0.2455781617        0.2455781617
Ti               0.7773845433        0.7530239407        0.2469760593
Ti               0.7448220025        0.2455781617        0.2455781617
Ti               0.2551779975        0.7544218383        0.7544218383
Ti               0.2226154567        0.2469760593        0.7530239407
Ti               0.7448220025        0.7544218383        0.7544218383
Ti               0.7773845433        0.2469760593        0.7530239407
Ti               0.2226154567        0.7530239407        0.2469760593
H                0.2511671187        0.5000000000        0.5000000000
H                0.5000000000        0.2614850824        0.7385149176
H                0.7488328813        0.5000000000        0.5000000000
H                0.5000000000        0.7385149176        0.2614850824



     Writing config-only to output data dir ./TiFeH_supercell.save/ :
     XML data file     NEW-OLD atomic charge density approx. for the potential
     New effective cutoffs (rho, wfc): 1828.95  130.64

     Check: negative core charge=   -0.000002

     negative rho (up, down):  7.202E-03 0.000E+00

     total cpu time spent up to now is    19961.6 secs

     per-process dynamical memory:   702.3 Mb

     Self-consistent Calculation

     iteration #  1     ecut=   124.00 Ry     beta= 0.70
     Davidson diagonalization with overlap
     ethr =  1.00E-06,  avg # of iterations =  6.1

     negative rho (up, down):  7.203E-03 0.000E+00

     total cpu time spent up to now is    20067.6 secs

     total energy              =   -3593.20695100 Ry
     estimated scf accuracy    <       0.00570735 Ry

     iteration #  2     ecut=   124.00 Ry     beta= 0.70
     Davidson diagonalization with overlap
     c_bands:  1 eigenvalues not converged
     c_bands:  1 eigenvalues not converged
     c_bands:  1 eigenvalues not converged
     c_bands:  1 eigenvalues not converged
     c_bands:  1 eigenvalues not converged
     ethr =  2.50E-06,  avg # of iterations = 10.0

     negative rho (up, down):  7.186E-03 0.000E+00

     total cpu time spent up to now is    20180.3 secs

     total energy              =   -3593.13731299 Ry
     estimated scf accuracy    <       2.53772187 Ry

     iteration #  3     ecut=   124.00 Ry     beta= 0.70
     Davidson diagonalization with overlap
     c_bands:  1 eigenvalues not converged
     c_bands:  1 eigenvalues not converged
     ethr =  2.50E-06,  avg # of iterations =  8.3

     negative rho (up, down):  7.188E-03 0.000E+00

     total cpu time spent up to now is    20284.6 secs

     total energy              =   -3593.21076549 Ry
     estimated scf accuracy    <       0.01107562 Ry

     iteration #  4     ecut=   124.00 Ry     beta= 0.70
     Davidson diagonalization with overlap
     ethr =  2.50E-06,  avg # of iterations =  2.6

     negative rho (up, down):  7.198E-03 0.000E+00

     total cpu time spent up to now is    20335.5 secs

     total energy              =   -3593.21130286 Ry
     estimated scf accuracy    <       0.00762407 Ry

     iteration #  5     ecut=   124.00 Ry     beta= 0.70
     Davidson diagonalization with overlap
     ethr =  2.50E-06,  avg # of iterations =  1.6

     negative rho (up, down):  7.195E-03 0.000E+00

     total cpu time spent up to now is    20381.8 secs

     total energy              =   -3593.21131744 Ry
     estimated scf accuracy    <       0.00690728 Ry

     iteration #  6     ecut=   124.00 Ry     beta= 0.70
     Davidson diagonalization with overlap
     ethr =  2.50E-06,  avg # of iterations =  1.0

     negative rho (up, down):  7.191E-03 0.000E+00

     total cpu time spent up to now is    20425.3 secs

     total energy              =   -3593.21161175 Ry
     estimated scf accuracy    <       0.00026834 Ry

     iteration #  7     ecut=   124.00 Ry     beta= 0.70
     Davidson diagonalization with overlap
     ethr =  1.18E-07,  avg # of iterations =  3.9

     negative rho (up, down):  7.193E-03 0.000E+00

     total cpu time spent up to now is    20483.6 secs

     total energy              =   -3593.21162042 Ry
     estimated scf accuracy    <       0.00072290 Ry

     iteration #  8     ecut=   124.00 Ry     beta= 0.70
     Davidson diagonalization with overlap
     ethr =  1.18E-07,  avg # of iterations =  2.3

     negative rho (up, down):  7.193E-03 0.000E+00

     total cpu time spent up to now is    20534.3 secs

     total energy              =   -3593.21164602 Ry
     estimated scf accuracy    <       0.00021168 Ry

     iteration #  9     ecut=   124.00 Ry     beta= 0.70
     Davidson diagonalization with overlap
     ethr =  9.28E-08,  avg # of iterations =  2.1

     negative rho (up, down):  7.192E-03 0.000E+00

     total cpu time spent up to now is    20583.6 secs

     total energy              =   -3593.21164768 Ry
     estimated scf accuracy    <       0.00040169 Ry

     iteration # 10     ecut=   124.00 Ry     beta= 0.70
     Davidson diagonalization with overlap
     ethr =  9.28E-08,  avg # of iterations =  1.2

     negative rho (up, down):  7.192E-03 0.000E+00

     total cpu time spent up to now is    20627.9 secs

     total energy              =   -3593.21166219 Ry
     estimated scf accuracy    <       0.00002669 Ry

     iteration # 11     ecut=   124.00 Ry     beta= 0.70
     Davidson diagonalization with overlap
     ethr =  1.17E-08,  avg # of iterations =  3.1

     negative rho (up, down):  7.192E-03 0.000E+00

     total cpu time spent up to now is    20682.7 secs

     total energy              =   -3593.21166201 Ry
     estimated scf accuracy    <       0.00005696 Ry

     iteration # 12     ecut=   124.00 Ry     beta= 0.70
     Davidson diagonalization with overlap
     ethr =  1.17E-08,  avg # of iterations =  4.1

     negative rho (up, down):  7.192E-03 0.000E+00

     total cpu time spent up to now is    20740.4 secs

     total energy              =   -3593.21165959 Ry
     estimated scf accuracy    <       0.00019374 Ry

     iteration # 13     ecut=   124.00 Ry     beta= 0.70
     Davidson diagonalization with overlap
     ethr =  1.17E-08,  avg # of iterations =  3.4

     negative rho (up, down):  7.192E-03 0.000E+00

     total cpu time spent up to now is    20792.7 secs

     total energy              =   -3593.21166584 Ry
     estimated scf accuracy    <       0.00000162 Ry

     iteration # 14     ecut=   124.00 Ry     beta= 0.70
     Davidson diagonalization with overlap
     ethr =  7.11E-10,  avg # of iterations =  5.0

     negative rho (up, down):  7.192E-03 0.000E+00

     total cpu time spent up to now is    20857.9 secs

     total energy              =   -3593.21166600 Ry
     estimated scf accuracy    <       0.00000904 Ry

     iteration # 15     ecut=   124.00 Ry     beta= 0.70
     Davidson diagonalization with overlap
     ethr =  7.11E-10,  avg # of iterations =  2.4

     negative rho (up, down):  7.192E-03 0.000E+00

     total cpu time spent up to now is    20908.2 secs

     total energy              =   -3593.21166627 Ry
     estimated scf accuracy    <       0.00000052 Ry

     iteration # 16     ecut=   124.00 Ry     beta= 0.70
     Davidson diagonalization with overlap
     ethr =  2.27E-10,  avg # of iterations =  3.2

     negative rho (up, down):  7.192E-03 0.000E+00

     total cpu time spent up to now is    20963.1 secs

     total energy              =   -3593.21166630 Ry
     estimated scf accuracy    <       0.00000083 Ry

     iteration # 17     ecut=   124.00 Ry     beta= 0.70
     Davidson diagonalization with overlap
     ethr =  2.27E-10,  avg # of iterations =  1.4

     negative rho (up, down):  7.192E-03 0.000E+00

     total cpu time spent up to now is    21009.4 secs

     total energy              =   -3593.21166633 Ry
     estimated scf accuracy    <       0.00000004 Ry

     iteration # 18     ecut=   124.00 Ry     beta= 0.70
     Davidson diagonalization with overlap
     ethr =  1.86E-11,  avg # of iterations =  4.8

     negative rho (up, down):  7.192E-03 0.000E+00

     total cpu time spent up to now is    21073.3 secs

     total energy              =   -3593.21166634 Ry
     estimated scf accuracy    <       0.00000007 Ry

     iteration # 19     ecut=   124.00 Ry     beta= 0.70
     Davidson diagonalization with overlap
     ethr =  1.86E-11,  avg # of iterations =  2.1

     negative rho (up, down):  7.192E-03 0.000E+00

     total cpu time spent up to now is    21122.5 secs

     total energy              =   -3593.21166634 Ry
     estimated scf accuracy    <       0.00000006 Ry

     iteration # 20     ecut=   124.00 Ry     beta= 0.70
     Davidson diagonalization with overlap
     ethr =  1.86E-11,  avg # of iterations =  2.1

     negative rho (up, down):  7.192E-03 0.000E+00

     total cpu time spent up to now is    21171.9 secs

     total energy              =   -3593.21166634 Ry
     estimated scf accuracy    <       0.00000009 Ry

     iteration # 21     ecut=   124.00 Ry     beta= 0.70
     Davidson diagonalization with overlap
     ethr =  1.86E-11,  avg # of iterations =  1.4

     negative rho (up, down):  7.192E-03 0.000E+00

     total cpu time spent up to now is    21216.3 secs

     total energy              =   -3593.21166634 Ry
     estimated scf accuracy    <       0.00000002 Ry

     iteration # 22     ecut=   124.00 Ry     beta= 0.70
     Davidson diagonalization with overlap
     ethr =  8.35E-12,  avg # of iterations =  1.4

     negative rho (up, down):  7.192E-03 0.000E+00

     total cpu time spent up to now is    21260.9 secs

     total energy              =   -3593.21166635 Ry
     estimated scf accuracy    <          1.7E-09 Ry

     iteration # 23     ecut=   124.00 Ry     beta= 0.70
     Davidson diagonalization with overlap
     ethr =  7.38E-13,  avg # of iterations =  4.1

     negative rho (up, down):  7.192E-03 0.000E+00

     total cpu time spent up to now is    21317.6 secs

     End of self-consistent calculation

     Number of k-points >= 100: set verbosity='high' to print the bands.

     the Fermi energy is    16.6343 ev

!    total energy              =   -3593.21166635 Ry
     estimated scf accuracy    <          2.0E-10 Ry
     smearing contrib. (-TS)   =      -0.00015679 Ry
     internal energy E=F+TS    =   -3593.21150956 Ry

     The total energy is F=E-TS. E is the sum of the following terms:
     one-electron contribution =   -1272.98681751 Ry
     hartree contribution      =     758.65185420 Ry
     xc contribution           =    -425.89306732 Ry
     ewald contribution        =   -2043.76829050 Ry
     one-center paw contrib.   =    -609.21518842 Ry

     convergence has been achieved in  23 iterations

     negative rho (up, down):  7.192E-03 0.000E+00

     Forces acting on atoms (cartesian axes, Ry/au):

     atom    1 type  1   force =     0.00000000    0.00000000    0.00000000
     atom    2 type  1   force =     0.00000000    0.00000000    0.00000000
     atom    3 type  1   force =     0.00000000    0.00000000    0.00000000
     atom    4 type  1   force =     0.00000000    0.00000000    0.00000000
     atom    5 type  1   force =     0.00000000    0.00000000    0.00000000
     atom    6 type  1   force =     0.00000000    0.00000000    0.00000000
     atom    7 type  1   force =     0.00000000    0.00000000    0.00000000
     atom    8 type  1   force =     0.00000000    0.00000000    0.00000000
     atom    9 type  2   force =    -0.00870914   -0.00013342   -0.00013342
     atom   10 type  2   force =    -0.00448534    0.00177701   -0.00177701
     atom   11 type  2   force =     0.00870914   -0.00013342   -0.00013342
     atom   12 type  2   force =    -0.00870914    0.00013342    0.00013342
     atom   13 type  2   force =     0.00448534   -0.00177701    0.00177701
     atom   14 type  2   force =     0.00870914    0.00013342    0.00013342
     atom   15 type  2   force =    -0.00448534   -0.00177701    0.00177701
     atom   16 type  2   force =     0.00448534    0.00177701   -0.00177701
     atom   17 type  3   force =    -0.00001473    0.00000000    0.00000000
     atom   18 type  3   force =    -0.00000000    0.00712890   -0.00712890
     atom   19 type  3   force =     0.00001473    0.00000000    0.00000000
     atom   20 type  3   force =    -0.00000000   -0.00712890    0.00712890

     Total force =     0.024750     Total SCF correction =     0.000035


     Computing stress (Cartesian axis) and pressure


     negative rho (up, down):  7.192E-03 0.000E+00
          total   stress  (Ry/bohr**3)                   (kbar)     P=       -1.40
  -0.00004901   0.00000000   0.00000000           -7.21        0.00        0.00
   0.00000000   0.00001019  -0.00003028            0.00        1.50       -4.45
   0.00000000  -0.00003028   0.00001019            0.00       -4.45        1.50

     Energy error            =      3.0E-04 Ry
     Gradient error          =      8.7E-03 Ry/Bohr
     Cell gradient error     =      7.2E+00 kbar

     number of scf cycles    =  14
     number of bfgs steps    =  13

     enthalpy           old  =   -3593.2113626984 Ry
     enthalpy           new  =   -3593.2116663451 Ry

     CASE: enthalpy          _new < enthalpy          _old

     new trust radius        =       0.0865243964 bohr
     new conv_thr            =       0.0000000003 Ry

     new unit-cell volume =   1473.61672 a.u.^3 (   218.36747 Ang^3 )
     density =      6.33994 g/cm^3

CELL_PARAMETERS (alat=  5.58242261)
   2.212829656   0.000000000   0.000000000
   0.000000000   1.956564153   0.013197489
   0.000000000   0.013197489   1.956564153

ATOMIC_POSITIONS (crystal)
Fe               0.0000000000        0.0000000000        0.0000000000
Fe               0.5000000000        0.5000000000       -0.0000000000
Fe               0.5000000000        0.0000000000        0.0000000000
Fe               0.0000000000        0.5000000000        0.5000000000
Fe               0.0000000000        0.0000000000        0.5000000000
Fe               0.5000000000        0.5000000000        0.5000000000
Fe               0.5000000000        0.0000000000        0.5000000000
Fe               0.0000000000        0.5000000000       -0.0000000000
Ti               0.2570771278        0.2451605297        0.2451605297
Ti               0.7782636512        0.7529417016        0.2470582984
Ti               0.7429228722        0.2451605297        0.2451605297
Ti               0.2570771278        0.7548394703        0.7548394703
Ti               0.2217363488        0.2470582984        0.7529417016
Ti               0.7429228722        0.7548394703        0.7548394703
Ti               0.7782636512        0.2470582984        0.7529417016
Ti               0.2217363488        0.7529417016        0.2470582984
H                0.2511268276        0.5000000000        0.5000000000
H                0.5000000000        0.2671107654        0.7328892346
H                0.7488731724        0.5000000000        0.5000000000
H                0.5000000000        0.7328892346        0.2671107654



     Writing config-only to output data dir ./TiFeH_supercell.save/ :
     XML data file     NEW-OLD atomic charge density approx. for the potential
     New effective cutoffs (rho, wfc): 1837.78  131.28

     Check: negative core charge=   -0.000002

     negative rho (up, down):  7.178E-03 0.000E+00

     total cpu time spent up to now is    21359.8 secs

     per-process dynamical memory:   702.7 Mb

     Self-consistent Calculation

     iteration #  1     ecut=   124.00 Ry     beta= 0.70
     Davidson diagonalization with overlap
     c_bands:  1 eigenvalues not converged
     ethr =  1.00E-06,  avg # of iterations =  6.7

     negative rho (up, down):  7.178E-03 0.000E+00

     total cpu time spent up to now is    21475.7 secs

     total energy              =   -3593.20104277 Ry
     estimated scf accuracy    <       0.01330506 Ry

     iteration #  2     ecut=   124.00 Ry     beta= 0.70
     Davidson diagonalization with overlap
     c_bands:  1 eigenvalues not converged
     c_bands:  1 eigenvalues not converged
     c_bands:  1 eigenvalues not converged
     c_bands:  1 eigenvalues not converged
     ethr =  5.84E-06,  avg # of iterations = 10.1

     negative rho (up, down):  7.143E-03 0.000E+00

     total cpu time spent up to now is    21587.1 secs

     total energy              =   -3593.02717418 Ry
     estimated scf accuracy    <       6.40430089 Ry

     iteration #  3     ecut=   124.00 Ry     beta= 0.70
     Davidson diagonalization with overlap
     c_bands:  1 eigenvalues not converged
     c_bands:  1 eigenvalues not converged
     c_bands:  1 eigenvalues not converged
     c_bands:  1 eigenvalues not converged
     ethr =  5.84E-06,  avg # of iterations =  8.8

     negative rho (up, down):  7.151E-03 0.000E+00

     total cpu time spent up to now is    21691.5 secs

     total energy              =   -3593.21038070 Ry
     estimated scf accuracy    <       0.01356718 Ry

     iteration #  4     ecut=   124.00 Ry     beta= 0.70
     Davidson diagonalization with overlap
     ethr =  5.84E-06,  avg # of iterations =  2.6

     negative rho (up, down):  7.171E-03 0.000E+00

     total cpu time spent up to now is    21740.7 secs

     total energy              =   -3593.21085102 Ry
     estimated scf accuracy    <       0.02833104 Ry

     iteration #  5     ecut=   124.00 Ry     beta= 0.70
     Davidson diagonalization with overlap
     ethr =  5.84E-06,  avg # of iterations =  1.5

     negative rho (up, down):  7.162E-03 0.000E+00

     total cpu time spent up to now is    21785.0 secs

     total energy              =   -3593.21134242 Ry
     estimated scf accuracy    <       0.01097651 Ry

     iteration #  6     ecut=   124.00 Ry     beta= 0.70
     Davidson diagonalization with overlap
     ethr =  4.81E-06,  avg # of iterations =  1.1

     negative rho (up, down):  7.157E-03 0.000E+00

     total cpu time spent up to now is    21827.3 secs

     total energy              =   -3593.21184234 Ry
     estimated scf accuracy    <       0.00088230 Ry

     iteration #  7     ecut=   124.00 Ry     beta= 0.70
     Davidson diagonalization with overlap
     ethr =  3.87E-07,  avg # of iterations =  2.7

     negative rho (up, down):  7.157E-03 0.000E+00

     total cpu time spent up to now is    21879.7 secs

     total energy              =   -3593.21186900 Ry
     estimated scf accuracy    <       0.00192143 Ry

     iteration #  8     ecut=   124.00 Ry     beta= 0.70
     Davidson diagonalization with overlap
     ethr =  3.87E-07,  avg # of iterations =  2.2

     negative rho (up, down):  7.157E-03 0.000E+00

     total cpu time spent up to now is    21927.3 secs

     total energy              =   -3593.21191791 Ry
     estimated scf accuracy    <       0.00083075 Ry

     iteration #  9     ecut=   124.00 Ry     beta= 0.70
     Davidson diagonalization with overlap
     ethr =  3.64E-07,  avg # of iterations =  1.6

     negative rho (up, down):  7.155E-03 0.000E+00

     total cpu time spent up to now is    21972.4 secs

     total energy              =   -3593.21194037 Ry
     estimated scf accuracy    <       0.00077928 Ry

     iteration # 10     ecut=   124.00 Ry     beta= 0.70
     Davidson diagonalization with overlap
     ethr =  3.42E-07,  avg # of iterations =  1.0

     negative rho (up, down):  7.155E-03 0.000E+00

     total cpu time spent up to now is    22014.3 secs

     total energy              =   -3593.21197114 Ry
     estimated scf accuracy    <       0.00007786 Ry

     iteration # 11     ecut=   124.00 Ry     beta= 0.70
     Davidson diagonalization with overlap
     ethr =  3.41E-08,  avg # of iterations =  2.7

     negative rho (up, down):  7.157E-03 0.000E+00

     total cpu time spent up to now is    22065.3 secs

     total energy              =   -3593.21197354 Ry
     estimated scf accuracy    <       0.00008755 Ry

     iteration # 12     ecut=   124.00 Ry     beta= 0.70
     Davidson diagonalization with overlap
     ethr =  3.41E-08,  avg # of iterations =  2.7

     negative rho (up, down):  7.156E-03 0.000E+00

     total cpu time spent up to now is    22116.7 secs

     total energy              =   -3593.21197318 Ry
     estimated scf accuracy    <       0.00022260 Ry

     iteration # 13     ecut=   124.00 Ry     beta= 0.70
     Davidson diagonalization with overlap
     ethr =  3.41E-08,  avg # of iterations =  1.4

     negative rho (up, down):  7.156E-03 0.000E+00

     total cpu time spent up to now is    22160.8 secs

     total energy              =   -3593.21198070 Ry
     estimated scf accuracy    <       0.00000112 Ry

     iteration # 14     ecut=   124.00 Ry     beta= 0.70
     Davidson diagonalization with overlap
     ethr =  4.90E-10,  avg # of iterations =  6.2

     negative rho (up, down):  7.156E-03 0.000E+00

     total cpu time spent up to now is    22243.6 secs

     total energy              =   -3593.21197911 Ry
     estimated scf accuracy    <       0.00007777 Ry

     iteration # 15     ecut=   124.00 Ry     beta= 0.70
     Davidson diagonalization with overlap
     ethr =  4.90E-10,  avg # of iterations =  5.2

     negative rho (up, down):  7.156E-03 0.000E+00

     total cpu time spent up to now is    22311.9 secs

     total energy              =   -3593.21198140 Ry
     estimated scf accuracy    <       0.00000115 Ry

     iteration # 16     ecut=   124.00 Ry     beta= 0.70
     Davidson diagonalization with overlap
     ethr =  4.90E-10,  avg # of iterations =  2.0

     negative rho (up, down):  7.156E-03 0.000E+00

     total cpu time spent up to now is    22360.7 secs

     total energy              =   -3593.21198144 Ry
     estimated scf accuracy    <       0.00000088 Ry

     iteration # 17     ecut=   124.00 Ry     beta= 0.70
     Davidson diagonalization with overlap
     ethr =  3.84E-10,  avg # of iterations =  1.0

     negative rho (up, down):  7.156E-03 0.000E+00

     total cpu time spent up to now is    22403.5 secs

     total energy              =   -3593.21198149 Ry
     estimated scf accuracy    <       0.00000003 Ry

     iteration # 18     ecut=   124.00 Ry     beta= 0.70
     Davidson diagonalization with overlap
     ethr =  1.33E-11,  avg # of iterations =  5.0

     negative rho (up, down):  7.156E-03 0.000E+00

     total cpu time spent up to now is    22476.6 secs

     total energy              =   -3593.21198146 Ry
     estimated scf accuracy    <       0.00000089 Ry

     iteration # 19     ecut=   124.00 Ry     beta= 0.70
     Davidson diagonalization with overlap
     ethr =  1.33E-11,  avg # of iterations =  5.0

     negative rho (up, down):  7.156E-03 0.000E+00

     total cpu time spent up to now is    22543.9 secs

     total energy              =   -3593.21198149 Ry
     estimated scf accuracy    <       0.00000009 Ry

     iteration # 20     ecut=   124.00 Ry     beta= 0.70
     Davidson diagonalization with overlap
     ethr =  1.33E-11,  avg # of iterations =  4.0

     negative rho (up, down):  7.156E-03 0.000E+00

     total cpu time spent up to now is    22600.6 secs

     total energy              =   -3593.21198149 Ry
     estimated scf accuracy    <       0.00000014 Ry

     iteration # 21     ecut=   124.00 Ry     beta= 0.70
     Davidson diagonalization with overlap
     ethr =  1.33E-11,  avg # of iterations =  2.8

     negative rho (up, down):  7.156E-03 0.000E+00

     total cpu time spent up to now is    22652.0 secs

     total energy              =   -3593.21198150 Ry
     estimated scf accuracy    <          5.1E-09 Ry

     iteration # 22     ecut=   124.00 Ry     beta= 0.70
     Davidson diagonalization with overlap
     ethr =  2.24E-12,  avg # of iterations =  4.0

     negative rho (up, down):  7.156E-03 0.000E+00

     total cpu time spent up to now is    22710.6 secs

     total energy              =   -3593.21198150 Ry
     estimated scf accuracy    <       0.00000002 Ry

     iteration # 23     ecut=   124.00 Ry     beta= 0.70
     Davidson diagonalization with overlap
     ethr =  2.24E-12,  avg # of iterations =  2.1

     negative rho (up, down):  7.156E-03 0.000E+00

     total cpu time spent up to now is    22759.4 secs

     End of self-consistent calculation

     Number of k-points >= 100: set verbosity='high' to print the bands.

     the Fermi energy is    16.6216 ev

!    total energy              =   -3593.21198150 Ry
     estimated scf accuracy    <          2.4E-10 Ry
     smearing contrib. (-TS)   =      -0.00012073 Ry
     internal energy E=F+TS    =   -3593.21186077 Ry

     The total energy is F=E-TS. E is the sum of the following terms:
     one-electron contribution =   -1274.06274988 Ry
     hartree contribution      =     759.10665994 Ry
     xc contribution           =    -425.89068330 Ry
     ewald contribution        =   -2043.14990310 Ry
     one-center paw contrib.   =    -609.21518443 Ry

     convergence has been achieved in  23 iterations

     negative rho (up, down):  7.156E-03 0.000E+00

     Forces acting on atoms (cartesian axes, Ry/au):

     atom    1 type  1   force =     0.00000000    0.00000000    0.00000000
     atom    2 type  1   force =     0.00000000    0.00000000    0.00000000
     atom    3 type  1   force =     0.00000000    0.00000000    0.00000000
     atom    4 type  1   force =     0.00000000    0.00000000    0.00000000
     atom    5 type  1   force =     0.00000000    0.00000000    0.00000000
     atom    6 type  1   force =     0.00000000    0.00000000    0.00000000
     atom    7 type  1   force =     0.00000000    0.00000000    0.00000000
     atom    8 type  1   force =     0.00000000    0.00000000    0.00000000
     atom    9 type  2   force =    -0.01309516   -0.00017219   -0.00017219
     atom   10 type  2   force =    -0.00742050    0.00248533   -0.00248533
     atom   11 type  2   force =     0.01309516   -0.00017219   -0.00017219
     atom   12 type  2   force =    -0.01309516    0.00017219    0.00017219
     atom   13 type  2   force =     0.00742050   -0.00248533    0.00248533
     atom   14 type  2   force =     0.01309516    0.00017219    0.00017219
     atom   15 type  2   force =    -0.00742050   -0.00248533    0.00248533
     atom   16 type  2   force =     0.00742050    0.00248533   -0.00248533
     atom   17 type  3   force =     0.00004664    0.00000000    0.00000000
     atom   18 type  3   force =     0.00000000    0.00888341   -0.00888341
     atom   19 type  3   force =    -0.00004664    0.00000000    0.00000000
     atom   20 type  3   force =     0.00000000   -0.00888341    0.00888341

     Total force =     0.035658     Total SCF correction =     0.000032


     Computing stress (Cartesian axis) and pressure


     negative rho (up, down):  7.156E-03 0.000E+00
          total   stress  (Ry/bohr**3)                   (kbar)     P=       -1.86
  -0.00006871   0.00000000   0.00000000          -10.11        0.00        0.00
   0.00000000   0.00001542  -0.00004965            0.00        2.27       -7.30
   0.00000000  -0.00004965   0.00001542            0.00       -7.30        2.27

     Energy error            =      3.2E-04 Ry
     Gradient error          =      1.3E-02 Ry/Bohr
     Cell gradient error     =      1.0E+01 kbar

     number of scf cycles    =  15
     number of bfgs steps    =  14

     enthalpy           old  =   -3593.2116663451 Ry
     enthalpy           new  =   -3593.2119815003 Ry

     CASE: enthalpy          _new < enthalpy          _old

     new trust radius        =       0.0587321724 bohr
     new conv_thr            =       0.0000000003 Ry

     new unit-cell volume =   1474.54586 a.u.^3 (   218.50515 Ang^3 )
     density =      6.33595 g/cm^3

CELL_PARAMETERS (alat=  5.58242261)
   2.214136851   0.000000000   0.000000000
   0.000000000   1.956621432   0.015688664
   0.000000000   0.015688664   1.956621432

ATOMIC_POSITIONS (crystal)
Fe               0.0000000000        0.0000000000        0.0000000000
Fe               0.5000000000        0.5000000000       -0.0000000000
Fe               0.5000000000        0.0000000000        0.0000000000
Fe               0.0000000000        0.5000000000        0.5000000000
Fe               0.0000000000        0.0000000000        0.5000000000
Fe               0.5000000000        0.5000000000        0.5000000000
Fe               0.5000000000        0.0000000000        0.5000000000
Fe               0.0000000000        0.5000000000       -0.0000000000
Ti               0.2583036144        0.2448634452        0.2448634452
Ti               0.7788220786        0.7528514282        0.2471485718
Ti               0.7416963856        0.2448634452        0.2448634452
Ti               0.2583036144        0.7551365548        0.7551365548
Ti               0.2211779214        0.2471485718        0.7528514282
Ti               0.7416963856        0.7551365548        0.7551365548
Ti               0.7788220786        0.2471485718        0.7528514282
Ti               0.2211779214        0.7528514282        0.2471485718
H                0.2510889436        0.5000000000        0.5000000000
H                0.5000000000        0.2709388683        0.7290611317
H                0.7489110564        0.5000000000        0.5000000000
H                0.5000000000        0.7290611317        0.2709388683



     Writing config-only to output data dir ./TiFeH_supercell.save/ :
     XML data file     NEW-OLD atomic charge density approx. for the potential
     New effective cutoffs (rho, wfc): 1842.28  131.60

     Check: negative core charge=   -0.000002

     negative rho (up, down):  7.303E-03 0.000E+00

     total cpu time spent up to now is    22802.8 secs

     per-process dynamical memory:   703.4 Mb

     Self-consistent Calculation

     iteration #  1     ecut=   124.00 Ry     beta= 0.70
     Davidson diagonalization with overlap
     ethr =  1.00E-06,  avg # of iterations =  6.0

     negative rho (up, down):  7.303E-03 0.000E+00

     total cpu time spent up to now is    22903.4 secs

     total energy              =   -3593.20764781 Ry
     estimated scf accuracy    <       0.00541944 Ry

     iteration #  2     ecut=   124.00 Ry     beta= 0.70
     Davidson diagonalization with overlap
     c_bands:  1 eigenvalues not converged
     c_bands:  1 eigenvalues not converged
     c_bands:  1 eigenvalues not converged
     c_bands:  1 eigenvalues not converged
     c_bands:  1 eigenvalues not converged
     c_bands:  1 eigenvalues not converged
     c_bands:  1 eigenvalues not converged
     ethr =  2.38E-06,  avg # of iterations = 10.0

     negative rho (up, down):  7.284E-03 0.000E+00

     total cpu time spent up to now is    23014.5 secs

     total energy              =   -3593.14159331 Ry
     estimated scf accuracy    <       2.38125783 Ry

     iteration #  3     ecut=   124.00 Ry     beta= 0.70
     Davidson diagonalization with overlap
     c_bands:  1 eigenvalues not converged
     c_bands:  1 eigenvalues not converged
     c_bands:  1 eigenvalues not converged
     ethr =  2.38E-06,  avg # of iterations =  8.4

     negative rho (up, down):  7.283E-03 0.000E+00

     total cpu time spent up to now is    23117.5 secs

     total energy              =   -3593.21131412 Ry
     estimated scf accuracy    <       0.00903736 Ry

     iteration #  4     ecut=   124.00 Ry     beta= 0.70
     Davidson diagonalization with overlap
     ethr =  2.38E-06,  avg # of iterations =  2.4

     negative rho (up, down):  7.285E-03 0.000E+00

     total cpu time spent up to now is    23167.1 secs

     total energy              =   -3593.21174951 Ry
     estimated scf accuracy    <       0.00764520 Ry

     iteration #  5     ecut=   124.00 Ry     beta= 0.70
     Davidson diagonalization with overlap
     ethr =  2.38E-06,  avg # of iterations =  1.9

     negative rho (up, down):  7.288E-03 0.000E+00

     total cpu time spent up to now is    23213.1 secs

     total energy              =   -3593.21181124 Ry
     estimated scf accuracy    <       0.00549807 Ry

     iteration #  6     ecut=   124.00 Ry     beta= 0.70
     Davidson diagonalization with overlap
     ethr =  2.38E-06,  avg # of iterations =  1.0

     negative rho (up, down):  7.290E-03 0.000E+00

     total cpu time spent up to now is    23254.5 secs

     total energy              =   -3593.21204943 Ry
     estimated scf accuracy    <       0.00048197 Ry

     iteration #  7     ecut=   124.00 Ry     beta= 0.70
     Davidson diagonalization with overlap
     ethr =  2.11E-07,  avg # of iterations =  2.4

     negative rho (up, down):  7.287E-03 0.000E+00

     total cpu time spent up to now is    23304.2 secs

     total energy              =   -3593.21206834 Ry
     estimated scf accuracy    <       0.00057513 Ry

     iteration #  8     ecut=   124.00 Ry     beta= 0.70
     Davidson diagonalization with overlap
     ethr =  2.11E-07,  avg # of iterations =  1.4

     negative rho (up, down):  7.285E-03 0.000E+00

     total cpu time spent up to now is    23347.9 secs

     total energy              =   -3593.21208360 Ry
     estimated scf accuracy    <       0.00039453 Ry

     iteration #  9     ecut=   124.00 Ry     beta= 0.70
     Davidson diagonalization with overlap
     ethr =  1.73E-07,  avg # of iterations =  2.0

     negative rho (up, down):  7.285E-03 0.000E+00

     total cpu time spent up to now is    23396.3 secs

     total energy              =   -3593.21209138 Ry
     estimated scf accuracy    <       0.00046943 Ry

     iteration # 10     ecut=   124.00 Ry     beta= 0.70
     Davidson diagonalization with overlap
     ethr =  1.73E-07,  avg # of iterations =  1.0

     negative rho (up, down):  7.286E-03 0.000E+00

     total cpu time spent up to now is    23438.5 secs

     total energy              =   -3593.21211044 Ry
     estimated scf accuracy    <       0.00001005 Ry

     iteration # 11     ecut=   124.00 Ry     beta= 0.70
     Davidson diagonalization with overlap
     ethr =  4.41E-09,  avg # of iterations =  4.7

     negative rho (up, down):  7.285E-03 0.000E+00

     total cpu time spent up to now is    23504.1 secs

     total energy              =   -3593.21210781 Ry
     estimated scf accuracy    <       0.00009653 Ry

     iteration # 12     ecut=   124.00 Ry     beta= 0.70
     Davidson diagonalization with overlap
     ethr =  4.41E-09,  avg # of iterations =  5.1

     negative rho (up, down):  7.285E-03 0.000E+00

     total cpu time spent up to now is    23570.8 secs

     total energy              =   -3593.21210816 Ry
     estimated scf accuracy    <       0.00015746 Ry

     iteration # 13     ecut=   124.00 Ry     beta= 0.70
     Davidson diagonalization with overlap
     ethr =  4.41E-09,  avg # of iterations =  4.1

     negative rho (up, down):  7.285E-03 0.000E+00

     total cpu time spent up to now is    23628.7 secs

     total energy              =   -3593.21211331 Ry
     estimated scf accuracy    <       0.00000173 Ry

     iteration # 14     ecut=   124.00 Ry     beta= 0.70
     Davidson diagonalization with overlap
     ethr =  7.59E-10,  avg # of iterations =  4.0

     negative rho (up, down):  7.285E-03 0.000E+00

     total cpu time spent up to now is    23684.5 secs

     total energy              =   -3593.21211340 Ry
     estimated scf accuracy    <       0.00000365 Ry

     iteration # 15     ecut=   124.00 Ry     beta= 0.70
     Davidson diagonalization with overlap
     ethr =  7.59E-10,  avg # of iterations =  1.3

     negative rho (up, down):  7.285E-03 0.000E+00

     total cpu time spent up to now is    23728.3 secs

     total energy              =   -3593.21211355 Ry
     estimated scf accuracy    <       0.00000013 Ry

     iteration # 16     ecut=   124.00 Ry     beta= 0.70
     Davidson diagonalization with overlap
     ethr =  5.60E-11,  avg # of iterations =  4.8

     negative rho (up, down):  7.285E-03 0.000E+00

     total cpu time spent up to now is    23795.9 secs

     total energy              =   -3593.21211354 Ry
     estimated scf accuracy    <       0.00000084 Ry

     iteration # 17     ecut=   124.00 Ry     beta= 0.70
     Davidson diagonalization with overlap
     ethr =  5.60E-11,  avg # of iterations =  4.2

     negative rho (up, down):  7.285E-03 0.000E+00

     total cpu time spent up to now is    23855.6 secs

     total energy              =   -3593.21211356 Ry
     estimated scf accuracy    <       0.00000022 Ry

     iteration # 18     ecut=   124.00 Ry     beta= 0.70
     Davidson diagonalization with overlap
     ethr =  5.60E-11,  avg # of iterations =  2.2

     negative rho (up, down):  7.285E-03 0.000E+00

     total cpu time spent up to now is    23904.8 secs

     total energy              =   -3593.21211357 Ry
     estimated scf accuracy    <       0.00000017 Ry

     iteration # 19     ecut=   124.00 Ry     beta= 0.70
     Davidson diagonalization with overlap
     ethr =  5.60E-11,  avg # of iterations =  1.5

     negative rho (up, down):  7.285E-03 0.000E+00

     total cpu time spent up to now is    23949.8 secs

     total energy              =   -3593.21211358 Ry
     estimated scf accuracy    <       0.00000005 Ry

     iteration # 20     ecut=   124.00 Ry     beta= 0.70
     Davidson diagonalization with overlap
     ethr =  2.36E-11,  avg # of iterations =  2.0

     negative rho (up, down):  7.285E-03 0.000E+00

     total cpu time spent up to now is    23998.5 secs

     total energy              =   -3593.21211358 Ry
     estimated scf accuracy    <          8.5E-09 Ry

     iteration # 21     ecut=   124.00 Ry     beta= 0.70
     Davidson diagonalization with overlap
     ethr =  3.74E-12,  avg # of iterations =  4.2

     negative rho (up, down):  7.285E-03 0.000E+00

     total cpu time spent up to now is    24058.8 secs

     total energy              =   -3593.21211358 Ry
     estimated scf accuracy    <       0.00000006 Ry

     iteration # 22     ecut=   124.00 Ry     beta= 0.70
     Davidson diagonalization with overlap
     ethr =  3.74E-12,  avg # of iterations =  4.0

     negative rho (up, down):  7.285E-03 0.000E+00

     total cpu time spent up to now is    24114.6 secs

     total energy              =   -3593.21211358 Ry
     estimated scf accuracy    <          3.6E-09 Ry

     iteration # 23     ecut=   124.00 Ry     beta= 0.70
     Davidson diagonalization with overlap
     ethr =  1.60E-12,  avg # of iterations =  2.2

     negative rho (up, down):  7.285E-03 0.000E+00

     total cpu time spent up to now is    24163.2 secs

     total energy              =   -3593.21211358 Ry
     estimated scf accuracy    <          2.1E-09 Ry

     iteration # 24     ecut=   124.00 Ry     beta= 0.70
     Davidson diagonalization with overlap
     ethr =  9.36E-13,  avg # of iterations =  2.1

     negative rho (up, down):  7.285E-03 0.000E+00

     total cpu time spent up to now is    24212.8 secs

     total energy              =   -3593.21211358 Ry
     estimated scf accuracy    <          4.0E-09 Ry

     iteration # 25     ecut=   124.00 Ry     beta= 0.70
     Davidson diagonalization with overlap
     ethr =  9.36E-13,  avg # of iterations =  1.0

     negative rho (up, down):  7.285E-03 0.000E+00

     total cpu time spent up to now is    24255.4 secs

     End of self-consistent calculation

     Number of k-points >= 100: set verbosity='high' to print the bands.

     the Fermi energy is    16.6091 ev

!    total energy              =   -3593.21211358 Ry
     estimated scf accuracy    <          2.7E-10 Ry
     smearing contrib. (-TS)   =      -0.00010179 Ry
     internal energy E=F+TS    =   -3593.21201179 Ry

     The total energy is F=E-TS. E is the sum of the following terms:
     one-electron contribution =   -1275.10810487 Ry
     hartree contribution      =     759.52822437 Ry
     xc contribution           =    -425.88681908 Ry
     ewald contribution        =   -2042.53014664 Ry
     one-center paw contrib.   =    -609.21516557 Ry

     convergence has been achieved in  25 iterations

     negative rho (up, down):  7.285E-03 0.000E+00

     Forces acting on atoms (cartesian axes, Ry/au):

     atom    1 type  1   force =     0.00000000    0.00000000    0.00000000
     atom    2 type  1   force =     0.00000000    0.00000000    0.00000000
     atom    3 type  1   force =     0.00000000    0.00000000    0.00000000
     atom    4 type  1   force =     0.00000000    0.00000000    0.00000000
     atom    5 type  1   force =     0.00000000    0.00000000    0.00000000
     atom    6 type  1   force =     0.00000000    0.00000000    0.00000000
     atom    7 type  1   force =     0.00000000    0.00000000    0.00000000
     atom    8 type  1   force =     0.00000000    0.00000000    0.00000000
     atom    9 type  2   force =    -0.01597527   -0.00023713   -0.00023713
     atom   10 type  2   force =    -0.00943958    0.00293293   -0.00293293
     atom   11 type  2   force =     0.01597527   -0.00023713   -0.00023713
     atom   12 type  2   force =    -0.01597527    0.00023713    0.00023713
     atom   13 type  2   force =     0.00943958   -0.00293293    0.00293293
     atom   14 type  2   force =     0.01597527    0.00023713    0.00023713
     atom   15 type  2   force =    -0.00943958   -0.00293293    0.00293293
     atom   16 type  2   force =     0.00943958    0.00293293   -0.00293293
     atom   17 type  3   force =     0.00011947    0.00000000    0.00000000
     atom   18 type  3   force =     0.00000000    0.00955040   -0.00955040
     atom   19 type  3   force =    -0.00011947    0.00000000    0.00000000
     atom   20 type  3   force =     0.00000000   -0.00955040    0.00955040

     Total force =     0.042560     Total SCF correction =     0.000021


     Computing stress (Cartesian axis) and pressure


     negative rho (up, down):  7.285E-03 0.000E+00
          total   stress  (Ry/bohr**3)                   (kbar)     P=       -2.42
  -0.00008015   0.00000000   0.00000000          -11.79        0.00        0.00
   0.00000000   0.00001535  -0.00006315            0.00        2.26       -9.29
   0.00000000  -0.00006315   0.00001535            0.00       -9.29        2.26

     Energy error            =      1.3E-04 Ry
     Gradient error          =      1.6E-02 Ry/Bohr
     Cell gradient error     =      1.2E+01 kbar

     number of scf cycles    =  16
     number of bfgs steps    =  15

     enthalpy           old  =   -3593.2119815003 Ry
     enthalpy           new  =   -3593.2121135809 Ry

     CASE: enthalpy          _new < enthalpy          _old

     new trust radius        =       0.0234705234 bohr
     new conv_thr            =       0.0000000001 Ry

     new unit-cell volume =   1475.28916 a.u.^3 (   218.61530 Ang^3 )
     density =      6.33275 g/cm^3

CELL_PARAMETERS (alat=  5.58242261)
   2.213757642   0.000000000   0.000000000
   0.000000000   1.957285299   0.016082969
   0.000000000   0.016082969   1.957285299

ATOMIC_POSITIONS (crystal)
Fe               0.0000000000        0.0000000000        0.0000000000
Fe               0.5000000000        0.5000000000       -0.0000000000
Fe               0.5000000000        0.0000000000        0.0000000000
Fe               0.0000000000        0.5000000000        0.5000000000
Fe               0.0000000000        0.0000000000        0.5000000000
Fe               0.5000000000        0.5000000000        0.5000000000
Fe               0.5000000000        0.0000000000        0.5000000000
Fe               0.0000000000        0.5000000000       -0.0000000000
Ti               0.2586642753        0.2447150275        0.2447150275
Ti               0.7789887349        0.7527624234        0.2472375766
Ti               0.7413357247        0.2447150275        0.2447150275
Ti               0.2586642753        0.7552849725        0.7552849725
Ti               0.2210112651        0.2472375766        0.7527624234
Ti               0.7413357247        0.7552849725        0.7552849725
Ti               0.7789887349        0.2472375766        0.7527624234
Ti               0.2210112651        0.7527624234        0.2472375766
H                0.2510582895        0.5000000000        0.5000000000
H                0.5000000000        0.2724705713        0.7275294287
H                0.7489417105        0.5000000000        0.5000000000
H                0.5000000000        0.7275294287        0.2724705713



     Writing config-only to output data dir ./TiFeH_supercell.save/ :
     XML data file     NEW-OLD atomic charge density approx. for the potential
     New effective cutoffs (rho, wfc): 1841.75  131.56

     Check: negative core charge=   -0.000002

     negative rho (up, down):  7.345E-03 0.000E+00

     total cpu time spent up to now is    24299.2 secs

     per-process dynamical memory:   703.4 Mb

     Self-consistent Calculation

     iteration #  1     ecut=   124.00 Ry     beta= 0.70
     Davidson diagonalization with overlap
     ethr =  1.00E-06,  avg # of iterations =  4.0

     negative rho (up, down):  7.346E-03 0.000E+00

     total cpu time spent up to now is    24378.1 secs

     total energy              =   -3593.21196610 Ry
     estimated scf accuracy    <       0.00046659 Ry

     iteration #  2     ecut=   124.00 Ry     beta= 0.70
     Davidson diagonalization with overlap
     ethr =  2.05E-07,  avg # of iterations =  7.3

     negative rho (up, down):  7.341E-03 0.000E+00

     total cpu time spent up to now is    24470.7 secs

     total energy              =   -3593.20678276 Ry
     estimated scf accuracy    <       0.18167029 Ry

     iteration #  3     ecut=   124.00 Ry     beta= 0.70
     Davidson diagonalization with overlap
     ethr =  2.05E-07,  avg # of iterations =  7.5

     negative rho (up, down):  7.339E-03 0.000E+00

     total cpu time spent up to now is    24560.9 secs

     total energy              =   -3593.21226870 Ry
     estimated scf accuracy    <       0.00108241 Ry

     iteration #  4     ecut=   124.00 Ry     beta= 0.70
     Davidson diagonalization with overlap
     ethr =  2.05E-07,  avg # of iterations =  2.5

     negative rho (up, down):  7.337E-03 0.000E+00

     total cpu time spent up to now is    24611.4 secs

     total energy              =   -3593.21231823 Ry
     estimated scf accuracy    <       0.00060386 Ry

     iteration #  5     ecut=   124.00 Ry     beta= 0.70
     Davidson diagonalization with overlap
     ethr =  2.05E-07,  avg # of iterations =  2.2

     negative rho (up, down):  7.339E-03 0.000E+00

     total cpu time spent up to now is    24661.0 secs

     total energy              =   -3593.21230982 Ry
     estimated scf accuracy    <       0.00094333 Ry

     iteration #  6     ecut=   124.00 Ry     beta= 0.70
     Davidson diagonalization with overlap
     ethr =  2.05E-07,  avg # of iterations =  1.2

     negative rho (up, down):  7.340E-03 0.000E+00

     total cpu time spent up to now is    24704.6 secs

     total energy              =   -3593.21234471 Ry
     estimated scf accuracy    <       0.00011148 Ry

     iteration #  7     ecut=   124.00 Ry     beta= 0.70
     Davidson diagonalization with overlap
     ethr =  4.89E-08,  avg # of iterations =  2.1

     negative rho (up, down):  7.340E-03 0.000E+00

     total cpu time spent up to now is    24753.6 secs

     total energy              =   -3593.21235033 Ry
     estimated scf accuracy    <       0.00007899 Ry

     iteration #  8     ecut=   124.00 Ry     beta= 0.70
     Davidson diagonalization with overlap
     ethr =  3.46E-08,  avg # of iterations =  1.9

     negative rho (up, down):  7.340E-03 0.000E+00

     total cpu time spent up to now is    24801.4 secs

     total energy              =   -3593.21235052 Ry
     estimated scf accuracy    <       0.00009267 Ry

     iteration #  9     ecut=   124.00 Ry     beta= 0.70
     Davidson diagonalization with overlap
     ethr =  3.46E-08,  avg # of iterations =  1.3

     negative rho (up, down):  7.340E-03 0.000E+00

     total cpu time spent up to now is    24845.5 secs

     total energy              =   -3593.21235434 Ry
     estimated scf accuracy    <       0.00001942 Ry

     iteration # 10     ecut=   124.00 Ry     beta= 0.70
     Davidson diagonalization with overlap
     ethr =  8.52E-09,  avg # of iterations =  1.6

     negative rho (up, down):  7.339E-03 0.000E+00

     total cpu time spent up to now is    24891.9 secs

     total energy              =   -3593.21235524 Ry
     estimated scf accuracy    <       0.00000432 Ry

     iteration # 11     ecut=   124.00 Ry     beta= 0.70
     Davidson diagonalization with overlap
     ethr =  1.89E-09,  avg # of iterations =  2.2

     negative rho (up, down):  7.339E-03 0.000E+00

     total cpu time spent up to now is    24941.9 secs

     total energy              =   -3593.21235556 Ry
     estimated scf accuracy    <       0.00000365 Ry

     iteration # 12     ecut=   124.00 Ry     beta= 0.70
     Davidson diagonalization with overlap
     ethr =  1.60E-09,  avg # of iterations =  1.5

     negative rho (up, down):  7.339E-03 0.000E+00

     total cpu time spent up to now is    24987.2 secs

     total energy              =   -3593.21235567 Ry
     estimated scf accuracy    <       0.00000205 Ry

     iteration # 13     ecut=   124.00 Ry     beta= 0.70
     Davidson diagonalization with overlap
     ethr =  8.99E-10,  avg # of iterations =  1.0

     negative rho (up, down):  7.339E-03 0.000E+00

     total cpu time spent up to now is    25030.7 secs

     total energy              =   -3593.21235577 Ry
     estimated scf accuracy    <       0.00000036 Ry

     iteration # 14     ecut=   124.00 Ry     beta= 0.70
     Davidson diagonalization with overlap
     ethr =  1.56E-10,  avg # of iterations =  2.7

     negative rho (up, down):  7.339E-03 0.000E+00

     total cpu time spent up to now is    25079.7 secs

     total energy              =   -3593.21235580 Ry
     estimated scf accuracy    <       0.00000006 Ry

     iteration # 15     ecut=   124.00 Ry     beta= 0.70
     Davidson diagonalization with overlap
     ethr =  2.41E-11,  avg # of iterations =  4.6

     negative rho (up, down):  7.339E-03 0.000E+00

     total cpu time spent up to now is    25139.1 secs

     total energy              =   -3593.21235581 Ry
     estimated scf accuracy    <          5.5E-09 Ry

     iteration # 16     ecut=   124.00 Ry     beta= 0.70
     Davidson diagonalization with overlap
     ethr =  2.41E-12,  avg # of iterations =  4.9

     negative rho (up, down):  7.339E-03 0.000E+00

     total cpu time spent up to now is    25219.6 secs

     total energy              =   -3593.21235581 Ry
     estimated scf accuracy    <          6.5E-09 Ry

     iteration # 17     ecut=   124.00 Ry     beta= 0.70
     Davidson diagonalization with overlap
     ethr =  2.41E-12,  avg # of iterations =  1.6

     negative rho (up, down):  7.339E-03 0.000E+00

     total cpu time spent up to now is    25265.6 secs

     total energy              =   -3593.21235581 Ry
     estimated scf accuracy    <          1.8E-09 Ry

     iteration # 18     ecut=   124.00 Ry     beta= 0.70
     Davidson diagonalization with overlap
     ethr =  7.80E-13,  avg # of iterations =  2.2

     negative rho (up, down):  7.339E-03 0.000E+00

     total cpu time spent up to now is    25315.3 secs

     total energy              =   -3593.21235581 Ry
     estimated scf accuracy    <          3.1E-09 Ry

     iteration # 19     ecut=   124.00 Ry     beta= 0.70
     Davidson diagonalization with overlap
     ethr =  7.80E-13,  avg # of iterations =  2.8

     negative rho (up, down):  7.339E-03 0.000E+00

     total cpu time spent up to now is    25367.6 secs

     total energy              =   -3593.21235581 Ry
     estimated scf accuracy    <          6.7E-09 Ry

     iteration # 20     ecut=   124.00 Ry     beta= 0.70
     Davidson diagonalization with overlap
     ethr =  7.80E-13,  avg # of iterations =  2.3

     negative rho (up, down):  7.339E-03 0.000E+00

     total cpu time spent up to now is    25416.8 secs

     total energy              =   -3593.21235581 Ry
     estimated scf accuracy    <          5.6E-10 Ry

     iteration # 21     ecut=   124.00 Ry     beta= 0.70
     Davidson diagonalization with overlap
     ethr =  2.47E-13,  avg # of iterations =  3.2

     negative rho (up, down):  7.339E-03 0.000E+00

     total cpu time spent up to now is    25471.2 secs

     total energy              =   -3593.21235581 Ry
     estimated scf accuracy    <          1.8E-09 Ry

     iteration # 22     ecut=   124.00 Ry     beta= 0.70
     Davidson diagonalization with overlap
     ethr =  2.47E-13,  avg # of iterations =  1.7

     negative rho (up, down):  7.339E-03 0.000E+00

     total cpu time spent up to now is    25518.1 secs

     End of self-consistent calculation

     Number of k-points >= 100: set verbosity='high' to print the bands.

     the Fermi energy is    16.6008 ev

!    total energy              =   -3593.21235581 Ry
     estimated scf accuracy    <          9.1E-11 Ry
     smearing contrib. (-TS)   =      -0.00010191 Ry
     internal energy E=F+TS    =   -3593.21225390 Ry

     The total energy is F=E-TS. E is the sum of the following terms:
     one-electron contribution =   -1275.76612331 Ry
     hartree contribution      =     759.77114094 Ry
     xc contribution           =    -425.88177834 Ry
     ewald contribution        =   -2042.12037197 Ry
     one-center paw contrib.   =    -609.21512122 Ry

     convergence has been achieved in  22 iterations

     negative rho (up, down):  7.339E-03 0.000E+00

     Forces acting on atoms (cartesian axes, Ry/au):

     atom    1 type  1   force =     0.00000000    0.00000000    0.00000000
     atom    2 type  1   force =     0.00000000    0.00000000    0.00000000
     atom    3 type  1   force =     0.00000000    0.00000000    0.00000000
     atom    4 type  1   force =     0.00000000    0.00000000    0.00000000
     atom    5 type  1   force =     0.00000000    0.00000000    0.00000000
     atom    6 type  1   force =     0.00000000    0.00000000    0.00000000
     atom    7 type  1   force =     0.00000000    0.00000000    0.00000000
     atom    8 type  1   force =     0.00000000    0.00000000    0.00000000
     atom    9 type  2   force =    -0.01689120   -0.00029514   -0.00029514
     atom   10 type  2   force =    -0.01018543    0.00317128   -0.00317128
     atom   11 type  2   force =     0.01689120   -0.00029514   -0.00029514
     atom   12 type  2   force =    -0.01689120    0.00029514    0.00029514
     atom   13 type  2   force =     0.01018543   -0.00317128    0.00317128
     atom   14 type  2   force =     0.01689120    0.00029514    0.00029514
     atom   15 type  2   force =    -0.01018543   -0.00317128    0.00317128
     atom   16 type  2   force =     0.01018543    0.00317128   -0.00317128
     atom   17 type  3   force =     0.00018611    0.00000000    0.00000000
     atom   18 type  3   force =     0.00000000    0.00976657   -0.00976657
     atom   19 type  3   force =    -0.00018611    0.00000000    0.00000000
     atom   20 type  3   force =     0.00000000   -0.00976657    0.00976657

     Total force =     0.044933     Total SCF correction =     0.000031


     Computing stress (Cartesian axis) and pressure


     negative rho (up, down):  7.339E-03 0.000E+00
          total   stress  (Ry/bohr**3)                   (kbar)     P=       -3.08
  -0.00008170   0.00000000   0.00000000          -12.02        0.00        0.00
   0.00000000   0.00000945  -0.00006702            0.00        1.39       -9.86
   0.00000000  -0.00006702   0.00000945            0.00       -9.86        1.39

     Energy error            =      2.4E-04 Ry
     Gradient error          =      1.7E-02 Ry/Bohr
     Cell gradient error     =      1.2E+01 kbar

     number of scf cycles    =  17
     number of bfgs steps    =  16

     enthalpy           old  =   -3593.2121135809 Ry
     enthalpy           new  =   -3593.2123558077 Ry

     CASE: enthalpy          _new < enthalpy          _old


     WARNING: bfgs curvature condition failed, Theta= 0.858
     new trust radius        =       0.0258211613 bohr
     new conv_thr            =       0.0000000002 Ry

     new unit-cell volume =   1476.04331 a.u.^3 (   218.72705 Ang^3 )
     density =      6.32952 g/cm^3

CELL_PARAMETERS (alat=  5.58242261)
   2.213062758   0.000000000   0.000000000
   0.000000000   1.958093916   0.016219401
   0.000000000   0.016219401   1.958093916

ATOMIC_POSITIONS (crystal)
Fe               0.0000000000        0.0000000000        0.0000000000
Fe               0.5000000000        0.5000000000       -0.0000000000
Fe               0.5000000000        0.0000000000        0.0000000000
Fe               0.0000000000        0.5000000000        0.5000000000
Fe               0.0000000000        0.0000000000        0.5000000000
Fe               0.5000000000        0.5000000000        0.5000000000
Fe               0.5000000000        0.0000000000        0.5000000000
Fe               0.0000000000        0.5000000000       -0.0000000000
Ti               0.2589917329        0.2445335874        0.2445335874
Ti               0.7791376621        0.7526479431        0.2473520569
Ti               0.7410082671        0.2445335874        0.2445335874
Ti               0.2589917329        0.7554664126        0.7554664126
Ti               0.2208623379        0.2473520569        0.7526479431
Ti               0.7410082671        0.7554664126        0.7554664126
Ti               0.7791376621        0.2473520569        0.7526479431
Ti               0.2208623379        0.7526479431        0.2473520569
H                0.2510216366        0.5000000000        0.5000000000
H                0.5000000000        0.2741554447        0.7258445553
H                0.7489783634        0.5000000000        0.5000000000
H                0.5000000000        0.7258445553        0.2741554447



     Writing config-only to output data dir ./TiFeH_supercell.save/ :
     XML data file     NEW-OLD atomic charge density approx. for the potential
     New effective cutoffs (rho, wfc): 1840.47  131.47

     Check: negative core charge=   -0.000002

     negative rho (up, down):  7.371E-03 0.000E+00

     total cpu time spent up to now is    25561.6 secs

     per-process dynamical memory:   704.1 Mb

     Self-consistent Calculation

     iteration #  1     ecut=   124.00 Ry     beta= 0.70
     Davidson diagonalization with overlap
     ethr =  1.00E-06,  avg # of iterations =  4.0

     negative rho (up, down):  7.373E-03 0.000E+00

     total cpu time spent up to now is    25640.6 secs

     total energy              =   -3593.21234662 Ry
     estimated scf accuracy    <       0.00045056 Ry

     iteration #  2     ecut=   124.00 Ry     beta= 0.70
     Davidson diagonalization with overlap
     ethr =  1.98E-07,  avg # of iterations =  7.5

     negative rho (up, down):  7.367E-03 0.000E+00

     total cpu time spent up to now is    25733.0 secs

     total energy              =   -3593.20737491 Ry
     estimated scf accuracy    <       0.17471895 Ry

     iteration #  3     ecut=   124.00 Ry     beta= 0.70
     Davidson diagonalization with overlap
     ethr =  1.98E-07,  avg # of iterations =  7.5

     negative rho (up, down):  7.365E-03 0.000E+00

     total cpu time spent up to now is    25822.4 secs

     total energy              =   -3593.21262752 Ry
     estimated scf accuracy    <       0.00131244 Ry

     iteration #  4     ecut=   124.00 Ry     beta= 0.70
     Davidson diagonalization with overlap
     ethr =  1.98E-07,  avg # of iterations =  2.6

     negative rho (up, down):  7.362E-03 0.000E+00

     total cpu time spent up to now is    25874.1 secs

     total energy              =   -3593.21268429 Ry
     estimated scf accuracy    <       0.00052119 Ry

     iteration #  5     ecut=   124.00 Ry     beta= 0.70
     Davidson diagonalization with overlap
     ethr =  1.98E-07,  avg # of iterations =  2.5

     negative rho (up, down):  7.365E-03 0.000E+00

     total cpu time spent up to now is    25924.8 secs

     total energy              =   -3593.21267301 Ry
     estimated scf accuracy    <       0.00102829 Ry

     iteration #  6     ecut=   124.00 Ry     beta= 0.70
     Davidson diagonalization with overlap
     ethr =  1.98E-07,  avg # of iterations =  1.5

     negative rho (up, down):  7.366E-03 0.000E+00

     total cpu time spent up to now is    25969.9 secs

     total energy              =   -3593.21270998 Ry
     estimated scf accuracy    <       0.00013390 Ry

     iteration #  7     ecut=   124.00 Ry     beta= 0.70
     Davidson diagonalization with overlap
     ethr =  5.87E-08,  avg # of iterations =  2.2

     negative rho (up, down):  7.366E-03 0.000E+00

     total cpu time spent up to now is    26018.8 secs

     total energy              =   -3593.21271687 Ry
     estimated scf accuracy    <       0.00007678 Ry

     iteration #  8     ecut=   124.00 Ry     beta= 0.70
     Davidson diagonalization with overlap
     ethr =  3.37E-08,  avg # of iterations =  2.1

     negative rho (up, down):  7.366E-03 0.000E+00

     total cpu time spent up to now is    26067.1 secs

     total energy              =   -3593.21271629 Ry
     estimated scf accuracy    <       0.00012060 Ry

     iteration #  9     ecut=   124.00 Ry     beta= 0.70
     Davidson diagonalization with overlap
     ethr =  3.37E-08,  avg # of iterations =  1.2

     negative rho (up, down):  7.366E-03 0.000E+00

     total cpu time spent up to now is    26110.9 secs

     total energy              =   -3593.21272102 Ry
     estimated scf accuracy    <       0.00001604 Ry

     iteration # 10     ecut=   124.00 Ry     beta= 0.70
     Davidson diagonalization with overlap
     ethr =  7.04E-09,  avg # of iterations =  2.0

     negative rho (up, down):  7.366E-03 0.000E+00

     total cpu time spent up to now is    26160.1 secs

     total energy              =   -3593.21272176 Ry
     estimated scf accuracy    <       0.00000643 Ry

     iteration # 11     ecut=   124.00 Ry     beta= 0.70
     Davidson diagonalization with overlap
     ethr =  2.82E-09,  avg # of iterations =  2.0

     negative rho (up, down):  7.365E-03 0.000E+00

     total cpu time spent up to now is    26208.4 secs

     total energy              =   -3593.21272219 Ry
     estimated scf accuracy    <       0.00000330 Ry

     iteration # 12     ecut=   124.00 Ry     beta= 0.70
     Davidson diagonalization with overlap
     ethr =  1.45E-09,  avg # of iterations =  1.7

     negative rho (up, down):  7.365E-03 0.000E+00

     total cpu time spent up to now is    26254.7 secs

     total energy              =   -3593.21272230 Ry
     estimated scf accuracy    <       0.00000171 Ry

     iteration # 13     ecut=   124.00 Ry     beta= 0.70
     Davidson diagonalization with overlap
     ethr =  7.49E-10,  avg # of iterations =  1.2

     negative rho (up, down):  7.365E-03 0.000E+00

     total cpu time spent up to now is    26298.7 secs

     total energy              =   -3593.21272238 Ry
     estimated scf accuracy    <       0.00000082 Ry

     iteration # 14     ecut=   124.00 Ry     beta= 0.70
     Davidson diagonalization with overlap
     ethr =  3.60E-10,  avg # of iterations =  1.1

     negative rho (up, down):  7.365E-03 0.000E+00

     total cpu time spent up to now is    26341.9 secs

     total energy              =   -3593.21272242 Ry
     estimated scf accuracy    <       0.00000004 Ry

     iteration # 15     ecut=   124.00 Ry     beta= 0.70
     Davidson diagonalization with overlap
     ethr =  1.57E-11,  avg # of iterations =  4.8

     negative rho (up, down):  7.365E-03 0.000E+00

     total cpu time spent up to now is    26409.3 secs

     total energy              =   -3593.21272243 Ry
     estimated scf accuracy    <          3.5E-09 Ry

     iteration # 16     ecut=   124.00 Ry     beta= 0.70
     Davidson diagonalization with overlap
     ethr =  1.53E-12,  avg # of iterations =  4.5

     negative rho (up, down):  7.365E-03 0.000E+00

     total cpu time spent up to now is    26484.1 secs

     total energy              =   -3593.21272243 Ry
     estimated scf accuracy    <          7.6E-09 Ry

     iteration # 17     ecut=   124.00 Ry     beta= 0.70
     Davidson diagonalization with overlap
     ethr =  1.53E-12,  avg # of iterations =  2.0

     negative rho (up, down):  7.365E-03 0.000E+00

     total cpu time spent up to now is    26531.6 secs

     total energy              =   -3593.21272243 Ry
     estimated scf accuracy    <          1.7E-09 Ry

     iteration # 18     ecut=   124.00 Ry     beta= 0.70
     Davidson diagonalization with overlap
     ethr =  7.24E-13,  avg # of iterations =  2.7

     negative rho (up, down):  7.365E-03 0.000E+00

     total cpu time spent up to now is    26582.3 secs

     total energy              =   -3593.21272243 Ry
     estimated scf accuracy    <          1.9E-09 Ry

     iteration # 19     ecut=   124.00 Ry     beta= 0.70
     Davidson diagonalization with overlap
     ethr =  7.24E-13,  avg # of iterations =  4.1

     negative rho (up, down):  7.365E-03 0.000E+00

     total cpu time spent up to now is    26641.0 secs

     total energy              =   -3593.21272243 Ry
     estimated scf accuracy    <       0.00000001 Ry

     iteration # 20     ecut=   124.00 Ry     beta= 0.70
     Davidson diagonalization with overlap
     ethr =  7.24E-13,  avg # of iterations =  4.0

     negative rho (up, down):  7.365E-03 0.000E+00

     total cpu time spent up to now is    26696.0 secs

     total energy              =   -3593.21272243 Ry
     estimated scf accuracy    <          2.4E-09 Ry

     iteration # 21     ecut=   124.00 Ry     beta= 0.70
     Davidson diagonalization with overlap
     ethr =  7.24E-13,  avg # of iterations =  1.5

     negative rho (up, down):  7.365E-03 0.000E+00

     total cpu time spent up to now is    26740.5 secs

     total energy              =   -3593.21272243 Ry
     estimated scf accuracy    <          4.2E-10 Ry

     iteration # 22     ecut=   124.00 Ry     beta= 0.70
     Davidson diagonalization with overlap
     ethr =  1.85E-13,  avg # of iterations =  2.4

     negative rho (up, down):  7.365E-03 0.000E+00

     total cpu time spent up to now is    26789.5 secs

     End of self-consistent calculation

     Number of k-points >= 100: set verbosity='high' to print the bands.

     the Fermi energy is    16.5929 ev

!    total energy              =   -3593.21272243 Ry
     estimated scf accuracy    <          1.0E-10 Ry
     smearing contrib. (-TS)   =      -0.00010485 Ry
     internal energy E=F+TS    =   -3593.21261758 Ry

     The total energy is F=E-TS. E is the sum of the following terms:
     one-electron contribution =   -1276.42903269 Ry
     hartree contribution      =     760.01408128 Ry
     xc contribution           =    -425.87678411 Ry
     ewald contribution        =   -2041.70579427 Ry
     one-center paw contrib.   =    -609.21508779 Ry

     convergence has been achieved in  22 iterations

     negative rho (up, down):  7.365E-03 0.000E+00

     Forces acting on atoms (cartesian axes, Ry/au):

     atom    1 type  1   force =     0.00000000    0.00000000    0.00000000
     atom    2 type  1   force =     0.00000000    0.00000000    0.00000000
     atom    3 type  1   force =     0.00000000    0.00000000    0.00000000
     atom    4 type  1   force =     0.00000000    0.00000000    0.00000000
     atom    5 type  1   force =     0.00000000    0.00000000    0.00000000
     atom    6 type  1   force =     0.00000000    0.00000000    0.00000000
     atom    7 type  1   force =     0.00000000    0.00000000    0.00000000
     atom    8 type  1   force =     0.00000000    0.00000000    0.00000000
     atom    9 type  2   force =    -0.01776029   -0.00034463   -0.00034463
     atom   10 type  2   force =    -0.01095656    0.00342937   -0.00342937
     atom   11 type  2   force =     0.01776029   -0.00034463   -0.00034463
     atom   12 type  2   force =    -0.01776029    0.00034463    0.00034463
     atom   13 type  2   force =     0.01095656   -0.00342937    0.00342937
     atom   14 type  2   force =     0.01776029    0.00034463    0.00034463
     atom   15 type  2   force =    -0.01095656   -0.00342937    0.00342937
     atom   16 type  2   force =     0.01095656    0.00342937   -0.00342937
     atom   17 type  3   force =     0.00026704    0.00000000    0.00000000
     atom   18 type  3   force =     0.00000000    0.00995037   -0.00995037
     atom   19 type  3   force =    -0.00026704    0.00000000    0.00000000
     atom   20 type  3   force =     0.00000000   -0.00995037    0.00995037

     Total force =     0.047256     Total SCF correction =     0.000011


     Computing stress (Cartesian axis) and pressure


     negative rho (up, down):  7.365E-03 0.000E+00
          total   stress  (Ry/bohr**3)                   (kbar)     P=       -3.72
  -0.00008185   0.00000000   0.00000000          -12.04        0.00        0.00
   0.00000000   0.00000300  -0.00007047            0.00        0.44      -10.37
   0.00000000  -0.00007047   0.00000300            0.00      -10.37        0.44

     Energy error            =      3.7E-04 Ry
     Gradient error          =      1.8E-02 Ry/Bohr
     Cell gradient error     =      1.2E+01 kbar

     number of scf cycles    =  18
     number of bfgs steps    =  17

     enthalpy           old  =   -3593.2123558077 Ry
     enthalpy           new  =   -3593.2127224326 Ry

     CASE: enthalpy          _new < enthalpy          _old

     new trust radius        =       0.0387451537 bohr
     new conv_thr            =       0.0000000004 Ry

     new unit-cell volume =   1477.07074 a.u.^3 (   218.87930 Ang^3 )
     density =      6.32512 g/cm^3

CELL_PARAMETERS (alat=  5.58242261)
   2.211704986   0.000000000   0.000000000
   0.000000000   1.959374645   0.016011683
   0.000000000   0.016011683   1.959374645

ATOMIC_POSITIONS (crystal)
Fe               0.0000000000        0.0000000000        0.0000000000
Fe               0.5000000000        0.5000000000       -0.0000000000
Fe               0.5000000000        0.0000000000        0.0000000000
Fe               0.0000000000        0.5000000000        0.5000000000
Fe               0.0000000000       -0.0000000000        0.5000000000
Fe               0.5000000000        0.5000000000        0.5000000000
Fe               0.5000000000       -0.0000000000        0.5000000000
Fe               0.0000000000        0.5000000000       -0.0000000000
Ti               0.2593840707        0.2442360947        0.2442360947
Ti               0.7793050195        0.7524564297        0.2475435703
Ti               0.7406159293        0.2442360947        0.2442360947
Ti               0.2593840707        0.7557639053        0.7557639053
Ti               0.2206949805        0.2475435703        0.7524564297
Ti               0.7406159293        0.7557639053        0.7557639053
Ti               0.7793050195        0.2475435703        0.7524564297
Ti               0.2206949805        0.7524564297        0.2475435703
H                0.2509646516        0.5000000000        0.5000000000
H                0.5000000000        0.2766827547        0.7233172453
H                0.7490353484        0.5000000000        0.5000000000
H                0.5000000000        0.7233172453        0.2766827547



     Writing config-only to output data dir ./TiFeH_supercell.save/ :
     XML data file     NEW-OLD atomic charge density approx. for the potential
     New effective cutoffs (rho, wfc): 1837.66  131.27

     Check: negative core charge=   -0.000002

     negative rho (up, down):  7.374E-03 0.000E+00

     total cpu time spent up to now is    26833.4 secs

     per-process dynamical memory:   704.1 Mb

     Self-consistent Calculation

     iteration #  1     ecut=   124.00 Ry     beta= 0.70
     Davidson diagonalization with overlap
     ethr =  1.00E-06,  avg # of iterations =  4.9

     negative rho (up, down):  7.379E-03 0.000E+00

     total cpu time spent up to now is    26920.4 secs

     total energy              =   -3593.21270591 Ry
     estimated scf accuracy    <       0.00086743 Ry

     iteration #  2     ecut=   124.00 Ry     beta= 0.70
     Davidson diagonalization with overlap
     ethr =  3.80E-07,  avg # of iterations =  7.4

     negative rho (up, down):  7.371E-03 0.000E+00

     total cpu time spent up to now is    27013.7 secs

     total energy              =   -3593.20305206 Ry
     estimated scf accuracy    <       0.34244644 Ry

     iteration #  3     ecut=   124.00 Ry     beta= 0.70
     Davidson diagonalization with overlap
     ethr =  3.80E-07,  avg # of iterations =  7.8

     negative rho (up, down):  7.368E-03 0.000E+00

     total cpu time spent up to now is    27105.8 secs

     total energy              =   -3593.21320554 Ry
     estimated scf accuracy    <       0.00327826 Ry

     iteration #  4     ecut=   124.00 Ry     beta= 0.70
     Davidson diagonalization with overlap
     ethr =  3.80E-07,  avg # of iterations =  3.0

     negative rho (up, down):  7.363E-03 0.000E+00

     total cpu time spent up to now is    27157.5 secs

     total energy              =   -3593.21333783 Ry
     estimated scf accuracy    <       0.00087834 Ry

     iteration #  5     ecut=   124.00 Ry     beta= 0.70
     Davidson diagonalization with overlap
     ethr =  3.80E-07,  avg # of iterations =  3.0

     negative rho (up, down):  7.367E-03 0.000E+00

     total cpu time spent up to now is    27209.0 secs

     total energy              =   -3593.21331292 Ry
     estimated scf accuracy    <       0.00222060 Ry

     iteration #  6     ecut=   124.00 Ry     beta= 0.70
     Davidson diagonalization with overlap
     ethr =  3.80E-07,  avg # of iterations =  1.7

     negative rho (up, down):  7.369E-03 0.000E+00

     total cpu time spent up to now is    27254.9 secs

     total energy              =   -3593.21338916 Ry
     estimated scf accuracy    <       0.00032971 Ry

     iteration #  7     ecut=   124.00 Ry     beta= 0.70
     Davidson diagonalization with overlap
     ethr =  1.45E-07,  avg # of iterations =  2.0

     negative rho (up, down):  7.369E-03 0.000E+00

     total cpu time spent up to now is    27301.6 secs

     total energy              =   -3593.21340566 Ry
     estimated scf accuracy    <       0.00013268 Ry

     iteration #  8     ecut=   124.00 Ry     beta= 0.70
     Davidson diagonalization with overlap
     ethr =  5.82E-08,  avg # of iterations =  2.3

     negative rho (up, down):  7.369E-03 0.000E+00

     total cpu time spent up to now is    27350.9 secs

     total energy              =   -3593.21340467 Ry
     estimated scf accuracy    <       0.00023752 Ry

     iteration #  9     ecut=   124.00 Ry     beta= 0.70
     Davidson diagonalization with overlap
     ethr =  5.82E-08,  avg # of iterations =  1.2

     negative rho (up, down):  7.369E-03 0.000E+00

     total cpu time spent up to now is    27394.0 secs

     total energy              =   -3593.21341378 Ry
     estimated scf accuracy    <       0.00003478 Ry

     iteration # 10     ecut=   124.00 Ry     beta= 0.70
     Davidson diagonalization with overlap
     ethr =  1.53E-08,  avg # of iterations =  2.0

     negative rho (up, down):  7.369E-03 0.000E+00

     total cpu time spent up to now is    27441.9 secs

     total energy              =   -3593.21341512 Ry
     estimated scf accuracy    <       0.00001962 Ry

     iteration # 11     ecut=   124.00 Ry     beta= 0.70
     Davidson diagonalization with overlap
     ethr =  8.60E-09,  avg # of iterations =  1.6

     negative rho (up, down):  7.368E-03 0.000E+00

     total cpu time spent up to now is    27487.4 secs

     total energy              =   -3593.21341627 Ry
     estimated scf accuracy    <       0.00000470 Ry

     iteration # 12     ecut=   124.00 Ry     beta= 0.70
     Davidson diagonalization with overlap
     ethr =  2.06E-09,  avg # of iterations =  2.2

     negative rho (up, down):  7.368E-03 0.000E+00

     total cpu time spent up to now is    27537.6 secs

     total energy              =   -3593.21341640 Ry
     estimated scf accuracy    <       0.00000543 Ry

     iteration # 13     ecut=   124.00 Ry     beta= 0.70
     Davidson diagonalization with overlap
     ethr =  2.06E-09,  avg # of iterations =  1.1

     negative rho (up, down):  7.369E-03 0.000E+00

     total cpu time spent up to now is    27579.9 secs

     total energy              =   -3593.21341664 Ry
     estimated scf accuracy    <       0.00000155 Ry

     iteration # 14     ecut=   124.00 Ry     beta= 0.70
     Davidson diagonalization with overlap
     ethr =  6.82E-10,  avg # of iterations =  1.2

     negative rho (up, down):  7.369E-03 0.000E+00

     total cpu time spent up to now is    27622.9 secs

     total energy              =   -3593.21341671 Ry
     estimated scf accuracy    <       0.00000007 Ry

     iteration # 15     ecut=   124.00 Ry     beta= 0.70
     Davidson diagonalization with overlap
     ethr =  2.87E-11,  avg # of iterations =  4.9

     negative rho (up, down):  7.369E-03 0.000E+00

     total cpu time spent up to now is    27688.2 secs

     total energy              =   -3593.21341672 Ry
     estimated scf accuracy    <       0.00000002 Ry

     iteration # 16     ecut=   124.00 Ry     beta= 0.70
     Davidson diagonalization with overlap
     ethr =  1.01E-11,  avg # of iterations =  4.1

     negative rho (up, down):  7.369E-03 0.000E+00

     total cpu time spent up to now is    27747.2 secs

     total energy              =   -3593.21341672 Ry
     estimated scf accuracy    <       0.00000005 Ry

     iteration # 17     ecut=   124.00 Ry     beta= 0.70
     Davidson diagonalization with overlap
     ethr =  1.01E-11,  avg # of iterations =  2.7

     negative rho (up, down):  7.369E-03 0.000E+00

     total cpu time spent up to now is    27798.1 secs

     total energy              =   -3593.21341672 Ry
     estimated scf accuracy    <       0.00000004 Ry

     iteration # 18     ecut=   124.00 Ry     beta= 0.70
     Davidson diagonalization with overlap
     ethr =  1.01E-11,  avg # of iterations =  1.2

     negative rho (up, down):  7.369E-03 0.000E+00

     total cpu time spent up to now is    27841.3 secs

     total energy              =   -3593.21341673 Ry
     estimated scf accuracy    <          1.1E-09 Ry

     iteration # 19     ecut=   124.00 Ry     beta= 0.70
     Davidson diagonalization with overlap
     ethr =  4.92E-13,  avg # of iterations =  4.8

     negative rho (up, down):  7.369E-03 0.000E+00

     total cpu time spent up to now is    27916.0 secs

     total energy              =   -3593.21341673 Ry
     estimated scf accuracy    <       0.00000002 Ry

     iteration # 20     ecut=   124.00 Ry     beta= 0.70
     Davidson diagonalization with overlap
     ethr =  4.92E-13,  avg # of iterations =  4.2

     negative rho (up, down):  7.369E-03 0.000E+00

     total cpu time spent up to now is    27975.3 secs

     total energy              =   -3593.21341673 Ry
     estimated scf accuracy    <          7.3E-10 Ry

     iteration # 21     ecut=   124.00 Ry     beta= 0.70
     Davidson diagonalization with overlap
     ethr =  3.19E-13,  avg # of iterations =  1.3

     negative rho (up, down):  7.369E-03 0.000E+00

     total cpu time spent up to now is    28019.4 secs

     End of self-consistent calculation

     Number of k-points >= 100: set verbosity='high' to print the bands.

     the Fermi energy is    16.5826 ev

!    total energy              =   -3593.21341673 Ry
     estimated scf accuracy    <          1.0E-10 Ry
     smearing contrib. (-TS)   =      -0.00011404 Ry
     internal energy E=F+TS    =   -3593.21330269 Ry

     The total energy is F=E-TS. E is the sum of the following terms:
     one-electron contribution =   -1277.32551823 Ry
     hartree contribution      =     760.34026319 Ry
     xc contribution           =    -425.87024207 Ry
     ewald contribution        =   -2041.14274248 Ry
     one-center paw contrib.   =    -609.21506309 Ry

     convergence has been achieved in  21 iterations

     negative rho (up, down):  7.369E-03 0.000E+00

     Forces acting on atoms (cartesian axes, Ry/au):

     atom    1 type  1   force =     0.00000000    0.00000000    0.00000000
     atom    2 type  1   force =     0.00000000    0.00000000    0.00000000
     atom    3 type  1   force =     0.00000000    0.00000000    0.00000000
     atom    4 type  1   force =     0.00000000    0.00000000    0.00000000
     atom    5 type  1   force =     0.00000000    0.00000000    0.00000000
     atom    6 type  1   force =     0.00000000    0.00000000    0.00000000
     atom    7 type  1   force =     0.00000000    0.00000000    0.00000000
     atom    8 type  1   force =     0.00000000    0.00000000    0.00000000
     atom    9 type  2   force =    -0.01886067   -0.00038890   -0.00038890
     atom   10 type  2   force =    -0.01202692    0.00380155   -0.00380155
     atom   11 type  2   force =     0.01886067   -0.00038890   -0.00038890
     atom   12 type  2   force =    -0.01886067    0.00038890    0.00038890
     atom   13 type  2   force =     0.01202692   -0.00380155    0.00380155
     atom   14 type  2   force =     0.01886067    0.00038890    0.00038890
     atom   15 type  2   force =    -0.01202692   -0.00380155    0.00380155
     atom   16 type  2   force =     0.01202692    0.00380155   -0.00380155
     atom   17 type  3   force =     0.00039317    0.00000000    0.00000000
     atom   18 type  3   force =     0.00000000    0.01009540   -0.01009540
     atom   19 type  3   force =    -0.00039317    0.00000000    0.00000000
     atom   20 type  3   force =     0.00000000   -0.01009540    0.01009540

     Total force =     0.050262     Total SCF correction =     0.000027


     Computing stress (Cartesian axis) and pressure


     negative rho (up, down):  7.369E-03 0.000E+00
          total   stress  (Ry/bohr**3)                   (kbar)     P=       -4.56
  -0.00008045   0.00000000   0.00000000          -11.83        0.00        0.00
   0.00000000  -0.00000625  -0.00007458            0.00       -0.92      -10.97
   0.00000000  -0.00007458  -0.00000625            0.00      -10.97       -0.92

     Energy error            =      6.9E-04 Ry
     Gradient error          =      1.9E-02 Ry/Bohr
     Cell gradient error     =      1.2E+01 kbar

     number of scf cycles    =  19
     number of bfgs steps    =  18

     enthalpy           old  =   -3593.2127224326 Ry
     enthalpy           new  =   -3593.2134167271 Ry

     CASE: enthalpy          _new < enthalpy          _old

     new trust radius        =       0.0581622778 bohr
     new conv_thr            =       0.0000000007 Ry

     new unit-cell volume =   1478.55323 a.u.^3 (   219.09898 Ang^3 )
     density =      6.31877 g/cm^3

CELL_PARAMETERS (alat=  5.58242261)
   2.209259740   0.000000000   0.000000000
   0.000000000   1.961435478   0.015176196
   0.000000000   0.015176196   1.961435478

ATOMIC_POSITIONS (crystal)
Fe               0.0000000000        0.0000000000        0.0000000000
Fe               0.5000000000        0.5000000000       -0.0000000000
Fe               0.5000000000        0.0000000000        0.0000000000
Fe               0.0000000000        0.5000000000        0.5000000000
Fe               0.0000000000       -0.0000000000        0.5000000000
Fe               0.5000000000        0.5000000000        0.5000000000
Fe               0.5000000000       -0.0000000000        0.5000000000
Fe               0.0000000000        0.5000000000       -0.0000000000
Ti               0.2598442084        0.2437598352        0.2437598352
Ti               0.7794767531        0.7521446920        0.2478553080
Ti               0.7401557916        0.2437598352        0.2437598352
Ti               0.2598442084        0.7562401648        0.7562401648
Ti               0.2205232469        0.2478553080        0.7521446920
Ti               0.7401557916        0.7562401648        0.7562401648
Ti               0.7794767531        0.2478553080        0.7521446920
Ti               0.2205232469        0.7521446920        0.2478553080
H                0.2508769437        0.5000000000        0.5000000000
H                0.5000000000        0.2804737197        0.7195262803
H                0.7491230563        0.5000000000        0.5000000000
H                0.5000000000        0.7195262803        0.2804737197



     Writing config-only to output data dir ./TiFeH_supercell.save/ :
     XML data file     NEW-OLD atomic charge density approx. for the potential
     New effective cutoffs (rho, wfc): 1832.23  130.88

     Check: negative core charge=   -0.000002

     negative rho (up, down):  7.303E-03 0.000E+00

     total cpu time spent up to now is    28063.4 secs

     per-process dynamical memory:   704.8 Mb

     Self-consistent Calculation

     iteration #  1     ecut=   124.00 Ry     beta= 0.70
     Davidson diagonalization with overlap
     ethr =  1.00E-06,  avg # of iterations =  5.0

     negative rho (up, down):  7.315E-03 0.000E+00

     total cpu time spent up to now is    28159.4 secs

     total energy              =   -3593.21316449 Ry
     estimated scf accuracy    <       0.00178629 Ry

     iteration #  2     ecut=   124.00 Ry     beta= 0.70
     Davidson diagonalization with overlap
     ethr =  7.83E-07,  avg # of iterations =  8.0

     negative rho (up, down):  7.301E-03 0.000E+00

     total cpu time spent up to now is    28257.9 secs

     total energy              =   -3593.19322446 Ry
     estimated scf accuracy    <       0.71354269 Ry

     iteration #  3     ecut=   124.00 Ry     beta= 0.70
     Davidson diagonalization with overlap
     ethr =  7.83E-07,  avg # of iterations =  7.9

     negative rho (up, down):  7.297E-03 0.000E+00

     total cpu time spent up to now is    28354.0 secs

     total energy              =   -3593.21413405 Ry
     estimated scf accuracy    <       0.00790367 Ry

     iteration #  4     ecut=   124.00 Ry     beta= 0.70
     Davidson diagonalization with overlap
     ethr =  7.83E-07,  avg # of iterations =  3.4

     negative rho (up, down):  7.290E-03 0.000E+00

     total cpu time spent up to now is    28407.9 secs

     total energy              =   -3593.21443629 Ry
     estimated scf accuracy    <       0.00173803 Ry

     iteration #  5     ecut=   124.00 Ry     beta= 0.70
     Davidson diagonalization with overlap
     ethr =  7.62E-07,  avg # of iterations =  3.4

     negative rho (up, down):  7.294E-03 0.000E+00

     total cpu time spent up to now is    28461.3 secs

     total energy              =   -3593.21439589 Ry
     estimated scf accuracy    <       0.00476099 Ry

     iteration #  6     ecut=   124.00 Ry     beta= 0.70
     Davidson diagonalization with overlap
     ethr =  7.62E-07,  avg # of iterations =  1.9

     negative rho (up, down):  7.297E-03 0.000E+00

     total cpu time spent up to now is    28508.6 secs

     total energy              =   -3593.21454637 Ry
     estimated scf accuracy    <       0.00089143 Ry

     iteration #  7     ecut=   124.00 Ry     beta= 0.70
     Davidson diagonalization with overlap
     ethr =  3.91E-07,  avg # of iterations =  1.8

     negative rho (up, down):  7.297E-03 0.000E+00

     total cpu time spent up to now is    28555.5 secs

     total energy              =   -3593.21458808 Ry
     estimated scf accuracy    <       0.00030360 Ry

     iteration #  8     ecut=   124.00 Ry     beta= 0.70
     Davidson diagonalization with overlap
     ethr =  1.33E-07,  avg # of iterations =  2.3

     negative rho (up, down):  7.297E-03 0.000E+00

     total cpu time spent up to now is    28604.4 secs

     total energy              =   -3593.21459030 Ry
     estimated scf accuracy    <       0.00044549 Ry

     iteration #  9     ecut=   124.00 Ry     beta= 0.70
     Davidson diagonalization with overlap
     ethr =  1.33E-07,  avg # of iterations =  1.1

     negative rho (up, down):  7.297E-03 0.000E+00

     total cpu time spent up to now is    28647.0 secs

     total energy              =   -3593.21460821 Ry
     estimated scf accuracy    <       0.00007626 Ry

     iteration # 10     ecut=   124.00 Ry     beta= 0.70
     Davidson diagonalization with overlap
     ethr =  3.34E-08,  avg # of iterations =  2.0

     negative rho (up, down):  7.297E-03 0.000E+00

     total cpu time spent up to now is    28695.8 secs

     total energy              =   -3593.21461092 Ry
     estimated scf accuracy    <       0.00003984 Ry

     iteration # 11     ecut=   124.00 Ry     beta= 0.70
     Davidson diagonalization with overlap
     ethr =  1.75E-08,  avg # of iterations =  1.7

     negative rho (up, down):  7.297E-03 0.000E+00

     total cpu time spent up to now is    28741.9 secs

     total energy              =   -3593.21461313 Ry
     estimated scf accuracy    <       0.00000919 Ry

     iteration # 12     ecut=   124.00 Ry     beta= 0.70
     Davidson diagonalization with overlap
     ethr =  4.03E-09,  avg # of iterations =  2.8

     negative rho (up, down):  7.297E-03 0.000E+00

     total cpu time spent up to now is    28794.0 secs

     total energy              =   -3593.21461331 Ry
     estimated scf accuracy    <       0.00001801 Ry

     iteration # 13     ecut=   124.00 Ry     beta= 0.70
     Davidson diagonalization with overlap
     ethr =  4.03E-09,  avg # of iterations =  1.4

     negative rho (up, down):  7.297E-03 0.000E+00

     total cpu time spent up to now is    28839.2 secs

     total energy              =   -3593.21461399 Ry
     estimated scf accuracy    <       0.00000205 Ry

     iteration # 14     ecut=   124.00 Ry     beta= 0.70
     Davidson diagonalization with overlap
     ethr =  8.99E-10,  avg # of iterations =  2.1

     negative rho (up, down):  7.297E-03 0.000E+00

     total cpu time spent up to now is    28888.1 secs

     total energy              =   -3593.21461409 Ry
     estimated scf accuracy    <       0.00000013 Ry

     iteration # 15     ecut=   124.00 Ry     beta= 0.70
     Davidson diagonalization with overlap
     ethr =  5.55E-11,  avg # of iterations =  5.0

     negative rho (up, down):  7.297E-03 0.000E+00

     total cpu time spent up to now is    28963.0 secs

     total energy              =   -3593.21461404 Ry
     estimated scf accuracy    <       0.00000263 Ry

     iteration # 16     ecut=   124.00 Ry     beta= 0.70
     Davidson diagonalization with overlap
     ethr =  5.55E-11,  avg # of iterations =  4.4

     negative rho (up, down):  7.297E-03 0.000E+00

     total cpu time spent up to now is    29027.7 secs

     total energy              =   -3593.21461414 Ry
     estimated scf accuracy    <       0.00000013 Ry

     iteration # 17     ecut=   124.00 Ry     beta= 0.70
     Davidson diagonalization with overlap
     ethr =  5.51E-11,  avg # of iterations =  2.0

     negative rho (up, down):  7.297E-03 0.000E+00

     total cpu time spent up to now is    29075.4 secs

     total energy              =   -3593.21461414 Ry
     estimated scf accuracy    <       0.00000013 Ry

     iteration # 18     ecut=   124.00 Ry     beta= 0.70
     Davidson diagonalization with overlap
     ethr =  5.51E-11,  avg # of iterations =  1.1

     negative rho (up, down):  7.297E-03 0.000E+00

     total cpu time spent up to now is    29118.0 secs

     total energy              =   -3593.21461415 Ry
     estimated scf accuracy    <          8.1E-09 Ry

     iteration # 19     ecut=   124.00 Ry     beta= 0.70
     Davidson diagonalization with overlap
     ethr =  3.53E-12,  avg # of iterations =  4.4

     negative rho (up, down):  7.297E-03 0.000E+00

     total cpu time spent up to now is    29178.2 secs

     total energy              =   -3593.21461415 Ry
     estimated scf accuracy    <       0.00000002 Ry

     iteration # 20     ecut=   124.00 Ry     beta= 0.70
     Davidson diagonalization with overlap
     ethr =  3.53E-12,  avg # of iterations =  2.0

     negative rho (up, down):  7.297E-03 0.000E+00

     total cpu time spent up to now is    29226.7 secs

     total energy              =   -3593.21461415 Ry
     estimated scf accuracy    <          4.2E-09 Ry

     iteration # 21     ecut=   124.00 Ry     beta= 0.70
     Davidson diagonalization with overlap
     ethr =  1.84E-12,  avg # of iterations =  2.2

     negative rho (up, down):  7.297E-03 0.000E+00

     total cpu time spent up to now is    29276.4 secs

     total energy              =   -3593.21461415 Ry
     estimated scf accuracy    <          7.0E-09 Ry

     iteration # 22     ecut=   124.00 Ry     beta= 0.70
     Davidson diagonalization with overlap
     ethr =  1.84E-12,  avg # of iterations =  1.1

     negative rho (up, down):  7.297E-03 0.000E+00

     total cpu time spent up to now is    29319.4 secs

     total energy              =   -3593.21461415 Ry
     estimated scf accuracy    <          7.7E-10 Ry

     iteration # 23     ecut=   124.00 Ry     beta= 0.70
     Davidson diagonalization with overlap
     ethr =  3.38E-13,  avg # of iterations =  2.3

     negative rho (up, down):  7.297E-03 0.000E+00

     total cpu time spent up to now is    29368.5 secs

     End of self-consistent calculation

     Number of k-points >= 100: set verbosity='high' to print the bands.

     the Fermi energy is    16.5685 ev

!    total energy              =   -3593.21461415 Ry
     estimated scf accuracy    <          1.3E-10 Ry
     smearing contrib. (-TS)   =      -0.00013669 Ry
     internal energy E=F+TS    =   -3593.21447746 Ry

     The total energy is F=E-TS. E is the sum of the following terms:
     one-electron contribution =   -1278.60084681 Ry
     hartree contribution      =     760.79958329 Ry
     xc contribution           =    -425.86107460 Ry
     ewald contribution        =   -2040.33708117 Ry
     one-center paw contrib.   =    -609.21505818 Ry

     convergence has been achieved in  23 iterations

     negative rho (up, down):  7.297E-03 0.000E+00

     Forces acting on atoms (cartesian axes, Ry/au):

     atom    1 type  1   force =     0.00000000    0.00000000    0.00000000
     atom    2 type  1   force =     0.00000000    0.00000000    0.00000000
     atom    3 type  1   force =     0.00000000    0.00000000    0.00000000
     atom    4 type  1   force =     0.00000000    0.00000000    0.00000000
     atom    5 type  1   force =     0.00000000    0.00000000    0.00000000
     atom    6 type  1   force =     0.00000000    0.00000000    0.00000000
     atom    7 type  1   force =     0.00000000    0.00000000    0.00000000
     atom    8 type  1   force =     0.00000000    0.00000000    0.00000000
     atom    9 type  2   force =    -0.02026398   -0.00041073   -0.00041073
     atom   10 type  2   force =    -0.01353127    0.00433969   -0.00433969
     atom   11 type  2   force =     0.02026398   -0.00041073   -0.00041073
     atom   12 type  2   force =    -0.02026398    0.00041073    0.00041073
     atom   13 type  2   force =     0.01353127   -0.00433969    0.00433969
     atom   14 type  2   force =     0.02026398    0.00041073    0.00041073
     atom   15 type  2   force =    -0.01353127   -0.00433969    0.00433969
     atom   16 type  2   force =     0.01353127    0.00433969   -0.00433969
     atom   17 type  3   force =     0.00059109    0.00000000    0.00000000
     atom   18 type  3   force =    -0.00000000    0.00995108   -0.00995108
     atom   19 type  3   force =    -0.00059109    0.00000000    0.00000000
     atom   20 type  3   force =    -0.00000000   -0.00995108    0.00995108

     Total force =     0.054071     Total SCF correction =     0.000022


     Computing stress (Cartesian axis) and pressure


     negative rho (up, down):  7.297E-03 0.000E+00
          total   stress  (Ry/bohr**3)                   (kbar)     P=       -5.70
  -0.00007670   0.00000000   0.00000000          -11.28        0.00        0.00
   0.00000000  -0.00001978  -0.00007975            0.00       -2.91      -11.73
   0.00000000  -0.00007975  -0.00001978            0.00      -11.73       -2.91

     Energy error            =      1.2E-03 Ry
     Gradient error          =      2.0E-02 Ry/Bohr
     Cell gradient error     =      1.2E+01 kbar

     number of scf cycles    =  20
     number of bfgs steps    =  19

     enthalpy           old  =   -3593.2134167271 Ry
     enthalpy           new  =   -3593.2146141491 Ry

     CASE: enthalpy          _new < enthalpy          _old

     new trust radius        =       0.0873734412 bohr
     new conv_thr            =       0.0000000012 Ry

     new unit-cell volume =   1481.04704 a.u.^3 (   219.46853 Ang^3 )
     density =      6.30813 g/cm^3

CELL_PARAMETERS (alat=  5.58242261)
   2.204239667   0.000000000   0.000000000
   0.000000000   1.965305301   0.012702876
   0.000000000   0.012702876   1.965305301

ATOMIC_POSITIONS (crystal)
Fe               0.0000000000        0.0000000000        0.0000000000
Fe               0.5000000000        0.5000000000       -0.0000000000
Fe               0.5000000000        0.0000000000        0.0000000000
Fe               0.0000000000        0.5000000000        0.5000000000
Fe               0.0000000000       -0.0000000000        0.5000000000
Fe               0.5000000000        0.5000000000        0.5000000000
Fe               0.5000000000       -0.0000000000        0.5000000000
Fe               0.0000000000        0.5000000000       -0.0000000000
Ti               0.2602408849        0.2429834765        0.2429834765
Ti               0.7795716334        0.7516047951        0.2483952049
Ti               0.7397591151        0.2429834765        0.2429834765
Ti               0.2602408849        0.7570165235        0.7570165235
Ti               0.2204283666        0.2483952049        0.7516047951
Ti               0.7397591151        0.7570165235        0.7570165235
Ti               0.7795716334        0.2483952049        0.7516047951
Ti               0.2204283666        0.7516047951        0.2483952049
H                0.2507299320        0.5000000000        0.5000000000
H                0.5000000000        0.2861601672        0.7138398328
H                0.7492700680        0.5000000000        0.5000000000
H                0.5000000000        0.7138398328        0.2861601672



     Writing config-only to output data dir ./TiFeH_supercell.save/ :
     XML data file     NEW-OLD atomic charge density approx. for the potential
     New effective cutoffs (rho, wfc): 1820.47  130.04

     Check: negative core charge=   -0.000002

     negative rho (up, down):  7.307E-03 0.000E+00

     total cpu time spent up to now is    29412.3 secs

     per-process dynamical memory:   704.8 Mb

     Self-consistent Calculation

     iteration #  1     ecut=   124.00 Ry     beta= 0.70
     Davidson diagonalization with overlap
     ethr =  1.00E-06,  avg # of iterations =  6.6

     negative rho (up, down):  7.325E-03 0.000E+00

     total cpu time spent up to now is    29519.6 secs

     total energy              =   -3593.21397113 Ry
     estimated scf accuracy    <       0.00331514 Ry

     iteration #  2     ecut=   124.00 Ry     beta= 0.70
     Davidson diagonalization with overlap
     c_bands:  1 eigenvalues not converged
     c_bands:  1 eigenvalues not converged
     c_bands:  1 eigenvalues not converged
     c_bands:  1 eigenvalues not converged
     c_bands:  1 eigenvalues not converged
     c_bands:  1 eigenvalues not converged
     c_bands:  1 eigenvalues not converged
     c_bands:  1 eigenvalues not converged
     c_bands:  1 eigenvalues not converged
     ethr =  1.45E-06,  avg # of iterations =  9.4

     negative rho (up, down):  7.304E-03 0.000E+00

     total cpu time spent up to now is    29624.4 secs

     total energy              =   -3593.17857551 Ry
     estimated scf accuracy    <       1.26101019 Ry

     iteration #  3     ecut=   124.00 Ry     beta= 0.70
     Davidson diagonalization with overlap
     c_bands:  1 eigenvalues not converged
     ethr =  1.45E-06,  avg # of iterations =  8.3

     negative rho (up, down):  7.295E-03 0.000E+00

     total cpu time spent up to now is    29724.3 secs

     total energy              =   -3593.21548074 Ry
     estimated scf accuracy    <       0.02135857 Ry

     iteration #  4     ecut=   124.00 Ry     beta= 0.70
     Davidson diagonalization with overlap
     ethr =  1.45E-06,  avg # of iterations =  4.0

     negative rho (up, down):  7.283E-03 0.000E+00

     total cpu time spent up to now is    29779.9 secs

     total energy              =   -3593.21624507 Ry
     estimated scf accuracy    <       0.00368849 Ry

     iteration #  5     ecut=   124.00 Ry     beta= 0.70
     Davidson diagonalization with overlap
     ethr =  1.45E-06,  avg # of iterations =  4.0

     negative rho (up, down):  7.287E-03 0.000E+00

     total cpu time spent up to now is    29834.7 secs

     total energy              =   -3593.21621617 Ry
     estimated scf accuracy    <       0.01021724 Ry

     iteration #  6     ecut=   124.00 Ry     beta= 0.70
     Davidson diagonalization with overlap
     ethr =  1.45E-06,  avg # of iterations =  2.0

     negative rho (up, down):  7.291E-03 0.000E+00

     total cpu time spent up to now is    29882.5 secs

     total energy              =   -3593.21649866 Ry
     estimated scf accuracy    <       0.00228775 Ry

     iteration #  7     ecut=   124.00 Ry     beta= 0.70
     Davidson diagonalization with overlap
     ethr =  1.00E-06,  avg # of iterations =  1.6

     negative rho (up, down):  7.292E-03 0.000E+00

     total cpu time spent up to now is    29927.7 secs

     total energy              =   -3593.21660629 Ry
     estimated scf accuracy    <       0.00050533 Ry

     iteration #  8     ecut=   124.00 Ry     beta= 0.70
     Davidson diagonalization with overlap
     ethr =  2.22E-07,  avg # of iterations =  2.8

     negative rho (up, down):  7.292E-03 0.000E+00

     total cpu time spent up to now is    29978.9 secs

     total energy              =   -3593.21660912 Ry
     estimated scf accuracy    <       0.00106172 Ry

     iteration #  9     ecut=   124.00 Ry     beta= 0.70
     Davidson diagonalization with overlap
     ethr =  2.22E-07,  avg # of iterations =  1.4

     negative rho (up, down):  7.294E-03 0.000E+00

     total cpu time spent up to now is    30022.4 secs

     total energy              =   -3593.21664884 Ry
     estimated scf accuracy    <       0.00012809 Ry

     iteration # 10     ecut=   124.00 Ry     beta= 0.70
     Davidson diagonalization with overlap
     ethr =  5.62E-08,  avg # of iterations =  2.0

     negative rho (up, down):  7.294E-03 0.000E+00

     total cpu time spent up to now is    30070.4 secs

     total energy              =   -3593.21665460 Ry
     estimated scf accuracy    <       0.00004647 Ry

     iteration # 11     ecut=   124.00 Ry     beta= 0.70
     Davidson diagonalization with overlap
     ethr =  2.04E-08,  avg # of iterations =  2.1

     negative rho (up, down):  7.293E-03 0.000E+00

     total cpu time spent up to now is    30119.3 secs

     total energy              =   -3593.21665773 Ry
     estimated scf accuracy    <       0.00003291 Ry

     iteration # 12     ecut=   124.00 Ry     beta= 0.70
     Davidson diagonalization with overlap
     ethr =  1.44E-08,  avg # of iterations =  2.1

     negative rho (up, down):  7.293E-03 0.000E+00

     total cpu time spent up to now is    30167.4 secs

     total energy              =   -3593.21665860 Ry
     estimated scf accuracy    <       0.00002680 Ry

     iteration # 13     ecut=   124.00 Ry     beta= 0.70
     Davidson diagonalization with overlap
     ethr =  1.18E-08,  avg # of iterations =  1.0

     negative rho (up, down):  7.293E-03 0.000E+00

     total cpu time spent up to now is    30209.6 secs

     total energy              =   -3593.21665976 Ry
     estimated scf accuracy    <       0.00000316 Ry

     iteration # 14     ecut=   124.00 Ry     beta= 0.70
     Davidson diagonalization with overlap
     ethr =  1.39E-09,  avg # of iterations =  2.5

     negative rho (up, down):  7.293E-03 0.000E+00

     total cpu time spent up to now is    30258.3 secs

     total energy              =   -3593.21665987 Ry
     estimated scf accuracy    <       0.00000031 Ry

     iteration # 15     ecut=   124.00 Ry     beta= 0.70
     Davidson diagonalization with overlap
     ethr =  1.37E-10,  avg # of iterations =  5.0

     negative rho (up, down):  7.293E-03 0.000E+00

     total cpu time spent up to now is    30331.9 secs

     total energy              =   -3593.21665964 Ry
     estimated scf accuracy    <       0.00001113 Ry

     iteration # 16     ecut=   124.00 Ry     beta= 0.70
     Davidson diagonalization with overlap
     ethr =  1.37E-10,  avg # of iterations =  5.0

     negative rho (up, down):  7.293E-03 0.000E+00

     total cpu time spent up to now is    30399.2 secs

     total energy              =   -3593.21666001 Ry
     estimated scf accuracy    <       0.00000004 Ry

     iteration # 17     ecut=   124.00 Ry     beta= 0.70
     Davidson diagonalization with overlap
     ethr =  1.81E-11,  avg # of iterations =  3.0

     negative rho (up, down):  7.293E-03 0.000E+00

     total cpu time spent up to now is    30451.4 secs

     total energy              =   -3593.21666002 Ry
     estimated scf accuracy    <       0.00000002 Ry

     iteration # 18     ecut=   124.00 Ry     beta= 0.70
     Davidson diagonalization with overlap
     ethr =  7.40E-12,  avg # of iterations =  3.8

     negative rho (up, down):  7.293E-03 0.000E+00

     total cpu time spent up to now is    30508.4 secs

     total energy              =   -3593.21666002 Ry
     estimated scf accuracy    <       0.00000005 Ry

     iteration # 19     ecut=   124.00 Ry     beta= 0.70
     Davidson diagonalization with overlap
     ethr =  7.40E-12,  avg # of iterations =  2.4

     negative rho (up, down):  7.293E-03 0.000E+00

     total cpu time spent up to now is    30559.4 secs

     total energy              =   -3593.21666002 Ry
     estimated scf accuracy    <       0.00000002 Ry

     iteration # 20     ecut=   124.00 Ry     beta= 0.70
     Davidson diagonalization with overlap
     ethr =  7.40E-12,  avg # of iterations =  1.3

     negative rho (up, down):  7.293E-03 0.000E+00

     total cpu time spent up to now is    30602.9 secs

     total energy              =   -3593.21666002 Ry
     estimated scf accuracy    <          6.9E-09 Ry

     iteration # 21     ecut=   124.00 Ry     beta= 0.70
     Davidson diagonalization with overlap
     ethr =  3.04E-12,  avg # of iterations =  2.0

     negative rho (up, down):  7.293E-03 0.000E+00

     total cpu time spent up to now is    30651.4 secs

     total energy              =   -3593.21666002 Ry
     estimated scf accuracy    <          9.3E-09 Ry

     iteration # 22     ecut=   124.00 Ry     beta= 0.70
     Davidson diagonalization with overlap
     ethr =  3.04E-12,  avg # of iterations =  1.0

     negative rho (up, down):  7.293E-03 0.000E+00

     total cpu time spent up to now is    30693.2 secs

     End of self-consistent calculation

     Number of k-points >= 100: set verbosity='high' to print the bands.

     the Fermi energy is    16.5456 ev

!    total energy              =   -3593.21666002 Ry
     estimated scf accuracy    <          2.3E-10 Ry
     smearing contrib. (-TS)   =      -0.00018184 Ry
     internal energy E=F+TS    =   -3593.21647818 Ry

     The total energy is F=E-TS. E is the sum of the following terms:
     one-electron contribution =   -1280.64228439 Ry
     hartree contribution      =     761.51617252 Ry
     xc contribution           =    -425.84494525 Ry
     ewald contribution        =   -2039.03034326 Ry
     one-center paw contrib.   =    -609.21507780 Ry

     convergence has been achieved in  22 iterations

     negative rho (up, down):  7.293E-03 0.000E+00

     Forces acting on atoms (cartesian axes, Ry/au):

     atom    1 type  1   force =     0.00000000    0.00000000    0.00000000
     atom    2 type  1   force =     0.00000000    0.00000000    0.00000000
     atom    3 type  1   force =     0.00000000    0.00000000    0.00000000
     atom    4 type  1   force =     0.00000000    0.00000000    0.00000000
     atom    5 type  1   force =     0.00000000    0.00000000    0.00000000
     atom    6 type  1   force =     0.00000000    0.00000000    0.00000000
     atom    7 type  1   force =     0.00000000    0.00000000    0.00000000
     atom    8 type  1   force =     0.00000000    0.00000000    0.00000000
     atom    9 type  2   force =    -0.02182176   -0.00038330   -0.00038330
     atom   10 type  2   force =    -0.01565110    0.00519552   -0.00519552
     atom   11 type  2   force =     0.02182176   -0.00038330   -0.00038330
     atom   12 type  2   force =    -0.02182176    0.00038330    0.00038330
     atom   13 type  2   force =     0.01565110   -0.00519552    0.00519552
     atom   14 type  2   force =     0.02182176    0.00038330    0.00038330
     atom   15 type  2   force =    -0.01565110   -0.00519552    0.00519552
     atom   16 type  2   force =     0.01565110    0.00519552   -0.00519552
     atom   17 type  3   force =     0.00094160    0.00000000    0.00000000
     atom   18 type  3   force =    -0.00000000    0.00889487   -0.00889487
     atom   19 type  3   force =    -0.00094160    0.00000000    0.00000000
     atom   20 type  3   force =    -0.00000000   -0.00889487    0.00889487

     Total force =     0.058480     Total SCF correction =     0.000035


     Computing stress (Cartesian axis) and pressure


     negative rho (up, down):  7.293E-03 0.000E+00
          total   stress  (Ry/bohr**3)                   (kbar)     P=       -7.64
  -0.00006741   0.00000000   0.00000000           -9.92        0.00        0.00
   0.00000000  -0.00004420  -0.00008562            0.00       -6.50      -12.59
   0.00000000  -0.00008562  -0.00004420            0.00      -12.59       -6.50

     Energy error            =      2.0E-03 Ry
     Gradient error          =      2.2E-02 Ry/Bohr
     Cell gradient error     =      1.3E+01 kbar

     number of scf cycles    =  21
     number of bfgs steps    =  20

     enthalpy           old  =   -3593.2146141491 Ry
     enthalpy           new  =   -3593.2166600200 Ry

     CASE: enthalpy          _new < enthalpy          _old

     new trust radius        =       0.1314873060 bohr
     new conv_thr            =       0.0000000020 Ry

     new unit-cell volume =   1485.80642 a.u.^3 (   220.17380 Ang^3 )
     density =      6.28793 g/cm^3

CELL_PARAMETERS (alat=  5.58242261)
   2.191970480   0.000000000   0.000000000
   0.000000000   1.973927636   0.005237504
   0.000000000   0.005237504   1.973927636

ATOMIC_POSITIONS (crystal)
Fe               0.0000000000        0.0000000000        0.0000000000
Fe               0.5000000000        0.5000000000       -0.0000000000
Fe               0.5000000000        0.0000000000        0.0000000000
Fe               0.0000000000        0.5000000000        0.5000000000
Fe               0.0000000000       -0.0000000000        0.5000000000
Fe               0.5000000000        0.5000000000        0.5000000000
Fe               0.5000000000       -0.0000000000        0.5000000000
Fe               0.0000000000        0.5000000000       -0.0000000000
Ti               0.2599516442        0.2416375136        0.2416375136
Ti               0.7792572476        0.7505642787        0.2494357213
Ti               0.7400483558        0.2416375136        0.2416375136
Ti               0.2599516442        0.7583624864        0.7583624864
Ti               0.2207427524        0.2494357213        0.7505642787
Ti               0.7400483558        0.7583624864        0.7583624864
Ti               0.7792572476        0.2494357213        0.7505642787
Ti               0.2207427524        0.7505642787        0.2494357213
H                0.2504498972        0.5000000000        0.5000000000
H                0.5000000000        0.2946898385        0.7053101615
H                0.7495501028        0.5000000000        0.5000000000
H                0.5000000000        0.7053101615        0.2946898385



     Writing config-only to output data dir ./TiFeH_supercell.save/ :
     XML data file     NEW-OLD atomic charge density approx. for the potential
     New effective cutoffs (rho, wfc): 1791.20  127.94

     Check: negative core charge=   -0.000001

     negative rho (up, down):  7.340E-03 0.000E+00

     total cpu time spent up to now is    30736.8 secs

     per-process dynamical memory:   705.5 Mb

     Self-consistent Calculation

     iteration #  1     ecut=   124.00 Ry     beta= 0.70
     Davidson diagonalization with overlap
     ethr =  1.00E-06,  avg # of iterations =  8.7

     negative rho (up, down):  7.381E-03 0.000E+00

     total cpu time spent up to now is    30876.1 secs

     total energy              =   -3593.21495545 Ry
     estimated scf accuracy    <       0.00610507 Ry

     iteration #  2     ecut=   124.00 Ry     beta= 0.70
     Davidson diagonalization with overlap
     c_bands:  1 eigenvalues not converged
     c_bands:  1 eigenvalues not converged
     c_bands:  1 eigenvalues not converged
     c_bands:  1 eigenvalues not converged
     c_bands:  1 eigenvalues not converged
     c_bands:  1 eigenvalues not converged
     c_bands:  1 eigenvalues not converged
     c_bands:  1 eigenvalues not converged
     c_bands:  1 eigenvalues not converged
     ethr =  2.68E-06,  avg # of iterations = 10.8

     negative rho (up, down):  7.345E-03 0.000E+00

     total cpu time spent up to now is    30983.4 secs

     total energy              =   -3593.16347870 Ry
     estimated scf accuracy    <       1.73589653 Ry

     iteration #  3     ecut=   124.00 Ry     beta= 0.70
     Davidson diagonalization with overlap
     c_bands:  1 eigenvalues not converged
     c_bands:  1 eigenvalues not converged
     c_bands:  1 eigenvalues not converged
     c_bands:  1 eigenvalues not converged
     c_bands:  1 eigenvalues not converged
     c_bands:  1 eigenvalues not converged
     ethr =  2.68E-06,  avg # of iterations =  8.5

     negative rho (up, down):  7.330E-03 0.000E+00

     total cpu time spent up to now is    31083.8 secs

     total energy              =   -3593.21718848 Ry
     estimated scf accuracy    <       0.04939486 Ry

     iteration #  4     ecut=   124.00 Ry     beta= 0.70
     Davidson diagonalization with overlap
     ethr =  2.68E-06,  avg # of iterations =  4.4

     negative rho (up, down):  7.313E-03 0.000E+00

     total cpu time spent up to now is    31142.5 secs

     total energy              =   -3593.21897750 Ry
     estimated scf accuracy    <       0.00949403 Ry

     iteration #  5     ecut=   124.00 Ry     beta= 0.70
     Davidson diagonalization with overlap
     ethr =  2.68E-06,  avg # of iterations =  4.2

     negative rho (up, down):  7.324E-03 0.000E+00

     total cpu time spent up to now is    31199.4 secs

     total energy              =   -3593.21847983 Ry
     estimated scf accuracy    <       0.04046333 Ry

     iteration #  6     ecut=   124.00 Ry     beta= 0.70
     Davidson diagonalization with overlap
     ethr =  2.68E-06,  avg # of iterations =  2.9

     negative rho (up, down):  7.329E-03 0.000E+00

     total cpu time spent up to now is    31250.2 secs

     total energy              =   -3593.21961526 Ry
     estimated scf accuracy    <       0.00534060 Ry

     iteration #  7     ecut=   124.00 Ry     beta= 0.70
     Davidson diagonalization with overlap
     ethr =  2.34E-06,  avg # of iterations =  1.7

     negative rho (up, down):  7.332E-03 0.000E+00

     total cpu time spent up to now is    31295.9 secs

     total energy              =   -3593.21988157 Ry
     estimated scf accuracy    <       0.00042602 Ry

     iteration #  8     ecut=   124.00 Ry     beta= 0.70
     Davidson diagonalization with overlap
     ethr =  1.87E-07,  avg # of iterations =  4.6

     negative rho (up, down):  7.334E-03 0.000E+00

     total cpu time spent up to now is    31356.3 secs

     total energy              =   -3593.21994672 Ry
     estimated scf accuracy    <       0.00020144 Ry

     iteration #  9     ecut=   124.00 Ry     beta= 0.70
     Davidson diagonalization with overlap
     ethr =  8.84E-08,  avg # of iterations =  4.1

     negative rho (up, down):  7.334E-03 0.000E+00

     total cpu time spent up to now is    31412.2 secs

     total energy              =   -3593.21993030 Ry
     estimated scf accuracy    <       0.00121788 Ry

     iteration # 10     ecut=   124.00 Ry     beta= 0.70
     Davidson diagonalization with overlap
     ethr =  8.84E-08,  avg # of iterations =  2.2

     negative rho (up, down):  7.331E-03 0.000E+00

     total cpu time spent up to now is    31460.6 secs

     total energy              =   -3593.21997097 Ry
     estimated scf accuracy    <       0.00003674 Ry

     iteration # 11     ecut=   124.00 Ry     beta= 0.70
     Davidson diagonalization with overlap
     ethr =  1.61E-08,  avg # of iterations =  3.7

     negative rho (up, down):  7.331E-03 0.000E+00

     total cpu time spent up to now is    31514.1 secs

     total energy              =   -3593.21997276 Ry
     estimated scf accuracy    <       0.00000672 Ry

     iteration # 12     ecut=   124.00 Ry     beta= 0.70
     Davidson diagonalization with overlap
     ethr =  2.95E-09,  avg # of iterations =  5.2

     negative rho (up, down):  7.332E-03 0.000E+00

     total cpu time spent up to now is    31583.6 secs

     total energy              =   -3593.21996869 Ry
     estimated scf accuracy    <       0.00015198 Ry

     iteration # 13     ecut=   124.00 Ry     beta= 0.70
     Davidson diagonalization with overlap
     ethr =  2.95E-09,  avg # of iterations =  4.8

     negative rho (up, down):  7.332E-03 0.000E+00

     total cpu time spent up to now is    31646.3 secs

     total energy              =   -3593.21997415 Ry
     estimated scf accuracy    <       0.00000450 Ry

     iteration # 14     ecut=   124.00 Ry     beta= 0.70
     Davidson diagonalization with overlap
     ethr =  1.97E-09,  avg # of iterations =  1.6

     negative rho (up, down):  7.331E-03 0.000E+00

     total cpu time spent up to now is    31692.0 secs

     total energy              =   -3593.21997430 Ry
     estimated scf accuracy    <       0.00000306 Ry

     iteration # 15     ecut=   124.00 Ry     beta= 0.70
     Davidson diagonalization with overlap
     ethr =  1.34E-09,  avg # of iterations =  1.2

     negative rho (up, down):  7.331E-03 0.000E+00

     total cpu time spent up to now is    31735.2 secs

     total energy              =   -3593.21997443 Ry
     estimated scf accuracy    <       0.00000037 Ry

     iteration # 16     ecut=   124.00 Ry     beta= 0.70
     Davidson diagonalization with overlap
     ethr =  1.63E-10,  avg # of iterations =  2.7

     negative rho (up, down):  7.331E-03 0.000E+00

     total cpu time spent up to now is    31785.5 secs

     total energy              =   -3593.21997445 Ry
     estimated scf accuracy    <       0.00000020 Ry

     iteration # 17     ecut=   124.00 Ry     beta= 0.70
     Davidson diagonalization with overlap
     ethr =  8.93E-11,  avg # of iterations =  2.4

     negative rho (up, down):  7.332E-03 0.000E+00

     total cpu time spent up to now is    31836.0 secs

     total energy              =   -3593.21997444 Ry
     estimated scf accuracy    <       0.00000058 Ry

     iteration # 18     ecut=   124.00 Ry     beta= 0.70
     Davidson diagonalization with overlap
     ethr =  8.93E-11,  avg # of iterations =  1.4

     negative rho (up, down):  7.331E-03 0.000E+00

     total cpu time spent up to now is    31880.4 secs

     total energy              =   -3593.21997447 Ry
     estimated scf accuracy    <          9.3E-09 Ry

     iteration # 19     ecut=   124.00 Ry     beta= 0.70
     Davidson diagonalization with overlap
     ethr =  4.07E-12,  avg # of iterations =  5.0

     negative rho (up, down):  7.331E-03 0.000E+00

     total cpu time spent up to now is    31952.8 secs

     total energy              =   -3593.21997447 Ry
     estimated scf accuracy    <          4.3E-09 Ry

     iteration # 20     ecut=   124.00 Ry     beta= 0.70
     Davidson diagonalization with overlap
     ethr =  1.90E-12,  avg # of iterations =  2.0

     negative rho (up, down):  7.332E-03 0.000E+00

     total cpu time spent up to now is    32001.4 secs

     End of self-consistent calculation

     Number of k-points >= 100: set verbosity='high' to print the bands.

     the Fermi energy is    16.5050 ev

!    total energy              =   -3593.21997447 Ry
     estimated scf accuracy    <          9.9E-10 Ry
     smearing contrib. (-TS)   =      -0.00017719 Ry
     internal energy E=F+TS    =   -3593.21979728 Ry

     The total energy is F=E-TS. E is the sum of the following terms:
     one-electron contribution =   -1284.23215412 Ry
     hartree contribution      =     762.72547574 Ry
     xc contribution           =    -425.81219348 Ry
     ewald contribution        =   -2036.68587211 Ry
     one-center paw contrib.   =    -609.21505331 Ry

     convergence has been achieved in  20 iterations

     negative rho (up, down):  7.332E-03 0.000E+00

     Forces acting on atoms (cartesian axes, Ry/au):

     atom    1 type  1   force =     0.00000000    0.00000000    0.00000000
     atom    2 type  1   force =     0.00000000    0.00000000    0.00000000
     atom    3 type  1   force =     0.00000000    0.00000000    0.00000000
     atom    4 type  1   force =     0.00000000    0.00000000    0.00000000
     atom    5 type  1   force =     0.00000000    0.00000000    0.00000000
     atom    6 type  1   force =     0.00000000    0.00000000    0.00000000
     atom    7 type  1   force =     0.00000000    0.00000000    0.00000000
     atom    8 type  1   force =     0.00000000    0.00000000    0.00000000
     atom    9 type  2   force =    -0.02245668   -0.00019231   -0.00019231
     atom   10 type  2   force =    -0.01845095    0.00682969   -0.00682969
     atom   11 type  2   force =     0.02245668   -0.00019231   -0.00019231
     atom   12 type  2   force =    -0.02245668    0.00019231    0.00019231
     atom   13 type  2   force =     0.01845095   -0.00682969    0.00682969
     atom   14 type  2   force =     0.02245668    0.00019231    0.00019231
     atom   15 type  2   force =    -0.01845095   -0.00682969    0.00682969
     atom   16 type  2   force =     0.01845095    0.00682969   -0.00682969
     atom   17 type  3   force =     0.00171752    0.00000000    0.00000000
     atom   18 type  3   force =     0.00000000    0.00561603   -0.00561603
     atom   19 type  3   force =    -0.00171752    0.00000000    0.00000000
     atom   20 type  3   force =     0.00000000   -0.00561603    0.00561603

     Total force =     0.062326     Total SCF correction =     0.000065


     Computing stress (Cartesian axis) and pressure


     negative rho (up, down):  7.332E-03 0.000E+00
          total   stress  (Ry/bohr**3)                   (kbar)     P=      -11.64
  -0.00003647   0.00000000   0.00000000           -5.37        0.00        0.00
   0.00000000  -0.00010042  -0.00008314            0.00      -14.77      -12.23
   0.00000000  -0.00008314  -0.00010042            0.00      -12.23      -14.77

     Energy error            =      3.3E-03 Ry
     Gradient error          =      2.2E-02 Ry/Bohr
     Cell gradient error     =      1.5E+01 kbar

     number of scf cycles    =  22
     number of bfgs steps    =  21

     enthalpy           old  =   -3593.2166600200 Ry
     enthalpy           new  =   -3593.2199744719 Ry

     CASE: enthalpy          _new < enthalpy          _old

     new trust radius        =       0.0789393719 bohr
     new conv_thr            =       0.0000000022 Ry

     new unit-cell volume =   1489.95414 a.u.^3 (   220.78842 Ang^3 )
     density =      6.27042 g/cm^3

CELL_PARAMETERS (alat=  5.58242261)
   2.173748149   0.000000000   0.000000000
   0.000000000   1.984958115  -0.008054266
   0.000000000  -0.008054266   1.984958115

ATOMIC_POSITIONS (crystal)
Fe               0.0000000000        0.0000000000        0.0000000000
Fe               0.5000000000        0.5000000000       -0.0000000000
Fe               0.5000000000        0.0000000000        0.0000000000
Fe               0.0000000000        0.5000000000        0.5000000000
Fe               0.0000000000       -0.0000000000        0.5000000000
Fe               0.5000000000        0.5000000000        0.5000000000
Fe               0.5000000000       -0.0000000000        0.5000000000
Fe               0.0000000000        0.5000000000       -0.0000000000
Ti               0.2575933115        0.2404060311        0.2404060311
Ti               0.7779112791        0.7494802411        0.2505197589
Ti               0.7424066885        0.2404060311        0.2404060311
Ti               0.2575933115        0.7595939689        0.7595939689
Ti               0.2220887209        0.2505197589        0.7494802411
Ti               0.7424066885        0.7595939689        0.7595939689
Ti               0.7779112791        0.2505197589        0.7494802411
Ti               0.2220887209        0.7494802411        0.2505197589
H                0.2501715966        0.5000000000        0.5000000000
H                0.5000000000        0.2997688429        0.7002311571
H                0.7498284034        0.5000000000        0.5000000000
H                0.5000000000        0.7002311571        0.2997688429



     Writing config-only to output data dir ./TiFeH_supercell.save/ :
     XML data file     NEW-OLD atomic charge density approx. for the potential
     New effective cutoffs (rho, wfc): 1776.22  126.87

     Check: negative core charge=   -0.000001

     negative rho (up, down):  7.287E-03 0.000E+00

     total cpu time spent up to now is    32045.7 secs

     per-process dynamical memory:   705.5 Mb

     Self-consistent Calculation

     iteration #  1     ecut=   124.00 Ry     beta= 0.70
     Davidson diagonalization with overlap
     c_bands:  1 eigenvalues not converged
     c_bands:  1 eigenvalues not converged
     c_bands:  1 eigenvalues not converged
     c_bands:  1 eigenvalues not converged
     c_bands:  1 eigenvalues not converged
     c_bands:  1 eigenvalues not converged
     c_bands:  1 eigenvalues not converged
     ethr =  1.00E-06,  avg # of iterations = 11.0

     negative rho (up, down):  7.316E-03 0.000E+00

     total cpu time spent up to now is    32208.4 secs

     total energy              =   -3593.21379879 Ry
     estimated scf accuracy    <       0.01066155 Ry

     iteration #  2     ecut=   124.00 Ry     beta= 0.70
     Davidson diagonalization with overlap
     c_bands:  1 eigenvalues not converged
     c_bands:  1 eigenvalues not converged
     c_bands:  1 eigenvalues not converged
     ethr =  4.68E-06,  avg # of iterations =  7.7

     negative rho (up, down):  7.294E-03 0.000E+00

     total cpu time spent up to now is    32309.4 secs

     total energy              =   -3593.10871669 Ry
     estimated scf accuracy    <       3.68240105 Ry

     iteration #  3     ecut=   124.00 Ry     beta= 0.70
     Davidson diagonalization with overlap
     ethr =  4.68E-06,  avg # of iterations =  7.0

     negative rho (up, down):  7.278E-03 0.000E+00

     total cpu time spent up to now is    32404.2 secs

     total energy              =   -3593.21987253 Ry
     estimated scf accuracy    <       0.02707833 Ry

     iteration #  4     ecut=   124.00 Ry     beta= 0.70
     Davidson diagonalization with overlap
     ethr =  4.68E-06,  avg # of iterations =  4.1

     negative rho (up, down):  7.264E-03 0.000E+00

     total cpu time spent up to now is    32460.4 secs

     total energy              =   -3593.22052447 Ry
     estimated scf accuracy    <       0.04773511 Ry

     iteration #  5     ecut=   124.00 Ry     beta= 0.70
     Davidson diagonalization with overlap
     ethr =  4.68E-06,  avg # of iterations =  4.0

     negative rho (up, down):  7.286E-03 0.000E+00

     total cpu time spent up to now is    32516.7 secs

     total energy              =   -3593.22042314 Ry
     estimated scf accuracy    <       0.06136693 Ry

     iteration #  6     ecut=   124.00 Ry     beta= 0.70
     Davidson diagonalization with overlap
     ethr =  4.68E-06,  avg # of iterations =  3.4

     negative rho (up, down):  7.289E-03 0.000E+00

     total cpu time spent up to now is    32567.9 secs

     total energy              =   -3593.22253367 Ry
     estimated scf accuracy    <       0.00345521 Ry

     iteration #  7     ecut=   124.00 Ry     beta= 0.70
     Davidson diagonalization with overlap
     ethr =  1.52E-06,  avg # of iterations =  3.3

     negative rho (up, down):  7.292E-03 0.000E+00

     total cpu time spent up to now is    32618.6 secs

     total energy              =   -3593.22273967 Ry
     estimated scf accuracy    <       0.00107997 Ry

     iteration #  8     ecut=   124.00 Ry     beta= 0.70
     Davidson diagonalization with overlap
     c_bands:  1 eigenvalues not converged
     ethr =  4.74E-07,  avg # of iterations =  3.8

     negative rho (up, down):  7.294E-03 0.000E+00

     total cpu time spent up to now is    32673.2 secs

     total energy              =   -3593.22270271 Ry
     estimated scf accuracy    <       0.00343171 Ry

     iteration #  9     ecut=   124.00 Ry     beta= 0.70
     Davidson diagonalization with overlap
     ethr =  4.74E-07,  avg # of iterations =  2.0

     negative rho (up, down):  7.295E-03 0.000E+00

     total cpu time spent up to now is    32721.0 secs

     total energy              =   -3593.22282734 Ry
     estimated scf accuracy    <       0.00035299 Ry

     iteration # 10     ecut=   124.00 Ry     beta= 0.70
     Davidson diagonalization with overlap
     ethr =  1.55E-07,  avg # of iterations =  2.1

     negative rho (up, down):  7.291E-03 0.000E+00

     total cpu time spent up to now is    32769.3 secs

     total energy              =   -3593.22285555 Ry
     estimated scf accuracy    <       0.00006296 Ry

     iteration # 11     ecut=   124.00 Ry     beta= 0.70
     Davidson diagonalization with overlap
     ethr =  2.76E-08,  avg # of iterations =  3.9

     negative rho (up, down):  7.290E-03 0.000E+00

     total cpu time spent up to now is    32826.2 secs

     total energy              =   -3593.22284827 Ry
     estimated scf accuracy    <       0.00026106 Ry

     iteration # 12     ecut=   124.00 Ry     beta= 0.70
     Davidson diagonalization with overlap
     ethr =  2.76E-08,  avg # of iterations =  3.8

     negative rho (up, down):  7.291E-03 0.000E+00

     total cpu time spent up to now is    32879.6 secs

     total energy              =   -3593.22285499 Ry
     estimated scf accuracy    <       0.00017688 Ry

     iteration # 13     ecut=   124.00 Ry     beta= 0.70
     Davidson diagonalization with overlap
     ethr =  2.76E-08,  avg # of iterations =  1.6

     negative rho (up, down):  7.291E-03 0.000E+00

     total cpu time spent up to now is    32924.8 secs

     total energy              =   -3593.22286160 Ry
     estimated scf accuracy    <       0.00001005 Ry

     iteration # 14     ecut=   124.00 Ry     beta= 0.70
     Davidson diagonalization with overlap
     ethr =  4.41E-09,  avg # of iterations =  3.0

     negative rho (up, down):  7.291E-03 0.000E+00

     total cpu time spent up to now is    32977.5 secs

     total energy              =   -3593.22286141 Ry
     estimated scf accuracy    <       0.00001285 Ry

     iteration # 15     ecut=   124.00 Ry     beta= 0.70
     Davidson diagonalization with overlap
     ethr =  4.41E-09,  avg # of iterations =  2.4

     negative rho (up, down):  7.291E-03 0.000E+00

     total cpu time spent up to now is    33026.7 secs

     total energy              =   -3593.22286177 Ry
     estimated scf accuracy    <       0.00002508 Ry

     iteration # 16     ecut=   124.00 Ry     beta= 0.70
     Davidson diagonalization with overlap
     ethr =  4.41E-09,  avg # of iterations =  1.2

     negative rho (up, down):  7.291E-03 0.000E+00

     total cpu time spent up to now is    33069.1 secs

     total energy              =   -3593.22286257 Ry
     estimated scf accuracy    <       0.00000058 Ry

     iteration # 17     ecut=   124.00 Ry     beta= 0.70
     Davidson diagonalization with overlap
     ethr =  2.54E-10,  avg # of iterations =  3.8

     negative rho (up, down):  7.291E-03 0.000E+00

     total cpu time spent up to now is    33125.4 secs

     total energy              =   -3593.22286264 Ry
     estimated scf accuracy    <       0.00000032 Ry

     iteration # 18     ecut=   124.00 Ry     beta= 0.70
     Davidson diagonalization with overlap
     ethr =  1.41E-10,  avg # of iterations =  2.3

     negative rho (up, down):  7.291E-03 0.000E+00

     total cpu time spent up to now is    33173.9 secs

     total energy              =   -3593.22286266 Ry
     estimated scf accuracy    <       0.00000005 Ry

     iteration # 19     ecut=   124.00 Ry     beta= 0.70
     Davidson diagonalization with overlap
     ethr =  2.15E-11,  avg # of iterations =  4.7

     negative rho (up, down):  7.291E-03 0.000E+00

     total cpu time spent up to now is    33238.3 secs

     total energy              =   -3593.22286266 Ry
     estimated scf accuracy    <       0.00000015 Ry

     iteration # 20     ecut=   124.00 Ry     beta= 0.70
     Davidson diagonalization with overlap
     ethr =  2.15E-11,  avg # of iterations =  1.9

     negative rho (up, down):  7.291E-03 0.000E+00

     total cpu time spent up to now is    33285.4 secs

     total energy              =   -3593.22286267 Ry
     estimated scf accuracy    <       0.00000002 Ry

     iteration # 21     ecut=   124.00 Ry     beta= 0.70
     Davidson diagonalization with overlap
     ethr =  7.06E-12,  avg # of iterations =  2.4

     negative rho (up, down):  7.291E-03 0.000E+00

     total cpu time spent up to now is    33335.8 secs

     total energy              =   -3593.22286267 Ry
     estimated scf accuracy    <       0.00000001 Ry

     iteration # 22     ecut=   124.00 Ry     beta= 0.70
     Davidson diagonalization with overlap
     ethr =  5.17E-12,  avg # of iterations =  2.4

     negative rho (up, down):  7.291E-03 0.000E+00

     total cpu time spent up to now is    33385.2 secs

     total energy              =   -3593.22286267 Ry
     estimated scf accuracy    <       0.00000002 Ry

     iteration # 23     ecut=   124.00 Ry     beta= 0.70
     Davidson diagonalization with overlap
     ethr =  5.17E-12,  avg # of iterations =  1.8

     negative rho (up, down):  7.291E-03 0.000E+00

     total cpu time spent up to now is    33431.1 secs

     End of self-consistent calculation

     Number of k-points >= 100: set verbosity='high' to print the bands.

     the Fermi energy is    16.4822 ev

!    total energy              =   -3593.22286267 Ry
     estimated scf accuracy    <          1.0E-09 Ry
     smearing contrib. (-TS)   =      -0.00013366 Ry
     internal energy E=F+TS    =   -3593.22272901 Ry

     The total energy is F=E-TS. E is the sum of the following terms:
     one-electron contribution =   -1286.79753797 Ry
     hartree contribution      =     763.48719762 Ry
     xc contribution           =    -425.78088118 Ry
     ewald contribution        =   -2034.91673027 Ry
     one-center paw contrib.   =    -609.21477721 Ry

     convergence has been achieved in  23 iterations

     negative rho (up, down):  7.291E-03 0.000E+00

     Forces acting on atoms (cartesian axes, Ry/au):

     atom    1 type  1   force =     0.00000000    0.00000000    0.00000000
     atom    2 type  1   force =     0.00000000    0.00000000    0.00000000
     atom    3 type  1   force =     0.00000000    0.00000000    0.00000000
     atom    4 type  1   force =     0.00000000    0.00000000    0.00000000
     atom    5 type  1   force =     0.00000000    0.00000000    0.00000000
     atom    6 type  1   force =     0.00000000    0.00000000    0.00000000
     atom    7 type  1   force =     0.00000000    0.00000000    0.00000000
     atom    8 type  1   force =     0.00000000    0.00000000    0.00000000
     atom    9 type  2   force =    -0.01806562    0.00026451    0.00026451
     atom   10 type  2   force =    -0.01792739    0.00886339   -0.00886339
     atom   11 type  2   force =     0.01806562    0.00026451    0.00026451
     atom   12 type  2   force =    -0.01806562   -0.00026451   -0.00026451
     atom   13 type  2   force =     0.01792739   -0.00886339    0.00886339
     atom   14 type  2   force =     0.01806562   -0.00026451   -0.00026451
     atom   15 type  2   force =    -0.01792739   -0.00886339    0.00886339
     atom   16 type  2   force =     0.01792739    0.00886339   -0.00886339
     atom   17 type  3   force =     0.00266181    0.00000000    0.00000000
     atom   18 type  3   force =    -0.00000000    0.00511479   -0.00511479
     atom   19 type  3   force =    -0.00266181    0.00000000    0.00000000
     atom   20 type  3   force =    -0.00000000   -0.00511479    0.00511479

     Total force =     0.057783     Total SCF correction =     0.000065


     Computing stress (Cartesian axis) and pressure


     negative rho (up, down):  7.291E-03 0.000E+00
          total   stress  (Ry/bohr**3)                   (kbar)     P=      -15.73
   0.00004015   0.00000000   0.00000000            5.91        0.00        0.00
   0.00000000  -0.00018051  -0.00004245            0.00      -26.55       -6.25
   0.00000000  -0.00004245  -0.00018051            0.00       -6.25      -26.55

     Energy error            =      2.9E-03 Ry
     Gradient error          =      1.8E-02 Ry/Bohr
     Cell gradient error     =      2.7E+01 kbar

     number of scf cycles    =  23
     number of bfgs steps    =  22

     enthalpy           old  =   -3593.2199744719 Ry
     enthalpy           new  =   -3593.2228626698 Ry

     CASE: enthalpy          _new < enthalpy          _old

     new trust radius        =       0.0737002561 bohr
     new conv_thr            =       0.0000000018 Ry

     new unit-cell volume =   1486.56957 a.u.^3 (   220.28688 Ang^3 )
     density =      6.28470 g/cm^3

CELL_PARAMETERS (alat=  5.58242261)
   2.170492083   0.000000000   0.000000000
   0.000000000   1.984222109  -0.014015471
   0.000000000  -0.014015471   1.984222109

ATOMIC_POSITIONS (crystal)
Fe               0.0000000000        0.0000000000        0.0000000000
Fe               0.5000000000        0.5000000000       -0.0000000000
Fe               0.5000000000        0.0000000000        0.0000000000
Fe               0.0000000000        0.5000000000        0.5000000000
Fe               0.0000000000       -0.0000000000        0.5000000000
Fe               0.5000000000        0.5000000000        0.5000000000
Fe               0.5000000000       -0.0000000000        0.5000000000
Fe               0.0000000000        0.5000000000       -0.0000000000
Ti               0.2565112777        0.2395690395        0.2395690395
Ti               0.7769040725        0.7493414341        0.2506585659
Ti               0.7434887223        0.2395690395        0.2395690395
Ti               0.2565112777        0.7604309605        0.7604309605
Ti               0.2230959275        0.2506585659        0.7493414341
Ti               0.7434887223        0.7604309605        0.7604309605
Ti               0.7769040725        0.2506585659        0.7493414341
Ti               0.2230959275        0.7493414341        0.2506585659
H                0.2502138963        0.5000000000        0.5000000000
H                0.5000000000        0.3044528904        0.6955471096
H                0.7497861037        0.5000000000        0.5000000000
H                0.5000000000        0.6955471096        0.3044528904



     Writing config-only to output data dir ./TiFeH_supercell.save/ :
     XML data file     NEW-OLD atomic charge density approx. for the potential
     New effective cutoffs (rho, wfc): 1788.04  127.72

     Check: negative core charge=   -0.000001

     negative rho (up, down):  7.227E-03 0.000E+00

     total cpu time spent up to now is    33474.4 secs

     per-process dynamical memory:   705.9 Mb

     Self-consistent Calculation

     iteration #  1     ecut=   124.00 Ry     beta= 0.70
     Davidson diagonalization with overlap
     ethr =  1.00E-06,  avg # of iterations =  6.3

     negative rho (up, down):  7.271E-03 0.000E+00

     total cpu time spent up to now is    33588.4 secs

     total energy              =   -3593.21767935 Ry
     estimated scf accuracy    <       0.00946885 Ry

     iteration #  2     ecut=   124.00 Ry     beta= 0.70
     Davidson diagonalization with overlap
     c_bands:  2 eigenvalues not converged
     c_bands:  1 eigenvalues not converged
     c_bands:  1 eigenvalues not converged
     c_bands:  1 eigenvalues not converged
     c_bands:  1 eigenvalues not converged
     c_bands:  1 eigenvalues not converged
     c_bands:  1 eigenvalues not converged
     c_bands:  1 eigenvalues not converged
     c_bands:  1 eigenvalues not converged
     c_bands:  1 eigenvalues not converged
     c_bands:  1 eigenvalues not converged
     c_bands:  1 eigenvalues not converged
     ethr =  4.15E-06,  avg # of iterations = 10.1

     negative rho (up, down):  7.245E-03 0.000E+00

     total cpu time spent up to now is    33697.4 secs

     total energy              =   -3593.12873615 Ry
     estimated scf accuracy    <       3.29697307 Ry

     iteration #  3     ecut=   124.00 Ry     beta= 0.70
     Davidson diagonalization with overlap
     c_bands:  1 eigenvalues not converged
     c_bands:  1 eigenvalues not converged
     c_bands:  1 eigenvalues not converged
     c_bands:  1 eigenvalues not converged
     c_bands:  1 eigenvalues not converged
     c_bands:  1 eigenvalues not converged
     c_bands:  1 eigenvalues not converged
     ethr =  4.15E-06,  avg # of iterations =  8.3

     negative rho (up, down):  7.236E-03 0.000E+00

     total cpu time spent up to now is    33799.0 secs

     total energy              =   -3593.22375565 Ry
     estimated scf accuracy    <       0.01756339 Ry

     iteration #  4     ecut=   124.00 Ry     beta= 0.70
     Davidson diagonalization with overlap
     ethr =  4.15E-06,  avg # of iterations =  3.1

     negative rho (up, down):  7.223E-03 0.000E+00

     total cpu time spent up to now is    33850.8 secs

     total energy              =   -3593.22449287 Ry
     estimated scf accuracy    <       0.01532170 Ry

     iteration #  5     ecut=   124.00 Ry     beta= 0.70
     Davidson diagonalization with overlap
     ethr =  4.15E-06,  avg # of iterations =  2.1

     negative rho (up, down):  7.231E-03 0.000E+00

     total cpu time spent up to now is    33899.2 secs

     total energy              =   -3593.22461946 Ry
     estimated scf accuracy    <       0.01728245 Ry

     iteration #  6     ecut=   124.00 Ry     beta= 0.70
     Davidson diagonalization with overlap
     ethr =  4.15E-06,  avg # of iterations =  1.2

     negative rho (up, down):  7.236E-03 0.000E+00

     total cpu time spent up to now is    33941.9 secs

     total energy              =   -3593.22519310 Ry
     estimated scf accuracy    <       0.00317674 Ry

     iteration #  7     ecut=   124.00 Ry     beta= 0.70
     Davidson diagonalization with overlap
     ethr =  1.39E-06,  avg # of iterations =  1.9

     negative rho (up, down):  7.235E-03 0.000E+00

     total cpu time spent up to now is    33988.4 secs

     total energy              =   -3593.22531383 Ry
     estimated scf accuracy    <       0.00201807 Ry

     iteration #  8     ecut=   124.00 Ry     beta= 0.70
     Davidson diagonalization with overlap
     ethr =  8.85E-07,  avg # of iterations =  1.3

     negative rho (up, down):  7.233E-03 0.000E+00

     total cpu time spent up to now is    34032.0 secs

     total energy              =   -3593.22538613 Ry
     estimated scf accuracy    <       0.00083597 Ry

     iteration #  9     ecut=   124.00 Ry     beta= 0.70
     Davidson diagonalization with overlap
     ethr =  3.67E-07,  avg # of iterations =  2.0

     negative rho (up, down):  7.236E-03 0.000E+00

     total cpu time spent up to now is    34079.5 secs

     total energy              =   -3593.22542283 Ry
     estimated scf accuracy    <       0.00075430 Ry

     iteration # 10     ecut=   124.00 Ry     beta= 0.70
     Davidson diagonalization with overlap
     ethr =  3.31E-07,  avg # of iterations =  1.2

     negative rho (up, down):  7.237E-03 0.000E+00

     total cpu time spent up to now is    34122.1 secs

     total energy              =   -3593.22544744 Ry
     estimated scf accuracy    <       0.00026200 Ry

     iteration # 11     ecut=   124.00 Ry     beta= 0.70
     Davidson diagonalization with overlap
     ethr =  1.15E-07,  avg # of iterations =  1.1

     negative rho (up, down):  7.237E-03 0.000E+00

     total cpu time spent up to now is    34164.7 secs

     total energy              =   -3593.22546218 Ry
     estimated scf accuracy    <       0.00001358 Ry

     iteration # 12     ecut=   124.00 Ry     beta= 0.70
     Davidson diagonalization with overlap
     ethr =  5.95E-09,  avg # of iterations =  4.4

     negative rho (up, down):  7.237E-03 0.000E+00

     total cpu time spent up to now is    34226.2 secs

     total energy              =   -3593.22546059 Ry
     estimated scf accuracy    <       0.00014708 Ry

     iteration # 13     ecut=   124.00 Ry     beta= 0.70
     Davidson diagonalization with overlap
     ethr =  5.95E-09,  avg # of iterations =  3.9

     negative rho (up, down):  7.236E-03 0.000E+00

     total cpu time spent up to now is    34280.2 secs

     total energy              =   -3593.22546486 Ry
     estimated scf accuracy    <       0.00000257 Ry

     iteration # 14     ecut=   124.00 Ry     beta= 0.70
     Davidson diagonalization with overlap
     ethr =  1.13E-09,  avg # of iterations =  4.3

     negative rho (up, down):  7.236E-03 0.000E+00

     total cpu time spent up to now is    34337.4 secs

     total energy              =   -3593.22546517 Ry
     estimated scf accuracy    <       0.00000069 Ry

     iteration # 15     ecut=   124.00 Ry     beta= 0.70
     Davidson diagonalization with overlap
     ethr =  3.01E-10,  avg # of iterations =  4.6

     negative rho (up, down):  7.236E-03 0.000E+00

     total cpu time spent up to now is    34397.8 secs

     total energy              =   -3593.22546517 Ry
     estimated scf accuracy    <       0.00000318 Ry

     iteration # 16     ecut=   124.00 Ry     beta= 0.70
     Davidson diagonalization with overlap
     ethr =  3.01E-10,  avg # of iterations =  2.4

     negative rho (up, down):  7.236E-03 0.000E+00

     total cpu time spent up to now is    34447.5 secs

     total energy              =   -3593.22546530 Ry
     estimated scf accuracy    <       0.00000005 Ry

     iteration # 17     ecut=   124.00 Ry     beta= 0.70
     Davidson diagonalization with overlap
     ethr =  2.16E-11,  avg # of iterations =  5.0

     negative rho (up, down):  7.236E-03 0.000E+00

     total cpu time spent up to now is    34523.7 secs

     total energy              =   -3593.22546531 Ry
     estimated scf accuracy    <       0.00000022 Ry

     iteration # 18     ecut=   124.00 Ry     beta= 0.70
     Davidson diagonalization with overlap
     ethr =  2.16E-11,  avg # of iterations =  2.7

     negative rho (up, down):  7.236E-03 0.000E+00

     total cpu time spent up to now is    34575.3 secs

     total energy              =   -3593.22546532 Ry
     estimated scf accuracy    <       0.00000004 Ry

     iteration # 19     ecut=   124.00 Ry     beta= 0.70
     Davidson diagonalization with overlap
     ethr =  1.77E-11,  avg # of iterations =  1.8

     negative rho (up, down):  7.236E-03 0.000E+00

     total cpu time spent up to now is    34621.8 secs

     total energy              =   -3593.22546532 Ry
     estimated scf accuracy    <       0.00000002 Ry

     iteration # 20     ecut=   124.00 Ry     beta= 0.70
     Davidson diagonalization with overlap
     ethr =  9.69E-12,  avg # of iterations =  3.8

     negative rho (up, down):  7.236E-03 0.000E+00

     total cpu time spent up to now is    34677.7 secs

     total energy              =   -3593.22546532 Ry
     estimated scf accuracy    <       0.00000015 Ry

     iteration # 21     ecut=   124.00 Ry     beta= 0.70
     Davidson diagonalization with overlap
     ethr =  9.69E-12,  avg # of iterations =  3.3

     negative rho (up, down):  7.236E-03 0.000E+00

     total cpu time spent up to now is    34728.6 secs

     total energy              =   -3593.22546532 Ry
     estimated scf accuracy    <       0.00000001 Ry

     iteration # 22     ecut=   124.00 Ry     beta= 0.70
     Davidson diagonalization with overlap
     ethr =  4.56E-12,  avg # of iterations =  4.2

     negative rho (up, down):  7.236E-03 0.000E+00

     total cpu time spent up to now is    34785.4 secs

     total energy              =   -3593.22546532 Ry
     estimated scf accuracy    <       0.00000010 Ry

     iteration # 23     ecut=   124.00 Ry     beta= 0.70
     Davidson diagonalization with overlap
     ethr =  4.56E-12,  avg # of iterations =  3.8

     negative rho (up, down):  7.236E-03 0.000E+00

     total cpu time spent up to now is    34837.9 secs

     total energy              =   -3593.22546532 Ry
     estimated scf accuracy    <          1.9E-09 Ry

     iteration # 24     ecut=   124.00 Ry     beta= 0.70
     Davidson diagonalization with overlap
     ethr =  8.42E-13,  avg # of iterations =  4.7

     negative rho (up, down):  7.236E-03 0.000E+00

     total cpu time spent up to now is    34902.3 secs

     total energy              =   -3593.22546532 Ry
     estimated scf accuracy    <       0.00000001 Ry

     iteration # 25     ecut=   124.00 Ry     beta= 0.70
     Davidson diagonalization with overlap
     ethr =  8.42E-13,  avg # of iterations =  4.3

     negative rho (up, down):  7.236E-03 0.000E+00

     total cpu time spent up to now is    34959.7 secs

     End of self-consistent calculation

     Number of k-points >= 100: set verbosity='high' to print the bands.

     the Fermi energy is    16.5273 ev

!    total energy              =   -3593.22546532 Ry
     estimated scf accuracy    <          5.4E-10 Ry
     smearing contrib. (-TS)   =      -0.00009308 Ry
     internal energy E=F+TS    =   -3593.22537224 Ry

     The total energy is F=E-TS. E is the sum of the following terms:
     one-electron contribution =   -1284.33983039 Ry
     hartree contribution      =     762.61536597 Ry
     xc contribution           =    -425.81650092 Ry
     ewald contribution        =   -2036.46879907 Ry
     one-center paw contrib.   =    -609.21560783 Ry

     convergence has been achieved in  25 iterations

     negative rho (up, down):  7.236E-03 0.000E+00

     Forces acting on atoms (cartesian axes, Ry/au):

     atom    1 type  1   force =     0.00000000    0.00000000    0.00000000
     atom    2 type  1   force =     0.00000000    0.00000000    0.00000000
     atom    3 type  1   force =     0.00000000    0.00000000    0.00000000
     atom    4 type  1   force =     0.00000000    0.00000000    0.00000000
     atom    5 type  1   force =     0.00000000    0.00000000    0.00000000
     atom    6 type  1   force =     0.00000000    0.00000000    0.00000000
     atom    7 type  1   force =     0.00000000    0.00000000    0.00000000
     atom    8 type  1   force =     0.00000000    0.00000000    0.00000000
     atom    9 type  2   force =    -0.01569381    0.00157661    0.00157661
     atom   10 type  2   force =    -0.01718141    0.00835897   -0.00835897
     atom   11 type  2   force =     0.01569381    0.00157661    0.00157661
     atom   12 type  2   force =    -0.01569381   -0.00157661   -0.00157661
     atom   13 type  2   force =     0.01718141   -0.00835897    0.00835897
     atom   14 type  2   force =     0.01569381   -0.00157661   -0.00157661
     atom   15 type  2   force =    -0.01718141   -0.00835897    0.00835897
     atom   16 type  2   force =     0.01718141    0.00835897   -0.00835897
     atom   17 type  3   force =     0.00237098    0.00000000    0.00000000
     atom   18 type  3   force =     0.00000000    0.00039158   -0.00039158
     atom   19 type  3   force =    -0.00237098    0.00000000    0.00000000
     atom   20 type  3   force =     0.00000000   -0.00039158    0.00039158

     Total force =     0.052504     Total SCF correction =     0.000062


     Computing stress (Cartesian axis) and pressure


     negative rho (up, down):  7.236E-03 0.000E+00
          total   stress  (Ry/bohr**3)                   (kbar)     P=      -11.03
   0.00005389   0.00000000   0.00000000            7.93        0.00        0.00
   0.00000000  -0.00013937  -0.00003588            0.00      -20.50       -5.28
   0.00000000  -0.00003588  -0.00013937            0.00       -5.28      -20.50

     Energy error            =      2.6E-03 Ry
     Gradient error          =      1.7E-02 Ry/Bohr
     Cell gradient error     =      2.1E+01 kbar

     number of scf cycles    =  24
     number of bfgs steps    =  23

     enthalpy           old  =   -3593.2228626698 Ry
     enthalpy           new  =   -3593.2254653194 Ry

     CASE: enthalpy          _new < enthalpy          _old

     new trust radius        =       0.0812828285 bohr
     new conv_thr            =       0.0000000017 Ry

     new unit-cell volume =   1473.03528 a.u.^3 (   218.28131 Ang^3 )
     density =      6.34244 g/cm^3

CELL_PARAMETERS (alat=  5.58242261)
   2.166543475   0.000000000   0.000000000
   0.000000000   1.977204495  -0.033617913
   0.000000000  -0.033617913   1.977204495

ATOMIC_POSITIONS (crystal)
Fe               0.0000000000        0.0000000000        0.0000000000
Fe               0.5000000000        0.5000000000       -0.0000000000
Fe               0.5000000000        0.0000000000        0.0000000000
Fe               0.0000000000        0.5000000000        0.5000000000
Fe               0.0000000000       -0.0000000000        0.5000000000
Fe               0.5000000000        0.5000000000        0.5000000000
Fe               0.5000000000       -0.0000000000        0.5000000000
Fe               0.0000000000        0.5000000000       -0.0000000000
Ti               0.2499015684        0.2387900670        0.2387900670
Ti               0.7719193731        0.7502256001        0.2497743999
Ti               0.7500984316        0.2387900670        0.2387900670
Ti               0.2499015684        0.7612099330        0.7612099330
Ti               0.2280806269        0.2497743999        0.7502256001
Ti               0.7500984316        0.7612099330        0.7612099330
Ti               0.7719193731        0.2497743999        0.7502256001
Ti               0.2280806269        0.7502256001        0.2497743999
H                0.2506898064        0.5000000000        0.5000000000
H                0.5000000000        0.3046509689        0.6953490311
H                0.7493101936        0.5000000000        0.5000000000
H                0.5000000000        0.6953490311        0.3046509689



     Writing config-only to output data dir ./TiFeH_supercell.save/ :
     XML data file     NEW-OLD atomic charge density approx. for the potential
     New effective cutoffs (rho, wfc): 1836.43  131.21

     Check: negative core charge=   -0.000001

     negative rho (up, down):  7.249E-03 0.000E+00

     total cpu time spent up to now is    35003.3 secs

     per-process dynamical memory:   705.9 Mb

     Self-consistent Calculation

     iteration #  1     ecut=   124.00 Ry     beta= 0.70
     Davidson diagonalization with overlap
     c_bands:  1 eigenvalues not converged
     c_bands:  1 eigenvalues not converged
     c_bands:  1 eigenvalues not converged
     c_bands:  1 eigenvalues not converged
     c_bands:  1 eigenvalues not converged
     c_bands:  1 eigenvalues not converged
     c_bands:  1 eigenvalues not converged
     c_bands:  1 eigenvalues not converged
     c_bands:  1 eigenvalues not converged
     c_bands:  1 eigenvalues not converged
     c_bands:  1 eigenvalues not converged
     c_bands:  1 eigenvalues not converged
     c_bands:  1 eigenvalues not converged
     c_bands:  1 eigenvalues not converged
     c_bands:  1 eigenvalues not converged
     c_bands:  1 eigenvalues not converged
     c_bands:  1 eigenvalues not converged
     c_bands:  1 eigenvalues not converged
     c_bands:  1 eigenvalues not converged
     c_bands:  1 eigenvalues not converged
     c_bands:  3 eigenvalues not converged
     ethr =  1.00E-06,  avg # of iterations = 15.4

     negative rho (up, down):  7.209E-03 0.000E+00

     total cpu time spent up to now is    35212.5 secs

     total energy              =   -3593.16454165 Ry
     estimated scf accuracy    <       0.08312427 Ry

     iteration #  2     ecut=   124.00 Ry     beta= 0.70
     Davidson diagonalization with overlap
     c_bands:  1 eigenvalues not converged
     c_bands:  1 eigenvalues not converged
     c_bands:  1 eigenvalues not converged
     c_bands:  1 eigenvalues not converged
     c_bands:  1 eigenvalues not converged
     c_bands:  1 eigenvalues not converged
     c_bands:  1 eigenvalues not converged
     c_bands:  1 eigenvalues not converged
     c_bands:  2 eigenvalues not converged
     c_bands:  1 eigenvalues not converged
     c_bands:  1 eigenvalues not converged
     c_bands:  1 eigenvalues not converged
     c_bands:  1 eigenvalues not converged
     ethr =  3.65E-05,  avg # of iterations = 14.1

     negative rho (up, down):  7.168E-03 0.000E+00

     total cpu time spent up to now is    35337.1 secs

     total energy              =   -3592.31875589 Ry
     estimated scf accuracy    <      28.84780269 Ry

     iteration #  3     ecut=   124.00 Ry     beta= 0.70
     Davidson diagonalization with overlap
     ethr =  3.65E-05,  avg # of iterations =  8.4

     negative rho (up, down):  7.192E-03 0.000E+00

     total cpu time spent up to now is    35444.7 secs

     total energy              =   -3593.20322573 Ry
     estimated scf accuracy    <       0.43773836 Ry

     iteration #  4     ecut=   124.00 Ry     beta= 0.70
     Davidson diagonalization with overlap
     ethr =  3.65E-05,  avg # of iterations =  4.2

     negative rho (up, down):  7.267E-03 0.000E+00

     total cpu time spent up to now is    35499.9 secs

     total energy              =   -3593.22042895 Ry
     estimated scf accuracy    <       0.14199564 Ry

     iteration #  5     ecut=   124.00 Ry     beta= 0.70
     Davidson diagonalization with overlap
     ethr =  3.65E-05,  avg # of iterations =  3.9

     negative rho (up, down):  7.227E-03 0.000E+00

     total cpu time spent up to now is    35554.1 secs

     total energy              =   -3593.22059835 Ry
     estimated scf accuracy    <       0.22702437 Ry

     iteration #  6     ecut=   124.00 Ry     beta= 0.70
     Davidson diagonalization with overlap
     ethr =  3.65E-05,  avg # of iterations =  2.0

     negative rho (up, down):  7.217E-03 0.000E+00

     total cpu time spent up to now is    35602.1 secs

     total energy              =   -3593.22847451 Ry
     estimated scf accuracy    <       0.04362215 Ry

     iteration #  7     ecut=   124.00 Ry     beta= 0.70
     Davidson diagonalization with overlap
     ethr =  1.91E-05,  avg # of iterations =  1.8

     negative rho (up, down):  7.218E-03 0.000E+00

     total cpu time spent up to now is    35647.9 secs

     total energy              =   -3593.23030336 Ry
     estimated scf accuracy    <       0.00964609 Ry

     iteration #  8     ecut=   124.00 Ry     beta= 0.70
     Davidson diagonalization with overlap
     c_bands:  1 eigenvalues not converged
     ethr =  4.23E-06,  avg # of iterations =  4.9

     negative rho (up, down):  7.218E-03 0.000E+00

     total cpu time spent up to now is    35702.5 secs

     total energy              =   -3593.23073451 Ry
     estimated scf accuracy    <       0.00759966 Ry

     iteration #  9     ecut=   124.00 Ry     beta= 0.70
     Davidson diagonalization with overlap
     ethr =  3.33E-06,  avg # of iterations =  1.7

     negative rho (up, down):  7.214E-03 0.000E+00

     total cpu time spent up to now is    35747.8 secs

     total energy              =   -3593.23107604 Ry
     estimated scf accuracy    <       0.00116204 Ry

     iteration # 10     ecut=   124.00 Ry     beta= 0.70
     Davidson diagonalization with overlap
     c_bands:  1 eigenvalues not converged
     ethr =  5.10E-07,  avg # of iterations =  5.5

     negative rho (up, down):  7.211E-03 0.000E+00

     total cpu time spent up to now is    35808.0 secs

     total energy              =   -3593.23101920 Ry
     estimated scf accuracy    <       0.00361860 Ry

     iteration # 11     ecut=   124.00 Ry     beta= 0.70
     Davidson diagonalization with overlap
     ethr =  5.10E-07,  avg # of iterations =  2.0

     negative rho (up, down):  7.214E-03 0.000E+00

     total cpu time spent up to now is    35855.8 secs

     total energy              =   -3593.23117819 Ry
     estimated scf accuracy    <       0.00011245 Ry

     iteration # 12     ecut=   124.00 Ry     beta= 0.70
     Davidson diagonalization with overlap
     ethr =  4.93E-08,  avg # of iterations =  6.0

     negative rho (up, down):  7.216E-03 0.000E+00

     total cpu time spent up to now is    35929.9 secs

     total energy              =   -3593.23103460 Ry
     estimated scf accuracy    <       0.00615065 Ry

     iteration # 13     ecut=   124.00 Ry     beta= 0.70
     Davidson diagonalization with overlap
     ethr =  4.93E-08,  avg # of iterations =  5.1

     negative rho (up, down):  7.215E-03 0.000E+00

     total cpu time spent up to now is    35997.3 secs

     total energy              =   -3593.23120775 Ry
     estimated scf accuracy    <       0.00006089 Ry

     iteration # 14     ecut=   124.00 Ry     beta= 0.70
     Davidson diagonalization with overlap
     ethr =  2.67E-08,  avg # of iterations =  2.2

     negative rho (up, down):  7.216E-03 0.000E+00

     total cpu time spent up to now is    36046.2 secs

     total energy              =   -3593.23120987 Ry
     estimated scf accuracy    <       0.00011655 Ry

     iteration # 15     ecut=   124.00 Ry     beta= 0.70
     Davidson diagonalization with overlap
     ethr =  2.67E-08,  avg # of iterations =  2.0

     negative rho (up, down):  7.215E-03 0.000E+00

     total cpu time spent up to now is    36094.8 secs

     total energy              =   -3593.23121112 Ry
     estimated scf accuracy    <       0.00005871 Ry

     iteration # 16     ecut=   124.00 Ry     beta= 0.70
     Davidson diagonalization with overlap
     ethr =  2.57E-08,  avg # of iterations =  1.4

     negative rho (up, down):  7.215E-03 0.000E+00

     total cpu time spent up to now is    36138.5 secs

     total energy              =   -3593.23121222 Ry
     estimated scf accuracy    <       0.00004661 Ry

     iteration # 17     ecut=   124.00 Ry     beta= 0.70
     Davidson diagonalization with overlap
     ethr =  2.04E-08,  avg # of iterations =  1.0

     negative rho (up, down):  7.215E-03 0.000E+00

     total cpu time spent up to now is    36180.1 secs

     total energy              =   -3593.23121478 Ry
     estimated scf accuracy    <       0.00000088 Ry

     iteration # 18     ecut=   124.00 Ry     beta= 0.70
     Davidson diagonalization with overlap
     ethr =  3.85E-10,  avg # of iterations =  4.7

     negative rho (up, down):  7.215E-03 0.000E+00

     total cpu time spent up to now is    36248.2 secs

     total energy              =   -3593.23121491 Ry
     estimated scf accuracy    <       0.00000256 Ry

     iteration # 19     ecut=   124.00 Ry     beta= 0.70
     Davidson diagonalization with overlap
     ethr =  3.85E-10,  avg # of iterations =  4.0

     negative rho (up, down):  7.215E-03 0.000E+00

     total cpu time spent up to now is    36302.3 secs

     total energy              =   -3593.23121497 Ry
     estimated scf accuracy    <       0.00000228 Ry

     iteration # 20     ecut=   124.00 Ry     beta= 0.70
     Davidson diagonalization with overlap
     ethr =  3.85E-10,  avg # of iterations =  2.6

     negative rho (up, down):  7.216E-03 0.000E+00

     total cpu time spent up to now is    36352.3 secs

     total energy              =   -3593.23121502 Ry
     estimated scf accuracy    <       0.00000127 Ry

     iteration # 21     ecut=   124.00 Ry     beta= 0.70
     Davidson diagonalization with overlap
     ethr =  3.85E-10,  avg # of iterations =  1.4

     negative rho (up, down):  7.216E-03 0.000E+00

     total cpu time spent up to now is    36396.7 secs

     total energy              =   -3593.23121507 Ry
     estimated scf accuracy    <       0.00000028 Ry

     iteration # 22     ecut=   124.00 Ry     beta= 0.70
     Davidson diagonalization with overlap
     ethr =  1.22E-10,  avg # of iterations =  2.2

     negative rho (up, down):  7.216E-03 0.000E+00

     total cpu time spent up to now is    36446.0 secs

     total energy              =   -3593.23121507 Ry
     estimated scf accuracy    <       0.00000056 Ry

     iteration # 23     ecut=   124.00 Ry     beta= 0.70
     Davidson diagonalization with overlap
     ethr =  1.22E-10,  avg # of iterations =  1.2

     negative rho (up, down):  7.215E-03 0.000E+00

     total cpu time spent up to now is    36488.8 secs

     total energy              =   -3593.23121509 Ry
     estimated scf accuracy    <       0.00000008 Ry

     iteration # 24     ecut=   124.00 Ry     beta= 0.70
     Davidson diagonalization with overlap
     ethr =  3.63E-11,  avg # of iterations =  2.4

     negative rho (up, down):  7.215E-03 0.000E+00

     total cpu time spent up to now is    36539.7 secs

     total energy              =   -3593.23121508 Ry
     estimated scf accuracy    <       0.00000045 Ry

     iteration # 25     ecut=   124.00 Ry     beta= 0.70
     Davidson diagonalization with overlap
     ethr =  3.63E-11,  avg # of iterations =  2.1

     negative rho (up, down):  7.215E-03 0.000E+00

     total cpu time spent up to now is    36587.9 secs

     total energy              =   -3593.23121510 Ry
     estimated scf accuracy    <       0.00000001 Ry

     iteration # 26     ecut=   124.00 Ry     beta= 0.70
     Davidson diagonalization with overlap
     ethr =  5.72E-12,  avg # of iterations =  2.7

     negative rho (up, down):  7.215E-03 0.000E+00

     total cpu time spent up to now is    36639.9 secs

     total energy              =   -3593.23121510 Ry
     estimated scf accuracy    <       0.00000002 Ry

     iteration # 27     ecut=   124.00 Ry     beta= 0.70
     Davidson diagonalization with overlap
     ethr =  5.72E-12,  avg # of iterations =  1.2

     negative rho (up, down):  7.215E-03 0.000E+00

     total cpu time spent up to now is    36682.9 secs

     total energy              =   -3593.23121510 Ry
     estimated scf accuracy    <          2.6E-09 Ry

     iteration # 28     ecut=   124.00 Ry     beta= 0.70
     Davidson diagonalization with overlap
     ethr =  1.13E-12,  avg # of iterations =  2.6

     negative rho (up, down):  7.216E-03 0.000E+00

     total cpu time spent up to now is    36735.0 secs

     End of self-consistent calculation

     Number of k-points >= 100: set verbosity='high' to print the bands.

     the Fermi energy is    16.6956 ev

!    total energy              =   -3593.23121510 Ry
     estimated scf accuracy    <          1.7E-09 Ry
     smearing contrib. (-TS)   =      -0.00004616 Ry
     internal energy E=F+TS    =   -3593.23116894 Ry

     The total energy is F=E-TS. E is the sum of the following terms:
     one-electron contribution =   -1273.44044796 Ry
     hartree contribution      =     758.66925696 Ry
     xc contribution           =    -425.93377925 Ry
     ewald contribution        =   -2043.30896949 Ry
     one-center paw contrib.   =    -609.21722919 Ry

     convergence has been achieved in  28 iterations

     negative rho (up, down):  7.216E-03 0.000E+00

     Forces acting on atoms (cartesian axes, Ry/au):

     atom    1 type  1   force =     0.00000000    0.00000000    0.00000000
     atom    2 type  1   force =     0.00000000    0.00000000    0.00000000
     atom    3 type  1   force =     0.00000000    0.00000000    0.00000000
     atom    4 type  1   force =     0.00000000    0.00000000    0.00000000
     atom    5 type  1   force =     0.00000000    0.00000000    0.00000000
     atom    6 type  1   force =     0.00000000    0.00000000    0.00000000
     atom    7 type  1   force =     0.00000000    0.00000000    0.00000000
     atom    8 type  1   force =     0.00000000    0.00000000    0.00000000
     atom    9 type  2   force =     0.00043521    0.00526580    0.00526580
     atom   10 type  2   force =    -0.00260949    0.00542034   -0.00542034
     atom   11 type  2   force =    -0.00043521    0.00526580    0.00526580
     atom   12 type  2   force =     0.00043521   -0.00526580   -0.00526580
     atom   13 type  2   force =     0.00260949   -0.00542034    0.00542034
     atom   14 type  2   force =    -0.00043521   -0.00526580   -0.00526580
     atom   15 type  2   force =    -0.00260949   -0.00542034    0.00542034
     atom   16 type  2   force =     0.00260949    0.00542034   -0.00542034
     atom   17 type  3   force =     0.00018701    0.00000000    0.00000000
     atom   18 type  3   force =     0.00000000    0.00512123   -0.00512123
     atom   19 type  3   force =    -0.00018701    0.00000000    0.00000000
     atom   20 type  3   force =     0.00000000   -0.00512123    0.00512123

     Total force =     0.024287     Total SCF correction =     0.000057


     Computing stress (Cartesian axis) and pressure


     negative rho (up, down):  7.216E-03 0.000E+00
          total   stress  (Ry/bohr**3)                   (kbar)     P=        3.75
   0.00012456   0.00000000   0.00000000           18.32        0.00        0.00
   0.00000000  -0.00002401   0.00004252            0.00       -3.53        6.25
   0.00000000   0.00004252  -0.00002401            0.00        6.25       -3.53

     Energy error            =      5.7E-03 Ry
     Gradient error          =      5.4E-03 Ry/Bohr
     Cell gradient error     =      1.8E+01 kbar

     number of scf cycles    =  25
     number of bfgs steps    =  24

     enthalpy           old  =   -3593.2254653194 Ry
     enthalpy           new  =   -3593.2312150974 Ry

     CASE: enthalpy          _new < enthalpy          _old

     new trust radius        =       0.0484564088 bohr
     new conv_thr            =       0.0000000005 Ry

     new unit-cell volume =   1471.93916 a.u.^3 (   218.11888 Ang^3 )
     density =      6.34717 g/cm^3

CELL_PARAMETERS (alat=  5.58242261)
   2.180220198   0.000000000   0.000000000
   0.000000000   1.970183150  -0.028647981
   0.000000000  -0.028647981   1.970183150

ATOMIC_POSITIONS (crystal)
Fe               0.0000000000        0.0000000000        0.0000000000
Fe               0.5000000000        0.5000000000       -0.0000000000
Fe               0.5000000000        0.0000000000        0.0000000000
Fe               0.0000000000        0.5000000000        0.5000000000
Fe               0.0000000000       -0.0000000000        0.5000000000
Fe               0.5000000000        0.5000000000        0.5000000000
Fe               0.5000000000       -0.0000000000        0.5000000000
Fe               0.0000000000        0.5000000000       -0.0000000000
Ti               0.2507216237        0.2392607890        0.2392607890
Ti               0.7716281285        0.7511446308        0.2488553692
Ti               0.7492783763        0.2392607890        0.2392607890
Ti               0.2507216237        0.7607392110        0.7607392110
Ti               0.2283718715        0.2488553692        0.7511446308
Ti               0.7492783763        0.7607392110        0.7607392110
Ti               0.7716281285        0.2488553692        0.7511446308
Ti               0.2283718715        0.7511446308        0.2488553692
H                0.2508856037        0.5000000000        0.5000000000
H                0.5000000000        0.3063344132        0.6936655868
H                0.7491143963        0.5000000000        0.5000000000
H                0.5000000000        0.6936655868        0.3063344132



     Writing config-only to output data dir ./TiFeH_supercell.save/ :
     XML data file     NEW-OLD atomic charge density approx. for the potential
     New effective cutoffs (rho, wfc): 1840.54  131.50

     Check: negative core charge=   -0.000001

     negative rho (up, down):  7.165E-03 0.000E+00

     total cpu time spent up to now is    36778.3 secs

     per-process dynamical memory:   705.9 Mb

     Self-consistent Calculation

     iteration #  1     ecut=   124.00 Ry     beta= 0.70
     Davidson diagonalization with overlap
     ethr =  1.00E-06,  avg # of iterations =  6.8

     negative rho (up, down):  7.169E-03 0.000E+00

     total cpu time spent up to now is    36897.4 secs

     total energy              =   -3593.22084145 Ry
     estimated scf accuracy    <       0.01377276 Ry

     iteration #  2     ecut=   124.00 Ry     beta= 0.70
     Davidson diagonalization with overlap
     c_bands:  1 eigenvalues not converged
     c_bands:  1 eigenvalues not converged
     c_bands:  1 eigenvalues not converged
     c_bands:  2 eigenvalues not converged
     c_bands:  1 eigenvalues not converged
     c_bands:  1 eigenvalues not converged
     c_bands:  1 eigenvalues not converged
     ethr =  6.04E-06,  avg # of iterations = 11.2

     negative rho (up, down):  7.144E-03 0.000E+00

     total cpu time spent up to now is    37014.6 secs

     total energy              =   -3593.05137285 Ry
     estimated scf accuracy    <       6.24951025 Ry

     iteration #  3     ecut=   124.00 Ry     beta= 0.70
     Davidson diagonalization with overlap
     c_bands:  1 eigenvalues not converged
     ethr =  6.04E-06,  avg # of iterations =  8.7

     negative rho (up, down):  7.153E-03 0.000E+00

     total cpu time spent up to now is    37118.1 secs

     total energy              =   -3593.23095883 Ry
     estimated scf accuracy    <       0.02475777 Ry

     iteration #  4     ecut=   124.00 Ry     beta= 0.70
     Davidson diagonalization with overlap
     ethr =  6.04E-06,  avg # of iterations =  2.1

     negative rho (up, down):  7.163E-03 0.000E+00

     total cpu time spent up to now is    37166.4 secs

     total energy              =   -3593.23181866 Ry
     estimated scf accuracy    <       0.01049159 Ry

     iteration #  5     ecut=   124.00 Ry     beta= 0.70
     Davidson diagonalization with overlap
     ethr =  4.60E-06,  avg # of iterations =  2.2

     negative rho (up, down):  7.162E-03 0.000E+00

     total cpu time spent up to now is    37215.0 secs

     total energy              =   -3593.23206580 Ry
     estimated scf accuracy    <       0.01101290 Ry

     iteration #  6     ecut=   124.00 Ry     beta= 0.70
     Davidson diagonalization with overlap
     ethr =  4.60E-06,  avg # of iterations =  1.2

     negative rho (up, down):  7.160E-03 0.000E+00

     total cpu time spent up to now is    37257.5 secs

     total energy              =   -3593.23244594 Ry
     estimated scf accuracy    <       0.00282003 Ry

     iteration #  7     ecut=   124.00 Ry     beta= 0.70
     Davidson diagonalization with overlap
     c_bands:  1 eigenvalues not converged
     c_bands:  1 eigenvalues not converged
     ethr =  1.24E-06,  avg # of iterations =  3.1

     negative rho (up, down):  7.163E-03 0.000E+00

     total cpu time spent up to now is    37308.1 secs

     total energy              =   -3593.23253915 Ry
     estimated scf accuracy    <       0.00241608 Ry

     iteration #  8     ecut=   124.00 Ry     beta= 0.70
     Davidson diagonalization with overlap
     ethr =  1.06E-06,  avg # of iterations =  1.2

     negative rho (up, down):  7.165E-03 0.000E+00

     total cpu time spent up to now is    37350.3 secs

     total energy              =   -3593.23261132 Ry
     estimated scf accuracy    <       0.00111280 Ry

     iteration #  9     ecut=   124.00 Ry     beta= 0.70
     Davidson diagonalization with overlap
     ethr =  4.88E-07,  avg # of iterations =  1.0

     negative rho (up, down):  7.161E-03 0.000E+00

     total cpu time spent up to now is    37392.3 secs

     total energy              =   -3593.23266636 Ry
     estimated scf accuracy    <       0.00034874 Ry

     iteration # 10     ecut=   124.00 Ry     beta= 0.70
     Davidson diagonalization with overlap
     ethr =  1.53E-07,  avg # of iterations =  1.3

     negative rho (up, down):  7.161E-03 0.000E+00

     total cpu time spent up to now is    37436.3 secs

     total energy              =   -3593.23268075 Ry
     estimated scf accuracy    <       0.00002986 Ry

     iteration # 11     ecut=   124.00 Ry     beta= 0.70
     Davidson diagonalization with overlap
     ethr =  1.31E-08,  avg # of iterations =  4.2

     negative rho (up, down):  7.161E-03 0.000E+00

     total cpu time spent up to now is    37494.8 secs

     total energy              =   -3593.23268213 Ry
     estimated scf accuracy    <       0.00006303 Ry

     iteration # 12     ecut=   124.00 Ry     beta= 0.70
     Davidson diagonalization with overlap
     ethr =  1.31E-08,  avg # of iterations =  4.0

     negative rho (up, down):  7.161E-03 0.000E+00

     total cpu time spent up to now is    37549.8 secs

     total energy              =   -3593.23268291 Ry
     estimated scf accuracy    <       0.00011741 Ry

     iteration # 13     ecut=   124.00 Ry     beta= 0.70
     Davidson diagonalization with overlap
     ethr =  1.31E-08,  avg # of iterations =  2.3

     negative rho (up, down):  7.161E-03 0.000E+00

     total cpu time spent up to now is    37598.3 secs

     total energy              =   -3593.23268680 Ry
     estimated scf accuracy    <       0.00000846 Ry

     iteration # 14     ecut=   124.00 Ry     beta= 0.70
     Davidson diagonalization with overlap
     ethr =  3.71E-09,  avg # of iterations =  2.3

     negative rho (up, down):  7.161E-03 0.000E+00

     total cpu time spent up to now is    37647.3 secs

     total energy              =   -3593.23268737 Ry
     estimated scf accuracy    <       0.00000068 Ry

     iteration # 15     ecut=   124.00 Ry     beta= 0.70
     Davidson diagonalization with overlap
     ethr =  2.99E-10,  avg # of iterations =  5.1

     negative rho (up, down):  7.161E-03 0.000E+00

     total cpu time spent up to now is    37720.6 secs

     total energy              =   -3593.23268723 Ry
     estimated scf accuracy    <       0.00000875 Ry

     iteration # 16     ecut=   124.00 Ry     beta= 0.70
     Davidson diagonalization with overlap
     ethr =  2.99E-10,  avg # of iterations =  5.2

     negative rho (up, down):  7.161E-03 0.000E+00

     total cpu time spent up to now is    37787.5 secs

     total energy              =   -3593.23268723 Ry
     estimated scf accuracy    <       0.00000828 Ry

     iteration # 17     ecut=   124.00 Ry     beta= 0.70
     Davidson diagonalization with overlap
     ethr =  2.99E-10,  avg # of iterations =  4.4

     negative rho (up, down):  7.161E-03 0.000E+00

     total cpu time spent up to now is    37850.3 secs

     total energy              =   -3593.23268742 Ry
     estimated scf accuracy    <       0.00000551 Ry

     iteration # 18     ecut=   124.00 Ry     beta= 0.70
     Davidson diagonalization with overlap
     ethr =  2.99E-10,  avg # of iterations =  4.0

     negative rho (up, down):  7.161E-03 0.000E+00

     total cpu time spent up to now is    37907.9 secs

     total energy              =   -3593.23268762 Ry
     estimated scf accuracy    <       0.00000011 Ry

     iteration # 19     ecut=   124.00 Ry     beta= 0.70
     Davidson diagonalization with overlap
     ethr =  4.73E-11,  avg # of iterations =  5.0

     negative rho (up, down):  7.161E-03 0.000E+00

     total cpu time spent up to now is    37978.1 secs

     total energy              =   -3593.23268757 Ry
     estimated scf accuracy    <       0.00000254 Ry

     iteration # 20     ecut=   124.00 Ry     beta= 0.70
     Davidson diagonalization with overlap
     ethr =  4.73E-11,  avg # of iterations =  4.3

     negative rho (up, down):  7.161E-03 0.000E+00

     total cpu time spent up to now is    38038.8 secs

     total energy              =   -3593.23268765 Ry
     estimated scf accuracy    <       0.00000002 Ry

     iteration # 21     ecut=   124.00 Ry     beta= 0.70
     Davidson diagonalization with overlap
     ethr =  9.33E-12,  avg # of iterations =  4.4

     negative rho (up, down):  7.161E-03 0.000E+00

     total cpu time spent up to now is    38099.1 secs

     total energy              =   -3593.23268764 Ry
     estimated scf accuracy    <       0.00000012 Ry

     iteration # 22     ecut=   124.00 Ry     beta= 0.70
     Davidson diagonalization with overlap
     ethr =  9.33E-12,  avg # of iterations =  4.1

     negative rho (up, down):  7.161E-03 0.000E+00

     total cpu time spent up to now is    38158.2 secs

     total energy              =   -3593.23268764 Ry
     estimated scf accuracy    <       0.00000016 Ry

     iteration # 23     ecut=   124.00 Ry     beta= 0.70
     Davidson diagonalization with overlap
     ethr =  9.33E-12,  avg # of iterations =  4.0

     negative rho (up, down):  7.161E-03 0.000E+00

     total cpu time spent up to now is    38212.3 secs

     total energy              =   -3593.23268765 Ry
     estimated scf accuracy    <       0.00000002 Ry

     iteration # 24     ecut=   124.00 Ry     beta= 0.70
     Davidson diagonalization with overlap
     ethr =  7.21E-12,  avg # of iterations =  1.2

     negative rho (up, down):  7.161E-03 0.000E+00

     total cpu time spent up to now is    38254.8 secs

     End of self-consistent calculation

     Number of k-points >= 100: set verbosity='high' to print the bands.

     the Fermi energy is    16.6850 ev

!    total energy              =   -3593.23268765 Ry
     estimated scf accuracy    <          5.1E-10 Ry
     smearing contrib. (-TS)   =      -0.00006426 Ry
     internal energy E=F+TS    =   -3593.23262339 Ry

     The total energy is F=E-TS. E is the sum of the following terms:
     one-electron contribution =   -1272.39846381 Ry
     hartree contribution      =     758.29351176 Ry
     xc contribution           =    -425.93666144 Ry
     ewald contribution        =   -2043.97324680 Ry
     one-center paw contrib.   =    -609.21776311 Ry

     convergence has been achieved in  24 iterations

     negative rho (up, down):  7.161E-03 0.000E+00

     Forces acting on atoms (cartesian axes, Ry/au):

     atom    1 type  1   force =     0.00000000    0.00000000    0.00000000
     atom    2 type  1   force =     0.00000000    0.00000000    0.00000000
     atom    3 type  1   force =     0.00000000    0.00000000    0.00000000
     atom    4 type  1   force =     0.00000000    0.00000000    0.00000000
     atom    5 type  1   force =     0.00000000    0.00000000    0.00000000
     atom    6 type  1   force =     0.00000000    0.00000000    0.00000000
     atom    7 type  1   force =     0.00000000    0.00000000    0.00000000
     atom    8 type  1   force =     0.00000000    0.00000000    0.00000000
     atom    9 type  2   force =    -0.00212202    0.00552606    0.00552606
     atom   10 type  2   force =    -0.00179162    0.00291040   -0.00291040
     atom   11 type  2   force =     0.00212202    0.00552606    0.00552606
     atom   12 type  2   force =    -0.00212202   -0.00552606   -0.00552606
     atom   13 type  2   force =     0.00179162   -0.00291040    0.00291040
     atom   14 type  2   force =     0.00212202   -0.00552606   -0.00552606
     atom   15 type  2   force =    -0.00179162   -0.00291040    0.00291040
     atom   16 type  2   force =     0.00179162    0.00291040   -0.00291040
     atom   17 type  3   force =    -0.00070978    0.00000000    0.00000000
     atom   18 type  3   force =     0.00000000   -0.00019164    0.00019164
     atom   19 type  3   force =     0.00070978    0.00000000    0.00000000
     atom   20 type  3   force =     0.00000000    0.00019164   -0.00019164

     Total force =     0.018549     Total SCF correction =     0.000049


     Computing stress (Cartesian axis) and pressure


     negative rho (up, down):  7.161E-03 0.000E+00
          total   stress  (Ry/bohr**3)                   (kbar)     P=        4.53
   0.00001052   0.00000000   0.00000000            1.55        0.00        0.00
   0.00000000   0.00004094   0.00001056            0.00        6.02        1.55
   0.00000000   0.00001056   0.00004094            0.00        1.55        6.02

     Energy error            =      1.5E-03 Ry
     Gradient error          =      5.5E-03 Ry/Bohr
     Cell gradient error     =      6.0E+00 kbar

     number of scf cycles    =  26
     number of bfgs steps    =  25

     enthalpy           old  =   -3593.2312150974 Ry
     enthalpy           new  =   -3593.2326876490 Ry

     CASE: enthalpy          _new < enthalpy          _old

     new trust radius        =       0.0190873897 bohr
     new conv_thr            =       0.0000000006 Ry

     new unit-cell volume =   1474.03732 a.u.^3 (   218.42979 Ang^3 )
     density =      6.33813 g/cm^3

CELL_PARAMETERS (alat=  5.58242261)
   2.183366593   0.000000000   0.000000000
   0.000000000   1.970137906  -0.026666021
   0.000000000  -0.026666021   1.970137906

ATOMIC_POSITIONS (crystal)
Fe               0.0000000000        0.0000000000        0.0000000000
Fe               0.5000000000        0.5000000000       -0.0000000000
Fe               0.5000000000        0.0000000000        0.0000000000
Fe               0.0000000000        0.5000000000        0.5000000000
Fe               0.0000000000       -0.0000000000        0.5000000000
Fe               0.5000000000        0.5000000000        0.5000000000
Fe               0.5000000000       -0.0000000000        0.5000000000
Fe               0.0000000000        0.5000000000       -0.0000000000
Ti               0.2505882812        0.2400076430        0.2400076430
Ti               0.7713832156        0.7516233438        0.2483766562
Ti               0.7494117188        0.2400076430        0.2400076430
Ti               0.2505882812        0.7599923570        0.7599923570
Ti               0.2286167844        0.2483766562        0.7516233438
Ti               0.7494117188        0.7599923570        0.7599923570
Ti               0.7713832156        0.2483766562        0.7516233438
Ti               0.2286167844        0.7516233438        0.2483766562
H                0.2508657585        0.5000000000        0.5000000000
H                0.5000000000        0.3051248384        0.6948751616
H                0.7491342415        0.5000000000        0.5000000000
H                0.5000000000        0.6948751616        0.3051248384



     Writing config-only to output data dir ./TiFeH_supercell.save/ :
     XML data file     NEW-OLD atomic charge density approx. for the potential
     New effective cutoffs (rho, wfc): 1836.96  131.24

     Check: negative core charge=   -0.000001

     negative rho (up, down):  7.156E-03 0.000E+00

     total cpu time spent up to now is    38298.6 secs

     per-process dynamical memory:   705.9 Mb

     Self-consistent Calculation

     iteration #  1     ecut=   124.00 Ry     beta= 0.70
     Davidson diagonalization with overlap
     ethr =  1.00E-06,  avg # of iterations =  5.1

     negative rho (up, down):  7.139E-03 0.000E+00

     total cpu time spent up to now is    38395.2 secs

     total energy              =   -3593.23164951 Ry
     estimated scf accuracy    <       0.00169973 Ry

     iteration #  2     ecut=   124.00 Ry     beta= 0.70
     Davidson diagonalization with overlap
     ethr =  7.45E-07,  avg # of iterations =  6.4

     negative rho (up, down):  7.144E-03 0.000E+00

     total cpu time spent up to now is    38488.7 secs

     total energy              =   -3593.21494098 Ry
     estimated scf accuracy    <       0.56013742 Ry

     iteration #  3     ecut=   124.00 Ry     beta= 0.70
     Davidson diagonalization with overlap
     ethr =  7.45E-07,  avg # of iterations =  7.8

     negative rho (up, down):  7.152E-03 0.000E+00

     total cpu time spent up to now is    38581.1 secs

     total energy              =   -3593.23291740 Ry
     estimated scf accuracy    <       0.00244932 Ry

     iteration #  4     ecut=   124.00 Ry     beta= 0.70
     Davidson diagonalization with overlap
     ethr =  7.45E-07,  avg # of iterations =  2.2

     negative rho (up, down):  7.156E-03 0.000E+00

     total cpu time spent up to now is    38630.3 secs

     total energy              =   -3593.23304712 Ry
     estimated scf accuracy    <       0.00083925 Ry

     iteration #  5     ecut=   124.00 Ry     beta= 0.70
     Davidson diagonalization with overlap
     ethr =  3.68E-07,  avg # of iterations =  3.0

     negative rho (up, down):  7.154E-03 0.000E+00

     total cpu time spent up to now is    38682.6 secs

     total energy              =   -3593.23299790 Ry
     estimated scf accuracy    <       0.00418922 Ry

     iteration #  6     ecut=   124.00 Ry     beta= 0.70
     Davidson diagonalization with overlap
     ethr =  3.68E-07,  avg # of iterations =  1.6

     negative rho (up, down):  7.154E-03 0.000E+00

     total cpu time spent up to now is    38727.7 secs

     total energy              =   -3593.23311847 Ry
     estimated scf accuracy    <       0.00017978 Ry

     iteration #  7     ecut=   124.00 Ry     beta= 0.70
     Davidson diagonalization with overlap
     ethr =  7.89E-08,  avg # of iterations =  2.9

     negative rho (up, down):  7.154E-03 0.000E+00

     total cpu time spent up to now is    38779.7 secs

     total energy              =   -3593.23312747 Ry
     estimated scf accuracy    <       0.00033445 Ry

     iteration #  8     ecut=   124.00 Ry     beta= 0.70
     Davidson diagonalization with overlap
     ethr =  7.89E-08,  avg # of iterations =  2.1

     negative rho (up, down):  7.154E-03 0.000E+00

     total cpu time spent up to now is    38827.9 secs

     total energy              =   -3593.23313404 Ry
     estimated scf accuracy    <       0.00013604 Ry

     iteration #  9     ecut=   124.00 Ry     beta= 0.70
     Davidson diagonalization with overlap
     ethr =  5.97E-08,  avg # of iterations =  2.0

     negative rho (up, down):  7.153E-03 0.000E+00

     total cpu time spent up to now is    38875.5 secs

     total energy              =   -3593.23313892 Ry
     estimated scf accuracy    <       0.00013003 Ry

     iteration # 10     ecut=   124.00 Ry     beta= 0.70
     Davidson diagonalization with overlap
     ethr =  5.70E-08,  avg # of iterations =  1.0

     negative rho (up, down):  7.153E-03 0.000E+00

     total cpu time spent up to now is    38917.3 secs

     total energy              =   -3593.23314446 Ry
     estimated scf accuracy    <       0.00000534 Ry

     iteration # 11     ecut=   124.00 Ry     beta= 0.70
     Davidson diagonalization with overlap
     ethr =  2.34E-09,  avg # of iterations =  4.4

     negative rho (up, down):  7.153E-03 0.000E+00

     total cpu time spent up to now is    38979.6 secs

     total energy              =   -3593.23314436 Ry
     estimated scf accuracy    <       0.00002909 Ry

     iteration # 12     ecut=   124.00 Ry     beta= 0.70
     Davidson diagonalization with overlap
     ethr =  2.34E-09,  avg # of iterations =  3.2

     negative rho (up, down):  7.153E-03 0.000E+00

     total cpu time spent up to now is    39031.8 secs

     total energy              =   -3593.23314539 Ry
     estimated scf accuracy    <       0.00000721 Ry

     iteration # 13     ecut=   124.00 Ry     beta= 0.70
     Davidson diagonalization with overlap
     ethr =  2.34E-09,  avg # of iterations =  1.0

     negative rho (up, down):  7.153E-03 0.000E+00

     total cpu time spent up to now is    39074.4 secs

     total energy              =   -3593.23314560 Ry
     estimated scf accuracy    <       0.00000031 Ry

     iteration # 14     ecut=   124.00 Ry     beta= 0.70
     Davidson diagonalization with overlap
     ethr =  1.36E-10,  avg # of iterations =  4.7

     negative rho (up, down):  7.153E-03 0.000E+00

     total cpu time spent up to now is    39137.1 secs

     total energy              =   -3593.23314566 Ry
     estimated scf accuracy    <       0.00000019 Ry

     iteration # 15     ecut=   124.00 Ry     beta= 0.70
     Davidson diagonalization with overlap
     ethr =  8.50E-11,  avg # of iterations =  2.0

     negative rho (up, down):  7.153E-03 0.000E+00

     total cpu time spent up to now is    39185.3 secs

     total energy              =   -3593.23314568 Ry
     estimated scf accuracy    <       0.00000003 Ry

     iteration # 16     ecut=   124.00 Ry     beta= 0.70
     Davidson diagonalization with overlap
     ethr =  1.39E-11,  avg # of iterations =  4.4

     negative rho (up, down):  7.153E-03 0.000E+00

     total cpu time spent up to now is    39244.9 secs

     total energy              =   -3593.23314568 Ry
     estimated scf accuracy    <          6.1E-09 Ry

     iteration # 17     ecut=   124.00 Ry     beta= 0.70
     Davidson diagonalization with overlap
     ethr =  2.67E-12,  avg # of iterations =  4.8

     negative rho (up, down):  7.153E-03 0.000E+00

     total cpu time spent up to now is    39314.3 secs

     total energy              =   -3593.23314568 Ry
     estimated scf accuracy    <       0.00000007 Ry

     iteration # 18     ecut=   124.00 Ry     beta= 0.70
     Davidson diagonalization with overlap
     ethr =  2.67E-12,  avg # of iterations =  4.3

     negative rho (up, down):  7.153E-03 0.000E+00

     total cpu time spent up to now is    39372.7 secs

     total energy              =   -3593.23314568 Ry
     estimated scf accuracy    <          7.2E-09 Ry

     iteration # 19     ecut=   124.00 Ry     beta= 0.70
     Davidson diagonalization with overlap
     ethr =  2.67E-12,  avg # of iterations =  2.8

     negative rho (up, down):  7.153E-03 0.000E+00

     total cpu time spent up to now is    39423.4 secs

     total energy              =   -3593.23314568 Ry
     estimated scf accuracy    <       0.00000002 Ry

     iteration # 20     ecut=   124.00 Ry     beta= 0.70
     Davidson diagonalization with overlap
     ethr =  2.67E-12,  avg # of iterations =  2.2

     negative rho (up, down):  7.153E-03 0.000E+00

     total cpu time spent up to now is    39471.7 secs

     total energy              =   -3593.23314568 Ry
     estimated scf accuracy    <          6.5E-09 Ry

     iteration # 21     ecut=   124.00 Ry     beta= 0.70
     Davidson diagonalization with overlap
     ethr =  2.67E-12,  avg # of iterations =  1.0

     negative rho (up, down):  7.153E-03 0.000E+00

     total cpu time spent up to now is    39513.7 secs

     total energy              =   -3593.23314568 Ry
     estimated scf accuracy    <          5.6E-10 Ry

     iteration # 22     ecut=   124.00 Ry     beta= 0.70
     Davidson diagonalization with overlap
     ethr =  2.46E-13,  avg # of iterations =  2.6

     negative rho (up, down):  7.153E-03 0.000E+00

     total cpu time spent up to now is    39564.0 secs

     End of self-consistent calculation

     Number of k-points >= 100: set verbosity='high' to print the bands.

     the Fermi energy is    16.6537 ev

!    total energy              =   -3593.23314568 Ry
     estimated scf accuracy    <          2.2E-10 Ry
     smearing contrib. (-TS)   =      -0.00006787 Ry
     internal energy E=F+TS    =   -3593.23307781 Ry

     The total energy is F=E-TS. E is the sum of the following terms:
     one-electron contribution =   -1273.62104595 Ry
     hartree contribution      =     758.67177436 Ry
     xc contribution           =    -425.91149705 Ry
     ewald contribution        =   -2043.15485081 Ry
     one-center paw contrib.   =    -609.21745837 Ry

     convergence has been achieved in  22 iterations

     negative rho (up, down):  7.153E-03 0.000E+00

     Forces acting on atoms (cartesian axes, Ry/au):

     atom    1 type  1   force =     0.00000000    0.00000000    0.00000000
     atom    2 type  1   force =     0.00000000    0.00000000    0.00000000
     atom    3 type  1   force =     0.00000000    0.00000000    0.00000000
     atom    4 type  1   force =     0.00000000    0.00000000    0.00000000
     atom    5 type  1   force =     0.00000000    0.00000000    0.00000000
     atom    6 type  1   force =     0.00000000    0.00000000    0.00000000
     atom    7 type  1   force =     0.00000000    0.00000000    0.00000000
     atom    8 type  1   force =     0.00000000    0.00000000    0.00000000
     atom    9 type  2   force =    -0.00201724    0.00458501    0.00458501
     atom   10 type  2   force =    -0.00033128    0.00280754   -0.00280754
     atom   11 type  2   force =     0.00201724    0.00458501    0.00458501
     atom   12 type  2   force =    -0.00201724   -0.00458501   -0.00458501
     atom   13 type  2   force =     0.00033128   -0.00280754    0.00280754
     atom   14 type  2   force =     0.00201724   -0.00458501   -0.00458501
     atom   15 type  2   force =    -0.00033128   -0.00280754    0.00280754
     atom   16 type  2   force =     0.00033128    0.00280754   -0.00280754
     atom   17 type  3   force =    -0.00069789    0.00000000    0.00000000
     atom   18 type  3   force =     0.00000000    0.00134147   -0.00134147
     atom   19 type  3   force =     0.00069789    0.00000000    0.00000000
     atom   20 type  3   force =     0.00000000   -0.00134147    0.00134147

     Total force =     0.016004     Total SCF correction =     0.000030


     Computing stress (Cartesian axis) and pressure


     negative rho (up, down):  7.153E-03 0.000E+00
          total   stress  (Ry/bohr**3)                   (kbar)     P=        1.27
  -0.00002370   0.00000000   0.00000000           -3.49        0.00        0.00
   0.00000000   0.00002477   0.00000893            0.00        3.64        1.31
   0.00000000   0.00000893   0.00002477            0.00        1.31        3.64

     Energy error            =      4.6E-04 Ry
     Gradient error          =      4.6E-03 Ry/Bohr
     Cell gradient error     =      3.6E+00 kbar

     number of scf cycles    =  27
     number of bfgs steps    =  26

     enthalpy           old  =   -3593.2326876490 Ry
     enthalpy           new  =   -3593.2331456832 Ry

     CASE: enthalpy          _new < enthalpy          _old

     new trust radius        =       0.0281106536 bohr
     new conv_thr            =       0.0000000005 Ry

     new unit-cell volume =   1477.76618 a.u.^3 (   218.98236 Ang^3 )
     density =      6.32214 g/cm^3

CELL_PARAMETERS (alat=  5.58242261)
   2.185642540   0.000000000   0.000000000
   0.000000000   1.971565809  -0.023951346
   0.000000000  -0.023951346   1.971565809

ATOMIC_POSITIONS (crystal)
Fe               0.0000000000        0.0000000000        0.0000000000
Fe               0.5000000000        0.5000000000       -0.0000000000
Fe               0.5000000000        0.0000000000        0.0000000000
Fe               0.0000000000        0.5000000000        0.5000000000
Fe               0.0000000000       -0.0000000000        0.5000000000
Fe               0.5000000000        0.5000000000        0.5000000000
Fe               0.5000000000       -0.0000000000        0.5000000000
Fe               0.0000000000        0.5000000000       -0.0000000000
Ti               0.2498600775        0.2417460458        0.2417460458
Ti               0.7706443184        0.7528228311        0.2471771689
Ti               0.7501399225        0.2417460458        0.2417460458
Ti               0.2498600775        0.7582539542        0.7582539542
Ti               0.2293556816        0.2471771689        0.7528228311
Ti               0.7501399225        0.7582539542        0.7582539542
Ti               0.7706443184        0.2471771689        0.7528228311
Ti               0.2293556816        0.7528228311        0.2471771689
H                0.2507179897        0.5000000000        0.5000000000
H                0.5000000000        0.3046237918        0.6953762082
H                0.7492820103        0.5000000000        0.5000000000
H                0.5000000000        0.6953762082        0.3046237918



     Writing config-only to output data dir ./TiFeH_supercell.save/ :
     XML data file     NEW-OLD atomic charge density approx. for the potential
     New effective cutoffs (rho, wfc): 1829.28  130.68

     Check: negative core charge=   -0.000001

     negative rho (up, down):  7.127E-03 0.000E+00

     total cpu time spent up to now is    39607.6 secs

     per-process dynamical memory:   705.9 Mb

     Self-consistent Calculation

     iteration #  1     ecut=   124.00 Ry     beta= 0.70
     Davidson diagonalization with overlap
     ethr =  1.00E-06,  avg # of iterations =  6.3

     negative rho (up, down):  7.102E-03 0.000E+00

     total cpu time spent up to now is    39721.8 secs

     total energy              =   -3593.22653219 Ry
     estimated scf accuracy    <       0.00855086 Ry

     iteration #  2     ecut=   124.00 Ry     beta= 0.70
     Davidson diagonalization with overlap
     c_bands:  1 eigenvalues not converged
     c_bands:  2 eigenvalues not converged
     c_bands:  1 eigenvalues not converged
     ethr =  3.75E-06,  avg # of iterations =  7.4

     negative rho (up, down):  7.104E-03 0.000E+00

     total cpu time spent up to now is    39823.7 secs

     total energy              =   -3593.14578324 Ry
     estimated scf accuracy    <       2.76930569 Ry

     iteration #  3     ecut=   124.00 Ry     beta= 0.70
     Davidson diagonalization with overlap
     c_bands:  1 eigenvalues not converged
     c_bands:  1 eigenvalues not converged
     c_bands:  1 eigenvalues not converged
     ethr =  3.75E-06,  avg # of iterations =  7.0

     negative rho (up, down):  7.121E-03 0.000E+00

     total cpu time spent up to now is    39919.4 secs

     total energy              =   -3593.23295973 Ry
     estimated scf accuracy    <       0.00945706 Ry

     iteration #  4     ecut=   124.00 Ry     beta= 0.70
     Davidson diagonalization with overlap
     ethr =  3.75E-06,  avg # of iterations =  2.4

     negative rho (up, down):  7.129E-03 0.000E+00

     total cpu time spent up to now is    39968.7 secs

     total energy              =   -3593.23320799 Ry
     estimated scf accuracy    <       0.01037529 Ry

     iteration #  5     ecut=   124.00 Ry     beta= 0.70
     Davidson diagonalization with overlap
     ethr =  3.75E-06,  avg # of iterations =  2.0

     negative rho (up, down):  7.121E-03 0.000E+00

     total cpu time spent up to now is    40016.7 secs

     total energy              =   -3593.23333790 Ry
     estimated scf accuracy    <       0.01410560 Ry

     iteration #  6     ecut=   124.00 Ry     beta= 0.70
     Davidson diagonalization with overlap
     ethr =  3.75E-06,  avg # of iterations =  1.0

     negative rho (up, down):  7.120E-03 0.000E+00

     total cpu time spent up to now is    40058.6 secs

     total energy              =   -3593.23380280 Ry
     estimated scf accuracy    <       0.00089084 Ry

     iteration #  7     ecut=   124.00 Ry     beta= 0.70
     Davidson diagonalization with overlap
     ethr =  3.91E-07,  avg # of iterations =  2.1

     negative rho (up, down):  7.121E-03 0.000E+00

     total cpu time spent up to now is    40109.3 secs

     total energy              =   -3593.23383359 Ry
     estimated scf accuracy    <       0.00164575 Ry

     iteration #  8     ecut=   124.00 Ry     beta= 0.70
     Davidson diagonalization with overlap
     ethr =  3.91E-07,  avg # of iterations =  1.5

     negative rho (up, down):  7.120E-03 0.000E+00

     total cpu time spent up to now is    40154.0 secs

     total energy              =   -3593.23389828 Ry
     estimated scf accuracy    <       0.00022123 Ry

     iteration #  9     ecut=   124.00 Ry     beta= 0.70
     Davidson diagonalization with overlap
     ethr =  9.70E-08,  avg # of iterations =  3.7

     negative rho (up, down):  7.118E-03 0.000E+00

     total cpu time spent up to now is    40210.2 secs

     total energy              =   -3593.23387893 Ry
     estimated scf accuracy    <       0.00142839 Ry

     iteration # 10     ecut=   124.00 Ry     beta= 0.70
     Davidson diagonalization with overlap
     ethr =  9.70E-08,  avg # of iterations =  3.0

     negative rho (up, down):  7.118E-03 0.000E+00

     total cpu time spent up to now is    40261.2 secs

     total energy              =   -3593.23392938 Ry
     estimated scf accuracy    <       0.00002708 Ry

     iteration # 11     ecut=   124.00 Ry     beta= 0.70
     Davidson diagonalization with overlap
     ethr =  1.19E-08,  avg # of iterations =  4.3

     negative rho (up, down):  7.118E-03 0.000E+00

     total cpu time spent up to now is    40320.4 secs

     total energy              =   -3593.23393117 Ry
     estimated scf accuracy    <       0.00009536 Ry

     iteration # 12     ecut=   124.00 Ry     beta= 0.70
     Davidson diagonalization with overlap
     ethr =  1.19E-08,  avg # of iterations =  2.7

     negative rho (up, down):  7.118E-03 0.000E+00

     total cpu time spent up to now is    40370.6 secs

     total energy              =   -3593.23393484 Ry
     estimated scf accuracy    <       0.00001974 Ry

     iteration # 13     ecut=   124.00 Ry     beta= 0.70
     Davidson diagonalization with overlap
     ethr =  8.66E-09,  avg # of iterations =  1.0

     negative rho (up, down):  7.118E-03 0.000E+00

     total cpu time spent up to now is    40413.4 secs

     total energy              =   -3593.23393546 Ry
     estimated scf accuracy    <       0.00000140 Ry

     iteration # 14     ecut=   124.00 Ry     beta= 0.70
     Davidson diagonalization with overlap
     ethr =  6.16E-10,  avg # of iterations =  4.4

     negative rho (up, down):  7.118E-03 0.000E+00

     total cpu time spent up to now is    40475.2 secs

     total energy              =   -3593.23393554 Ry
     estimated scf accuracy    <       0.00000290 Ry

     iteration # 15     ecut=   124.00 Ry     beta= 0.70
     Davidson diagonalization with overlap
     ethr =  6.16E-10,  avg # of iterations =  3.0

     negative rho (up, down):  7.118E-03 0.000E+00

     total cpu time spent up to now is    40526.8 secs

     total energy              =   -3593.23393553 Ry
     estimated scf accuracy    <       0.00000588 Ry

     iteration # 16     ecut=   124.00 Ry     beta= 0.70
     Davidson diagonalization with overlap
     ethr =  6.16E-10,  avg # of iterations =  1.9

     negative rho (up, down):  7.118E-03 0.000E+00

     total cpu time spent up to now is    40574.2 secs

     total energy              =   -3593.23393572 Ry
     estimated scf accuracy    <       0.00000021 Ry

     iteration # 17     ecut=   124.00 Ry     beta= 0.70
     Davidson diagonalization with overlap
     ethr =  9.42E-11,  avg # of iterations =  4.7

     negative rho (up, down):  7.118E-03 0.000E+00

     total cpu time spent up to now is    40637.9 secs

     total energy              =   -3593.23393566 Ry
     estimated scf accuracy    <       0.00000264 Ry

     iteration # 18     ecut=   124.00 Ry     beta= 0.70
     Davidson diagonalization with overlap
     ethr =  9.42E-11,  avg # of iterations =  4.4

     negative rho (up, down):  7.118E-03 0.000E+00

     total cpu time spent up to now is    40696.1 secs

     total energy              =   -3593.23393576 Ry
     estimated scf accuracy    <       0.00000007 Ry

     iteration # 19     ecut=   124.00 Ry     beta= 0.70
     Davidson diagonalization with overlap
     ethr =  3.21E-11,  avg # of iterations =  3.6

     negative rho (up, down):  7.118E-03 0.000E+00

     total cpu time spent up to now is    40751.6 secs

     total energy              =   -3593.23393576 Ry
     estimated scf accuracy    <       0.00000010 Ry

     iteration # 20     ecut=   124.00 Ry     beta= 0.70
     Davidson diagonalization with overlap
     ethr =  3.21E-11,  avg # of iterations =  2.3

     negative rho (up, down):  7.118E-03 0.000E+00

     total cpu time spent up to now is    40798.8 secs

     total energy              =   -3593.23393577 Ry
     estimated scf accuracy    <       0.00000001 Ry

     iteration # 21     ecut=   124.00 Ry     beta= 0.70
     Davidson diagonalization with overlap
     ethr =  6.56E-12,  avg # of iterations =  2.1

     negative rho (up, down):  7.118E-03 0.000E+00

     total cpu time spent up to now is    40849.7 secs

     total energy              =   -3593.23393577 Ry
     estimated scf accuracy    <          3.1E-09 Ry

     iteration # 22     ecut=   124.00 Ry     beta= 0.70
     Davidson diagonalization with overlap
     ethr =  1.35E-12,  avg # of iterations =  5.0

     negative rho (up, down):  7.118E-03 0.000E+00

     total cpu time spent up to now is    40924.3 secs

     total energy              =   -3593.23393576 Ry
     estimated scf accuracy    <       0.00000019 Ry

     iteration # 23     ecut=   124.00 Ry     beta= 0.70
     Davidson diagonalization with overlap
     ethr =  1.35E-12,  avg # of iterations =  5.0

     negative rho (up, down):  7.118E-03 0.000E+00

     total cpu time spent up to now is    40990.0 secs

     total energy              =   -3593.23393577 Ry
     estimated scf accuracy    <          4.8E-09 Ry

     iteration # 24     ecut=   124.00 Ry     beta= 0.70
     Davidson diagonalization with overlap
     ethr =  1.35E-12,  avg # of iterations =  1.6

     negative rho (up, down):  7.118E-03 0.000E+00

     total cpu time spent up to now is    41035.3 secs

     End of self-consistent calculation

     Number of k-points >= 100: set verbosity='high' to print the bands.

     the Fermi energy is    16.6039 ev

!    total energy              =   -3593.23393577 Ry
     estimated scf accuracy    <          2.7E-10 Ry
     smearing contrib. (-TS)   =      -0.00006256 Ry
     internal energy E=F+TS    =   -3593.23387321 Ry

     The total energy is F=E-TS. E is the sum of the following terms:
     one-electron contribution =   -1275.83801270 Ry
     hartree contribution      =     759.35526999 Ry
     xc contribution           =    -425.86995268 Ry
     ewald contribution        =   -2041.66413322 Ry
     one-center paw contrib.   =    -609.21704459 Ry

     convergence has been achieved in  24 iterations

     negative rho (up, down):  7.118E-03 0.000E+00

     Forces acting on atoms (cartesian axes, Ry/au):

     atom    1 type  1   force =     0.00000000    0.00000000    0.00000000
     atom    2 type  1   force =     0.00000000    0.00000000    0.00000000
     atom    3 type  1   force =     0.00000000    0.00000000    0.00000000
     atom    4 type  1   force =     0.00000000    0.00000000    0.00000000
     atom    5 type  1   force =     0.00000000    0.00000000    0.00000000
     atom    6 type  1   force =     0.00000000    0.00000000    0.00000000
     atom    7 type  1   force =     0.00000000    0.00000000    0.00000000
     atom    8 type  1   force =     0.00000000    0.00000000    0.00000000
     atom    9 type  2   force =    -0.00085475    0.00231198    0.00231198
     atom   10 type  2   force =     0.00165415    0.00282953   -0.00282953
     atom   11 type  2   force =     0.00085475    0.00231198    0.00231198
     atom   12 type  2   force =    -0.00085475   -0.00231198   -0.00231198
     atom   13 type  2   force =    -0.00165415   -0.00282953    0.00282953
     atom   14 type  2   force =     0.00085475   -0.00231198   -0.00231198
     atom   15 type  2   force =     0.00165415   -0.00282953    0.00282953
     atom   16 type  2   force =    -0.00165415    0.00282953   -0.00282953
     atom   17 type  3   force =    -0.00039735    0.00000000    0.00000000
     atom   18 type  3   force =     0.00000000    0.00208571   -0.00208571
     atom   19 type  3   force =     0.00039735    0.00000000    0.00000000
     atom   20 type  3   force =     0.00000000   -0.00208571    0.00208571

     Total force =     0.011764     Total SCF correction =     0.000028


     Computing stress (Cartesian axis) and pressure


     negative rho (up, down):  7.118E-03 0.000E+00
          total   stress  (Ry/bohr**3)                   (kbar)     P=       -3.98
  -0.00007094   0.00000000   0.00000000          -10.44        0.00        0.00
   0.00000000  -0.00000514   0.00000607            0.00       -0.76        0.89
   0.00000000   0.00000607  -0.00000514            0.00        0.89       -0.76

     Energy error            =      7.9E-04 Ry
     Gradient error          =      2.8E-03 Ry/Bohr
     Cell gradient error     =      1.0E+01 kbar

     number of scf cycles    =  28
     number of bfgs steps    =  27

     enthalpy           old  =   -3593.2331456832 Ry
     enthalpy           new  =   -3593.2339357689 Ry

     CASE: enthalpy          _new < enthalpy          _old

     new trust radius        =       0.0305932713 bohr
     new conv_thr            =       0.0000000003 Ry

     new unit-cell volume =   1479.10506 a.u.^3 (   219.18076 Ang^3 )
     density =      6.31642 g/cm^3

CELL_PARAMETERS (alat=  5.58242261)
   2.183235513   0.000000000   0.000000000
   0.000000000   1.973516957  -0.021473856
   0.000000000  -0.021473856   1.973516957

ATOMIC_POSITIONS (crystal)
Fe               0.0000000000        0.0000000000        0.0000000000
Fe               0.5000000000        0.5000000000       -0.0000000000
Fe               0.5000000000        0.0000000000        0.0000000000
Fe               0.0000000000        0.5000000000        0.5000000000
Fe               0.0000000000       -0.0000000000        0.5000000000
Fe               0.5000000000        0.5000000000        0.5000000000
Fe               0.5000000000       -0.0000000000        0.5000000000
Fe               0.0000000000        0.5000000000       -0.0000000000
Ti               0.2490623720        0.2436323580        0.2436323580
Ti               0.7700342199        0.7542877452        0.2457122548
Ti               0.7509376280        0.2436323580        0.2436323580
Ti               0.2490623720        0.7563676420        0.7563676420
Ti               0.2299657801        0.2457122548        0.7542877452
Ti               0.7509376280        0.7563676420        0.7563676420
Ti               0.7700342199        0.2457122548        0.7542877452
Ti               0.2299657801        0.7542877452        0.2457122548
H                0.2505053033        0.5000000000        0.5000000000
H                0.5000000000        0.3050779875        0.6949220125
H                0.7494946967        0.5000000000        0.5000000000
H                0.5000000000        0.6949220125        0.3050779875



     Writing config-only to output data dir ./TiFeH_supercell.save/ :
     XML data file     NEW-OLD atomic charge density approx. for the potential
     New effective cutoffs (rho, wfc): 1821.11  130.10

     Check: negative core charge=   -0.000001

     negative rho (up, down):  7.237E-03 0.000E+00

     total cpu time spent up to now is    41079.4 secs

     per-process dynamical memory:   705.9 Mb

     Self-consistent Calculation

     iteration #  1     ecut=   124.00 Ry     beta= 0.70
     Davidson diagonalization with overlap
     c_bands:  1 eigenvalues not converged
     ethr =  1.00E-06,  avg # of iterations =  6.7

     negative rho (up, down):  7.223E-03 0.000E+00

     total cpu time spent up to now is    41197.0 secs

     total energy              =   -3593.22854251 Ry
     estimated scf accuracy    <       0.00689200 Ry

     iteration #  2     ecut=   124.00 Ry     beta= 0.70
     Davidson diagonalization with overlap
     c_bands:  1 eigenvalues not converged
     ethr =  3.02E-06,  avg # of iterations =  7.8

     negative rho (up, down):  7.219E-03 0.000E+00

     total cpu time spent up to now is    41301.0 secs

     total energy              =   -3593.16085667 Ry
     estimated scf accuracy    <       2.34903329 Ry

     iteration #  3     ecut=   124.00 Ry     beta= 0.70
     Davidson diagonalization with overlap
     c_bands:  1 eigenvalues not converged
     ethr =  3.02E-06,  avg # of iterations =  7.0

     negative rho (up, down):  7.226E-03 0.000E+00

     total cpu time spent up to now is    41396.5 secs

     total energy              =   -3593.23378878 Ry
     estimated scf accuracy    <       0.00607469 Ry

     iteration #  4     ecut=   124.00 Ry     beta= 0.70
     Davidson diagonalization with overlap
     ethr =  2.66E-06,  avg # of iterations =  2.7

     negative rho (up, down):  7.233E-03 0.000E+00

     total cpu time spent up to now is    41447.0 secs

     total energy              =   -3593.23371890 Ry
     estimated scf accuracy    <       0.01943502 Ry

     iteration #  5     ecut=   124.00 Ry     beta= 0.70
     Davidson diagonalization with overlap
     ethr =  2.66E-06,  avg # of iterations =  2.3

     negative rho (up, down):  7.224E-03 0.000E+00

     total cpu time spent up to now is    41495.8 secs

     total energy              =   -3593.23421830 Ry
     estimated scf accuracy    <       0.00517030 Ry

     iteration #  6     ecut=   124.00 Ry     beta= 0.70
     Davidson diagonalization with overlap
     ethr =  2.27E-06,  avg # of iterations =  1.3

     negative rho (up, down):  7.224E-03 0.000E+00

     total cpu time spent up to now is    41539.7 secs

     total energy              =   -3593.23439612 Ry
     estimated scf accuracy    <       0.00222476 Ry

     iteration #  7     ecut=   124.00 Ry     beta= 0.70
     Davidson diagonalization with overlap
     ethr =  9.76E-07,  avg # of iterations =  2.0

     negative rho (up, down):  7.227E-03 0.000E+00

     total cpu time spent up to now is    41586.9 secs

     total energy              =   -3593.23448326 Ry
     estimated scf accuracy    <       0.00111963 Ry

     iteration #  8     ecut=   124.00 Ry     beta= 0.70
     Davidson diagonalization with overlap
     ethr =  4.91E-07,  avg # of iterations =  1.8

     negative rho (up, down):  7.227E-03 0.000E+00

     total cpu time spent up to now is    41633.5 secs

     total energy              =   -3593.23453706 Ry
     estimated scf accuracy    <       0.00029829 Ry

     iteration #  9     ecut=   124.00 Ry     beta= 0.70
     Davidson diagonalization with overlap
     ethr =  1.31E-07,  avg # of iterations =  3.6

     negative rho (up, down):  7.225E-03 0.000E+00

     total cpu time spent up to now is    41687.9 secs

     total energy              =   -3593.23452221 Ry
     estimated scf accuracy    <       0.00130226 Ry

     iteration # 10     ecut=   124.00 Ry     beta= 0.70
     Davidson diagonalization with overlap
     ethr =  1.31E-07,  avg # of iterations =  2.5

     negative rho (up, down):  7.225E-03 0.000E+00

     total cpu time spent up to now is    41736.6 secs

     total energy              =   -3593.23456957 Ry
     estimated scf accuracy    <       0.00001407 Ry

     iteration # 11     ecut=   124.00 Ry     beta= 0.70
     Davidson diagonalization with overlap
     ethr =  6.17E-09,  avg # of iterations =  5.1

     negative rho (up, down):  7.225E-03 0.000E+00

     total cpu time spent up to now is    41804.4 secs

     total energy              =   -3593.23457030 Ry
     estimated scf accuracy    <       0.00010632 Ry

     iteration # 12     ecut=   124.00 Ry     beta= 0.70
     Davidson diagonalization with overlap
     ethr =  6.17E-09,  avg # of iterations =  4.1

     negative rho (up, down):  7.225E-03 0.000E+00

     total cpu time spent up to now is    41861.0 secs

     total energy              =   -3593.23457366 Ry
     estimated scf accuracy    <       0.00004204 Ry

     iteration # 13     ecut=   124.00 Ry     beta= 0.70
     Davidson diagonalization with overlap
     ethr =  6.17E-09,  avg # of iterations =  1.8

     negative rho (up, down):  7.226E-03 0.000E+00

     total cpu time spent up to now is    41907.7 secs

     total energy              =   -3593.23457470 Ry
     estimated scf accuracy    <       0.00000275 Ry

     iteration # 14     ecut=   124.00 Ry     beta= 0.70
     Davidson diagonalization with overlap
     ethr =  1.21E-09,  avg # of iterations =  4.1

     negative rho (up, down):  7.226E-03 0.000E+00

     total cpu time spent up to now is    41965.3 secs

     total energy              =   -3593.23457384 Ry
     estimated scf accuracy    <       0.00002855 Ry

     iteration # 15     ecut=   124.00 Ry     beta= 0.70
     Davidson diagonalization with overlap
     ethr =  1.21E-09,  avg # of iterations =  4.2

     negative rho (up, down):  7.226E-03 0.000E+00

     total cpu time spent up to now is    42021.1 secs

     total energy              =   -3593.23457472 Ry
     estimated scf accuracy    <       0.00000779 Ry

     iteration # 16     ecut=   124.00 Ry     beta= 0.70
     Davidson diagonalization with overlap
     ethr =  1.21E-09,  avg # of iterations =  2.0

     negative rho (up, down):  7.225E-03 0.000E+00

     total cpu time spent up to now is    42068.8 secs

     total energy              =   -3593.23457498 Ry
     estimated scf accuracy    <       0.00000044 Ry

     iteration # 17     ecut=   124.00 Ry     beta= 0.70
     Davidson diagonalization with overlap
     ethr =  1.94E-10,  avg # of iterations =  4.0

     negative rho (up, down):  7.225E-03 0.000E+00

     total cpu time spent up to now is    42126.1 secs

     total energy              =   -3593.23457504 Ry
     estimated scf accuracy    <       0.00000030 Ry

     iteration # 18     ecut=   124.00 Ry     beta= 0.70
     Davidson diagonalization with overlap
     ethr =  1.31E-10,  avg # of iterations =  2.1

     negative rho (up, down):  7.225E-03 0.000E+00

     total cpu time spent up to now is    42174.1 secs

     total energy              =   -3593.23457505 Ry
     estimated scf accuracy    <       0.00000027 Ry

     iteration # 19     ecut=   124.00 Ry     beta= 0.70
     Davidson diagonalization with overlap
     ethr =  1.19E-10,  avg # of iterations =  2.0

     negative rho (up, down):  7.225E-03 0.000E+00

     total cpu time spent up to now is    42221.8 secs

     total energy              =   -3593.23457506 Ry
     estimated scf accuracy    <       0.00000013 Ry

     iteration # 20     ecut=   124.00 Ry     beta= 0.70
     Davidson diagonalization with overlap
     ethr =  5.73E-11,  avg # of iterations =  1.1

     negative rho (up, down):  7.225E-03 0.000E+00

     total cpu time spent up to now is    42264.6 secs

     total energy              =   -3593.23457507 Ry
     estimated scf accuracy    <       0.00000002 Ry

     iteration # 21     ecut=   124.00 Ry     beta= 0.70
     Davidson diagonalization with overlap
     ethr =  6.86E-12,  avg # of iterations =  3.4

     negative rho (up, down):  7.225E-03 0.000E+00

     total cpu time spent up to now is    42318.4 secs

     total energy              =   -3593.23457506 Ry
     estimated scf accuracy    <       0.00000003 Ry

     iteration # 22     ecut=   124.00 Ry     beta= 0.70
     Davidson diagonalization with overlap
     ethr =  6.86E-12,  avg # of iterations =  4.2

     negative rho (up, down):  7.225E-03 0.000E+00

     total cpu time spent up to now is    42376.2 secs

     total energy              =   -3593.23457506 Ry
     estimated scf accuracy    <       0.00000020 Ry

     iteration # 23     ecut=   124.00 Ry     beta= 0.70
     Davidson diagonalization with overlap
     ethr =  6.86E-12,  avg # of iterations =  4.0

     negative rho (up, down):  7.225E-03 0.000E+00

     total cpu time spent up to now is    42432.3 secs

     total energy              =   -3593.23457507 Ry
     estimated scf accuracy    <       0.00000002 Ry

     iteration # 24     ecut=   124.00 Ry     beta= 0.70
     Davidson diagonalization with overlap
     ethr =  6.86E-12,  avg # of iterations =  1.0

     negative rho (up, down):  7.225E-03 0.000E+00

     total cpu time spent up to now is    42474.8 secs

     total energy              =   -3593.23457507 Ry
     estimated scf accuracy    <          8.2E-10 Ry

     iteration # 25     ecut=   124.00 Ry     beta= 0.70
     Davidson diagonalization with overlap
     ethr =  3.58E-13,  avg # of iterations =  4.7

     negative rho (up, down):  7.225E-03 0.000E+00

     total cpu time spent up to now is    42537.5 secs

     total energy              =   -3593.23457507 Ry
     estimated scf accuracy    <          7.8E-10 Ry

     iteration # 26     ecut=   124.00 Ry     beta= 0.70
     Davidson diagonalization with overlap
     ethr =  3.43E-13,  avg # of iterations =  1.6

     negative rho (up, down):  7.225E-03 0.000E+00

     total cpu time spent up to now is    42582.2 secs

     total energy              =   -3593.23457507 Ry
     estimated scf accuracy    <          3.6E-10 Ry

     iteration # 27     ecut=   124.00 Ry     beta= 0.70
     Davidson diagonalization with overlap
     ethr =  1.57E-13,  avg # of iterations =  2.0

     negative rho (up, down):  7.225E-03 0.000E+00

     total cpu time spent up to now is    42629.5 secs

     End of self-consistent calculation

     Number of k-points >= 100: set verbosity='high' to print the bands.

     the Fermi energy is    16.5924 ev

!    total energy              =   -3593.23457507 Ry
     estimated scf accuracy    <          1.6E-10 Ry
     smearing contrib. (-TS)   =      -0.00005041 Ry
     internal energy E=F+TS    =   -3593.23452466 Ry

     The total energy is F=E-TS. E is the sum of the following terms:
     one-electron contribution =   -1276.53630462 Ry
     hartree contribution      =     759.54303988 Ry
     xc contribution           =    -425.85531854 Ry
     ewald contribution        =   -2041.16897743 Ry
     one-center paw contrib.   =    -609.21696395 Ry

     convergence has been achieved in  27 iterations

     negative rho (up, down):  7.225E-03 0.000E+00

     Forces acting on atoms (cartesian axes, Ry/au):

     atom    1 type  1   force =     0.00000000    0.00000000    0.00000000
     atom    2 type  1   force =     0.00000000    0.00000000    0.00000000
     atom    3 type  1   force =     0.00000000    0.00000000    0.00000000
     atom    4 type  1   force =     0.00000000    0.00000000    0.00000000
     atom    5 type  1   force =     0.00000000    0.00000000    0.00000000
     atom    6 type  1   force =     0.00000000    0.00000000    0.00000000
     atom    7 type  1   force =     0.00000000    0.00000000    0.00000000
     atom    8 type  1   force =     0.00000000    0.00000000    0.00000000
     atom    9 type  2   force =     0.00055248    0.00004116    0.00004116
     atom   10 type  2   force =     0.00207919    0.00266786   -0.00266786
     atom   11 type  2   force =    -0.00055248    0.00004116    0.00004116
     atom   12 type  2   force =     0.00055248   -0.00004116   -0.00004116
     atom   13 type  2   force =    -0.00207919   -0.00266786    0.00266786
     atom   14 type  2   force =    -0.00055248   -0.00004116   -0.00004116
     atom   15 type  2   force =     0.00207919   -0.00266786    0.00266786
     atom   16 type  2   force =    -0.00207919    0.00266786   -0.00266786
     atom   17 type  3   force =     0.00009842    0.00000000    0.00000000
     atom   18 type  3   force =     0.00000000    0.00170244   -0.00170244
     atom   19 type  3   force =    -0.00009842    0.00000000    0.00000000
     atom   20 type  3   force =     0.00000000   -0.00170244    0.00170244

     Total force =     0.009332     Total SCF correction =     0.000018


     Computing stress (Cartesian axis) and pressure


     negative rho (up, down):  7.225E-03 0.000E+00
          total   stress  (Ry/bohr**3)                   (kbar)     P=       -5.73
  -0.00007535   0.00000000   0.00000000          -11.08        0.00        0.00
   0.00000000  -0.00002078   0.00000287            0.00       -3.06        0.42
   0.00000000   0.00000287  -0.00002078            0.00        0.42       -3.06

     Energy error            =      6.4E-04 Ry
     Gradient error          =      2.7E-03 Ry/Bohr
     Cell gradient error     =      1.1E+01 kbar

     number of scf cycles    =  29
     number of bfgs steps    =  28

     enthalpy           old  =   -3593.2339357689 Ry
     enthalpy           new  =   -3593.2345750686 Ry

     CASE: enthalpy          _new < enthalpy          _old

     new trust radius        =       0.0222623631 bohr
     new conv_thr            =       0.0000000003 Ry

     new unit-cell volume =   1477.56941 a.u.^3 (   218.95320 Ang^3 )
     density =      6.32298 g/cm^3

CELL_PARAMETERS (alat=  5.58242261)
   2.177784832   0.000000000   0.000000000
   0.000000000   1.974938894  -0.019544699
   0.000000000  -0.019544699   1.974938894

ATOMIC_POSITIONS (crystal)
Fe               0.0000000000        0.0000000000        0.0000000000
Fe               0.5000000000        0.5000000000       -0.0000000000
Fe               0.5000000000        0.0000000000        0.0000000000
Fe               0.0000000000        0.5000000000        0.5000000000
Fe               0.0000000000       -0.0000000000        0.5000000000
Fe               0.5000000000        0.5000000000        0.5000000000
Fe               0.5000000000       -0.0000000000        0.5000000000
Fe               0.0000000000        0.5000000000       -0.0000000000
Ti               0.2486395545        0.2450377125        0.2450377125
Ti               0.7697451493        0.7556588304        0.2443411696
Ti               0.7513604455        0.2450377125        0.2450377125
Ti               0.2486395545        0.7549622875        0.7549622875
Ti               0.2302548507        0.2443411696        0.7556588304
Ti               0.7513604455        0.7549622875        0.7549622875
Ti               0.7697451493        0.2443411696        0.7556588304
Ti               0.2302548507        0.7556588304        0.2443411696
H                0.2503464034        0.5000000000        0.5000000000
H                0.5000000000        0.3060651363        0.6939348637
H                0.7496535966        0.5000000000        0.5000000000
H                0.5000000000        0.6939348637        0.3060651363



     Writing config-only to output data dir ./TiFeH_supercell.save/ :
     XML data file     NEW-OLD atomic charge density approx. for the potential
     New effective cutoffs (rho, wfc): 1814.97  129.66

     Check: negative core charge=   -0.000001

     negative rho (up, down):  7.224E-03 0.000E+00

     total cpu time spent up to now is    42673.8 secs

     per-process dynamical memory:   705.9 Mb

     Self-consistent Calculation

     iteration #  1     ecut=   124.00 Ry     beta= 0.70
     Davidson diagonalization with overlap
     ethr =  1.00E-06,  avg # of iterations =  6.5

     negative rho (up, down):  7.230E-03 0.000E+00

     total cpu time spent up to now is    42787.4 secs

     total energy              =   -3593.23399469 Ry
     estimated scf accuracy    <       0.00095317 Ry

     iteration #  2     ecut=   124.00 Ry     beta= 0.70
     Davidson diagonalization with overlap
     ethr =  4.18E-07,  avg # of iterations =  6.5

     negative rho (up, down):  7.226E-03 0.000E+00

     total cpu time spent up to now is    42878.5 secs

     total energy              =   -3593.22646636 Ry
     estimated scf accuracy    <       0.27115185 Ry

     iteration #  3     ecut=   124.00 Ry     beta= 0.70
     Davidson diagonalization with overlap
     ethr =  4.18E-07,  avg # of iterations =  7.8

     negative rho (up, down):  7.217E-03 0.000E+00

     total cpu time spent up to now is    42967.6 secs

     total energy              =   -3593.23454916 Ry
     estimated scf accuracy    <       0.00484633 Ry

     iteration #  4     ecut=   124.00 Ry     beta= 0.70
     Davidson diagonalization with overlap
     ethr =  4.18E-07,  avg # of iterations =  4.2

     negative rho (up, down):  7.214E-03 0.000E+00

     total cpu time spent up to now is    43026.0 secs

     total energy              =   -3593.23475599 Ry
     estimated scf accuracy    <       0.00289112 Ry

     iteration #  5     ecut=   124.00 Ry     beta= 0.70
     Davidson diagonalization with overlap
     ethr =  4.18E-07,  avg # of iterations =  4.3

     negative rho (up, down):  7.219E-03 0.000E+00

     total cpu time spent up to now is    43084.1 secs

     total energy              =   -3593.23477829 Ry
     estimated scf accuracy    <       0.00292451 Ry

     iteration #  6     ecut=   124.00 Ry     beta= 0.70
     Davidson diagonalization with overlap
     ethr =  4.18E-07,  avg # of iterations =  3.7

     negative rho (up, down):  7.220E-03 0.000E+00

     total cpu time spent up to now is    43138.0 secs

     total energy              =   -3593.23482809 Ry
     estimated scf accuracy    <       0.00293392 Ry

     iteration #  7     ecut=   124.00 Ry     beta= 0.70
     Davidson diagonalization with overlap
     ethr =  4.18E-07,  avg # of iterations =  2.1

     negative rho (up, down):  7.217E-03 0.000E+00

     total cpu time spent up to now is    43185.9 secs

     total energy              =   -3593.23490027 Ry
     estimated scf accuracy    <       0.00135001 Ry

     iteration #  8     ecut=   124.00 Ry     beta= 0.70
     Davidson diagonalization with overlap
     ethr =  4.18E-07,  avg # of iterations =  1.3

     negative rho (up, down):  7.217E-03 0.000E+00

     total cpu time spent up to now is    43229.6 secs

     total energy              =   -3593.23495066 Ry
     estimated scf accuracy    <       0.00007132 Ry

     iteration #  9     ecut=   124.00 Ry     beta= 0.70
     Davidson diagonalization with overlap
     ethr =  3.13E-08,  avg # of iterations =  4.3

     negative rho (up, down):  7.219E-03 0.000E+00

     total cpu time spent up to now is    43288.3 secs

     total energy              =   -3593.23495606 Ry
     estimated scf accuracy    <       0.00023799 Ry

     iteration # 10     ecut=   124.00 Ry     beta= 0.70
     Davidson diagonalization with overlap
     ethr =  3.13E-08,  avg # of iterations =  2.1

     negative rho (up, down):  7.219E-03 0.000E+00

     total cpu time spent up to now is    43336.8 secs

     total energy              =   -3593.23496195 Ry
     estimated scf accuracy    <       0.00004869 Ry

     iteration # 11     ecut=   124.00 Ry     beta= 0.70
     Davidson diagonalization with overlap
     ethr =  2.14E-08,  avg # of iterations =  1.7

     negative rho (up, down):  7.219E-03 0.000E+00

     total cpu time spent up to now is    43382.8 secs

     total energy              =   -3593.23496501 Ry
     estimated scf accuracy    <       0.00000470 Ry

     iteration # 12     ecut=   124.00 Ry     beta= 0.70
     Davidson diagonalization with overlap
     ethr =  2.06E-09,  avg # of iterations =  3.1

     negative rho (up, down):  7.219E-03 0.000E+00

     total cpu time spent up to now is    43435.7 secs

     total energy              =   -3593.23496534 Ry
     estimated scf accuracy    <       0.00000080 Ry

     iteration # 13     ecut=   124.00 Ry     beta= 0.70
     Davidson diagonalization with overlap
     ethr =  3.51E-10,  avg # of iterations =  4.3

     negative rho (up, down):  7.219E-03 0.000E+00

     total cpu time spent up to now is    43492.6 secs

     total energy              =   -3593.23496536 Ry
     estimated scf accuracy    <       0.00000156 Ry

     iteration # 14     ecut=   124.00 Ry     beta= 0.70
     Davidson diagonalization with overlap
     ethr =  3.51E-10,  avg # of iterations =  2.0

     negative rho (up, down):  7.219E-03 0.000E+00

     total cpu time spent up to now is    43540.0 secs

     total energy              =   -3593.23496535 Ry
     estimated scf accuracy    <       0.00000105 Ry

     iteration # 15     ecut=   124.00 Ry     beta= 0.70
     Davidson diagonalization with overlap
     ethr =  3.51E-10,  avg # of iterations =  3.2

     negative rho (up, down):  7.218E-03 0.000E+00

     total cpu time spent up to now is    43593.4 secs

     total energy              =   -3593.23496530 Ry
     estimated scf accuracy    <       0.00000365 Ry

     iteration # 16     ecut=   124.00 Ry     beta= 0.70
     Davidson diagonalization with overlap
     ethr =  3.51E-10,  avg # of iterations =  2.3

     negative rho (up, down):  7.218E-03 0.000E+00

     total cpu time spent up to now is    43642.6 secs

     total energy              =   -3593.23496544 Ry
     estimated scf accuracy    <       0.00000032 Ry

     iteration # 17     ecut=   124.00 Ry     beta= 0.70
     Davidson diagonalization with overlap
     ethr =  1.38E-10,  avg # of iterations =  2.0

     negative rho (up, down):  7.218E-03 0.000E+00

     total cpu time spent up to now is    43689.3 secs

     total energy              =   -3593.23496545 Ry
     estimated scf accuracy    <       0.00000025 Ry

     iteration # 18     ecut=   124.00 Ry     beta= 0.70
     Davidson diagonalization with overlap
     ethr =  1.10E-10,  avg # of iterations =  1.1

     negative rho (up, down):  7.218E-03 0.000E+00

     total cpu time spent up to now is    43731.6 secs

     total energy              =   -3593.23496545 Ry
     estimated scf accuracy    <       0.00000005 Ry

     iteration # 19     ecut=   124.00 Ry     beta= 0.70
     Davidson diagonalization with overlap
     ethr =  2.08E-11,  avg # of iterations =  2.3

     negative rho (up, down):  7.218E-03 0.000E+00

     total cpu time spent up to now is    43779.9 secs

     total energy              =   -3593.23496546 Ry
     estimated scf accuracy    <          3.0E-09 Ry

     iteration # 20     ecut=   124.00 Ry     beta= 0.70
     Davidson diagonalization with overlap
     ethr =  1.32E-12,  avg # of iterations =  4.8

     negative rho (up, down):  7.218E-03 0.000E+00

     total cpu time spent up to now is    43854.7 secs

     total energy              =   -3593.23496546 Ry
     estimated scf accuracy    <          3.6E-09 Ry

     iteration # 21     ecut=   124.00 Ry     beta= 0.70
     Davidson diagonalization with overlap
     ethr =  1.32E-12,  avg # of iterations =  2.9

     negative rho (up, down):  7.218E-03 0.000E+00

     total cpu time spent up to now is    43905.9 secs

     total energy              =   -3593.23496546 Ry
     estimated scf accuracy    <          8.0E-09 Ry

     iteration # 22     ecut=   124.00 Ry     beta= 0.70
     Davidson diagonalization with overlap
     ethr =  1.32E-12,  avg # of iterations =  2.1

     negative rho (up, down):  7.218E-03 0.000E+00

     total cpu time spent up to now is    43953.3 secs

     total energy              =   -3593.23496546 Ry
     estimated scf accuracy    <          1.3E-09 Ry

     iteration # 23     ecut=   124.00 Ry     beta= 0.70
     Davidson diagonalization with overlap
     ethr =  5.62E-13,  avg # of iterations =  1.2

     negative rho (up, down):  7.218E-03 0.000E+00

     total cpu time spent up to now is    43996.4 secs

     End of self-consistent calculation

     Number of k-points >= 100: set verbosity='high' to print the bands.

     the Fermi energy is    16.6222 ev

!    total energy              =   -3593.23496546 Ry
     estimated scf accuracy    <          2.1E-10 Ry
     smearing contrib. (-TS)   =      -0.00004398 Ry
     internal energy E=F+TS    =   -3593.23492148 Ry

     The total energy is F=E-TS. E is the sum of the following terms:
     one-electron contribution =   -1275.39365182 Ry
     hartree contribution      =     759.13429514 Ry
     xc contribution           =    -425.87158551 Ry
     ewald contribution        =   -2041.88674142 Ry
     one-center paw contrib.   =    -609.21723787 Ry

     convergence has been achieved in  23 iterations

     negative rho (up, down):  7.218E-03 0.000E+00

     Forces acting on atoms (cartesian axes, Ry/au):

     atom    1 type  1   force =     0.00000000    0.00000000    0.00000000
     atom    2 type  1   force =     0.00000000    0.00000000    0.00000000
     atom    3 type  1   force =     0.00000000    0.00000000    0.00000000
     atom    4 type  1   force =     0.00000000    0.00000000    0.00000000
     atom    5 type  1   force =     0.00000000    0.00000000    0.00000000
     atom    6 type  1   force =     0.00000000    0.00000000    0.00000000
     atom    7 type  1   force =     0.00000000    0.00000000    0.00000000
     atom    8 type  1   force =     0.00000000    0.00000000    0.00000000
     atom    9 type  2   force =     0.00127799   -0.00125367   -0.00125367
     atom   10 type  2   force =     0.00115175    0.00188608   -0.00188608
     atom   11 type  2   force =    -0.00127799   -0.00125367   -0.00125367
     atom   12 type  2   force =     0.00127799    0.00125367    0.00125367
     atom   13 type  2   force =    -0.00115175   -0.00188608    0.00188608
     atom   14 type  2   force =    -0.00127799    0.00125367    0.00125367
     atom   15 type  2   force =     0.00115175   -0.00188608    0.00188608
     atom   16 type  2   force =    -0.00115175    0.00188608   -0.00188608
     atom   17 type  3   force =     0.00044844    0.00000000    0.00000000
     atom   18 type  3   force =     0.00000000    0.00048016   -0.00048016
     atom   19 type  3   force =    -0.00044844    0.00000000    0.00000000
     atom   20 type  3   force =     0.00000000   -0.00048016    0.00048016

     Total force =     0.007362     Total SCF correction =     0.000052


     Computing stress (Cartesian axis) and pressure


     negative rho (up, down):  7.218E-03 0.000E+00
          total   stress  (Ry/bohr**3)                   (kbar)     P=       -3.54
  -0.00004164   0.00000000   0.00000000           -6.13        0.00        0.00
   0.00000000  -0.00001531  -0.00000138            0.00       -2.25       -0.20
   0.00000000  -0.00000138  -0.00001531            0.00       -0.20       -2.25

     Energy error            =      3.9E-04 Ry
     Gradient error          =      1.9E-03 Ry/Bohr
     Cell gradient error     =      6.1E+00 kbar

     number of scf cycles    =  30
     number of bfgs steps    =  29

     enthalpy           old  =   -3593.2345750686 Ry
     enthalpy           new  =   -3593.2349654605 Ry

     CASE: enthalpy          _new < enthalpy          _old

     new trust radius        =       0.0128905928 bohr
     new conv_thr            =       0.0000000002 Ry

     new unit-cell volume =   1475.50519 a.u.^3 (   218.64731 Ang^3 )
     density =      6.33183 g/cm^3

CELL_PARAMETERS (alat=  5.58242261)
   2.174133226   0.000000000   0.000000000
   0.000000000   1.975211287  -0.019112023
   0.000000000  -0.019112023   1.975211287

ATOMIC_POSITIONS (crystal)
Fe               0.0000000000        0.0000000000        0.0000000000
Fe               0.5000000000        0.5000000000       -0.0000000000
Fe               0.5000000000        0.0000000000        0.0000000000
Fe               0.0000000000        0.5000000000        0.5000000000
Fe               0.0000000000       -0.0000000000        0.5000000000
Fe               0.5000000000        0.5000000000        0.5000000000
Fe               0.5000000000       -0.0000000000        0.5000000000
Fe               0.0000000000        0.5000000000       -0.0000000000
Ti               0.2487764366        0.2452557797        0.2452557797
Ti               0.7698180992        0.7561780036        0.2438219964
Ti               0.7512235634        0.2452557797        0.2452557797
Ti               0.2487764366        0.7547442203        0.7547442203
Ti               0.2301819008        0.2438219964        0.7561780036
Ti               0.7512235634        0.7547442203        0.7547442203
Ti               0.7698180992        0.2438219964        0.7561780036
Ti               0.2301819008        0.7561780036        0.2438219964
H                0.2503464281        0.5000000000        0.5000000000
H                0.5000000000        0.3065670009        0.6934329991
H                0.7496535719        0.5000000000        0.5000000000
H                0.5000000000        0.6934329991        0.3065670009



     Writing config-only to output data dir ./TiFeH_supercell.save/ :
     XML data file     NEW-OLD atomic charge density approx. for the potential
     New effective cutoffs (rho, wfc): 1813.68  129.56

     Check: negative core charge=   -0.000001

     negative rho (up, down):  7.307E-03 0.000E+00

     total cpu time spent up to now is    44040.3 secs

     per-process dynamical memory:   705.9 Mb

     Self-consistent Calculation

     iteration #  1     ecut=   124.00 Ry     beta= 0.70
     Davidson diagonalization with overlap
     ethr =  1.00E-06,  avg # of iterations =  5.0

     negative rho (up, down):  7.323E-03 0.000E+00

     total cpu time spent up to now is    44129.0 secs

     total energy              =   -3593.23377633 Ry
     estimated scf accuracy    <       0.00150115 Ry

     iteration #  2     ecut=   124.00 Ry     beta= 0.70
     Davidson diagonalization with overlap
     ethr =  6.58E-07,  avg # of iterations =  6.5

     negative rho (up, down):  7.314E-03 0.000E+00

     total cpu time spent up to now is    44223.2 secs

     total energy              =   -3593.21505706 Ry
     estimated scf accuracy    <       0.76040490 Ry

     iteration #  3     ecut=   124.00 Ry     beta= 0.70
     Davidson diagonalization with overlap
     ethr =  6.58E-07,  avg # of iterations =  7.4

     negative rho (up, down):  7.313E-03 0.000E+00

     total cpu time spent up to now is    44316.1 secs

     total energy              =   -3593.23473212 Ry
     estimated scf accuracy    <       0.00868968 Ry

     iteration #  4     ecut=   124.00 Ry     beta= 0.70
     Davidson diagonalization with overlap
     ethr =  6.58E-07,  avg # of iterations =  2.2

     negative rho (up, down):  7.313E-03 0.000E+00

     total cpu time spent up to now is    44364.9 secs

     total energy              =   -3593.23501026 Ry
     estimated scf accuracy    <       0.00031678 Ry

     iteration #  5     ecut=   124.00 Ry     beta= 0.70
     Davidson diagonalization with overlap
     ethr =  1.39E-07,  avg # of iterations =  4.5

     negative rho (up, down):  7.312E-03 0.000E+00

     total cpu time spent up to now is    44424.9 secs

     total energy              =   -3593.23499177 Ry
     estimated scf accuracy    <       0.00251820 Ry

     iteration #  6     ecut=   124.00 Ry     beta= 0.70
     Davidson diagonalization with overlap
     ethr =  1.39E-07,  avg # of iterations =  2.6

     negative rho (up, down):  7.311E-03 0.000E+00

     total cpu time spent up to now is    44476.2 secs

     total energy              =   -3593.23507236 Ry
     estimated scf accuracy    <       0.00005455 Ry

     iteration #  7     ecut=   124.00 Ry     beta= 0.70
     Davidson diagonalization with overlap
     ethr =  2.39E-08,  avg # of iterations =  4.0

     negative rho (up, down):  7.311E-03 0.000E+00

     total cpu time spent up to now is    44532.7 secs

     total energy              =   -3593.23507416 Ry
     estimated scf accuracy    <       0.00015725 Ry

     iteration #  8     ecut=   124.00 Ry     beta= 0.70
     Davidson diagonalization with overlap
     ethr =  2.39E-08,  avg # of iterations =  2.4

     negative rho (up, down):  7.311E-03 0.000E+00

     total cpu time spent up to now is    44582.1 secs

     total energy              =   -3593.23507843 Ry
     estimated scf accuracy    <       0.00004321 Ry

     iteration #  9     ecut=   124.00 Ry     beta= 0.70
     Davidson diagonalization with overlap
     ethr =  1.90E-08,  avg # of iterations =  1.9

     negative rho (up, down):  7.311E-03 0.000E+00

     total cpu time spent up to now is    44629.5 secs

     total energy              =   -3593.23508029 Ry
     estimated scf accuracy    <       0.00002144 Ry

     iteration # 10     ecut=   124.00 Ry     beta= 0.70
     Davidson diagonalization with overlap
     ethr =  9.40E-09,  avg # of iterations =  2.0

     negative rho (up, down):  7.311E-03 0.000E+00

     total cpu time spent up to now is    44676.9 secs

     total energy              =   -3593.23508140 Ry
     estimated scf accuracy    <       0.00000686 Ry

     iteration # 11     ecut=   124.00 Ry     beta= 0.70
     Davidson diagonalization with overlap
     ethr =  3.01E-09,  avg # of iterations =  2.2

     negative rho (up, down):  7.311E-03 0.000E+00

     total cpu time spent up to now is    44726.3 secs

     total energy              =   -3593.23508185 Ry
     estimated scf accuracy    <       0.00000467 Ry

     iteration # 12     ecut=   124.00 Ry     beta= 0.70
     Davidson diagonalization with overlap
     ethr =  2.05E-09,  avg # of iterations =  1.1

     negative rho (up, down):  7.311E-03 0.000E+00

     total cpu time spent up to now is    44768.7 secs

     total energy              =   -3593.23508201 Ry
     estimated scf accuracy    <       0.00000155 Ry

     iteration # 13     ecut=   124.00 Ry     beta= 0.70
     Davidson diagonalization with overlap
     ethr =  6.82E-10,  avg # of iterations =  2.0

     negative rho (up, down):  7.311E-03 0.000E+00

     total cpu time spent up to now is    44816.3 secs

     total energy              =   -3593.23508207 Ry
     estimated scf accuracy    <       0.00000170 Ry

     iteration # 14     ecut=   124.00 Ry     beta= 0.70
     Davidson diagonalization with overlap
     ethr =  6.82E-10,  avg # of iterations =  1.0

     negative rho (up, down):  7.311E-03 0.000E+00

     total cpu time spent up to now is    44858.6 secs

     total energy              =   -3593.23508214 Ry
     estimated scf accuracy    <       0.00000045 Ry

     iteration # 15     ecut=   124.00 Ry     beta= 0.70
     Davidson diagonalization with overlap
     ethr =  1.95E-10,  avg # of iterations =  1.6

     negative rho (up, down):  7.311E-03 0.000E+00

     total cpu time spent up to now is    44903.1 secs

     total energy              =   -3593.23508216 Ry
     estimated scf accuracy    <       0.00000001 Ry

     iteration # 16     ecut=   124.00 Ry     beta= 0.70
     Davidson diagonalization with overlap
     ethr =  5.13E-12,  avg # of iterations =  5.6

     negative rho (up, down):  7.311E-03 0.000E+00

     total cpu time spent up to now is    44989.4 secs

     total energy              =   -3593.23508217 Ry
     estimated scf accuracy    <       0.00000002 Ry

     iteration # 17     ecut=   124.00 Ry     beta= 0.70
     Davidson diagonalization with overlap
     ethr =  5.13E-12,  avg # of iterations =  2.0

     negative rho (up, down):  7.311E-03 0.000E+00

     total cpu time spent up to now is    45036.7 secs

     total energy              =   -3593.23508218 Ry
     estimated scf accuracy    <          9.7E-09 Ry

     iteration # 18     ecut=   124.00 Ry     beta= 0.70
     Davidson diagonalization with overlap
     ethr =  4.23E-12,  avg # of iterations =  1.5

     negative rho (up, down):  7.311E-03 0.000E+00

     total cpu time spent up to now is    45081.3 secs

     total energy              =   -3593.23508217 Ry
     estimated scf accuracy    <          3.5E-09 Ry

     iteration # 19     ecut=   124.00 Ry     beta= 0.70
     Davidson diagonalization with overlap
     ethr =  1.52E-12,  avg # of iterations =  5.0

     negative rho (up, down):  7.311E-03 0.000E+00

     total cpu time spent up to now is    45154.9 secs

     total energy              =   -3593.23508217 Ry
     estimated scf accuracy    <       0.00000019 Ry

     iteration # 20     ecut=   124.00 Ry     beta= 0.70
     Davidson diagonalization with overlap
     ethr =  1.52E-12,  avg # of iterations =  5.0

     negative rho (up, down):  7.311E-03 0.000E+00

     total cpu time spent up to now is    45226.8 secs

     total energy              =   -3593.23508218 Ry
     estimated scf accuracy    <          1.1E-09 Ry

     iteration # 21     ecut=   124.00 Ry     beta= 0.70
     Davidson diagonalization with overlap
     ethr =  4.62E-13,  avg # of iterations =  2.6

     negative rho (up, down):  7.311E-03 0.000E+00

     total cpu time spent up to now is    45276.1 secs

     total energy              =   -3593.23508218 Ry
     estimated scf accuracy    <          9.9E-10 Ry

     iteration # 22     ecut=   124.00 Ry     beta= 0.70
     Davidson diagonalization with overlap
     ethr =  4.35E-13,  avg # of iterations =  1.3

     negative rho (up, down):  7.311E-03 0.000E+00

     total cpu time spent up to now is    45319.3 secs

     total energy              =   -3593.23508218 Ry
     estimated scf accuracy    <          2.4E-10 Ry

     iteration # 23     ecut=   124.00 Ry     beta= 0.70
     Davidson diagonalization with overlap
     ethr =  1.06E-13,  avg # of iterations =  2.2

     negative rho (up, down):  7.311E-03 0.000E+00

     total cpu time spent up to now is    45367.6 secs

     total energy              =   -3593.23508218 Ry
     estimated scf accuracy    <          5.3E-10 Ry

     iteration # 24     ecut=   124.00 Ry     beta= 0.70
     Davidson diagonalization with overlap
     ethr =  1.06E-13,  avg # of iterations =  1.0

     negative rho (up, down):  7.311E-03 0.000E+00

     total cpu time spent up to now is    45408.9 secs

     End of self-consistent calculation

     Number of k-points >= 100: set verbosity='high' to print the bands.

     the Fermi energy is    16.6548 ev

!    total energy              =   -3593.23508218 Ry
     estimated scf accuracy    <          3.8E-11 Ry
     smearing contrib. (-TS)   =      -0.00004189 Ry
     internal energy E=F+TS    =   -3593.23504029 Ry

     The total energy is F=E-TS. E is the sum of the following terms:
     one-electron contribution =   -1273.96366387 Ry
     hartree contribution      =     758.64903340 Ry
     xc contribution           =    -425.89296760 Ry
     ewald contribution        =   -2042.80992362 Ry
     one-center paw contrib.   =    -609.21751860 Ry

     convergence has been achieved in  24 iterations

     negative rho (up, down):  7.311E-03 0.000E+00

     Forces acting on atoms (cartesian axes, Ry/au):

     atom    1 type  1   force =     0.00000000    0.00000000    0.00000000
     atom    2 type  1   force =     0.00000000    0.00000000    0.00000000
     atom    3 type  1   force =     0.00000000    0.00000000    0.00000000
     atom    4 type  1   force =     0.00000000    0.00000000    0.00000000
     atom    5 type  1   force =     0.00000000    0.00000000    0.00000000
     atom    6 type  1   force =     0.00000000    0.00000000    0.00000000
     atom    7 type  1   force =     0.00000000    0.00000000    0.00000000
     atom    8 type  1   force =     0.00000000    0.00000000    0.00000000
     atom    9 type  2   force =     0.00090358   -0.00094100   -0.00094100
     atom   10 type  2   force =     0.00021840    0.00097059   -0.00097059
     atom   11 type  2   force =    -0.00090358   -0.00094100   -0.00094100
     atom   12 type  2   force =     0.00090358    0.00094100    0.00094100
     atom   13 type  2   force =    -0.00021840   -0.00097059    0.00097059
     atom   14 type  2   force =    -0.00090358    0.00094100    0.00094100
     atom   15 type  2   force =     0.00021840   -0.00097059    0.00097059
     atom   16 type  2   force =    -0.00021840    0.00097059   -0.00097059
     atom   17 type  3   force =     0.00036194    0.00000000    0.00000000
     atom   18 type  3   force =     0.00000000   -0.00018494    0.00018494
     atom   19 type  3   force =    -0.00036194    0.00000000    0.00000000
     atom   20 type  3   force =     0.00000000    0.00018494   -0.00018494

     Total force =     0.004298     Total SCF correction =     0.000013


     Computing stress (Cartesian axis) and pressure


     negative rho (up, down):  7.311E-03 0.000E+00
          total   stress  (Ry/bohr**3)                   (kbar)     P=       -0.76
  -0.00000966   0.00000000   0.00000000           -1.42        0.00        0.00
   0.00000000  -0.00000290  -0.00000302            0.00       -0.43       -0.44
   0.00000000  -0.00000302  -0.00000290            0.00       -0.44       -0.43

     Energy error            =      1.2E-04 Ry
     Gradient error          =      9.7E-04 Ry/Bohr
     Cell gradient error     =      1.4E+00 kbar

     number of scf cycles    =  31
     number of bfgs steps    =  30

     enthalpy           old  =   -3593.2349654605 Ry
     enthalpy           new  =   -3593.2350821762 Ry

     CASE: enthalpy          _new < enthalpy          _old

     new trust radius        =       0.0043772771 bohr
     new conv_thr            =            1.0E-10 Ry

     new unit-cell volume =   1474.61355 a.u.^3 (   218.51518 Ang^3 )
     density =      6.33566 g/cm^3

CELL_PARAMETERS (alat=  5.58242261)
   2.172894458   0.000000000   0.000000000
   0.000000000   1.975179233  -0.019323230
   0.000000000  -0.019323230   1.975179233

ATOMIC_POSITIONS (crystal)
Fe               0.0000000000        0.0000000000        0.0000000000
Fe               0.5000000000        0.5000000000       -0.0000000000
Fe               0.5000000000        0.0000000000        0.0000000000
Fe               0.0000000000        0.5000000000        0.5000000000
Fe               0.0000000000       -0.0000000000        0.5000000000
Fe               0.5000000000        0.5000000000        0.5000000000
Fe               0.5000000000       -0.0000000000        0.5000000000
Fe               0.0000000000        0.5000000000       -0.0000000000
Ti               0.2490042812        0.2450750291        0.2450750291
Ti               0.7699229746        0.7562750653        0.2437249347
Ti               0.7509957188        0.2450750291        0.2450750291
Ti               0.2490042812        0.7549249709        0.7549249709
Ti               0.2300770254        0.2437249347        0.7562750653
Ti               0.7509957188        0.7549249709        0.7549249709
Ti               0.7699229746        0.2437249347        0.7562750653
Ti               0.2300770254        0.7562750653        0.2437249347
H                0.2503987137        0.5000000000        0.5000000000
H                0.5000000000        0.3066170940        0.6933829060
H                0.7496012863        0.5000000000        0.5000000000
H                0.5000000000        0.6933829060        0.3066170940



     Writing config-only to output data dir ./TiFeH_supercell.save/ :
     XML data file     NEW-OLD atomic charge density approx. for the potential
     New effective cutoffs (rho, wfc): 1814.12  129.59

     Check: negative core charge=   -0.000001

     negative rho (up, down):  7.293E-03 0.000E+00

     total cpu time spent up to now is    45452.5 secs

     per-process dynamical memory:   705.9 Mb

     Self-consistent Calculation

     iteration #  1     ecut=   124.00 Ry     beta= 0.70
     Davidson diagonalization with overlap
     ethr =  1.00E-06,  avg # of iterations =  4.0

     negative rho (up, down):  7.301E-03 0.000E+00

     total cpu time spent up to now is    45525.9 secs

     total energy              =   -3593.23383042 Ry
     estimated scf accuracy    <       0.00150123 Ry

     iteration #  2     ecut=   124.00 Ry     beta= 0.70
     Davidson diagonalization with overlap
     ethr =  6.58E-07,  avg # of iterations =  6.7

     negative rho (up, down):  7.292E-03 0.000E+00

     total cpu time spent up to now is    45618.6 secs

     total energy              =   -3593.21473616 Ry
     estimated scf accuracy    <       0.76232308 Ry

     iteration #  3     ecut=   124.00 Ry     beta= 0.70
     Davidson diagonalization with overlap
     ethr =  6.58E-07,  avg # of iterations =  7.0

     negative rho (up, down):  7.293E-03 0.000E+00

     total cpu time spent up to now is    45709.7 secs

     total energy              =   -3593.23475540 Ry
     estimated scf accuracy    <       0.00995672 Ry

     iteration #  4     ecut=   124.00 Ry     beta= 0.70
     Davidson diagonalization with overlap
     ethr =  6.58E-07,  avg # of iterations =  2.4

     negative rho (up, down):  7.298E-03 0.000E+00

     total cpu time spent up to now is    45758.3 secs

     total energy              =   -3593.23504829 Ry
     estimated scf accuracy    <       0.00022698 Ry

     iteration #  5     ecut=   124.00 Ry     beta= 0.70
     Davidson diagonalization with overlap
     ethr =  9.96E-08,  avg # of iterations =  4.5

     negative rho (up, down):  7.296E-03 0.000E+00

     total cpu time spent up to now is    45820.1 secs

     total energy              =   -3593.23505860 Ry
     estimated scf accuracy    <       0.00113863 Ry

     iteration #  6     ecut=   124.00 Ry     beta= 0.70
     Davidson diagonalization with overlap
     ethr =  9.96E-08,  avg # of iterations =  2.3

     negative rho (up, down):  7.295E-03 0.000E+00

     total cpu time spent up to now is    45869.6 secs

     total energy              =   -3593.23509743 Ry
     estimated scf accuracy    <       0.00017223 Ry

     iteration #  7     ecut=   124.00 Ry     beta= 0.70
     Davidson diagonalization with overlap
     ethr =  7.55E-08,  avg # of iterations =  1.1

     negative rho (up, down):  7.294E-03 0.000E+00

     total cpu time spent up to now is    45911.2 secs

     total energy              =   -3593.23510447 Ry
     estimated scf accuracy    <       0.00002125 Ry

     iteration #  8     ecut=   124.00 Ry     beta= 0.70
     Davidson diagonalization with overlap
     ethr =  9.32E-09,  avg # of iterations =  4.3

     negative rho (up, down):  7.294E-03 0.000E+00

     total cpu time spent up to now is    45968.8 secs

     total energy              =   -3593.23510630 Ry
     estimated scf accuracy    <       0.00004707 Ry

     iteration #  9     ecut=   124.00 Ry     beta= 0.70
     Davidson diagonalization with overlap
     ethr =  9.32E-09,  avg # of iterations =  2.0

     negative rho (up, down):  7.294E-03 0.000E+00

     total cpu time spent up to now is    46016.2 secs

     total energy              =   -3593.23510771 Ry
     estimated scf accuracy    <       0.00000403 Ry

     iteration # 10     ecut=   124.00 Ry     beta= 0.70
     Davidson diagonalization with overlap
     ethr =  1.77E-09,  avg # of iterations =  2.5

     negative rho (up, down):  7.295E-03 0.000E+00

     total cpu time spent up to now is    46067.4 secs

     total energy              =   -3593.23510801 Ry
     estimated scf accuracy    <       0.00000097 Ry

     iteration # 11     ecut=   124.00 Ry     beta= 0.70
     Davidson diagonalization with overlap
     ethr =  4.27E-10,  avg # of iterations =  4.9

     negative rho (up, down):  7.295E-03 0.000E+00

     total cpu time spent up to now is    46134.9 secs

     total energy              =   -3593.23510748 Ry
     estimated scf accuracy    <       0.00001575 Ry

     iteration # 12     ecut=   124.00 Ry     beta= 0.70
     Davidson diagonalization with overlap
     ethr =  4.27E-10,  avg # of iterations =  4.3

     negative rho (up, down):  7.294E-03 0.000E+00

     total cpu time spent up to now is    46196.2 secs

     total energy              =   -3593.23510802 Ry
     estimated scf accuracy    <       0.00000427 Ry

     iteration # 13     ecut=   124.00 Ry     beta= 0.70
     Davidson diagonalization with overlap
     ethr =  4.27E-10,  avg # of iterations =  2.6

     negative rho (up, down):  7.294E-03 0.000E+00

     total cpu time spent up to now is    46246.2 secs

     total energy              =   -3593.23510821 Ry
     estimated scf accuracy    <       0.00000046 Ry

     iteration # 14     ecut=   124.00 Ry     beta= 0.70
     Davidson diagonalization with overlap
     ethr =  2.04E-10,  avg # of iterations =  1.1

     negative rho (up, down):  7.294E-03 0.000E+00

     total cpu time spent up to now is    46288.6 secs

     total energy              =   -3593.23510823 Ry
     estimated scf accuracy    <       0.00000005 Ry

     iteration # 15     ecut=   124.00 Ry     beta= 0.70
     Davidson diagonalization with overlap
     ethr =  2.39E-11,  avg # of iterations =  5.0

     negative rho (up, down):  7.294E-03 0.000E+00

     total cpu time spent up to now is    46351.6 secs

     total energy              =   -3593.23510821 Ry
     estimated scf accuracy    <       0.00000120 Ry

     iteration # 16     ecut=   124.00 Ry     beta= 0.70
     Davidson diagonalization with overlap
     ethr =  2.39E-11,  avg # of iterations =  4.2

     negative rho (up, down):  7.294E-03 0.000E+00

     total cpu time spent up to now is    46408.1 secs

     total energy              =   -3593.23510824 Ry
     estimated scf accuracy    <       0.00000005 Ry

     iteration # 17     ecut=   124.00 Ry     beta= 0.70
     Davidson diagonalization with overlap
     ethr =  2.39E-11,  avg # of iterations =  2.6

     negative rho (up, down):  7.294E-03 0.000E+00

     total cpu time spent up to now is    46457.7 secs

     total energy              =   -3593.23510824 Ry
     estimated scf accuracy    <       0.00000010 Ry

     iteration # 18     ecut=   124.00 Ry     beta= 0.70
     Davidson diagonalization with overlap
     ethr =  2.39E-11,  avg # of iterations =  1.5

     negative rho (up, down):  7.294E-03 0.000E+00

     total cpu time spent up to now is    46501.9 secs

     total energy              =   -3593.23510824 Ry
     estimated scf accuracy    <       0.00000003 Ry

     iteration # 19     ecut=   124.00 Ry     beta= 0.70
     Davidson diagonalization with overlap
     ethr =  1.16E-11,  avg # of iterations =  1.2

     negative rho (up, down):  7.295E-03 0.000E+00

     total cpu time spent up to now is    46544.3 secs

     total energy              =   -3593.23510824 Ry
     estimated scf accuracy    <          2.4E-09 Ry

     iteration # 20     ecut=   124.00 Ry     beta= 0.70
     Davidson diagonalization with overlap
     ethr =  1.04E-12,  avg # of iterations =  4.4

     negative rho (up, down):  7.295E-03 0.000E+00

     total cpu time spent up to now is    46602.9 secs

     total energy              =   -3593.23510824 Ry
     estimated scf accuracy    <          1.9E-09 Ry

     iteration # 21     ecut=   124.00 Ry     beta= 0.70
     Davidson diagonalization with overlap
     ethr =  8.47E-13,  avg # of iterations =  2.0

     negative rho (up, down):  7.295E-03 0.000E+00

     total cpu time spent up to now is    46648.4 secs

     total energy              =   -3593.23510824 Ry
     estimated scf accuracy    <          4.6E-10 Ry

     iteration # 22     ecut=   124.00 Ry     beta= 0.70
     Davidson diagonalization with overlap
     ethr =  2.02E-13,  avg # of iterations =  3.4

     negative rho (up, down):  7.294E-03 0.000E+00

     total cpu time spent up to now is    46701.6 secs

     total energy              =   -3593.23510824 Ry
     estimated scf accuracy    <          1.3E-10 Ry

     iteration # 23     ecut=   124.00 Ry     beta= 0.70
     Davidson diagonalization with overlap
     ethr =  1.00E-13,  avg # of iterations =  4.1

     negative rho (up, down):  7.294E-03 0.000E+00

     total cpu time spent up to now is    46758.6 secs

     total energy              =   -3593.23510824 Ry
     estimated scf accuracy    <          1.5E-09 Ry

     iteration # 24     ecut=   124.00 Ry     beta= 0.70
     Davidson diagonalization with overlap
     ethr =  1.00E-13,  avg # of iterations =  3.7

     negative rho (up, down):  7.295E-03 0.000E+00

     total cpu time spent up to now is    46810.7 secs

     End of self-consistent calculation

     Number of k-points >= 100: set verbosity='high' to print the bands.

     the Fermi energy is    16.6681 ev

!    total energy              =   -3593.23510824 Ry
     estimated scf accuracy    <          3.8E-12 Ry
     smearing contrib. (-TS)   =      -0.00003949 Ry
     internal energy E=F+TS    =   -3593.23506875 Ry

     The total energy is F=E-TS. E is the sum of the following terms:
     one-electron contribution =   -1273.35310909 Ry
     hartree contribution      =     758.44498063 Ry
     xc contribution           =    -425.90204854 Ry
     ewald contribution        =   -2043.20727173 Ry
     one-center paw contrib.   =    -609.21762002 Ry

     convergence has been achieved in  24 iterations

     negative rho (up, down):  7.295E-03 0.000E+00

     Forces acting on atoms (cartesian axes, Ry/au):

     atom    1 type  1   force =     0.00000000    0.00000000    0.00000000
     atom    2 type  1   force =     0.00000000    0.00000000    0.00000000
     atom    3 type  1   force =     0.00000000    0.00000000    0.00000000
     atom    4 type  1   force =     0.00000000    0.00000000    0.00000000
     atom    5 type  1   force =     0.00000000    0.00000000    0.00000000
     atom    6 type  1   force =     0.00000000    0.00000000    0.00000000
     atom    7 type  1   force =     0.00000000    0.00000000    0.00000000
     atom    8 type  1   force =     0.00000000    0.00000000    0.00000000
     atom    9 type  2   force =     0.00034553   -0.00028668   -0.00028668
     atom   10 type  2   force =    -0.00010463    0.00035324   -0.00035324
     atom   11 type  2   force =    -0.00034553   -0.00028668   -0.00028668
     atom   12 type  2   force =     0.00034553    0.00028668    0.00028668
     atom   13 type  2   force =     0.00010463   -0.00035324    0.00035324
     atom   14 type  2   force =    -0.00034553    0.00028668    0.00028668
     atom   15 type  2   force =    -0.00010463   -0.00035324    0.00035324
     atom   16 type  2   force =     0.00010463    0.00035324   -0.00035324
     atom   17 type  3   force =     0.00014449    0.00000000    0.00000000
     atom   18 type  3   force =    -0.00000000   -0.00018375    0.00018375
     atom   19 type  3   force =    -0.00014449    0.00000000    0.00000000
     atom   20 type  3   force =    -0.00000000    0.00018375   -0.00018375

     Total force =     0.001534     Total SCF correction =     0.000007


     Computing stress (Cartesian axis) and pressure


     negative rho (up, down):  7.295E-03 0.000E+00
          total   stress  (Ry/bohr**3)                   (kbar)     P=        0.41
   0.00000343   0.00000000   0.00000000            0.51        0.00        0.00
   0.00000000   0.00000243  -0.00000244            0.00        0.36       -0.36
   0.00000000  -0.00000244   0.00000243            0.00       -0.36        0.36

     Energy error            =      2.6E-05 Ry
     Gradient error          =      3.5E-04 Ry/Bohr
     Cell gradient error     =      5.1E-01 kbar

     number of scf cycles    =  32
     number of bfgs steps    =  31

     enthalpy           old  =   -3593.2350821762 Ry
     enthalpy           new  =   -3593.2351082435 Ry

     CASE: enthalpy          _new < enthalpy          _old

     new trust radius        =       0.0016435843 bohr
     new conv_thr            =            1.0E-10 Ry

     new unit-cell volume =   1474.66799 a.u.^3 (   218.52325 Ang^3 )
     density =      6.33542 g/cm^3

CELL_PARAMETERS (alat=  5.58242261)
   2.172930949   0.000000000   0.000000000
   0.000000000   1.975201040  -0.019519932
   0.000000000  -0.019519932   1.975201040

ATOMIC_POSITIONS (crystal)
Fe               0.0000000000        0.0000000000        0.0000000000
Fe               0.5000000000        0.5000000000       -0.0000000000
Fe               0.5000000000        0.0000000000        0.0000000000
Fe               0.0000000000        0.5000000000        0.5000000000
Fe               0.0000000000       -0.0000000000        0.5000000000
Fe               0.5000000000        0.5000000000        0.5000000000
Fe               0.5000000000       -0.0000000000        0.5000000000
Fe               0.0000000000        0.5000000000       -0.0000000000
Ti               0.2490885716        0.2449916892        0.2449916892
Ti               0.7699376314        0.7562984260        0.2437015740
Ti               0.7509114284        0.2449916892        0.2449916892
Ti               0.2490885716        0.7550083108        0.7550083108
Ti               0.2300623686        0.2437015740        0.7562984260
Ti               0.7509114284        0.7550083108        0.7550083108
Ti               0.7699376314        0.2437015740        0.7562984260
Ti               0.2300623686        0.7562984260        0.2437015740
H                0.2504261257        0.5000000000        0.5000000000
H                0.5000000000        0.3065740332        0.6934259668
H                0.7495738743        0.5000000000        0.5000000000
H                0.5000000000        0.6934259668        0.3065740332



     Writing config-only to output data dir ./TiFeH_supercell.save/ :
     XML data file     NEW-OLD atomic charge density approx. for the potential
     New effective cutoffs (rho, wfc): 1814.44  129.62

     Check: negative core charge=   -0.000001

     negative rho (up, down):  7.300E-03 0.000E+00

     total cpu time spent up to now is    46854.6 secs

     per-process dynamical memory:   705.9 Mb

     Self-consistent Calculation

     iteration #  1     ecut=   124.00 Ry     beta= 0.70
     Davidson diagonalization with overlap
     ethr =  1.00E-06,  avg # of iterations =  3.0

     negative rho (up, down):  7.300E-03 0.000E+00

     total cpu time spent up to now is    46921.1 secs

     total energy              =   -3593.23489660 Ry
     estimated scf accuracy    <       0.00024966 Ry

     iteration #  2     ecut=   124.00 Ry     beta= 0.70
     Davidson diagonalization with overlap
     ethr =  1.10E-07,  avg # of iterations =  7.6

     negative rho (up, down):  7.298E-03 0.000E+00

     total cpu time spent up to now is    47009.2 secs

     total energy              =   -3593.23156500 Ry
     estimated scf accuracy    <       0.13564351 Ry

     iteration #  3     ecut=   124.00 Ry     beta= 0.70
     Davidson diagonalization with overlap
     ethr =  1.10E-07,  avg # of iterations =  7.9

     negative rho (up, down):  7.298E-03 0.000E+00

     total cpu time spent up to now is    47097.5 secs

     total energy              =   -3593.23507200 Ry
     estimated scf accuracy    <       0.00109291 Ry

     iteration #  4     ecut=   124.00 Ry     beta= 0.70
     Davidson diagonalization with overlap
     ethr =  1.10E-07,  avg # of iterations =  2.1

     negative rho (up, down):  7.300E-03 0.000E+00

     total cpu time spent up to now is    47144.9 secs

     total energy              =   -3593.23510419 Ry
     estimated scf accuracy    <       0.00002970 Ry

     iteration #  5     ecut=   124.00 Ry     beta= 0.70
     Davidson diagonalization with overlap
     ethr =  1.30E-08,  avg # of iterations =  4.8

     negative rho (up, down):  7.299E-03 0.000E+00

     total cpu time spent up to now is    47206.5 secs

     total energy              =   -3593.23510579 Ry
     estimated scf accuracy    <       0.00013775 Ry

     iteration #  6     ecut=   124.00 Ry     beta= 0.70
     Davidson diagonalization with overlap
     ethr =  1.30E-08,  avg # of iterations =  2.9

     negative rho (up, down):  7.299E-03 0.000E+00

     total cpu time spent up to now is    47257.3 secs

     total energy              =   -3593.23511050 Ry
     estimated scf accuracy    <       0.00002177 Ry

     iteration #  7     ecut=   124.00 Ry     beta= 0.70
     Davidson diagonalization with overlap
     ethr =  9.55E-09,  avg # of iterations =  1.3

     negative rho (up, down):  7.299E-03 0.000E+00

     total cpu time spent up to now is    47300.5 secs

     total energy              =   -3593.23511143 Ry
     estimated scf accuracy    <       0.00000377 Ry

     iteration #  8     ecut=   124.00 Ry     beta= 0.70
     Davidson diagonalization with overlap
     ethr =  1.65E-09,  avg # of iterations =  3.7

     negative rho (up, down):  7.299E-03 0.000E+00

     total cpu time spent up to now is    47354.6 secs

     total energy              =   -3593.23511158 Ry
     estimated scf accuracy    <       0.00000468 Ry

     iteration #  9     ecut=   124.00 Ry     beta= 0.70
     Davidson diagonalization with overlap
     ethr =  1.65E-09,  avg # of iterations =  1.1

     negative rho (up, down):  7.299E-03 0.000E+00

     total cpu time spent up to now is    47397.0 secs

     total energy              =   -3593.23511171 Ry
     estimated scf accuracy    <       0.00000084 Ry

     iteration # 10     ecut=   124.00 Ry     beta= 0.70
     Davidson diagonalization with overlap
     ethr =  3.70E-10,  avg # of iterations =  2.3

     negative rho (up, down):  7.299E-03 0.000E+00

     total cpu time spent up to now is    47447.0 secs

     total energy              =   -3593.23511171 Ry
     estimated scf accuracy    <       0.00000047 Ry

     iteration # 11     ecut=   124.00 Ry     beta= 0.70
     Davidson diagonalization with overlap
     ethr =  2.06E-10,  avg # of iterations =  4.1

     negative rho (up, down):  7.299E-03 0.000E+00

     total cpu time spent up to now is    47504.7 secs

     total energy              =   -3593.23511162 Ry
     estimated scf accuracy    <       0.00000368 Ry

     iteration # 12     ecut=   124.00 Ry     beta= 0.70
     Davidson diagonalization with overlap
     ethr =  2.06E-10,  avg # of iterations =  4.0

     negative rho (up, down):  7.299E-03 0.000E+00

     total cpu time spent up to now is    47561.2 secs

     total energy              =   -3593.23511174 Ry
     estimated scf accuracy    <       0.00000089 Ry

     iteration # 13     ecut=   124.00 Ry     beta= 0.70
     Davidson diagonalization with overlap
     ethr =  2.06E-10,  avg # of iterations =  1.7

     negative rho (up, down):  7.299E-03 0.000E+00

     total cpu time spent up to now is    47606.7 secs

     total energy              =   -3593.23511178 Ry
     estimated scf accuracy    <       0.00000012 Ry

     iteration # 14     ecut=   124.00 Ry     beta= 0.70
     Davidson diagonalization with overlap
     ethr =  5.37E-11,  avg # of iterations =  2.9

     negative rho (up, down):  7.299E-03 0.000E+00

     total cpu time spent up to now is    47658.0 secs

     total energy              =   -3593.23511177 Ry
     estimated scf accuracy    <       0.00000061 Ry

     iteration # 15     ecut=   124.00 Ry     beta= 0.70
     Davidson diagonalization with overlap
     ethr =  5.37E-11,  avg # of iterations =  1.6

     negative rho (up, down):  7.299E-03 0.000E+00

     total cpu time spent up to now is    47703.0 secs

     total energy              =   -3593.23511179 Ry
     estimated scf accuracy    <          2.6E-09 Ry

     iteration # 16     ecut=   124.00 Ry     beta= 0.70
     Davidson diagonalization with overlap
     ethr =  1.15E-12,  avg # of iterations =  4.9

     negative rho (up, down):  7.299E-03 0.000E+00

     total cpu time spent up to now is    47776.4 secs

     total energy              =   -3593.23511179 Ry
     estimated scf accuracy    <          2.6E-09 Ry

     iteration # 17     ecut=   124.00 Ry     beta= 0.70
     Davidson diagonalization with overlap
     ethr =  1.15E-12,  avg # of iterations =  3.5

     negative rho (up, down):  7.299E-03 0.000E+00

     total cpu time spent up to now is    47828.4 secs

     total energy              =   -3593.23511179 Ry
     estimated scf accuracy    <       0.00000001 Ry

     iteration # 18     ecut=   124.00 Ry     beta= 0.70
     Davidson diagonalization with overlap
     ethr =  1.15E-12,  avg # of iterations =  2.7

     negative rho (up, down):  7.299E-03 0.000E+00

     total cpu time spent up to now is    47877.5 secs

     total energy              =   -3593.23511179 Ry
     estimated scf accuracy    <          1.0E-09 Ry

     iteration # 19     ecut=   124.00 Ry     beta= 0.70
     Davidson diagonalization with overlap
     ethr =  4.52E-13,  avg # of iterations =  2.2

     negative rho (up, down):  7.299E-03 0.000E+00

     total cpu time spent up to now is    47925.7 secs

     total energy              =   -3593.23511179 Ry
     estimated scf accuracy    <          9.3E-10 Ry

     iteration # 20     ecut=   124.00 Ry     beta= 0.70
     Davidson diagonalization with overlap
     ethr =  4.08E-13,  avg # of iterations =  1.6

     negative rho (up, down):  7.299E-03 0.000E+00

     total cpu time spent up to now is    47970.7 secs

     total energy              =   -3593.23511179 Ry
     estimated scf accuracy    <          6.5E-10 Ry

     iteration # 21     ecut=   124.00 Ry     beta= 0.70
     Davidson diagonalization with overlap
     ethr =  2.86E-13,  avg # of iterations =  1.0

     negative rho (up, down):  7.299E-03 0.000E+00

     total cpu time spent up to now is    48012.0 secs

     End of self-consistent calculation

     Number of k-points >= 100: set verbosity='high' to print the bands.

     the Fermi energy is    16.6673 ev

!    total energy              =   -3593.23511179 Ry
     estimated scf accuracy    <          2.7E-11 Ry
     smearing contrib. (-TS)   =      -0.00003847 Ry
     internal energy E=F+TS    =   -3593.23507332 Ry

     The total energy is F=E-TS. E is the sum of the following terms:
     one-electron contribution =   -1273.39267692 Ry
     hartree contribution      =     758.45930710 Ry
     xc contribution           =    -425.90149541 Ry
     ewald contribution        =   -2043.18260302 Ry
     one-center paw contrib.   =    -609.21760507 Ry

     convergence has been achieved in  21 iterations

     negative rho (up, down):  7.299E-03 0.000E+00

     Forces acting on atoms (cartesian axes, Ry/au):

     atom    1 type  1   force =     0.00000000    0.00000000    0.00000000
     atom    2 type  1   force =     0.00000000    0.00000000    0.00000000
     atom    3 type  1   force =     0.00000000    0.00000000    0.00000000
     atom    4 type  1   force =     0.00000000    0.00000000    0.00000000
     atom    5 type  1   force =     0.00000000    0.00000000    0.00000000
     atom    6 type  1   force =     0.00000000    0.00000000    0.00000000
     atom    7 type  1   force =     0.00000000    0.00000000    0.00000000
     atom    8 type  1   force =     0.00000000    0.00000000    0.00000000
     atom    9 type  2   force =     0.00011445   -0.00001927   -0.00001927
     atom   10 type  2   force =    -0.00005933    0.00011618   -0.00011618
     atom   11 type  2   force =    -0.00011445   -0.00001927   -0.00001927
     atom   12 type  2   force =     0.00011445    0.00001927    0.00001927
     atom   13 type  2   force =     0.00005933   -0.00011618    0.00011618
     atom   14 type  2   force =    -0.00011445    0.00001927    0.00001927
     atom   15 type  2   force =    -0.00005933   -0.00011618    0.00011618
     atom   16 type  2   force =     0.00005933    0.00011618   -0.00011618
     atom   17 type  3   force =     0.00003266    0.00000000    0.00000000
     atom   18 type  3   force =     0.00000000   -0.00007137    0.00007137
     atom   19 type  3   force =    -0.00003266    0.00000000    0.00000000
     atom   20 type  3   force =     0.00000000    0.00007137   -0.00007137

     Total force =     0.000447     Total SCF correction =     0.000014


     Computing stress (Cartesian axis) and pressure


     negative rho (up, down):  7.299E-03 0.000E+00
          total   stress  (Ry/bohr**3)                   (kbar)     P=        0.33
   0.00000308   0.00000000   0.00000000            0.45        0.00        0.00
   0.00000000   0.00000179  -0.00000159            0.00        0.26       -0.23
   0.00000000  -0.00000159   0.00000179            0.00       -0.23        0.26

     Energy error            =      3.5E-06 Ry
     Gradient error          =      1.2E-04 Ry/Bohr
     Cell gradient error     =      4.5E-01 kbar

     number of scf cycles    =  33
     number of bfgs steps    =  32

     enthalpy           old  =   -3593.2351082435 Ry
     enthalpy           new  =   -3593.2351117901 Ry

     CASE: enthalpy          _new < enthalpy          _old

     new trust radius        =       0.0005665324 bohr
     new conv_thr            =            1.0E-10 Ry

     new unit-cell volume =   1474.84730 a.u.^3 (   218.54982 Ang^3 )
     density =      6.33465 g/cm^3

CELL_PARAMETERS (alat=  5.58242261)
   2.173091234   0.000000000   0.000000000
   0.000000000   1.975249598  -0.019653893
   0.000000000  -0.019653893   1.975249598

ATOMIC_POSITIONS (crystal)
Fe               0.0000000000        0.0000000000        0.0000000000
Fe               0.5000000000        0.5000000000       -0.0000000000
Fe               0.5000000000        0.0000000000        0.0000000000
Fe               0.0000000000        0.5000000000        0.5000000000
Fe               0.0000000000       -0.0000000000        0.5000000000
Fe               0.5000000000        0.5000000000        0.5000000000
Fe               0.5000000000       -0.0000000000        0.5000000000
Fe               0.0000000000        0.5000000000       -0.0000000000
Ti               0.2491127206        0.2449834245        0.2449834245
Ti               0.7699279985        0.7563304299        0.2436695701
Ti               0.7508872794        0.2449834245        0.2449834245
Ti               0.2491127206        0.7550165755        0.7550165755
Ti               0.2300720015        0.2436695701        0.7563304299
Ti               0.7508872794        0.7550165755        0.7550165755
Ti               0.7699279985        0.2436695701        0.7563304299
Ti               0.2300720015        0.7563304299        0.2436695701
H                0.2504362988        0.5000000000        0.5000000000
H                0.5000000000        0.3065499138        0.6934500862
H                0.7495637012        0.5000000000        0.5000000000
H                0.5000000000        0.6934500862        0.3065499138



     Writing config-only to output data dir ./TiFeH_supercell.save/ :
     XML data file     NEW-OLD atomic charge density approx. for the potential
     New effective cutoffs (rho, wfc): 1814.59  129.63

     Check: negative core charge=   -0.000001

     negative rho (up, down):  7.301E-03 0.000E+00

     total cpu time spent up to now is    48055.7 secs

     per-process dynamical memory:   705.9 Mb

     Self-consistent Calculation

     iteration #  1     ecut=   124.00 Ry     beta= 0.70
     Davidson diagonalization with overlap
     ethr =  1.00E-06,  avg # of iterations =  2.0

     Threshold (ethr) on eigenvalues was too large:
     Diagonalizing with lowered threshold

     Davidson diagonalization with overlap
     ethr =  1.67E-08,  avg # of iterations =  2.0

     negative rho (up, down):  7.301E-03 0.000E+00

     total cpu time spent up to now is    48164.9 secs

     total energy              =   -3593.23507604 Ry
     estimated scf accuracy    <       0.00004303 Ry

     iteration #  2     ecut=   124.00 Ry     beta= 0.70
     Davidson diagonalization with overlap
     ethr =  1.89E-08,  avg # of iterations =  7.9

     negative rho (up, down):  7.300E-03 0.000E+00

     total cpu time spent up to now is    48255.7 secs

     total energy              =   -3593.23447089 Ry
     estimated scf accuracy    <       0.02453299 Ry

     iteration #  3     ecut=   124.00 Ry     beta= 0.70
     Davidson diagonalization with overlap
     ethr =  1.89E-08,  avg # of iterations =  7.8

     negative rho (up, down):  7.300E-03 0.000E+00

     total cpu time spent up to now is    48344.1 secs

     total energy              =   -3593.23510643 Ry
     estimated scf accuracy    <       0.00016974 Ry

     iteration #  4     ecut=   124.00 Ry     beta= 0.70
     Davidson diagonalization with overlap
     ethr =  1.89E-08,  avg # of iterations =  2.0

     negative rho (up, down):  7.301E-03 0.000E+00

     total cpu time spent up to now is    48391.4 secs

     total energy              =   -3593.23511138 Ry
     estimated scf accuracy    <       0.00000436 Ry

     iteration #  5     ecut=   124.00 Ry     beta= 0.70
     Davidson diagonalization with overlap
     ethr =  1.91E-09,  avg # of iterations =  5.0

     negative rho (up, down):  7.301E-03 0.000E+00

     total cpu time spent up to now is    48454.8 secs

     total energy              =   -3593.23511159 Ry
     estimated scf accuracy    <       0.00002615 Ry

     iteration #  6     ecut=   124.00 Ry     beta= 0.70
     Davidson diagonalization with overlap
     ethr =  1.91E-09,  avg # of iterations =  2.7

     negative rho (up, down):  7.301E-03 0.000E+00

     total cpu time spent up to now is    48504.9 secs

     total energy              =   -3593.23511236 Ry
     estimated scf accuracy    <       0.00000534 Ry

     iteration #  7     ecut=   124.00 Ry     beta= 0.70
     Davidson diagonalization with overlap
     ethr =  1.91E-09,  avg # of iterations =  1.1

     negative rho (up, down):  7.301E-03 0.000E+00

     total cpu time spent up to now is    48546.7 secs

     total energy              =   -3593.23511258 Ry
     estimated scf accuracy    <       0.00000065 Ry

     iteration #  8     ecut=   124.00 Ry     beta= 0.70
     Davidson diagonalization with overlap
     ethr =  2.84E-10,  avg # of iterations =  3.9

     negative rho (up, down):  7.301E-03 0.000E+00

     total cpu time spent up to now is    48601.2 secs

     total energy              =   -3593.23511261 Ry
     estimated scf accuracy    <       0.00000070 Ry

     iteration #  9     ecut=   124.00 Ry     beta= 0.70
     Davidson diagonalization with overlap
     ethr =  2.84E-10,  avg # of iterations =  1.2

     negative rho (up, down):  7.301E-03 0.000E+00

     total cpu time spent up to now is    48643.5 secs

     total energy              =   -3593.23511263 Ry
     estimated scf accuracy    <       0.00000016 Ry

     iteration # 10     ecut=   124.00 Ry     beta= 0.70
     Davidson diagonalization with overlap
     ethr =  6.91E-11,  avg # of iterations =  2.0

     negative rho (up, down):  7.301E-03 0.000E+00

     total cpu time spent up to now is    48691.6 secs

     total energy              =   -3593.23511263 Ry
     estimated scf accuracy    <       0.00000013 Ry

     iteration # 11     ecut=   124.00 Ry     beta= 0.70
     Davidson diagonalization with overlap
     ethr =  5.48E-11,  avg # of iterations =  2.0

     negative rho (up, down):  7.301E-03 0.000E+00

     total cpu time spent up to now is    48738.6 secs

     total energy              =   -3593.23511264 Ry
     estimated scf accuracy    <       0.00000003 Ry

     iteration # 12     ecut=   124.00 Ry     beta= 0.70
     Davidson diagonalization with overlap
     ethr =  1.32E-11,  avg # of iterations =  2.3

     negative rho (up, down):  7.301E-03 0.000E+00

     total cpu time spent up to now is    48788.0 secs

     total energy              =   -3593.23511264 Ry
     estimated scf accuracy    <       0.00000002 Ry

     iteration # 13     ecut=   124.00 Ry     beta= 0.70
     Davidson diagonalization with overlap
     ethr =  1.07E-11,  avg # of iterations =  2.2

     negative rho (up, down):  7.301E-03 0.000E+00

     total cpu time spent up to now is    48835.5 secs

     total energy              =   -3593.23511264 Ry
     estimated scf accuracy    <       0.00000009 Ry

     iteration # 14     ecut=   124.00 Ry     beta= 0.70
     Davidson diagonalization with overlap
     ethr =  1.07E-11,  avg # of iterations =  1.1

     negative rho (up, down):  7.301E-03 0.000E+00

     total cpu time spent up to now is    48877.7 secs

     total energy              =   -3593.23511264 Ry
     estimated scf accuracy    <          5.4E-10 Ry

     iteration # 15     ecut=   124.00 Ry     beta= 0.70
     Davidson diagonalization with overlap
     ethr =  2.36E-13,  avg # of iterations =  5.1

     negative rho (up, down):  7.301E-03 0.000E+00

     total cpu time spent up to now is    48958.2 secs

     total energy              =   -3593.23511264 Ry
     estimated scf accuracy    <          1.4E-09 Ry

     iteration # 16     ecut=   124.00 Ry     beta= 0.70
     Davidson diagonalization with overlap
     ethr =  2.36E-13,  avg # of iterations =  2.1

     negative rho (up, down):  7.301E-03 0.000E+00

     total cpu time spent up to now is    49007.0 secs

     total energy              =   -3593.23511264 Ry
     estimated scf accuracy    <          3.7E-10 Ry

     iteration # 17     ecut=   124.00 Ry     beta= 0.70
     Davidson diagonalization with overlap
     ethr =  1.61E-13,  avg # of iterations =  2.0

     negative rho (up, down):  7.301E-03 0.000E+00

     total cpu time spent up to now is    49054.3 secs

     total energy              =   -3593.23511264 Ry
     estimated scf accuracy    <          5.0E-10 Ry

     iteration # 18     ecut=   124.00 Ry     beta= 0.70
     Davidson diagonalization with overlap
     ethr =  1.61E-13,  avg # of iterations =  3.0

     negative rho (up, down):  7.301E-03 0.000E+00

     total cpu time spent up to now is    49105.7 secs

     total energy              =   -3593.23511264 Ry
     estimated scf accuracy    <          1.7E-09 Ry

     iteration # 19     ecut=   124.00 Ry     beta= 0.70
     Davidson diagonalization with overlap
     ethr =  1.61E-13,  avg # of iterations =  2.5

     negative rho (up, down):  7.301E-03 0.000E+00

     total cpu time spent up to now is    49154.1 secs

     End of self-consistent calculation

     Number of k-points >= 100: set verbosity='high' to print the bands.

     the Fermi energy is    16.6647 ev

!    total energy              =   -3593.23511264 Ry
     estimated scf accuracy    <          1.5E-11 Ry
     smearing contrib. (-TS)   =      -0.00003810 Ry
     internal energy E=F+TS    =   -3593.23507454 Ry

     The total energy is F=E-TS. E is the sum of the following terms:
     one-electron contribution =   -1273.51724609 Ry
     hartree contribution      =     758.50173690 Ry
     xc contribution           =    -425.89970364 Ry
     ewald contribution        =   -2043.10228330 Ry
     one-center paw contrib.   =    -609.21757840 Ry

     convergence has been achieved in  19 iterations

     negative rho (up, down):  7.301E-03 0.000E+00

     Forces acting on atoms (cartesian axes, Ry/au):

     atom    1 type  1   force =     0.00000000    0.00000000    0.00000000
     atom    2 type  1   force =     0.00000000    0.00000000    0.00000000
     atom    3 type  1   force =     0.00000000    0.00000000    0.00000000
     atom    4 type  1   force =     0.00000000    0.00000000    0.00000000
     atom    5 type  1   force =     0.00000000    0.00000000    0.00000000
     atom    6 type  1   force =     0.00000000    0.00000000    0.00000000
     atom    7 type  1   force =     0.00000000    0.00000000    0.00000000
     atom    8 type  1   force =     0.00000000    0.00000000    0.00000000
     atom    9 type  2   force =     0.00002989    0.00005877    0.00005877
     atom   10 type  2   force =     0.00000540    0.00000416   -0.00000416
     atom   11 type  2   force =    -0.00002989    0.00005877    0.00005877
     atom   12 type  2   force =     0.00002989   -0.00005877   -0.00005877
     atom   13 type  2   force =    -0.00000540   -0.00000416    0.00000416
     atom   14 type  2   force =    -0.00002989   -0.00005877   -0.00005877
     atom   15 type  2   force =     0.00000540   -0.00000416    0.00000416
     atom   16 type  2   force =    -0.00000540    0.00000416   -0.00000416
     atom   17 type  3   force =    -0.00001478    0.00000000    0.00000000
     atom   18 type  3   force =     0.00000000   -0.00000458    0.00000458
     atom   19 type  3   force =     0.00001478    0.00000000    0.00000000
     atom   20 type  3   force =     0.00000000    0.00000458   -0.00000458

     Total force =     0.000179     Total SCF correction =     0.000013


     Computing stress (Cartesian axis) and pressure


     negative rho (up, down):  7.301E-03 0.000E+00
          total   stress  (Ry/bohr**3)                   (kbar)     P=        0.08
   0.00000094   0.00000000   0.00000000            0.14        0.00        0.00
   0.00000000   0.00000037  -0.00000088            0.00        0.05       -0.13
   0.00000000  -0.00000088   0.00000037            0.00       -0.13        0.05

     Energy error            =      8.5E-07 Ry
     Gradient error          =      5.9E-05 Ry/Bohr
     Cell gradient error     =      1.4E-01 kbar

     number of scf cycles    =  34
     number of bfgs steps    =  33

     enthalpy           old  =   -3593.2351117901 Ry
     enthalpy           new  =   -3593.2351126418 Ry

     CASE: enthalpy          _new < enthalpy          _old

     new trust radius        =       0.0002847367 bohr
     new conv_thr            =            1.0E-10 Ry

     new unit-cell volume =   1474.91994 a.u.^3 (   218.56059 Ang^3 )
     density =      6.33434 g/cm^3

CELL_PARAMETERS (alat=  5.58242261)
   2.173159217   0.000000000   0.000000000
   0.000000000   1.975268054  -0.019725111
   0.000000000  -0.019725111   1.975268054

ATOMIC_POSITIONS (crystal)
Fe               0.0000000000        0.0000000000        0.0000000000
Fe               0.5000000000        0.5000000000       -0.0000000000
Fe               0.5000000000        0.0000000000        0.0000000000
Fe               0.0000000000        0.5000000000        0.5000000000
Fe               0.0000000000       -0.0000000000        0.5000000000
Fe               0.5000000000        0.5000000000        0.5000000000
Fe               0.5000000000       -0.0000000000        0.5000000000
Fe               0.0000000000        0.5000000000       -0.0000000000
Ti               0.2491132245        0.2449986886        0.2449986886
Ti               0.7699218038        0.7563476883        0.2436523117
Ti               0.7508867755        0.2449986886        0.2449986886
Ti               0.2491132245        0.7550013114        0.7550013114
Ti               0.2300781962        0.2436523117        0.7563476883
Ti               0.7508867755        0.7550013114        0.7550013114
Ti               0.7699218038        0.2436523117        0.7563476883
Ti               0.2300781962        0.7563476883        0.2436523117
H                0.2504358557        0.5000000000        0.5000000000
H                0.5000000000        0.3065478002        0.6934521998
H                0.7495641443        0.5000000000        0.5000000000
H                0.5000000000        0.6934521998        0.3065478002



     Writing config-only to output data dir ./TiFeH_supercell.save/ :
     XML data file     NEW-OLD atomic charge density approx. for the potential
     New effective cutoffs (rho, wfc): 1814.68  129.64

     Check: negative core charge=   -0.000001

     negative rho (up, down):  7.301E-03 0.000E+00

     total cpu time spent up to now is    49197.6 secs

     per-process dynamical memory:   705.9 Mb

     Self-consistent Calculation

     iteration #  1     ecut=   124.00 Ry     beta= 0.70
     Davidson diagonalization with overlap
     ethr =  1.00E-06,  avg # of iterations =  2.0

     Threshold (ethr) on eigenvalues was too large:
     Diagonalizing with lowered threshold

     Davidson diagonalization with overlap
     ethr =  2.31E-10,  avg # of iterations =  4.0

     negative rho (up, down):  7.301E-03 0.000E+00

     total cpu time spent up to now is    49324.9 secs

     total energy              =   -3593.23511228 Ry
     estimated scf accuracy    <       0.00000057 Ry

     iteration #  2     ecut=   124.00 Ry     beta= 0.70
     Davidson diagonalization with overlap
     ethr =  2.48E-10,  avg # of iterations =  7.5

     negative rho (up, down):  7.301E-03 0.000E+00

     total cpu time spent up to now is    49415.2 secs

     total energy              =   -3593.23510596 Ry
     estimated scf accuracy    <       0.00023114 Ry

     iteration #  3     ecut=   124.00 Ry     beta= 0.70
     Davidson diagonalization with overlap
     ethr =  2.48E-10,  avg # of iterations =  7.5

     negative rho (up, down):  7.301E-03 0.000E+00

     total cpu time spent up to now is    49501.6 secs

     total energy              =   -3593.23511267 Ry
     estimated scf accuracy    <       0.00000216 Ry

     iteration #  4     ecut=   124.00 Ry     beta= 0.70
     Davidson diagonalization with overlap
     ethr =  2.48E-10,  avg # of iterations =  3.5

     negative rho (up, down):  7.301E-03 0.000E+00

     total cpu time spent up to now is    49553.8 secs

     total energy              =   -3593.23511274 Ry
     estimated scf accuracy    <       0.00000101 Ry

     iteration #  5     ecut=   124.00 Ry     beta= 0.70
     Davidson diagonalization with overlap
     ethr =  2.48E-10,  avg # of iterations =  2.7

     negative rho (up, down):  7.301E-03 0.000E+00

     total cpu time spent up to now is    49603.2 secs

     total energy              =   -3593.23511276 Ry
     estimated scf accuracy    <       0.00000052 Ry

     iteration #  6     ecut=   124.00 Ry     beta= 0.70
     Davidson diagonalization with overlap
     ethr =  2.29E-10,  avg # of iterations =  2.0

     negative rho (up, down):  7.301E-03 0.000E+00

     total cpu time spent up to now is    49650.3 secs

     total energy              =   -3593.23511277 Ry
     estimated scf accuracy    <       0.00000073 Ry

     iteration #  7     ecut=   124.00 Ry     beta= 0.70
     Davidson diagonalization with overlap
     ethr =  2.29E-10,  avg # of iterations =  1.2

     negative rho (up, down):  7.301E-03 0.000E+00

     total cpu time spent up to now is    49692.8 secs

     total energy              =   -3593.23511279 Ry
     estimated scf accuracy    <       0.00000035 Ry

     iteration #  8     ecut=   124.00 Ry     beta= 0.70
     Davidson diagonalization with overlap
     ethr =  1.55E-10,  avg # of iterations =  1.0

     negative rho (up, down):  7.301E-03 0.000E+00

     total cpu time spent up to now is    49734.2 secs

     total energy              =   -3593.23511280 Ry
     estimated scf accuracy    <       0.00000002 Ry

     iteration #  9     ecut=   124.00 Ry     beta= 0.70
     Davidson diagonalization with overlap
     ethr =  7.95E-12,  avg # of iterations =  4.1

     negative rho (up, down):  7.301E-03 0.000E+00

     total cpu time spent up to now is    49792.2 secs

     total energy              =   -3593.23511280 Ry
     estimated scf accuracy    <       0.00000005 Ry

     iteration # 10     ecut=   124.00 Ry     beta= 0.70
     Davidson diagonalization with overlap
     ethr =  7.95E-12,  avg # of iterations =  2.1

     negative rho (up, down):  7.301E-03 0.000E+00

     total cpu time spent up to now is    49840.1 secs

     total energy              =   -3593.23511280 Ry
     estimated scf accuracy    <          5.6E-09 Ry

     iteration # 11     ecut=   124.00 Ry     beta= 0.70
     Davidson diagonalization with overlap
     ethr =  2.46E-12,  avg # of iterations =  2.7

     negative rho (up, down):  7.301E-03 0.000E+00

     total cpu time spent up to now is    49890.0 secs

     total energy              =   -3593.23511280 Ry
     estimated scf accuracy    <          2.7E-09 Ry

     iteration # 12     ecut=   124.00 Ry     beta= 0.70
     Davidson diagonalization with overlap
     ethr =  1.20E-12,  avg # of iterations =  4.0

     negative rho (up, down):  7.301E-03 0.000E+00

     total cpu time spent up to now is    49946.1 secs

     total energy              =   -3593.23511280 Ry
     estimated scf accuracy    <       0.00000001 Ry

     iteration # 13     ecut=   124.00 Ry     beta= 0.70
     Davidson diagonalization with overlap
     ethr =  1.20E-12,  avg # of iterations =  2.4

     negative rho (up, down):  7.301E-03 0.000E+00

     total cpu time spent up to now is    49994.5 secs

     total energy              =   -3593.23511280 Ry
     estimated scf accuracy    <          9.5E-10 Ry

     iteration # 14     ecut=   124.00 Ry     beta= 0.70
     Davidson diagonalization with overlap
     ethr =  4.18E-13,  avg # of iterations =  2.4

     negative rho (up, down):  7.301E-03 0.000E+00

     total cpu time spent up to now is    50042.8 secs

     End of self-consistent calculation

     Number of k-points >= 100: set verbosity='high' to print the bands.

     the Fermi energy is    16.6637 ev

!    total energy              =   -3593.23511280 Ry
     estimated scf accuracy    <          7.4E-11 Ry
     smearing contrib. (-TS)   =      -0.00003811 Ry
     internal energy E=F+TS    =   -3593.23507470 Ry

     The total energy is F=E-TS. E is the sum of the following terms:
     one-electron contribution =   -1273.56764067 Ry
     hartree contribution      =     758.51889260 Ry
     xc contribution           =    -425.89899300 Ry
     ewald contribution        =   -2043.06976516 Ry
     one-center paw contrib.   =    -609.21756847 Ry

     convergence has been achieved in  14 iterations

     negative rho (up, down):  7.301E-03 0.000E+00

     Forces acting on atoms (cartesian axes, Ry/au):

     atom    1 type  1   force =     0.00000000    0.00000000    0.00000000
     atom    2 type  1   force =     0.00000000    0.00000000    0.00000000
     atom    3 type  1   force =     0.00000000    0.00000000    0.00000000
     atom    4 type  1   force =     0.00000000    0.00000000    0.00000000
     atom    5 type  1   force =     0.00000000    0.00000000    0.00000000
     atom    6 type  1   force =     0.00000000    0.00000000    0.00000000
     atom    7 type  1   force =     0.00000000    0.00000000    0.00000000
     atom    8 type  1   force =     0.00000000    0.00000000    0.00000000
     atom    9 type  2   force =     0.00001833    0.00004470    0.00004470
     atom   10 type  2   force =     0.00002195   -0.00001807    0.00001807
     atom   11 type  2   force =    -0.00001833    0.00004470    0.00004470
     atom   12 type  2   force =     0.00001833   -0.00004470   -0.00004470
     atom   13 type  2   force =    -0.00002195    0.00001807   -0.00001807
     atom   14 type  2   force =    -0.00001833   -0.00004470   -0.00004470
     atom   15 type  2   force =     0.00002195    0.00001807   -0.00001807
     atom   16 type  2   force =    -0.00002195   -0.00001807    0.00001807
     atom   17 type  3   force =    -0.00001830    0.00000000    0.00000000
     atom   18 type  3   force =    -0.00000000    0.00000857   -0.00000857
     atom   19 type  3   force =     0.00001830    0.00000000    0.00000000
     atom   20 type  3   force =    -0.00000000   -0.00000857    0.00000857

     Total force =     0.000151     Total SCF correction =     0.000014


     Computing stress (Cartesian axis) and pressure


     negative rho (up, down):  7.301E-03 0.000E+00
          total   stress  (Ry/bohr**3)                   (kbar)     P=       -0.02
   0.00000000   0.00000000   0.00000000            0.00        0.00        0.00
   0.00000000  -0.00000017  -0.00000049            0.00       -0.02       -0.07
   0.00000000  -0.00000049  -0.00000017            0.00       -0.07       -0.02

     Energy error            =      1.6E-07 Ry
     Gradient error          =      4.5E-05 Ry/Bohr
     Cell gradient error     =      7.2E-02 kbar

     bfgs converged in  35 scf cycles and  34 bfgs steps
     (criteria: energy <  1.0E-04 Ry, force <  1.0E-03 Ry/Bohr, cell <  1.0E-01 kbar)

     End of BFGS Geometry Optimization

     Final enthalpy           =   -3593.2351128031 Ry

     File ./TiFeH_supercell.bfgs deleted, as requested
Begin final coordinates
     new unit-cell volume =   1474.91994 a.u.^3 (   218.56059 Ang^3 )
     density =      6.33434 g/cm^3

CELL_PARAMETERS (alat=  5.58242261)
   2.173159217   0.000000000   0.000000000
   0.000000000   1.975268054  -0.019725111
   0.000000000  -0.019725111   1.975268054

ATOMIC_POSITIONS (crystal)
Fe               0.0000000000        0.0000000000        0.0000000000
Fe               0.5000000000        0.5000000000       -0.0000000000
Fe               0.5000000000        0.0000000000        0.0000000000
Fe               0.0000000000        0.5000000000        0.5000000000
Fe               0.0000000000       -0.0000000000        0.5000000000
Fe               0.5000000000        0.5000000000        0.5000000000
Fe               0.5000000000       -0.0000000000        0.5000000000
Fe               0.0000000000        0.5000000000       -0.0000000000
Ti               0.2491132245        0.2449986886        0.2449986886
Ti               0.7699218038        0.7563476883        0.2436523117
Ti               0.7508867755        0.2449986886        0.2449986886
Ti               0.2491132245        0.7550013114        0.7550013114
Ti               0.2300781962        0.2436523117        0.7563476883
Ti               0.7508867755        0.7550013114        0.7550013114
Ti               0.7699218038        0.2436523117        0.7563476883
Ti               0.2300781962        0.7563476883        0.2436523117
H                0.2504358557        0.5000000000        0.5000000000
H                0.5000000000        0.3065478002        0.6934521998
H                0.7495641443        0.5000000000        0.5000000000
H                0.5000000000        0.6934521998        0.3065478002
End final coordinates



     Writing config-only to output data dir ./TiFeH_supercell.save/ :
     XML data file
     Final scf calculation at the relaxed structure.
     The G-vectors are recalculated for the final unit cell
     Results may differ from those at the preceding step.

     Parallelization info
     --------------------
     sticks:   dense  smooth     PW     G-vecs:    dense   smooth      PW
     Min        1154     329     90               112594    17185    2444
     Max        1155     330     91               112597    17188    2447
     Sum       18479    5277   1445              1801543   274983   39117

     Using Slab Decomposition



     bravais-lattice index     =            0
     lattice parameter (alat)  =       5.5824  a.u.
     unit-cell volume          =    1474.9199 (a.u.)^3
     number of atoms/cell      =           20
     number of atomic types    =            3
     number of electrons       =       228.00
     number of Kohn-Sham states=          137
     kinetic-energy cutoff     =     124.0000  Ry
     charge density cutoff     =    1736.0000  Ry
     scf convergence threshold =      1.0E-10
     mixing beta               =       0.7000
     number of iterations used =            8  plain     mixing
     press convergence thresh. =      1.0E-01
     Exchange-correlation= PBE
                           (   1   4   3   4   0   0   0)

     celldm(1)=   5.582423  celldm(2)=   0.000000  celldm(3)=   0.000000
     celldm(4)=   0.000000  celldm(5)=   0.000000  celldm(6)=   0.000000

     crystal axes: (cart. coord. in units of alat)
               a(1) = (   2.173159   0.000000   0.000000 )  
               a(2) = (   0.000000   1.975268  -0.019725 )  
               a(3) = (   0.000000  -0.019725   1.975268 )  

     reciprocal axes: (cart. coord. in units 2 pi/alat)
               b(1) = (  0.460160 -0.000000 -0.000000 )  
               b(2) = ( -0.000000  0.506311  0.005056 )  
               b(3) = ( -0.000000  0.005056  0.506311 )  


     PseudoPot. # 1 for Fe read from file:
     ../../../../pseudos/Fe.pbe-spn-kjpaw_psl.0.2.1.UPF
     MD5 check sum: e86618425769142926afa95317d90200
     Pseudo is Projector augmented-wave + core cor, Zval = 16.0
     Generated using "atomic" code by A. Dal Corso  v.5.0.99 svn rev. 10869
     Shape of augmentation charge: PSQ
     Using radial grid of 1191 points,  6 beta functions with: 
                l(1) =   0
                l(2) =   0
                l(3) =   1
                l(4) =   1
                l(5) =   2
                l(6) =   2
     Q(r) pseudized with 0 coefficients 


     PseudoPot. # 2 for Ti read from file:
     ../../../../pseudos/ti_pbe_v1.4.uspp.F.UPF
     MD5 check sum: 88a00a6731bd790ddea75d31a80cb452
     Pseudo is Ultrasoft + core correction, Zval = 12.0
     Generated by new atomic code, or converted to UPF format
     Using radial grid of  851 points,  6 beta functions with: 
                l(1) =   0
                l(2) =   0
                l(3) =   1
                l(4) =   1
                l(5) =   2
                l(6) =   2
     Q(r) pseudized with  6 coefficients,  rinner =    1.000   1.000   1.000
                                                       1.000   1.000

     PseudoPot. # 3 for H  read from file:
     ../../../../pseudos/H.pbe-rrkjus_psl.1.0.0.UPF
     MD5 check sum: f52b6d4d1c606e5624b1dc7b2218f220
     Pseudo is Ultrasoft, Zval =  1.0
     Generated using "atomic" code by A. Dal Corso  v.5.1
     Using radial grid of  929 points,  2 beta functions with: 
                l(1) =   0
                l(2) =   0
     Q(r) pseudized with 0 coefficients 


     atomic species   valence    mass     pseudopotential
     Fe               16.00    55.84500     Fe( 1.00)
     Ti               12.00    47.86700     Ti( 1.00)
     H                 1.00     1.00784     H ( 1.00)

      8 Sym. Ops., with inversion, found



   Cartesian axes

     site n.     atom                  positions (alat units)
         1        Fe     tau(   1) = (   0.0000000   0.0000000   0.0000000  )
         2        Fe     tau(   2) = (   1.0865796   0.9876340  -0.0098626  )
         3        Fe     tau(   3) = (   1.0865796   0.0000000   0.0000000  )
         4        Fe     tau(   4) = (   0.0000000   0.9777715   0.9777715  )
         5        Fe     tau(   5) = (   0.0000000  -0.0098626   0.9876340  )
         6        Fe     tau(   6) = (   1.0865796   0.9777715   0.9777715  )
         7        Fe     tau(   7) = (   1.0865796  -0.0098626   0.9876340  )
         8        Fe     tau(   8) = (   0.0000000   0.9876340  -0.0098626  )
         9        Ti     tau(   9) = (   0.5413627   0.4791055   0.4791055  )
        10        Ti     tau(  10) = (   1.6731627   1.4891834   0.4663596  )
        11        Ti     tau(  11) = (   1.6317965   0.4791055   0.4791055  )
        12        Ti     tau(  12) = (   0.5413627   1.4764375   1.4764375  )
        13        Ti     tau(  13) = (   0.4999966   0.4663596   1.4891834  )
        14        Ti     tau(  14) = (   1.6317965   1.4764375   1.4764375  )
        15        Ti     tau(  15) = (   1.6731627   0.4663596   1.4891834  )
        16        Ti     tau(  16) = (   0.4999966   1.4891834   0.4663596  )
        17        H      tau(  17) = (   0.5442370   0.9777715   0.9777715  )
        18        H      tau(  18) = (   1.0865796   0.5918357   1.3637073  )
        19        H      tau(  19) = (   1.6289222   0.9777715   0.9777715  )
        20        H      tau(  20) = (   1.0865796   1.3637073   0.5918357  )

     number of k points=   105  Marzari-Vanderbilt smearing, width (Ry)=  0.0050

     Number of k-points >= 100: set verbosity='high' to print them.

     Dense  grid:  1801543 G-vectors     FFT dimensions: ( 162, 150, 150)

     Smooth grid:   274983 G-vectors     FFT dimensions: (  90,  80,  80)

     Estimated max dynamical RAM per process >     936.28 MB

     Estimated total dynamical RAM >      14.63 GB

     Check: negative core charge=   -0.000001

     Initial potential from superposition of free atoms

     starting charge     219.9961, renormalised to     228.0000

     negative rho (up, down):  1.106E-02 0.000E+00
     Starting wfcs are  188 randomized atomic wfcs
     Checking if some PAW data can be deallocated... 

     total cpu time spent up to now is    50109.3 secs

     per-process dynamical memory:   701.5 Mb

     Self-consistent Calculation

     iteration #  1     ecut=   124.00 Ry     beta= 0.70
     Davidson diagonalization with overlap
     c_bands:  3 eigenvalues not converged
     c_bands:  3 eigenvalues not converged
     c_bands:  1 eigenvalues not converged
     c_bands:  2 eigenvalues not converged
     c_bands:  1 eigenvalues not converged
     c_bands:  3 eigenvalues not converged
     c_bands:  1 eigenvalues not converged
     c_bands:  3 eigenvalues not converged
     c_bands:  5 eigenvalues not converged
     c_bands:  5 eigenvalues not converged
     c_bands:  2 eigenvalues not converged
     c_bands:  2 eigenvalues not converged
     c_bands:  3 eigenvalues not converged
     c_bands:  2 eigenvalues not converged
     c_bands:  4 eigenvalues not converged
     c_bands:  1 eigenvalues not converged
     c_bands:  3 eigenvalues not converged
     c_bands:  3 eigenvalues not converged
     c_bands:  4 eigenvalues not converged
     c_bands:  1 eigenvalues not converged
     c_bands:  5 eigenvalues not converged
     c_bands:  1 eigenvalues not converged
     c_bands:  3 eigenvalues not converged
     c_bands:  3 eigenvalues not converged
     c_bands:  1 eigenvalues not converged
     c_bands:  3 eigenvalues not converged
     c_bands:  4 eigenvalues not converged
     c_bands:  4 eigenvalues not converged
     c_bands:  5 eigenvalues not converged
     c_bands:  1 eigenvalues not converged
     c_bands:  4 eigenvalues not converged
     c_bands:  5 eigenvalues not converged
     c_bands:  5 eigenvalues not converged
     c_bands:  4 eigenvalues not converged
     c_bands:  3 eigenvalues not converged
     c_bands:  4 eigenvalues not converged
     c_bands:  5 eigenvalues not converged
     c_bands:  5 eigenvalues not converged
     c_bands:  5 eigenvalues not converged
     c_bands:  4 eigenvalues not converged
     c_bands:  3 eigenvalues not converged
     c_bands:  4 eigenvalues not converged
     c_bands:  1 eigenvalues not converged
     ethr =  1.00E-06,  avg # of iterations = 31.2

     negative rho (up, down):  7.057E-04 0.000E+00

     total cpu time spent up to now is    50535.0 secs

     total energy              =   -3474.27775475 Ry
     estimated scf accuracy    <     150.94752893 Ry

     iteration #  2     ecut=   124.00 Ry     beta= 0.70
     Davidson diagonalization with overlap
     ethr =  1.00E-02,  avg # of iterations =  7.8

     negative rho (up, down):  2.807E-04 0.000E+00

     total cpu time spent up to now is    50665.7 secs

     total energy              =   -3583.79480690 Ry
     estimated scf accuracy    <     606.41547548 Ry

     iteration #  3     ecut=   124.00 Ry     beta= 0.70
     Davidson diagonalization with overlap
     ethr =  1.00E-02,  avg # of iterations =  3.7

     negative rho (up, down):  1.083E-03 0.000E+00

     total cpu time spent up to now is    50743.6 secs

     total energy              =   -3605.66288766 Ry
     estimated scf accuracy    <     148.45571670 Ry

     iteration #  4     ecut=   124.00 Ry     beta= 0.70
     Davidson diagonalization with overlap
     ethr =  1.00E-02,  avg # of iterations =  2.0

     negative rho (up, down):  2.166E-03 0.000E+00

     total cpu time spent up to now is    50796.5 secs

     total energy              =   -3596.94296557 Ry
     estimated scf accuracy    <      89.81171944 Ry

     iteration #  5     ecut=   124.00 Ry     beta= 0.70
     Davidson diagonalization with overlap
     ethr =  1.00E-02,  avg # of iterations =  2.0

     negative rho (up, down):  2.366E-03 0.000E+00

     total cpu time spent up to now is    50847.1 secs

     total energy              =   -3597.67274181 Ry
     estimated scf accuracy    <      45.22159942 Ry

     iteration #  6     ecut=   124.00 Ry     beta= 0.70
     Davidson diagonalization with overlap
     ethr =  1.00E-02,  avg # of iterations =  1.0

     negative rho (up, down):  2.502E-03 0.000E+00

     total cpu time spent up to now is    50891.2 secs

     total energy              =   -3597.47468530 Ry
     estimated scf accuracy    <      42.56776055 Ry

     iteration #  7     ecut=   124.00 Ry     beta= 0.70
     Davidson diagonalization with overlap
     ethr =  1.00E-02,  avg # of iterations =  1.0

     negative rho (up, down):  3.275E-03 0.000E+00

     total cpu time spent up to now is    50935.4 secs

     total energy              =   -3596.52236019 Ry
     estimated scf accuracy    <      38.77391193 Ry

     iteration #  8     ecut=   124.00 Ry     beta= 0.70
     Davidson diagonalization with overlap
     ethr =  1.00E-02,  avg # of iterations =  1.1

     negative rho (up, down):  6.471E-03 0.000E+00

     total cpu time spent up to now is    50980.5 secs

     total energy              =   -3593.79120643 Ry
     estimated scf accuracy    <      34.46178530 Ry

     iteration #  9     ecut=   124.00 Ry     beta= 0.70
     Davidson diagonalization with overlap
     ethr =  1.00E-02,  avg # of iterations =  1.7

     negative rho (up, down):  7.339E-03 0.000E+00

     total cpu time spent up to now is    51028.0 secs

     total energy              =   -3593.47508335 Ry
     estimated scf accuracy    <      19.08238823 Ry

     iteration # 10     ecut=   124.00 Ry     beta= 0.70
     Davidson diagonalization with overlap
     ethr =  8.37E-03,  avg # of iterations =  1.1

     negative rho (up, down):  1.319E-02 0.000E+00

     total cpu time spent up to now is    51072.7 secs

     total energy              =   -3591.35843776 Ry
     estimated scf accuracy    <      11.52329753 Ry

     iteration # 11     ecut=   124.00 Ry     beta= 0.70
     Davidson diagonalization with overlap
     ethr =  5.05E-03,  avg # of iterations =  5.3

     negative rho (up, down):  1.129E-02 0.000E+00

     total cpu time spent up to now is    51142.2 secs

     total energy              =   -3595.58457447 Ry
     estimated scf accuracy    <      69.79494801 Ry

     iteration # 12     ecut=   124.00 Ry     beta= 0.70
     Davidson diagonalization with overlap
     ethr =  5.05E-03,  avg # of iterations =  1.3

     negative rho (up, down):  9.666E-03 0.000E+00

     total cpu time spent up to now is    51188.2 secs

     total energy              =   -3594.34700490 Ry
     estimated scf accuracy    <      65.71932663 Ry

     iteration # 13     ecut=   124.00 Ry     beta= 0.70
     Davidson diagonalization with overlap
     ethr =  5.05E-03,  avg # of iterations =  1.0

     negative rho (up, down):  5.887E-03 0.000E+00

     total cpu time spent up to now is    51232.9 secs

     total energy              =   -3590.52062395 Ry
     estimated scf accuracy    <      39.37622611 Ry

     iteration # 14     ecut=   124.00 Ry     beta= 0.70
     Davidson diagonalization with overlap
     ethr =  5.05E-03,  avg # of iterations =  3.6

     negative rho (up, down):  5.241E-03 0.000E+00

     total cpu time spent up to now is    51291.1 secs

     total energy              =   -3593.19238746 Ry
     estimated scf accuracy    <       2.61946644 Ry

     iteration # 15     ecut=   124.00 Ry     beta= 0.70
     Davidson diagonalization with overlap
     ethr =  1.15E-03,  avg # of iterations =  6.0

     negative rho (up, down):  5.549E-03 0.000E+00

     total cpu time spent up to now is    51357.3 secs

     total energy              =   -3593.39804793 Ry
     estimated scf accuracy    <       3.20495887 Ry

     iteration # 16     ecut=   124.00 Ry     beta= 0.70
     Davidson diagonalization with overlap
     ethr =  1.15E-03,  avg # of iterations =  1.5

     negative rho (up, down):  5.843E-03 0.000E+00

     total cpu time spent up to now is    51403.7 secs

     total energy              =   -3593.31495626 Ry
     estimated scf accuracy    <       2.84173920 Ry

     iteration # 17     ecut=   124.00 Ry     beta= 0.70
     Davidson diagonalization with overlap
     ethr =  1.15E-03,  avg # of iterations =  1.0

     negative rho (up, down):  6.276E-03 0.000E+00

     total cpu time spent up to now is    51447.9 secs

     total energy              =   -3593.22623386 Ry
     estimated scf accuracy    <       1.57681792 Ry

     iteration # 18     ecut=   124.00 Ry     beta= 0.70
     Davidson diagonalization with overlap
     ethr =  6.92E-04,  avg # of iterations =  1.0

     negative rho (up, down):  6.632E-03 0.000E+00

     total cpu time spent up to now is    51492.5 secs

     total energy              =   -3593.22550583 Ry
     estimated scf accuracy    <       0.43780242 Ry

     iteration # 19     ecut=   124.00 Ry     beta= 0.70
     Davidson diagonalization with overlap
     ethr =  1.92E-04,  avg # of iterations =  2.2

     negative rho (up, down):  6.533E-03 0.000E+00

     total cpu time spent up to now is    51543.9 secs

     total energy              =   -3593.22751941 Ry
     estimated scf accuracy    <       0.48443059 Ry

     iteration # 20     ecut=   124.00 Ry     beta= 0.70
     Davidson diagonalization with overlap
     ethr =  1.92E-04,  avg # of iterations =  1.0

     negative rho (up, down):  6.854E-03 0.000E+00

     total cpu time spent up to now is    51588.7 secs

     total energy              =   -3593.23640314 Ry
     estimated scf accuracy    <       0.15447161 Ry

     iteration # 21     ecut=   124.00 Ry     beta= 0.70
     Davidson diagonalization with overlap
     c_bands:  1 eigenvalues not converged
     ethr =  6.78E-05,  avg # of iterations =  3.3

     negative rho (up, down):  7.410E-03 0.000E+00

     total cpu time spent up to now is    51643.9 secs

     total energy              =   -3593.20544535 Ry
     estimated scf accuracy    <       0.39924890 Ry

     iteration # 22     ecut=   124.00 Ry     beta= 0.70
     Davidson diagonalization with overlap
     ethr =  6.78E-05,  avg # of iterations =  5.6

     negative rho (up, down):  7.281E-03 0.000E+00

     total cpu time spent up to now is    51709.5 secs

     total energy              =   -3593.22413837 Ry
     estimated scf accuracy    <       0.13741042 Ry

     iteration # 23     ecut=   124.00 Ry     beta= 0.70
     Davidson diagonalization with overlap
     ethr =  6.03E-05,  avg # of iterations =  2.5

     negative rho (up, down):  7.253E-03 0.000E+00

     total cpu time spent up to now is    51760.3 secs

     total energy              =   -3593.23424858 Ry
     estimated scf accuracy    <       0.00524458 Ry

     iteration # 24     ecut=   124.00 Ry     beta= 0.70
     Davidson diagonalization with overlap
     c_bands:  1 eigenvalues not converged
     c_bands:  1 eigenvalues not converged
     c_bands:  1 eigenvalues not converged
     c_bands:  1 eigenvalues not converged
     c_bands:  1 eigenvalues not converged
     c_bands:  2 eigenvalues not converged
     c_bands:  1 eigenvalues not converged
     c_bands:  1 eigenvalues not converged
     c_bands:  2 eigenvalues not converged
     c_bands:  1 eigenvalues not converged
     c_bands:  1 eigenvalues not converged
     c_bands:  1 eigenvalues not converged
     c_bands:  1 eigenvalues not converged
     c_bands:  1 eigenvalues not converged
     c_bands:  1 eigenvalues not converged
     c_bands:  1 eigenvalues not converged
     c_bands:  1 eigenvalues not converged
     ethr =  2.30E-06,  avg # of iterations = 13.7

     negative rho (up, down):  7.254E-03 0.000E+00

     total cpu time spent up to now is    51872.0 secs

     total energy              =   -3593.23537991 Ry
     estimated scf accuracy    <       0.02161548 Ry

     iteration # 25     ecut=   124.00 Ry     beta= 0.70
     Davidson diagonalization with overlap
     c_bands:  1 eigenvalues not converged
     ethr =  2.30E-06,  avg # of iterations =  3.2

     negative rho (up, down):  7.263E-03 0.000E+00

     total cpu time spent up to now is    51926.1 secs

     total energy              =   -3593.23574212 Ry
     estimated scf accuracy    <       0.01126787 Ry

     iteration # 26     ecut=   124.00 Ry     beta= 0.70
     Davidson diagonalization with overlap
     ethr =  2.30E-06,  avg # of iterations =  2.1

     negative rho (up, down):  7.261E-03 0.000E+00

     total cpu time spent up to now is    51977.2 secs

     total energy              =   -3593.23578077 Ry
     estimated scf accuracy    <       0.00677891 Ry

     iteration # 27     ecut=   124.00 Ry     beta= 0.70
     Davidson diagonalization with overlap
     ethr =  2.30E-06,  avg # of iterations =  2.0

     negative rho (up, down):  7.267E-03 0.000E+00

     total cpu time spent up to now is    52027.9 secs

     total energy              =   -3593.23586991 Ry
     estimated scf accuracy    <       0.00558451 Ry

     iteration # 28     ecut=   124.00 Ry     beta= 0.70
     Davidson diagonalization with overlap
     ethr =  2.30E-06,  avg # of iterations =  1.0

     negative rho (up, down):  7.259E-03 0.000E+00

     total cpu time spent up to now is    52072.4 secs

     total energy              =   -3593.23607425 Ry
     estimated scf accuracy    <       0.00099078 Ry

     iteration # 29     ecut=   124.00 Ry     beta= 0.70
     Davidson diagonalization with overlap
     ethr =  4.35E-07,  avg # of iterations =  3.2

     negative rho (up, down):  7.257E-03 0.000E+00

     total cpu time spent up to now is    52130.2 secs

     total energy              =   -3593.23593739 Ry
     estimated scf accuracy    <       0.00614976 Ry

     iteration # 30     ecut=   124.00 Ry     beta= 0.70
     Davidson diagonalization with overlap
     ethr =  4.35E-07,  avg # of iterations =  2.2

     negative rho (up, down):  7.272E-03 0.000E+00

     total cpu time spent up to now is    52181.2 secs

     total energy              =   -3593.23613914 Ry
     estimated scf accuracy    <       0.00018549 Ry

     iteration # 31     ecut=   124.00 Ry     beta= 0.70
     Davidson diagonalization with overlap
     ethr =  8.14E-08,  avg # of iterations =  4.4

     negative rho (up, down):  7.269E-03 0.000E+00

     total cpu time spent up to now is    52245.9 secs

     total energy              =   -3593.23610050 Ry
     estimated scf accuracy    <       0.00153410 Ry

     iteration # 32     ecut=   124.00 Ry     beta= 0.70
     Davidson diagonalization with overlap
     ethr =  8.14E-08,  avg # of iterations =  4.0

     negative rho (up, down):  7.269E-03 0.000E+00

     total cpu time spent up to now is    52305.2 secs

     total energy              =   -3593.23616067 Ry
     estimated scf accuracy    <       0.00002125 Ry

     iteration # 33     ecut=   124.00 Ry     beta= 0.70
     Davidson diagonalization with overlap
     ethr =  9.32E-09,  avg # of iterations =  4.3

     negative rho (up, down):  7.271E-03 0.000E+00

     total cpu time spent up to now is    52365.5 secs

     total energy              =   -3593.23616239 Ry
     estimated scf accuracy    <       0.00000324 Ry

     iteration # 34     ecut=   124.00 Ry     beta= 0.70
     Davidson diagonalization with overlap
     ethr =  1.42E-09,  avg # of iterations =  5.1

     negative rho (up, down):  7.271E-03 0.000E+00

     total cpu time spent up to now is    52441.3 secs

     total energy              =   -3593.23616085 Ry
     estimated scf accuracy    <       0.00006056 Ry

     iteration # 35     ecut=   124.00 Ry     beta= 0.70
     Davidson diagonalization with overlap
     ethr =  1.42E-09,  avg # of iterations =  5.1

     negative rho (up, down):  7.271E-03 0.000E+00

     total cpu time spent up to now is    52510.3 secs

     total energy              =   -3593.23616116 Ry
     estimated scf accuracy    <       0.00006844 Ry

     iteration # 36     ecut=   124.00 Ry     beta= 0.70
     Davidson diagonalization with overlap
     ethr =  1.42E-09,  avg # of iterations =  4.5

     negative rho (up, down):  7.270E-03 0.000E+00

     total cpu time spent up to now is    52577.4 secs

     total energy              =   -3593.23616215 Ry
     estimated scf accuracy    <       0.00002017 Ry

     iteration # 37     ecut=   124.00 Ry     beta= 0.70
     Davidson diagonalization with overlap
     ethr =  1.42E-09,  avg # of iterations =  4.9

     negative rho (up, down):  7.270E-03 0.000E+00

     total cpu time spent up to now is    52645.2 secs

     total energy              =   -3593.23616196 Ry
     estimated scf accuracy    <       0.00004974 Ry

     iteration # 38     ecut=   124.00 Ry     beta= 0.70
     Davidson diagonalization with overlap
     ethr =  1.42E-09,  avg # of iterations =  4.2

     negative rho (up, down):  7.271E-03 0.000E+00

     total cpu time spent up to now is    52705.7 secs

     total energy              =   -3593.23616360 Ry
     estimated scf accuracy    <       0.00000036 Ry

     iteration # 39     ecut=   124.00 Ry     beta= 0.70
     Davidson diagonalization with overlap
     ethr =  1.56E-10,  avg # of iterations =  4.2

     negative rho (up, down):  7.271E-03 0.000E+00

     total cpu time spent up to now is    52767.1 secs

     total energy              =   -3593.23616357 Ry
     estimated scf accuracy    <       0.00000192 Ry

     iteration # 40     ecut=   124.00 Ry     beta= 0.70
     Davidson diagonalization with overlap
     ethr =  1.56E-10,  avg # of iterations =  3.3

     negative rho (up, down):  7.271E-03 0.000E+00

     total cpu time spent up to now is    52821.4 secs

     total energy              =   -3593.23616364 Ry
     estimated scf accuracy    <       0.00000010 Ry

     iteration # 41     ecut=   124.00 Ry     beta= 0.70
     Davidson diagonalization with overlap
     ethr =  4.37E-11,  avg # of iterations =  4.1

     negative rho (up, down):  7.271E-03 0.000E+00

     total cpu time spent up to now is    52883.8 secs

     total energy              =   -3593.23616362 Ry
     estimated scf accuracy    <       0.00000075 Ry

     iteration # 42     ecut=   124.00 Ry     beta= 0.70
     Davidson diagonalization with overlap
     ethr =  4.37E-11,  avg # of iterations =  4.0

     negative rho (up, down):  7.271E-03 0.000E+00

     total cpu time spent up to now is    52942.9 secs

     total energy              =   -3593.23616365 Ry
     estimated scf accuracy    <       0.00000003 Ry

     iteration # 43     ecut=   124.00 Ry     beta= 0.70
     Davidson diagonalization with overlap
     ethr =  1.35E-11,  avg # of iterations =  2.3

     negative rho (up, down):  7.271E-03 0.000E+00

     total cpu time spent up to now is    52994.9 secs

     total energy              =   -3593.23616365 Ry
     estimated scf accuracy    <          5.2E-09 Ry

     iteration # 44     ecut=   124.00 Ry     beta= 0.70
     Davidson diagonalization with overlap
     ethr =  2.29E-12,  avg # of iterations =  4.5

     negative rho (up, down):  7.271E-03 0.000E+00

     total cpu time spent up to now is    53060.4 secs

     total energy              =   -3593.23616365 Ry
     estimated scf accuracy    <       0.00000002 Ry

     iteration # 45     ecut=   124.00 Ry     beta= 0.70
     Davidson diagonalization with overlap
     ethr =  2.29E-12,  avg # of iterations =  2.3

     negative rho (up, down):  7.271E-03 0.000E+00

     total cpu time spent up to now is    53112.5 secs

     total energy              =   -3593.23616365 Ry
     estimated scf accuracy    <       0.00000001 Ry

     iteration # 46     ecut=   124.00 Ry     beta= 0.70
     Davidson diagonalization with overlap
     ethr =  2.29E-12,  avg # of iterations =  4.0

     negative rho (up, down):  7.271E-03 0.000E+00

     total cpu time spent up to now is    53172.5 secs

     total energy              =   -3593.23616365 Ry
     estimated scf accuracy    <       0.00000004 Ry

     iteration # 47     ecut=   124.00 Ry     beta= 0.70
     Davidson diagonalization with overlap
     ethr =  2.29E-12,  avg # of iterations =  4.2

     negative rho (up, down):  7.271E-03 0.000E+00

     total cpu time spent up to now is    53235.2 secs

     total energy              =   -3593.23616365 Ry
     estimated scf accuracy    <       0.00000003 Ry

     iteration # 48     ecut=   124.00 Ry     beta= 0.70
     Davidson diagonalization with overlap
     ethr =  2.29E-12,  avg # of iterations =  2.6

     negative rho (up, down):  7.271E-03 0.000E+00

     total cpu time spent up to now is    53287.9 secs

     total energy              =   -3593.23616365 Ry
     estimated scf accuracy    <          3.2E-10 Ry

     iteration # 49     ecut=   124.00 Ry     beta= 0.70
     Davidson diagonalization with overlap
     ethr =  1.40E-13,  avg # of iterations =  5.0

     negative rho (up, down):  7.271E-03 0.000E+00

     total cpu time spent up to now is    53354.0 secs

     total energy              =   -3593.23616365 Ry
     estimated scf accuracy    <          1.7E-10 Ry

     iteration # 50     ecut=   124.00 Ry     beta= 0.70
     Davidson diagonalization with overlap
     ethr =  1.00E-13,  avg # of iterations =  1.6

     negative rho (up, down):  7.271E-03 0.000E+00

     total cpu time spent up to now is    53401.6 secs

     total energy              =   -3593.23616365 Ry
     estimated scf accuracy    <          2.9E-10 Ry

     iteration # 51     ecut=   124.00 Ry     beta= 0.70
     Davidson diagonalization with overlap
     ethr =  1.00E-13,  avg # of iterations =  1.2

     negative rho (up, down):  7.271E-03 0.000E+00

     total cpu time spent up to now is    53447.2 secs

     End of self-consistent calculation

     Number of k-points >= 100: set verbosity='high' to print the bands.

     the Fermi energy is    16.6637 ev

!    total energy              =   -3593.23616365 Ry
     estimated scf accuracy    <          2.4E-11 Ry
     smearing contrib. (-TS)   =      -0.00003781 Ry
     internal energy E=F+TS    =   -3593.23612584 Ry

     The total energy is F=E-TS. E is the sum of the following terms:
     one-electron contribution =   -1273.56591669 Ry
     hartree contribution      =     758.51719232 Ry
     xc contribution           =    -425.89988042 Ry
     ewald contribution        =   -2043.06976516 Ry
     one-center paw contrib.   =    -609.21775589 Ry

     convergence has been achieved in  51 iterations

     negative rho (up, down):  7.271E-03 0.000E+00

     Forces acting on atoms (cartesian axes, Ry/au):

     atom    1 type  1   force =     0.00000000    0.00000000    0.00000000
     atom    2 type  1   force =     0.00000000    0.00000000    0.00000000
     atom    3 type  1   force =     0.00000000    0.00000000    0.00000000
     atom    4 type  1   force =     0.00000000    0.00000000    0.00000000
     atom    5 type  1   force =     0.00000000    0.00000000    0.00000000
     atom    6 type  1   force =     0.00000000    0.00000000    0.00000000
     atom    7 type  1   force =     0.00000000    0.00000000    0.00000000
     atom    8 type  1   force =     0.00000000    0.00000000    0.00000000
     atom    9 type  2   force =     0.00001892    0.00004659    0.00004659
     atom   10 type  2   force =     0.00001910   -0.00001992    0.00001992
     atom   11 type  2   force =    -0.00001892    0.00004659    0.00004659
     atom   12 type  2   force =     0.00001892   -0.00004659   -0.00004659
     atom   13 type  2   force =    -0.00001910    0.00001992   -0.00001992
     atom   14 type  2   force =    -0.00001892   -0.00004659   -0.00004659
     atom   15 type  2   force =     0.00001910    0.00001992   -0.00001992
     atom   16 type  2   force =    -0.00001910   -0.00001992    0.00001992
     atom   17 type  3   force =    -0.00001804    0.00000000    0.00000000
     atom   18 type  3   force =     0.00000000    0.00000952   -0.00000952
     atom   19 type  3   force =     0.00001804    0.00000000    0.00000000
     atom   20 type  3   force =     0.00000000   -0.00000952    0.00000952

     Total force =     0.000156     Total SCF correction =     0.000015


     Computing stress (Cartesian axis) and pressure


     negative rho (up, down):  7.271E-03 0.000E+00
          total   stress  (Ry/bohr**3)                   (kbar)     P=       -0.02
   0.00000100   0.00000000   0.00000000            0.15        0.00        0.00
   0.00000000  -0.00000069  -0.00000104            0.00       -0.10       -0.15
   0.00000000  -0.00000104  -0.00000069            0.00       -0.15       -0.10


     Writing all to output data dir ./TiFeH_supercell.save/ :
     XML data file
     init_run     :     52.91s CPU     54.02s WALL (       2 calls)
     electrons    :  50935.80s CPU  51874.35s WALL (      36 calls)
     update_pot   :     12.97s CPU     13.74s WALL (      34 calls)
     forces       :    295.79s CPU    304.60s WALL (      36 calls)
     stress       :   1120.75s CPU   1147.77s WALL (      36 calls)

     Called by init_run:
     wfcinit      :     48.51s CPU     49.45s WALL (       2 calls)
     potinit      :      1.62s CPU      1.68s WALL (       2 calls)
     hinit0       :      0.86s CPU      0.89s WALL (       2 calls)

     Called by electrons:
     c_bands      :  45262.48s CPU  45976.46s WALL (     884 calls)
     sum_band     :   5010.82s CPU   5172.38s WALL (     884 calls)
     v_of_rho     :     78.21s CPU     85.60s WALL (     916 calls)
     newd         :    346.36s CPU    399.67s WALL (     916 calls)
     PAW_pot      :    254.86s CPU    256.95s WALL (     950 calls)
     mix_rho      :     10.21s CPU     11.74s WALL (     884 calls)

     Called by c_bands:
     init_us_2    :    274.92s CPU    278.31s WALL (  196980 calls)
     cegterg      :  43942.07s CPU  44641.13s WALL (   92894 calls)

     Called by *egterg:
     cdiaghg      :   6432.96s CPU   6485.39s WALL (  402920 calls)
     h_psi        :  21777.85s CPU  22248.17s WALL (  407194 calls)
     s_psi        :   3060.39s CPU   3087.42s WALL (  407194 calls)
     g_psi        :     69.93s CPU     70.90s WALL (  314090 calls)

     Called by h_psi:
     h_psi:calbec :   3536.39s CPU   3611.99s WALL (  407194 calls)
     vloc_psi     :  15115.75s CPU  15483.68s WALL (  407194 calls)
     add_vuspsi   :   3063.15s CPU   3089.73s WALL (  407194 calls)

     General routines
     calbec       :   5999.51s CPU   6131.88s WALL (  567844 calls)
     fft          :     57.74s CPU     69.47s WALL (   12774 calls)
     ffts         :      2.25s CPU      2.55s WALL (    1800 calls)
     fftw         :  15388.89s CPU  15746.55s WALL (74951832 calls)
     interpolate  :      5.50s CPU      6.70s WALL (     916 calls)

     Parallel routines

     PWSCF        :  52508.89s CPU  53489.93s WALL


   This run was terminated on:  18:33: 0   4Dec2025            

=------------------------------------------------------------------------------=
   JOB DONE.
=------------------------------------------------------------------------------=
