
     Program PWSCF v.7.4 starts on 13Nov2025 at 15:56:15 

     This program is part of the open-source Quantum ESPRESSO suite
     for quantum simulation of materials; please cite
         "P. Giannozzi et al., J. Phys.:Condens. Matter 21 395502 (2009);
         "P. Giannozzi et al., J. Phys.:Condens. Matter 29 465901 (2017);
         "P. Giannozzi et al., J. Chem. Phys. 152 154105 (2020);
          URL http://www.quantum-espresso.org", 
     in publications or presentations arising from this work. More details at
     http://www.quantum-espresso.org/quote

     Parallel version (MPI & OpenMP), running on      16 processor cores
     Number of MPI processes:                16
     Threads/MPI process:                     1

     MPI processes distributed on     1 nodes
     226731 MiB available memory on the printing compute node when the environment starts

     Reading input from TiFe_H_edges_xyz_fixed_V.in

     Current dimensions of program PWSCF are:
     Max number of different atomic species (ntypx) = 10
     Max number of k-points (npk) =  40000
     Max angular momentum in pseudopotentials (lmaxx) =  4
     file Fe.pbe-spn-kjpaw_psl.0.2.1.UPF: wavefunction(s)  3D renormalized

     IMPORTANT: XC functional enforced from input :
     Exchange-correlation= PBE
                           (   1   4   3   4   0   0   0)
     Any further DFT definition will be discarded
     Please, verify this is what you really want

     Message from routine setup:
     using ibrav=0 with symmetry is DISCOURAGED, use correct ibrav instead

     R & G space division:  proc/nbgrp/npool/nimage =      16
     Subspace diagonalization in iterative solution of the eigenvalue problem:
     a serial algorithm will be used


     Parallelization info
     --------------------
     sticks:   dense  smooth     PW     G-vecs:    dense   smooth      PW
     Min         269      76     22                13288     2024     320
     Max         271      77     23                13289     2027     323
     Sum        4309    1225    357               212623    32423    5137

     Using Slab Decomposition



     bravais-lattice index     =            0
     lattice parameter (alat)  =       5.5824  a.u.
     unit-cell volume          =     173.9675 (a.u.)^3
     number of atoms/cell      =            5
     number of atomic types    =            3
     number of electrons       =        31.00
     number of Kohn-Sham states=           20
     kinetic-energy cutoff     =     124.0000  Ry
     charge density cutoff     =    1736.0000  Ry
     scf convergence threshold =      1.0E-08
     mixing beta               =       0.7000
     number of iterations used =            8  plain     mixing
     energy convergence thresh.=      1.0E-04
     force convergence thresh. =      1.0E-03
     Exchange-correlation= PBE
                           (   1   4   3   4   0   0   0)
     nstep                     =           50


     celldm(1)=   5.582423  celldm(2)=   0.000000  celldm(3)=   0.000000
     celldm(4)=   0.000000  celldm(5)=   0.000000  celldm(6)=   0.000000

     crystal axes: (cart. coord. in units of alat)
               a(1) = (   1.000000   0.000000   0.000000 )  
               a(2) = (   0.000000   1.000000   0.000000 )  
               a(3) = (   0.000000   0.000000   1.000000 )  

     reciprocal axes: (cart. coord. in units 2 pi/alat)
               b(1) = (  1.000000  0.000000  0.000000 )  
               b(2) = (  0.000000  1.000000  0.000000 )  
               b(3) = (  0.000000  0.000000  1.000000 )  


     PseudoPot. # 1 for Fe read from file:
     ../../pseudos/Fe.pbe-spn-kjpaw_psl.0.2.1.UPF
     MD5 check sum: e86618425769142926afa95317d90200
     Pseudo is Projector augmented-wave + core cor, Zval = 16.0
     Generated using "atomic" code by A. Dal Corso  v.5.0.99 svn rev. 10869
     Shape of augmentation charge: PSQ
     Using radial grid of 1191 points,  6 beta functions with: 
                l(1) =   0
                l(2) =   0
                l(3) =   1
                l(4) =   1
                l(5) =   2
                l(6) =   2
     Q(r) pseudized with 0 coefficients 


     PseudoPot. # 2 for Ti read from file:
     ../../pseudos/ti_pbe_v1.4.uspp.F.UPF
     MD5 check sum: 88a00a6731bd790ddea75d31a80cb452
     Pseudo is Ultrasoft + core correction, Zval = 12.0
     Generated by new atomic code, or converted to UPF format
     Using radial grid of  851 points,  6 beta functions with: 
                l(1) =   0
                l(2) =   0
                l(3) =   1
                l(4) =   1
                l(5) =   2
                l(6) =   2
     Q(r) pseudized with  6 coefficients,  rinner =    1.000   1.000   1.000
                                                       1.000   1.000

     PseudoPot. # 3 for H  read from file:
     ../../pseudos/H.pbe-rrkjus_psl.1.0.0.UPF
     MD5 check sum: f52b6d4d1c606e5624b1dc7b2218f220
     Pseudo is Ultrasoft, Zval =  1.0
     Generated using "atomic" code by A. Dal Corso  v.5.1
     Using radial grid of  929 points,  2 beta functions with: 
                l(1) =   0
                l(2) =   0
     Q(r) pseudized with 0 coefficients 


     atomic species   valence    mass     pseudopotential
     Fe               16.00    55.84500     Fe( 1.00)
     Ti               12.00    47.86700     Ti( 1.00)
     H                 1.00     1.00750     H ( 1.00)

     48 Sym. Ops., with inversion, found



   Cartesian axes

     site n.     atom                  positions (alat units)
         1        Fe     tau(   1) = (   0.5000000   0.5000000   0.5000000  )
         2        Ti     tau(   2) = (   0.0000000   0.0000000   0.0000000  )
         3        H      tau(   3) = (   0.5000000   0.0000000   0.0000000  )
         4        H      tau(   4) = (   0.0000000   0.5000000   0.0000000  )
         5        H      tau(   5) = (   0.0000000   0.0000000   0.5000000  )

     number of k points=   120  Marzari-Vanderbilt smearing, width (Ry)=  0.0050

     Number of k-points >= 100: set verbosity='high' to print them.

     Dense  grid:   212623 G-vectors     FFT dimensions: (  75,  75,  75)

     Smooth grid:    32423 G-vectors     FFT dimensions: (  40,  40,  40)

     Estimated max dynamical RAM per process >      68.47 MB

     Estimated total dynamical RAM >       1.07 GB

     Check: negative core charge=   -0.000001

     Initial potential from superposition of free atoms

     starting charge      29.9995, renormalised to      31.0000

     negative rho (up, down):  1.228E-03 0.000E+00
     Starting wfcs are   26 randomized atomic wfcs
     Checking if some PAW data can be deallocated... 

     total cpu time spent up to now is        1.6 secs

     per-process dynamical memory:   136.1 Mb

     Self-consistent Calculation

     iteration #  1     ecut=   124.00 Ry     beta= 0.70
     Davidson diagonalization with overlap
     ethr =  1.00E-02,  avg # of iterations =  2.4

     negative rho (up, down):  1.601E-04 0.000E+00

     total cpu time spent up to now is        3.1 secs

     total energy              =    -435.17579064 Ry
     estimated scf accuracy    <      20.97702354 Ry

     iteration #  2     ecut=   124.00 Ry     beta= 0.70
     Davidson diagonalization with overlap
     ethr =  1.00E-02,  avg # of iterations =  6.5

     total cpu time spent up to now is        5.7 secs

     total energy              =    -448.63383510 Ry
     estimated scf accuracy    <      87.22365331 Ry

     iteration #  3     ecut=   124.00 Ry     beta= 0.70
     Davidson diagonalization with overlap
     ethr =  1.00E-02,  avg # of iterations =  3.0

     negative rho (up, down):  6.584E-05 0.000E+00

     total cpu time spent up to now is        7.4 secs

     total energy              =    -451.73232979 Ry
     estimated scf accuracy    <      16.74177926 Ry

     iteration #  4     ecut=   124.00 Ry     beta= 0.70
     Davidson diagonalization with overlap
     ethr =  1.00E-02,  avg # of iterations =  2.3

     negative rho (up, down):  1.530E-04 0.000E+00

     total cpu time spent up to now is        8.8 secs

     total energy              =    -451.91865659 Ry
     estimated scf accuracy    <       4.33380347 Ry

     iteration #  5     ecut=   124.00 Ry     beta= 0.70
     Davidson diagonalization with overlap
     ethr =  1.00E-02,  avg # of iterations =  1.3

     negative rho (up, down):  7.499E-04 0.000E+00

     total cpu time spent up to now is       10.0 secs

     total energy              =    -451.44914556 Ry
     estimated scf accuracy    <       2.33684035 Ry

     iteration #  6     ecut=   124.00 Ry     beta= 0.70
     Davidson diagonalization with overlap
     ethr =  7.54E-03,  avg # of iterations =  2.7

     negative rho (up, down):  7.991E-04 0.000E+00

     total cpu time spent up to now is       11.3 secs

     total energy              =    -451.61774570 Ry
     estimated scf accuracy    <       0.09049993 Ry

     iteration #  7     ecut=   124.00 Ry     beta= 0.70
     Davidson diagonalization with overlap
     ethr =  2.92E-04,  avg # of iterations =  5.0

     negative rho (up, down):  7.915E-04 0.000E+00

     total cpu time spent up to now is       13.1 secs

     total energy              =    -451.64252036 Ry
     estimated scf accuracy    <       0.00454550 Ry

     iteration #  8     ecut=   124.00 Ry     beta= 0.70
     Davidson diagonalization with overlap
     ethr =  1.47E-05,  avg # of iterations =  3.9

     negative rho (up, down):  8.927E-04 0.000E+00

     total cpu time spent up to now is       14.7 secs

     total energy              =    -451.64188216 Ry
     estimated scf accuracy    <       0.00419218 Ry

     iteration #  9     ecut=   124.00 Ry     beta= 0.70
     Davidson diagonalization with overlap
     ethr =  1.35E-05,  avg # of iterations =  3.0

     negative rho (up, down):  8.789E-04 0.000E+00

     total cpu time spent up to now is       16.3 secs

     total energy              =    -451.64324534 Ry
     estimated scf accuracy    <       0.00746059 Ry

     iteration # 10     ecut=   124.00 Ry     beta= 0.70
     Davidson diagonalization with overlap
     ethr =  1.35E-05,  avg # of iterations =  1.2

     negative rho (up, down):  8.893E-04 0.000E+00

     total cpu time spent up to now is       17.5 secs

     total energy              =    -451.64385771 Ry
     estimated scf accuracy    <       0.00274687 Ry

     iteration # 11     ecut=   124.00 Ry     beta= 0.70
     Davidson diagonalization with overlap
     ethr =  8.86E-06,  avg # of iterations =  1.9

     negative rho (up, down):  8.750E-04 0.000E+00

     total cpu time spent up to now is       18.7 secs

     total energy              =    -451.64338235 Ry
     estimated scf accuracy    <       0.01603867 Ry

     iteration # 12     ecut=   124.00 Ry     beta= 0.70
     Davidson diagonalization with overlap
     ethr =  8.86E-06,  avg # of iterations =  1.0

     negative rho (up, down):  8.606E-04 0.000E+00

     total cpu time spent up to now is       19.9 secs

     total energy              =    -451.64260443 Ry
     estimated scf accuracy    <       0.00678589 Ry

     iteration # 13     ecut=   124.00 Ry     beta= 0.70
     Davidson diagonalization with overlap
     ethr =  8.86E-06,  avg # of iterations =  1.7

     negative rho (up, down):  8.635E-04 0.000E+00

     total cpu time spent up to now is       21.2 secs

     total energy              =    -451.64307403 Ry
     estimated scf accuracy    <       0.00003053 Ry

     iteration # 14     ecut=   124.00 Ry     beta= 0.70
     Davidson diagonalization with overlap
     ethr =  9.85E-08,  avg # of iterations =  2.6

     negative rho (up, down):  8.605E-04 0.000E+00

     total cpu time spent up to now is       22.6 secs

     total energy              =    -451.64307850 Ry
     estimated scf accuracy    <       0.00003958 Ry

     iteration # 15     ecut=   124.00 Ry     beta= 0.70
     Davidson diagonalization with overlap
     ethr =  9.85E-08,  avg # of iterations =  2.1

     negative rho (up, down):  8.600E-04 0.000E+00

     total cpu time spent up to now is       23.9 secs

     total energy              =    -451.64308361 Ry
     estimated scf accuracy    <       0.00003243 Ry

     iteration # 16     ecut=   124.00 Ry     beta= 0.70
     Davidson diagonalization with overlap
     ethr =  9.85E-08,  avg # of iterations =  1.0

     negative rho (up, down):  8.601E-04 0.000E+00

     total cpu time spent up to now is       25.1 secs

     total energy              =    -451.64308394 Ry
     estimated scf accuracy    <       0.00000313 Ry

     iteration # 17     ecut=   124.00 Ry     beta= 0.70
     Davidson diagonalization with overlap
     ethr =  1.01E-08,  avg # of iterations =  2.0

     negative rho (up, down):  8.603E-04 0.000E+00

     total cpu time spent up to now is       26.4 secs

     total energy              =    -451.64308464 Ry
     estimated scf accuracy    <       0.00000072 Ry

     iteration # 18     ecut=   124.00 Ry     beta= 0.70
     Davidson diagonalization with overlap
     ethr =  2.34E-09,  avg # of iterations =  1.9

     negative rho (up, down):  8.598E-04 0.000E+00

     total cpu time spent up to now is       27.7 secs

     total energy              =    -451.64308427 Ry
     estimated scf accuracy    <       0.00000189 Ry

     iteration # 19     ecut=   124.00 Ry     beta= 0.70
     Davidson diagonalization with overlap
     ethr =  2.34E-09,  avg # of iterations =  2.0

     negative rho (up, down):  8.597E-04 0.000E+00

     total cpu time spent up to now is       29.0 secs

     total energy              =    -451.64308442 Ry
     estimated scf accuracy    <       0.00000003 Ry

     iteration # 20     ecut=   124.00 Ry     beta= 0.70
     Davidson diagonalization with overlap
     ethr =  1.07E-10,  avg # of iterations =  4.2

     negative rho (up, down):  8.597E-04 0.000E+00

     total cpu time spent up to now is       30.7 secs

     End of self-consistent calculation

     Number of k-points >= 100: set verbosity='high' to print the bands.

     the Fermi energy is    19.4433 ev

!    total energy              =    -451.64308443 Ry
     estimated scf accuracy    <          1.9E-09 Ry
     smearing contrib. (-TS)   =      -0.00004793 Ry
     internal energy E=F+TS    =    -451.64303651 Ry

     The total energy is F=E-TS. E is the sum of the following terms:
     one-electron contribution =    -136.98551800 Ry
     hartree contribution      =      89.32678887 Ry
     xc contribution           =     -55.96945569 Ry
     ewald contribution        =    -271.87096452 Ry
     one-center paw contrib.   =     -76.14388717 Ry

     convergence has been achieved in  20 iterations

     negative rho (up, down):  8.597E-04 0.000E+00

     Forces acting on atoms (cartesian axes, Ry/au):

     atom    1 type  1   force =     0.00000000    0.00000000    0.00000000
     atom    2 type  2   force =     0.00000000    0.00000000    0.00000000
     atom    3 type  3   force =     0.00000000    0.00000000    0.00000000
     atom    4 type  3   force =     0.00000000    0.00000000    0.00000000
     atom    5 type  3   force =     0.00000000    0.00000000    0.00000000

     Total force =     0.000000     Total SCF correction =     0.000000


     Computing stress (Cartesian axis) and pressure


     negative rho (up, down):  8.597E-04 0.000E+00
          total   stress  (Ry/bohr**3)                   (kbar)     P=     1101.03
   0.00748464   0.00000000   0.00000000         1101.03        0.00        0.00
   0.00000000   0.00748464   0.00000000            0.00     1101.03        0.00
   0.00000000   0.00000000   0.00748464            0.00        0.00     1101.03


     BFGS Geometry Optimization
     Energy error            =      0.0E+00 Ry
     Gradient error          =      0.0E+00 Ry/Bohr

     bfgs converged in   1 scf cycles and   0 bfgs steps
     (criteria: energy <  1.0E-04 Ry, force <  1.0E-03 Ry/Bohr)

     End of BFGS Geometry Optimization

     Final energy             =    -451.6430844328 Ry
Begin final coordinates

ATOMIC_POSITIONS (crystal)
Fe               0.5000000000        0.5000000000        0.5000000000
Ti               0.0000000000        0.0000000000        0.0000000000
H                0.5000000000        0.0000000000        0.0000000000
H                0.0000000000        0.5000000000        0.0000000000
H                0.0000000000        0.0000000000        0.5000000000
End final coordinates



     Writing all to output data dir ./TiFe_H_edges_xyz_fixed_V.save/ :
     XML data file
     init_run     :      1.30s CPU      1.36s WALL (       1 calls)
     electrons    :     27.75s CPU     29.07s WALL (       1 calls)
     forces       :      0.18s CPU      0.20s WALL (       1 calls)
     stress       :      0.96s CPU      0.99s WALL (       1 calls)

     Called by init_run:
     wfcinit      :      0.53s CPU      0.55s WALL (       1 calls)
     potinit      :      0.35s CPU      0.36s WALL (       1 calls)
     hinit0       :      0.21s CPU      0.23s WALL (       1 calls)

     Called by electrons:
     c_bands      :     20.38s CPU     21.02s WALL (      20 calls)
     sum_band     :      4.65s CPU      4.98s WALL (      20 calls)
     v_of_rho     :      0.26s CPU      0.29s WALL (      21 calls)
     newd         :      1.39s CPU      1.60s WALL (      21 calls)
     PAW_pot      :      1.15s CPU      1.26s WALL (      21 calls)
     mix_rho      :      0.03s CPU      0.04s WALL (      20 calls)

     Called by c_bands:
     init_us_2    :      0.45s CPU      0.46s WALL (    5160 calls)
     cegterg      :     19.59s CPU     20.20s WALL (    2400 calls)

     Called by *egterg:
     cdiaghg      :      3.26s CPU      3.35s WALL (    8617 calls)
     h_psi        :     14.32s CPU     14.81s WALL (    8737 calls)
     s_psi        :      0.35s CPU      0.36s WALL (    8737 calls)
     g_psi        :      0.07s CPU      0.07s WALL (    6217 calls)

     Called by h_psi:
     h_psi:calbec :      0.66s CPU      0.68s WALL (    8737 calls)
     vloc_psi     :     13.25s CPU     13.70s WALL (    8737 calls)
     add_vuspsi   :      0.35s CPU      0.37s WALL (    8737 calls)

     General routines
     calbec       :      1.04s CPU      1.08s WALL (   13177 calls)
     fft          :      0.31s CPU      0.35s WALL (     296 calls)
     ffts         :      0.28s CPU      0.28s WALL (      41 calls)
     fftw         :     13.23s CPU     13.69s WALL (  293332 calls)
     interpolate  :      0.29s CPU      0.30s WALL (      21 calls)

     Parallel routines

     PWSCF        :     30.41s CPU     32.02s WALL


   This run was terminated on:  15:56:47  13Nov2025            

=------------------------------------------------------------------------------=
   JOB DONE.
=------------------------------------------------------------------------------=
