
     Program PWSCF v.7.4 starts on 13Nov2025 at 15:55: 3 

     This program is part of the open-source Quantum ESPRESSO suite
     for quantum simulation of materials; please cite
         "P. Giannozzi et al., J. Phys.:Condens. Matter 21 395502 (2009);
         "P. Giannozzi et al., J. Phys.:Condens. Matter 29 465901 (2017);
         "P. Giannozzi et al., J. Chem. Phys. 152 154105 (2020);
          URL http://www.quantum-espresso.org", 
     in publications or presentations arising from this work. More details at
     http://www.quantum-espresso.org/quote

     Parallel version (MPI & OpenMP), running on      16 processor cores
     Number of MPI processes:                16
     Threads/MPI process:                     1

     MPI processes distributed on     1 nodes
     225246 MiB available memory on the printing compute node when the environment starts

     Reading input from TiFe_H_edges_xy_fixed_V.in

     Current dimensions of program PWSCF are:
     Max number of different atomic species (ntypx) = 10
     Max number of k-points (npk) =  40000
     Max angular momentum in pseudopotentials (lmaxx) =  4
     file Fe.pbe-spn-kjpaw_psl.0.2.1.UPF: wavefunction(s)  3D renormalized

     IMPORTANT: XC functional enforced from input :
     Exchange-correlation= PBE
                           (   1   4   3   4   0   0   0)
     Any further DFT definition will be discarded
     Please, verify this is what you really want

     Message from routine setup:
     using ibrav=0 with symmetry is DISCOURAGED, use correct ibrav instead

     R & G space division:  proc/nbgrp/npool/nimage =      16
     Subspace diagonalization in iterative solution of the eigenvalue problem:
     a serial algorithm will be used


     Parallelization info
     --------------------
     sticks:   dense  smooth     PW     G-vecs:    dense   smooth      PW
     Min         269      76     22                13288     2024     320
     Max         271      77     23                13289     2027     323
     Sum        4309    1225    357               212623    32423    5137

     Using Slab Decomposition



     bravais-lattice index     =            0
     lattice parameter (alat)  =       5.5824  a.u.
     unit-cell volume          =     173.9675 (a.u.)^3
     number of atoms/cell      =            4
     number of atomic types    =            3
     number of electrons       =        30.00
     number of Kohn-Sham states=           19
     kinetic-energy cutoff     =     124.0000  Ry
     charge density cutoff     =    1736.0000  Ry
     scf convergence threshold =      1.0E-08
     mixing beta               =       0.7000
     number of iterations used =            8  plain     mixing
     energy convergence thresh.=      1.0E-04
     force convergence thresh. =      1.0E-03
     Exchange-correlation= PBE
                           (   1   4   3   4   0   0   0)
     nstep                     =           50


     celldm(1)=   5.582423  celldm(2)=   0.000000  celldm(3)=   0.000000
     celldm(4)=   0.000000  celldm(5)=   0.000000  celldm(6)=   0.000000

     crystal axes: (cart. coord. in units of alat)
               a(1) = (   1.000000   0.000000   0.000000 )  
               a(2) = (   0.000000   1.000000   0.000000 )  
               a(3) = (   0.000000   0.000000   1.000000 )  

     reciprocal axes: (cart. coord. in units 2 pi/alat)
               b(1) = (  1.000000  0.000000  0.000000 )  
               b(2) = (  0.000000  1.000000  0.000000 )  
               b(3) = (  0.000000  0.000000  1.000000 )  


     PseudoPot. # 1 for Fe read from file:
     ../../pseudos/Fe.pbe-spn-kjpaw_psl.0.2.1.UPF
     MD5 check sum: e86618425769142926afa95317d90200
     Pseudo is Projector augmented-wave + core cor, Zval = 16.0
     Generated using "atomic" code by A. Dal Corso  v.5.0.99 svn rev. 10869
     Shape of augmentation charge: PSQ
     Using radial grid of 1191 points,  6 beta functions with: 
                l(1) =   0
                l(2) =   0
                l(3) =   1
                l(4) =   1
                l(5) =   2
                l(6) =   2
     Q(r) pseudized with 0 coefficients 


     PseudoPot. # 2 for Ti read from file:
     ../../pseudos/ti_pbe_v1.4.uspp.F.UPF
     MD5 check sum: 88a00a6731bd790ddea75d31a80cb452
     Pseudo is Ultrasoft + core correction, Zval = 12.0
     Generated by new atomic code, or converted to UPF format
     Using radial grid of  851 points,  6 beta functions with: 
                l(1) =   0
                l(2) =   0
                l(3) =   1
                l(4) =   1
                l(5) =   2
                l(6) =   2
     Q(r) pseudized with  6 coefficients,  rinner =    1.000   1.000   1.000
                                                       1.000   1.000

     PseudoPot. # 3 for H  read from file:
     ../../pseudos/H.pbe-rrkjus_psl.1.0.0.UPF
     MD5 check sum: f52b6d4d1c606e5624b1dc7b2218f220
     Pseudo is Ultrasoft, Zval =  1.0
     Generated using "atomic" code by A. Dal Corso  v.5.1
     Using radial grid of  929 points,  2 beta functions with: 
                l(1) =   0
                l(2) =   0
     Q(r) pseudized with 0 coefficients 


     atomic species   valence    mass     pseudopotential
     Fe               16.00    55.84500     Fe( 1.00)
     Ti               12.00    47.86700     Ti( 1.00)
     H                 1.00     1.00750     H ( 1.00)

     16 Sym. Ops., with inversion, found



   Cartesian axes

     site n.     atom                  positions (alat units)
         1        Fe     tau(   1) = (   0.5000000   0.5000000   0.5000000  )
         2        Ti     tau(   2) = (   0.0000000   0.0000000   0.0000000  )
         3        H      tau(   3) = (   0.5000000   0.0000000   0.0000000  )
         4        H      tau(   4) = (   0.0000000   0.5000000   0.0000000  )

     number of k points=   288  Marzari-Vanderbilt smearing, width (Ry)=  0.0050

     Number of k-points >= 100: set verbosity='high' to print them.

     Dense  grid:   212623 G-vectors     FFT dimensions: (  75,  75,  75)

     Smooth grid:    32423 G-vectors     FFT dimensions: (  40,  40,  40)

     Estimated max dynamical RAM per process >      80.31 MB

     Estimated total dynamical RAM >       1.25 GB

     Check: negative core charge=   -0.000001

     Initial potential from superposition of free atoms

     starting charge      28.9995, renormalised to      30.0000

     negative rho (up, down):  1.270E-03 0.000E+00
     Starting wfcs are   25 randomized atomic wfcs
     Checking if some PAW data can be deallocated... 

     total cpu time spent up to now is        2.3 secs

     per-process dynamical memory:   149.2 Mb

     Self-consistent Calculation

     iteration #  1     ecut=   124.00 Ry     beta= 0.70
     Davidson diagonalization with overlap
     ethr =  1.00E-02,  avg # of iterations =  2.1

     negative rho (up, down):  1.328E-04 0.000E+00

     total cpu time spent up to now is        5.2 secs

     total energy              =    -435.20760850 Ry
     estimated scf accuracy    <      19.67348828 Ry

     iteration #  2     ecut=   124.00 Ry     beta= 0.70
     Davidson diagonalization with overlap
     ethr =  1.00E-02,  avg # of iterations =  6.4

     negative rho (up, down):  7.741E-06 0.000E+00

     total cpu time spent up to now is       10.9 secs

     total energy              =    -448.70755641 Ry
     estimated scf accuracy    <      79.30884517 Ry

     iteration #  3     ecut=   124.00 Ry     beta= 0.70
     Davidson diagonalization with overlap
     ethr =  1.00E-02,  avg # of iterations =  3.2

     negative rho (up, down):  1.041E-04 0.000E+00

     total cpu time spent up to now is       14.5 secs

     total energy              =    -450.86489656 Ry
     estimated scf accuracy    <      16.66144444 Ry

     iteration #  4     ecut=   124.00 Ry     beta= 0.70
     Davidson diagonalization with overlap
     ethr =  1.00E-02,  avg # of iterations =  2.2

     negative rho (up, down):  1.707E-04 0.000E+00

     total cpu time spent up to now is       17.3 secs

     total energy              =    -451.03266684 Ry
     estimated scf accuracy    <       5.30196786 Ry

     iteration #  5     ecut=   124.00 Ry     beta= 0.70
     Davidson diagonalization with overlap
     ethr =  1.00E-02,  avg # of iterations =  1.1

     negative rho (up, down):  8.263E-04 0.000E+00

     total cpu time spent up to now is       19.7 secs

     total energy              =    -450.29025425 Ry
     estimated scf accuracy    <       3.67768890 Ry

     iteration #  6     ecut=   124.00 Ry     beta= 0.70
     Davidson diagonalization with overlap
     ethr =  1.00E-02,  avg # of iterations =  2.3

     negative rho (up, down):  8.554E-04 0.000E+00

     total cpu time spent up to now is       22.3 secs

     total energy              =    -450.58766690 Ry
     estimated scf accuracy    <       0.01876428 Ry

     iteration #  7     ecut=   124.00 Ry     beta= 0.70
     Davidson diagonalization with overlap
     ethr =  6.25E-05,  avg # of iterations =  8.0

     negative rho (up, down):  6.672E-04 0.000E+00

     total cpu time spent up to now is       28.0 secs

     total energy              =    -450.57785523 Ry
     estimated scf accuracy    <       0.15469347 Ry

     iteration #  8     ecut=   124.00 Ry     beta= 0.70
     Davidson diagonalization with overlap
     ethr =  6.25E-05,  avg # of iterations =  4.5

     negative rho (up, down):  1.114E-03 0.000E+00

     total cpu time spent up to now is       31.8 secs

     total energy              =    -450.51982723 Ry
     estimated scf accuracy    <       0.39107524 Ry

     iteration #  9     ecut=   124.00 Ry     beta= 0.70
     Davidson diagonalization with overlap
     ethr =  6.25E-05,  avg # of iterations =  5.5

     negative rho (up, down):  9.462E-04 0.000E+00

     total cpu time spent up to now is       36.3 secs

     total energy              =    -450.59408979 Ry
     estimated scf accuracy    <       1.39332534 Ry

     iteration # 10     ecut=   124.00 Ry     beta= 0.70
     Davidson diagonalization with overlap
     ethr =  6.25E-05,  avg # of iterations =  3.8

     negative rho (up, down):  8.500E-04 0.000E+00

     total cpu time spent up to now is       39.8 secs

     total energy              =    -450.59634830 Ry
     estimated scf accuracy    <       0.18425614 Ry

     iteration # 11     ecut=   124.00 Ry     beta= 0.70
     Davidson diagonalization with overlap
     ethr =  6.25E-05,  avg # of iterations =  3.5

     negative rho (up, down):  8.744E-04 0.000E+00

     total cpu time spent up to now is       42.9 secs

     total energy              =    -450.61207947 Ry
     estimated scf accuracy    <       0.02195997 Ry

     iteration # 12     ecut=   124.00 Ry     beta= 0.70
     Davidson diagonalization with overlap
     ethr =  6.25E-05,  avg # of iterations =  1.1

     negative rho (up, down):  8.666E-04 0.000E+00

     total cpu time spent up to now is       45.3 secs

     total energy              =    -450.61378120 Ry
     estimated scf accuracy    <       0.00255468 Ry

     iteration # 13     ecut=   124.00 Ry     beta= 0.70
     Davidson diagonalization with overlap
     ethr =  8.52E-06,  avg # of iterations =  1.9

     negative rho (up, down):  8.674E-04 0.000E+00

     total cpu time spent up to now is       47.8 secs

     total energy              =    -450.61419930 Ry
     estimated scf accuracy    <       0.00156783 Ry

     iteration # 14     ecut=   124.00 Ry     beta= 0.70
     Davidson diagonalization with overlap
     ethr =  5.23E-06,  avg # of iterations =  1.0

     negative rho (up, down):  8.662E-04 0.000E+00

     total cpu time spent up to now is       50.2 secs

     total energy              =    -450.61422868 Ry
     estimated scf accuracy    <       0.00134635 Ry

     iteration # 15     ecut=   124.00 Ry     beta= 0.70
     Davidson diagonalization with overlap
     ethr =  4.49E-06,  avg # of iterations =  1.0

     negative rho (up, down):  8.723E-04 0.000E+00

     total cpu time spent up to now is       52.6 secs

     total energy              =    -450.61408027 Ry
     estimated scf accuracy    <       0.00164450 Ry

     iteration # 16     ecut=   124.00 Ry     beta= 0.70
     Davidson diagonalization with overlap
     ethr =  4.49E-06,  avg # of iterations =  1.1

     negative rho (up, down):  8.703E-04 0.000E+00

     total cpu time spent up to now is       54.9 secs

     total energy              =    -450.61415491 Ry
     estimated scf accuracy    <       0.00041359 Ry

     iteration # 17     ecut=   124.00 Ry     beta= 0.70
     Davidson diagonalization with overlap
     ethr =  1.38E-06,  avg # of iterations =  1.0

     negative rho (up, down):  8.815E-04 0.000E+00

     total cpu time spent up to now is       57.3 secs

     total energy              =    -450.61404575 Ry
     estimated scf accuracy    <       0.00079162 Ry

     iteration # 18     ecut=   124.00 Ry     beta= 0.70
     Davidson diagonalization with overlap
     ethr =  1.38E-06,  avg # of iterations =  1.3

     negative rho (up, down):  8.823E-04 0.000E+00

     total cpu time spent up to now is       59.7 secs

     total energy              =    -450.61407177 Ry
     estimated scf accuracy    <       0.00006072 Ry

     iteration # 19     ecut=   124.00 Ry     beta= 0.70
     Davidson diagonalization with overlap
     ethr =  2.02E-07,  avg # of iterations =  3.0

     negative rho (up, down):  8.829E-04 0.000E+00

     total cpu time spent up to now is       62.6 secs

     total energy              =    -450.61407862 Ry
     estimated scf accuracy    <       0.00000320 Ry

     iteration # 20     ecut=   124.00 Ry     beta= 0.70
     Davidson diagonalization with overlap
     ethr =  1.07E-08,  avg # of iterations =  3.6

     negative rho (up, down):  8.829E-04 0.000E+00

     total cpu time spent up to now is       65.7 secs

     total energy              =    -450.61407940 Ry
     estimated scf accuracy    <       0.00000035 Ry

     iteration # 21     ecut=   124.00 Ry     beta= 0.70
     Davidson diagonalization with overlap
     ethr =  1.18E-09,  avg # of iterations =  3.4

     negative rho (up, down):  8.830E-04 0.000E+00

     total cpu time spent up to now is       68.7 secs

     End of self-consistent calculation

     Number of k-points >= 100: set verbosity='high' to print the bands.

     the Fermi energy is    18.7963 ev

!    total energy              =    -450.61407946 Ry
     estimated scf accuracy    <          9.8E-09 Ry
     smearing contrib. (-TS)   =      -0.00026263 Ry
     internal energy E=F+TS    =    -450.61381682 Ry

     The total energy is F=E-TS. E is the sum of the following terms:
     one-electron contribution =    -142.74848232 Ry
     hartree contribution      =      90.40062191 Ry
     xc contribution           =     -54.92459104 Ry
     ewald contribution        =    -267.19370345 Ry
     one-center paw contrib.   =     -76.14766192 Ry

     convergence has been achieved in  21 iterations

     negative rho (up, down):  8.830E-04 0.000E+00

     Forces acting on atoms (cartesian axes, Ry/au):

     atom    1 type  1   force =     0.00000000    0.00000000    0.00000000
     atom    2 type  2   force =     0.00000000    0.00000000    0.00000000
     atom    3 type  3   force =     0.00000000    0.00000000    0.00000000
     atom    4 type  3   force =     0.00000000    0.00000000    0.00000000

     Total force =     0.000000     Total SCF correction =     0.000000


     Computing stress (Cartesian axis) and pressure


     negative rho (up, down):  8.830E-04 0.000E+00
          total   stress  (Ry/bohr**3)                   (kbar)     P=      732.60
   0.00671436   0.00000000   0.00000000          987.72        0.00        0.00
   0.00000000   0.00671436   0.00000000            0.00      987.72        0.00
   0.00000000   0.00000000   0.00151168            0.00        0.00      222.38


     BFGS Geometry Optimization
     Energy error            =      0.0E+00 Ry
     Gradient error          =      0.0E+00 Ry/Bohr

     bfgs converged in   1 scf cycles and   0 bfgs steps
     (criteria: energy <  1.0E-04 Ry, force <  1.0E-03 Ry/Bohr)

     End of BFGS Geometry Optimization

     Final energy             =    -450.6140794552 Ry
Begin final coordinates

ATOMIC_POSITIONS (crystal)
Fe               0.5000000000        0.5000000000        0.5000000000
Ti               0.0000000000        0.0000000000        0.0000000000
H                0.5000000000        0.0000000000        0.0000000000
H                0.0000000000        0.5000000000        0.0000000000
End final coordinates



     Writing all to output data dir ./TiFe_H_edges_xy_fixed_V.save/ :
     XML data file
     init_run     :      1.98s CPU      2.06s WALL (       1 calls)
     electrons    :     63.99s CPU     66.40s WALL (       1 calls)
     forces       :      0.27s CPU      0.28s WALL (       1 calls)
     stress       :      1.27s CPU      1.31s WALL (       1 calls)

     Called by init_run:
     wfcinit      :      1.19s CPU      1.23s WALL (       1 calls)
     potinit      :      0.35s CPU      0.37s WALL (       1 calls)
     hinit0       :      0.22s CPU      0.23s WALL (       1 calls)

     Called by electrons:
     c_bands      :     52.27s CPU     53.92s WALL (      21 calls)
     sum_band     :      8.83s CPU      9.26s WALL (      21 calls)
     v_of_rho     :      0.27s CPU      0.30s WALL (      22 calls)
     newd         :      1.50s CPU      1.68s WALL (      22 calls)
     PAW_pot      :      1.19s CPU      1.32s WALL (      22 calls)
     mix_rho      :      0.04s CPU      0.04s WALL (      21 calls)

     Called by c_bands:
     init_us_2    :      1.12s CPU      1.15s WALL (   12960 calls)
     cegterg      :     50.26s CPU     51.84s WALL (    6048 calls)

     Called by *egterg:
     cdiaghg      :      8.43s CPU      8.66s WALL (   23601 calls)
     h_psi        :     36.53s CPU     37.76s WALL (   23889 calls)
     s_psi        :      0.88s CPU      0.91s WALL (   23889 calls)
     g_psi        :      0.19s CPU      0.19s WALL (   17553 calls)

     Called by h_psi:
     h_psi:calbec :      1.60s CPU      1.65s WALL (   23889 calls)
     vloc_psi     :     33.87s CPU     35.01s WALL (   23889 calls)
     add_vuspsi   :      0.90s CPU      0.93s WALL (   23889 calls)

     General routines
     calbec       :      2.40s CPU      2.48s WALL (   34833 calls)
     fft          :      0.31s CPU      0.35s WALL (     309 calls)
     ffts         :      0.28s CPU      0.28s WALL (      43 calls)
     fftw         :     32.90s CPU     34.00s WALL (  739364 calls)
     interpolate  :      0.29s CPU      0.30s WALL (      22 calls)

     Parallel routines

     PWSCF        :     67.75s CPU     70.45s WALL


   This run was terminated on:  15:56:14  13Nov2025            

=------------------------------------------------------------------------------=
   JOB DONE.
=------------------------------------------------------------------------------=
