
     Program PWSCF v.7.4 starts on 13Nov2025 at 15:53:51 

     This program is part of the open-source Quantum ESPRESSO suite
     for quantum simulation of materials; please cite
         "P. Giannozzi et al., J. Phys.:Condens. Matter 21 395502 (2009);
         "P. Giannozzi et al., J. Phys.:Condens. Matter 29 465901 (2017);
         "P. Giannozzi et al., J. Chem. Phys. 152 154105 (2020);
          URL http://www.quantum-espresso.org", 
     in publications or presentations arising from this work. More details at
     http://www.quantum-espresso.org/quote

     Parallel version (MPI & OpenMP), running on      16 processor cores
     Number of MPI processes:                16
     Threads/MPI process:                     1

     MPI processes distributed on     1 nodes
     227327 MiB available memory on the printing compute node when the environment starts

     Reading input from TiFe_H_edges_x_fixed_V.in

     Current dimensions of program PWSCF are:
     Max number of different atomic species (ntypx) = 10
     Max number of k-points (npk) =  40000
     Max angular momentum in pseudopotentials (lmaxx) =  4
     file Fe.pbe-spn-kjpaw_psl.0.2.1.UPF: wavefunction(s)  3D renormalized

     IMPORTANT: XC functional enforced from input :
     Exchange-correlation= PBE
                           (   1   4   3   4   0   0   0)
     Any further DFT definition will be discarded
     Please, verify this is what you really want

     Message from routine setup:
     using ibrav=0 with symmetry is DISCOURAGED, use correct ibrav instead

     R & G space division:  proc/nbgrp/npool/nimage =      16
     Subspace diagonalization in iterative solution of the eigenvalue problem:
     a serial algorithm will be used


     Parallelization info
     --------------------
     sticks:   dense  smooth     PW     G-vecs:    dense   smooth      PW
     Min         269      76     22                13288     2024     320
     Max         271      77     23                13289     2027     323
     Sum        4309    1225    357               212623    32423    5137

     Using Slab Decomposition



     bravais-lattice index     =            0
     lattice parameter (alat)  =       5.5824  a.u.
     unit-cell volume          =     173.9675 (a.u.)^3
     number of atoms/cell      =            3
     number of atomic types    =            3
     number of electrons       =        29.00
     number of Kohn-Sham states=           19
     kinetic-energy cutoff     =     124.0000  Ry
     charge density cutoff     =    1736.0000  Ry
     scf convergence threshold =      1.0E-08
     mixing beta               =       0.7000
     number of iterations used =            8  plain     mixing
     energy convergence thresh.=      1.0E-04
     force convergence thresh. =      1.0E-03
     Exchange-correlation= PBE
                           (   1   4   3   4   0   0   0)
     nstep                     =           50


     celldm(1)=   5.582423  celldm(2)=   0.000000  celldm(3)=   0.000000
     celldm(4)=   0.000000  celldm(5)=   0.000000  celldm(6)=   0.000000

     crystal axes: (cart. coord. in units of alat)
               a(1) = (   1.000000   0.000000   0.000000 )  
               a(2) = (   0.000000   1.000000   0.000000 )  
               a(3) = (   0.000000   0.000000   1.000000 )  

     reciprocal axes: (cart. coord. in units 2 pi/alat)
               b(1) = (  1.000000  0.000000  0.000000 )  
               b(2) = (  0.000000  1.000000  0.000000 )  
               b(3) = (  0.000000  0.000000  1.000000 )  


     PseudoPot. # 1 for Fe read from file:
     ../../pseudos/Fe.pbe-spn-kjpaw_psl.0.2.1.UPF
     MD5 check sum: e86618425769142926afa95317d90200
     Pseudo is Projector augmented-wave + core cor, Zval = 16.0
     Generated using "atomic" code by A. Dal Corso  v.5.0.99 svn rev. 10869
     Shape of augmentation charge: PSQ
     Using radial grid of 1191 points,  6 beta functions with: 
                l(1) =   0
                l(2) =   0
                l(3) =   1
                l(4) =   1
                l(5) =   2
                l(6) =   2
     Q(r) pseudized with 0 coefficients 


     PseudoPot. # 2 for Ti read from file:
     ../../pseudos/ti_pbe_v1.4.uspp.F.UPF
     MD5 check sum: 88a00a6731bd790ddea75d31a80cb452
     Pseudo is Ultrasoft + core correction, Zval = 12.0
     Generated by new atomic code, or converted to UPF format
     Using radial grid of  851 points,  6 beta functions with: 
                l(1) =   0
                l(2) =   0
                l(3) =   1
                l(4) =   1
                l(5) =   2
                l(6) =   2
     Q(r) pseudized with  6 coefficients,  rinner =    1.000   1.000   1.000
                                                       1.000   1.000

     PseudoPot. # 3 for H  read from file:
     ../../pseudos/H.pbe-rrkjus_psl.1.0.0.UPF
     MD5 check sum: f52b6d4d1c606e5624b1dc7b2218f220
     Pseudo is Ultrasoft, Zval =  1.0
     Generated using "atomic" code by A. Dal Corso  v.5.1
     Using radial grid of  929 points,  2 beta functions with: 
                l(1) =   0
                l(2) =   0
     Q(r) pseudized with 0 coefficients 


     atomic species   valence    mass     pseudopotential
     Fe               16.00    55.84500     Fe( 1.00)
     Ti               12.00    47.86700     Ti( 1.00)
     H                 1.00     1.00750     H ( 1.00)

     16 Sym. Ops., with inversion, found



   Cartesian axes

     site n.     atom                  positions (alat units)
         1        Fe     tau(   1) = (   0.5000000   0.5000000   0.5000000  )
         2        Ti     tau(   2) = (   0.0000000   0.0000000   0.0000000  )
         3        H      tau(   3) = (   0.5000000   0.0000000   0.0000000  )

     number of k points=   288  Marzari-Vanderbilt smearing, width (Ry)=  0.0050

     Number of k-points >= 100: set verbosity='high' to print them.

     Dense  grid:   212623 G-vectors     FFT dimensions: (  75,  75,  75)

     Smooth grid:    32423 G-vectors     FFT dimensions: (  40,  40,  40)

     Estimated max dynamical RAM per process >      80.31 MB

     Estimated total dynamical RAM >       1.25 GB

     Check: negative core charge=   -0.000001

     Initial potential from superposition of free atoms

     starting charge      27.9995, renormalised to      29.0000

     negative rho (up, down):  1.312E-03 0.000E+00
     Starting wfcs are   24 randomized atomic wfcs
     Checking if some PAW data can be deallocated... 

     total cpu time spent up to now is        2.6 secs

     per-process dynamical memory:   149.1 Mb

     Self-consistent Calculation

     iteration #  1     ecut=   124.00 Ry     beta= 0.70
     Davidson diagonalization with overlap
     ethr =  1.00E-02,  avg # of iterations =  2.1

     negative rho (up, down):  1.115E-04 0.000E+00

     total cpu time spent up to now is        5.5 secs

     total energy              =    -434.92682050 Ry
     estimated scf accuracy    <      18.72602512 Ry

     iteration #  2     ecut=   124.00 Ry     beta= 0.70
     Davidson diagonalization with overlap
     ethr =  1.00E-02,  avg # of iterations =  6.3

     negative rho (up, down):  1.394E-05 0.000E+00

     total cpu time spent up to now is       11.2 secs

     total energy              =    -448.57188071 Ry
     estimated scf accuracy    <      73.30012367 Ry

     iteration #  3     ecut=   124.00 Ry     beta= 0.70
     Davidson diagonalization with overlap
     ethr =  1.00E-02,  avg # of iterations =  3.1

     negative rho (up, down):  1.457E-04 0.000E+00

     total cpu time spent up to now is       14.7 secs

     total energy              =    -449.73467074 Ry
     estimated scf accuracy    <      16.98785070 Ry

     iteration #  4     ecut=   124.00 Ry     beta= 0.70
     Davidson diagonalization with overlap
     ethr =  1.00E-02,  avg # of iterations =  2.3

     negative rho (up, down):  2.211E-04 0.000E+00

     total cpu time spent up to now is       17.6 secs

     total energy              =    -450.06832561 Ry
     estimated scf accuracy    <       5.09821549 Ry

     iteration #  5     ecut=   124.00 Ry     beta= 0.70
     Davidson diagonalization with overlap
     ethr =  1.00E-02,  avg # of iterations =  1.1

     negative rho (up, down):  8.223E-04 0.000E+00

     total cpu time spent up to now is       19.9 secs

     total energy              =    -449.32692505 Ry
     estimated scf accuracy    <       4.07256150 Ry

     iteration #  6     ecut=   124.00 Ry     beta= 0.70
     Davidson diagonalization with overlap
     ethr =  1.00E-02,  avg # of iterations =  2.1

     negative rho (up, down):  8.309E-04 0.000E+00

     total cpu time spent up to now is       22.5 secs

     total energy              =    -449.56930544 Ry
     estimated scf accuracy    <       0.08381471 Ry

     iteration #  7     ecut=   124.00 Ry     beta= 0.70
     Davidson diagonalization with overlap
     ethr =  2.89E-04,  avg # of iterations =  5.3

     negative rho (up, down):  6.779E-04 0.000E+00

     total cpu time spent up to now is       26.4 secs

     total energy              =    -449.59534838 Ry
     estimated scf accuracy    <       0.02204980 Ry

     iteration #  8     ecut=   124.00 Ry     beta= 0.70
     Davidson diagonalization with overlap
     ethr =  7.60E-05,  avg # of iterations =  4.3

     negative rho (up, down):  1.056E-03 0.000E+00

     total cpu time spent up to now is       30.2 secs

     total energy              =    -449.45748204 Ry
     estimated scf accuracy    <       1.62026468 Ry

     iteration #  9     ecut=   124.00 Ry     beta= 0.70
     Davidson diagonalization with overlap
     ethr =  7.60E-05,  avg # of iterations =  5.1

     negative rho (up, down):  8.899E-04 0.000E+00

     total cpu time spent up to now is       34.4 secs

     total energy              =    -449.58303879 Ry
     estimated scf accuracy    <       0.13730159 Ry

     iteration # 10     ecut=   124.00 Ry     beta= 0.70
     Davidson diagonalization with overlap
     ethr =  7.60E-05,  avg # of iterations =  2.8

     negative rho (up, down):  9.133E-04 0.000E+00

     total cpu time spent up to now is       37.4 secs

     total energy              =    -449.59495505 Ry
     estimated scf accuracy    <       0.01843354 Ry

     iteration # 11     ecut=   124.00 Ry     beta= 0.70
     Davidson diagonalization with overlap
     ethr =  6.36E-05,  avg # of iterations =  1.7

     negative rho (up, down):  9.059E-04 0.000E+00

     total cpu time spent up to now is       39.9 secs

     total energy              =    -449.59749532 Ry
     estimated scf accuracy    <       0.01677604 Ry

     iteration # 12     ecut=   124.00 Ry     beta= 0.70
     Davidson diagonalization with overlap
     ethr =  5.78E-05,  avg # of iterations =  1.0

     negative rho (up, down):  9.002E-04 0.000E+00

     total cpu time spent up to now is       42.2 secs

     total energy              =    -449.59776666 Ry
     estimated scf accuracy    <       0.00132325 Ry

     iteration # 13     ecut=   124.00 Ry     beta= 0.70
     Davidson diagonalization with overlap
     ethr =  4.56E-06,  avg # of iterations =  2.3

     negative rho (up, down):  9.034E-04 0.000E+00

     total cpu time spent up to now is       44.9 secs

     total energy              =    -449.59810685 Ry
     estimated scf accuracy    <       0.00258713 Ry

     iteration # 14     ecut=   124.00 Ry     beta= 0.70
     Davidson diagonalization with overlap
     ethr =  4.56E-06,  avg # of iterations =  1.0

     negative rho (up, down):  9.152E-04 0.000E+00

     total cpu time spent up to now is       47.2 secs

     total energy              =    -449.59789950 Ry
     estimated scf accuracy    <       0.00191282 Ry

     iteration # 15     ecut=   124.00 Ry     beta= 0.70
     Davidson diagonalization with overlap
     ethr =  4.56E-06,  avg # of iterations =  1.0

     negative rho (up, down):  9.225E-04 0.000E+00

     total cpu time spent up to now is       49.6 secs

     total energy              =    -449.59792934 Ry
     estimated scf accuracy    <       0.00016073 Ry

     iteration # 16     ecut=   124.00 Ry     beta= 0.70
     Davidson diagonalization with overlap
     ethr =  5.54E-07,  avg # of iterations =  2.3

     negative rho (up, down):  9.180E-04 0.000E+00

     total cpu time spent up to now is       52.3 secs

     total energy              =    -449.59795442 Ry
     estimated scf accuracy    <       0.00016466 Ry

     iteration # 17     ecut=   124.00 Ry     beta= 0.70
     Davidson diagonalization with overlap
     ethr =  5.54E-07,  avg # of iterations =  1.0

     negative rho (up, down):  9.173E-04 0.000E+00

     total cpu time spent up to now is       54.7 secs

     total energy              =    -449.59796527 Ry
     estimated scf accuracy    <       0.00000108 Ry

     iteration # 18     ecut=   124.00 Ry     beta= 0.70
     Davidson diagonalization with overlap
     ethr =  3.71E-09,  avg # of iterations =  5.7

     negative rho (up, down):  9.173E-04 0.000E+00

     total cpu time spent up to now is       59.2 secs

     total energy              =    -449.59796693 Ry
     estimated scf accuracy    <       0.00000036 Ry

     iteration # 19     ecut=   124.00 Ry     beta= 0.70
     Davidson diagonalization with overlap
     ethr =  1.25E-09,  avg # of iterations =  1.1

     negative rho (up, down):  9.173E-04 0.000E+00

     total cpu time spent up to now is       61.5 secs

     total energy              =    -449.59796688 Ry
     estimated scf accuracy    <       0.00000020 Ry

     iteration # 20     ecut=   124.00 Ry     beta= 0.70
     Davidson diagonalization with overlap
     ethr =  7.06E-10,  avg # of iterations =  1.4

     negative rho (up, down):  9.175E-04 0.000E+00

     total cpu time spent up to now is       64.0 secs

     total energy              =    -449.59796683 Ry
     estimated scf accuracy    <       0.00000007 Ry

     iteration # 21     ecut=   124.00 Ry     beta= 0.70
     Davidson diagonalization with overlap
     ethr =  2.30E-10,  avg # of iterations =  3.4

     negative rho (up, down):  9.175E-04 0.000E+00

     total cpu time spent up to now is       67.4 secs

     total energy              =    -449.59796685 Ry
     estimated scf accuracy    <       0.00000006 Ry

     iteration # 22     ecut=   124.00 Ry     beta= 0.70
     Davidson diagonalization with overlap
     ethr =  1.90E-10,  avg # of iterations =  1.8

     negative rho (up, down):  9.174E-04 0.000E+00

     total cpu time spent up to now is       70.0 secs

     End of self-consistent calculation

     Number of k-points >= 100: set verbosity='high' to print the bands.

     the Fermi energy is    18.0361 ev

!    total energy              =    -449.59796686 Ry
     estimated scf accuracy    <          4.3E-09 Ry
     smearing contrib. (-TS)   =      -0.00002982 Ry
     internal energy E=F+TS    =    -449.59793704 Ry

     The total energy is F=E-TS. E is the sum of the following terms:
     one-electron contribution =    -148.22783188 Ry
     hartree contribution      =      91.39694626 Ry
     xc contribution           =     -53.89094256 Ry
     ewald contribution        =    -262.72514085 Ry
     one-center paw contrib.   =     -76.15096800 Ry

     convergence has been achieved in  22 iterations

     negative rho (up, down):  9.174E-04 0.000E+00

     Forces acting on atoms (cartesian axes, Ry/au):

     atom    1 type  1   force =     0.00000000    0.00000000    0.00000000
     atom    2 type  2   force =     0.00000000    0.00000000    0.00000000
     atom    3 type  3   force =     0.00000000    0.00000000    0.00000000

     Total force =     0.000000     Total SCF correction =     0.000000


     Computing stress (Cartesian axis) and pressure


     negative rho (up, down):  9.174E-04 0.000E+00
          total   stress  (Ry/bohr**3)                   (kbar)     P=      365.88
   0.00585177   0.00000000   0.00000000          860.82        0.00        0.00
   0.00000000   0.00080496   0.00000000            0.00      118.41        0.00
   0.00000000   0.00000000   0.00080496            0.00        0.00      118.41


     BFGS Geometry Optimization
     Energy error            =      0.0E+00 Ry
     Gradient error          =      0.0E+00 Ry/Bohr

     bfgs converged in   1 scf cycles and   0 bfgs steps
     (criteria: energy <  1.0E-04 Ry, force <  1.0E-03 Ry/Bohr)

     End of BFGS Geometry Optimization

     Final energy             =    -449.5979668572 Ry
Begin final coordinates

ATOMIC_POSITIONS (crystal)
Fe               0.5000000000        0.5000000000        0.5000000000
Ti               0.0000000000        0.0000000000        0.0000000000
H                0.5000000000        0.0000000000        0.0000000000
End final coordinates



     Writing all to output data dir ./TiFe_H_edges_x_fixed_V.save/ :
     XML data file
     init_run     :      1.86s CPU      2.07s WALL (       1 calls)
     electrons    :     64.82s CPU     67.37s WALL (       1 calls)
     forces       :      0.27s CPU      0.28s WALL (       1 calls)
     stress       :      1.27s CPU      1.30s WALL (       1 calls)

     Called by init_run:
     wfcinit      :      1.08s CPU      1.25s WALL (       1 calls)
     potinit      :      0.34s CPU      0.36s WALL (       1 calls)
     hinit0       :      0.22s CPU      0.23s WALL (       1 calls)

     Called by electrons:
     c_bands      :     52.96s CPU     54.53s WALL (      22 calls)
     sum_band     :      9.04s CPU      9.47s WALL (      22 calls)
     v_of_rho     :      0.29s CPU      0.31s WALL (      23 calls)
     newd         :      1.58s CPU      1.76s WALL (      23 calls)
     PAW_pot      :      1.01s CPU      1.13s WALL (      23 calls)
     mix_rho      :      0.03s CPU      0.27s WALL (      22 calls)

     Called by c_bands:
     init_us_2    :      1.17s CPU      1.21s WALL (   13536 calls)
     cegterg      :     50.86s CPU     52.38s WALL (    6336 calls)

     Called by *egterg:
     cdiaghg      :      8.15s CPU      8.48s WALL (   23159 calls)
     h_psi        :     37.36s CPU     38.55s WALL (   23447 calls)
     s_psi        :      0.82s CPU      0.85s WALL (   23447 calls)
     g_psi        :      0.19s CPU      0.19s WALL (   16823 calls)

     Called by h_psi:
     h_psi:calbec :      1.67s CPU      1.73s WALL (   23447 calls)
     vloc_psi     :     34.69s CPU     35.79s WALL (   23447 calls)
     add_vuspsi   :      0.83s CPU      0.86s WALL (   23447 calls)

     General routines
     calbec       :      2.48s CPU      2.56s WALL (   34679 calls)
     fft          :      0.32s CPU      0.37s WALL (     322 calls)
     ffts         :      0.28s CPU      0.28s WALL (      45 calls)
     fftw         :     34.46s CPU     35.52s WALL (  753640 calls)
     interpolate  :      0.29s CPU      0.30s WALL (      23 calls)

     Parallel routines

     PWSCF        :     68.45s CPU     71.69s WALL


   This run was terminated on:  15:55: 3  13Nov2025            

=------------------------------------------------------------------------------=
   JOB DONE.
=------------------------------------------------------------------------------=
