
     Program PWSCF v.7.4 starts on 12Nov2025 at 22:14:37 

     This program is part of the open-source Quantum ESPRESSO suite
     for quantum simulation of materials; please cite
         "P. Giannozzi et al., J. Phys.:Condens. Matter 21 395502 (2009);
         "P. Giannozzi et al., J. Phys.:Condens. Matter 29 465901 (2017);
         "P. Giannozzi et al., J. Chem. Phys. 152 154105 (2020);
          URL http://www.quantum-espresso.org", 
     in publications or presentations arising from this work. More details at
     http://www.quantum-espresso.org/quote

     Parallel version (MPI & OpenMP), running on      16 processor cores
     Number of MPI processes:                16
     Threads/MPI process:                     1

     MPI processes distributed on     1 nodes
     140090 MiB available memory on the printing compute node when the environment starts

     Reading input from TiNi2_hex_scf_mag.in
Warning: card / ignored

     Current dimensions of program PWSCF are:
     Max number of different atomic species (ntypx) = 10
     Max number of k-points (npk) =  40000
     Max angular momentum in pseudopotentials (lmaxx) =  4

     IMPORTANT: XC functional enforced from input :
     Exchange-correlation= PBE
                           (   1   4   3   4   0   0   0)
     Any further DFT definition will be discarded
     Please, verify this is what you really want

     Message from routine setup:
     using ibrav=0 with symmetry is DISCOURAGED, use correct ibrav instead

     R & G space division:  proc/nbgrp/npool/nimage =      16
     Subspace diagonalization in iterative solution of the eigenvalue problem:
     a serial algorithm will be used


     Parallelization info
     --------------------
     sticks:   dense  smooth     PW     G-vecs:    dense   smooth      PW
     Min         603     171     46                77823    11879    1692
     Max         604     172     47                77828    11884    1701
     Sum        9649    2749    745              1245217   190123   27139

     Using Slab Decomposition



     bravais-lattice index     =            0
     lattice parameter (alat)  =       9.1568  a.u.
     unit-cell volume          =    1019.2344 (a.u.)^3
     number of atoms/cell      =           12
     number of atomic types    =            3
     number of electrons       =       192.00
     number of Kohn-Sham states=          115
     kinetic-energy cutoff     =     124.0000  Ry
     charge density cutoff     =    1736.0000  Ry
     scf convergence threshold =      1.0E-08
     mixing beta               =       0.2000
     number of iterations used =            8  local-TF  mixing
     Exchange-correlation= PBE
                           (   1   4   3   4   0   0   0)

     celldm(1)=   9.156781  celldm(2)=   0.000000  celldm(3)=   0.000000
     celldm(4)=   0.000000  celldm(5)=   0.000000  celldm(6)=   0.000000

     crystal axes: (cart. coord. in units of alat)
               a(1) = (   0.979905   0.000000  -0.000000 )  
               a(2) = (  -0.489953   0.848623  -0.000000 )  
               a(3) = (  -0.000000  -0.000000   1.596418 )  

     reciprocal axes: (cart. coord. in units 2 pi/alat)
               b(1) = (  1.020507  0.589190  0.000000 )  
               b(2) = (  0.000000  1.178380  0.000000 )  
               b(3) = (  0.000000  0.000000  0.626402 )  


     PseudoPot. # 1 for Ni read from file:
     ../../pseudos/ni_pbe_v1.4.uspp.F.UPF
     MD5 check sum: 1ee80287db30b12d2bc1f57a5b5d6409
     Pseudo is Ultrasoft + core correction, Zval = 18.0
     Generated by new atomic code, or converted to UPF format
     Using radial grid of  865 points,  6 beta functions with: 
                l(1) =   0
                l(2) =   0
                l(3) =   1
                l(4) =   1
                l(5) =   2
                l(6) =   2
     Q(r) pseudized with 10 coefficients,  rinner =    0.980   0.980   0.980
                                                       0.980   0.980

     PseudoPot. # 2 for Ni read from file:
     ../../pseudos/ni_pbe_v1.4.uspp.F.UPF
     MD5 check sum: 1ee80287db30b12d2bc1f57a5b5d6409
     Pseudo is Ultrasoft + core correction, Zval = 18.0
     Generated by new atomic code, or converted to UPF format
     Using radial grid of  865 points,  6 beta functions with: 
                l(1) =   0
                l(2) =   0
                l(3) =   1
                l(4) =   1
                l(5) =   2
                l(6) =   2
     Q(r) pseudized with 10 coefficients,  rinner =    0.980   0.980   0.980
                                                       0.980   0.980

     PseudoPot. # 3 for Ti read from file:
     ../../pseudos/ti_pbe_v1.4.uspp.F.UPF
     MD5 check sum: 88a00a6731bd790ddea75d31a80cb452
     Pseudo is Ultrasoft + core correction, Zval = 12.0
     Generated by new atomic code, or converted to UPF format
     Using radial grid of  851 points,  6 beta functions with: 
                l(1) =   0
                l(2) =   0
                l(3) =   1
                l(4) =   1
                l(5) =   2
                l(6) =   2
     Q(r) pseudized with  6 coefficients,  rinner =    1.000   1.000   1.000
                                                       1.000   1.000

     atomic species   valence    mass     pseudopotential
     Ni_1             18.00    58.69300     Ni( 1.00)
     Ni_2             18.00    58.69300     Ni( 1.00)
     Ti               12.00    47.86700     Ti( 1.00)

     Starting magnetic structure 
     atomic species   magnetization
     Ni_1            0.041
     Ni_2            0.041
     Ti             -0.083

     24 Sym. Ops., with inversion, found (12 have fractional translation)



   Cartesian axes

     site n.     atom                  positions (alat units)
         1        Ni_2   tau(   1) = (   0.7325097   0.1428339   0.3991046  )
         2        Ni_2   tau(   2) = (  -0.2425571   0.7057890   1.1973137  )
         3        Ni_2   tau(   3) = (  -0.0000000   0.2856678   1.1973137  )
         4        Ni_2   tau(   4) = (   0.2473956   0.1428339   0.3991046  )
         5        Ni_2   tau(   5) = (   0.4899527   0.5629551   0.3991046  )
         6        Ni_2   tau(   6) = (   0.2425571   0.7057890   1.1973137  )
         7        Ni_1   tau(   7) = (   0.0000000   0.0000000   0.0000000  )
         8        Ni_1   tau(   8) = (   0.0000000  -0.0000000   0.7982092  )
         9        Ti     tau(   9) = (   0.4899527   0.2828743   1.5002245  )
        10        Ti     tau(  10) = (  -0.0000000   0.5657486   0.7020153  )
        11        Ti     tau(  11) = (  -0.0000000   0.5657486   0.0961938  )
        12        Ti     tau(  12) = (   0.4899527   0.2828743   0.8944030  )

     number of k points=    96  Marzari-Vanderbilt smearing, width (Ry)=  0.0050
                       cart. coord. in units 2pi/alat
        k(    1) = (   0.0000000   0.0000000   0.0000000), wk =   0.0007513
        k(    2) = (   0.0000000   0.0000000   0.0569457), wk =   0.0015026
        k(    3) = (   0.0000000   0.0000000   0.1138913), wk =   0.0015026
        k(    4) = (   0.0000000   0.0000000   0.1708370), wk =   0.0015026
        k(    5) = (   0.0000000   0.0000000   0.2277826), wk =   0.0015026
        k(    6) = (   0.0000000   0.0000000   0.2847283), wk =   0.0015026
        k(    7) = (   0.0000000   0.1071254   0.0000000), wk =   0.0045079
        k(    8) = (   0.0000000   0.1071254   0.0569457), wk =   0.0090158
        k(    9) = (   0.0000000   0.1071254   0.1138913), wk =   0.0090158
        k(   10) = (   0.0000000   0.1071254   0.1708370), wk =   0.0090158
        k(   11) = (   0.0000000   0.1071254   0.2277826), wk =   0.0090158
        k(   12) = (   0.0000000   0.1071254   0.2847283), wk =   0.0090158
        k(   13) = (   0.0000000   0.2142509   0.0000000), wk =   0.0045079
        k(   14) = (   0.0000000   0.2142509   0.0569457), wk =   0.0090158
        k(   15) = (   0.0000000   0.2142509   0.1138913), wk =   0.0090158
        k(   16) = (   0.0000000   0.2142509   0.1708370), wk =   0.0090158
        k(   17) = (   0.0000000   0.2142509   0.2277826), wk =   0.0090158
        k(   18) = (   0.0000000   0.2142509   0.2847283), wk =   0.0090158
        k(   19) = (   0.0000000   0.3213763   0.0000000), wk =   0.0045079
        k(   20) = (   0.0000000   0.3213763   0.0569457), wk =   0.0090158
        k(   21) = (   0.0000000   0.3213763   0.1138913), wk =   0.0090158
        k(   22) = (   0.0000000   0.3213763   0.1708370), wk =   0.0090158
        k(   23) = (   0.0000000   0.3213763   0.2277826), wk =   0.0090158
        k(   24) = (   0.0000000   0.3213763   0.2847283), wk =   0.0090158
        k(   25) = (   0.0000000   0.4285017   0.0000000), wk =   0.0045079
        k(   26) = (   0.0000000   0.4285017   0.0569457), wk =   0.0090158
        k(   27) = (   0.0000000   0.4285017   0.1138913), wk =   0.0090158
        k(   28) = (   0.0000000   0.4285017   0.1708370), wk =   0.0090158
        k(   29) = (   0.0000000   0.4285017   0.2277826), wk =   0.0090158
        k(   30) = (   0.0000000   0.4285017   0.2847283), wk =   0.0090158
        k(   31) = (   0.0000000   0.5356271   0.0000000), wk =   0.0045079
        k(   32) = (   0.0000000   0.5356271   0.0569457), wk =   0.0090158
        k(   33) = (   0.0000000   0.5356271   0.1138913), wk =   0.0090158
        k(   34) = (   0.0000000   0.5356271   0.1708370), wk =   0.0090158
        k(   35) = (   0.0000000   0.5356271   0.2277826), wk =   0.0090158
        k(   36) = (   0.0000000   0.5356271   0.2847283), wk =   0.0090158
        k(   37) = (   0.0927733   0.1606881   0.0000000), wk =   0.0045079
        k(   38) = (   0.0927733   0.1606881   0.0569457), wk =   0.0090158
        k(   39) = (   0.0927733   0.1606881   0.1138913), wk =   0.0090158
        k(   40) = (   0.0927733   0.1606881   0.1708370), wk =   0.0090158
        k(   41) = (   0.0927733   0.1606881   0.2277826), wk =   0.0090158
        k(   42) = (   0.0927733   0.1606881   0.2847283), wk =   0.0090158
        k(   43) = (   0.0927733   0.2678136   0.0000000), wk =   0.0090158
        k(   44) = (   0.0927733   0.2678136   0.0569457), wk =   0.0180316
        k(   45) = (   0.0927733   0.2678136   0.1138913), wk =   0.0180316
        k(   46) = (   0.0927733   0.2678136   0.1708370), wk =   0.0180316
        k(   47) = (   0.0927733   0.2678136   0.2277826), wk =   0.0180316
        k(   48) = (   0.0927733   0.2678136   0.2847283), wk =   0.0180316
        k(   49) = (   0.0927733   0.3749390   0.0000000), wk =   0.0090158
        k(   50) = (   0.0927733   0.3749390   0.0569457), wk =   0.0180316
        k(   51) = (   0.0927733   0.3749390   0.1138913), wk =   0.0180316
        k(   52) = (   0.0927733   0.3749390   0.1708370), wk =   0.0180316
        k(   53) = (   0.0927733   0.3749390   0.2277826), wk =   0.0180316
        k(   54) = (   0.0927733   0.3749390   0.2847283), wk =   0.0180316
        k(   55) = (   0.0927733   0.4820644   0.0000000), wk =   0.0090158
        k(   56) = (   0.0927733   0.4820644   0.0569457), wk =   0.0180316
        k(   57) = (   0.0927733   0.4820644   0.1138913), wk =   0.0180316
        k(   58) = (   0.0927733   0.4820644   0.1708370), wk =   0.0180316
        k(   59) = (   0.0927733   0.4820644   0.2277826), wk =   0.0180316
        k(   60) = (   0.0927733   0.4820644   0.2847283), wk =   0.0180316
        k(   61) = (   0.0927733   0.5891899   0.0000000), wk =   0.0045079
        k(   62) = (   0.0927733   0.5891899   0.0569457), wk =   0.0090158
        k(   63) = (   0.0927733   0.5891899   0.1138913), wk =   0.0090158
        k(   64) = (   0.0927733   0.5891899   0.1708370), wk =   0.0090158
        k(   65) = (   0.0927733   0.5891899   0.2277826), wk =   0.0090158
        k(   66) = (   0.0927733   0.5891899   0.2847283), wk =   0.0090158
        k(   67) = (   0.1855467   0.3213763   0.0000000), wk =   0.0045079
        k(   68) = (   0.1855467   0.3213763   0.0569457), wk =   0.0090158
        k(   69) = (   0.1855467   0.3213763   0.1138913), wk =   0.0090158
        k(   70) = (   0.1855467   0.3213763   0.1708370), wk =   0.0090158
        k(   71) = (   0.1855467   0.3213763   0.2277826), wk =   0.0090158
        k(   72) = (   0.1855467   0.3213763   0.2847283), wk =   0.0090158
        k(   73) = (   0.1855467   0.4285017   0.0000000), wk =   0.0090158
        k(   74) = (   0.1855467   0.4285017   0.0569457), wk =   0.0180316
        k(   75) = (   0.1855467   0.4285017   0.1138913), wk =   0.0180316
        k(   76) = (   0.1855467   0.4285017   0.1708370), wk =   0.0180316
        k(   77) = (   0.1855467   0.4285017   0.2277826), wk =   0.0180316
        k(   78) = (   0.1855467   0.4285017   0.2847283), wk =   0.0180316
        k(   79) = (   0.1855467   0.5356271   0.0000000), wk =   0.0090158
        k(   80) = (   0.1855467   0.5356271   0.0569457), wk =   0.0180316
        k(   81) = (   0.1855467   0.5356271   0.1138913), wk =   0.0180316
        k(   82) = (   0.1855467   0.5356271   0.1708370), wk =   0.0180316
        k(   83) = (   0.1855467   0.5356271   0.2277826), wk =   0.0180316
        k(   84) = (   0.1855467   0.5356271   0.2847283), wk =   0.0180316
        k(   85) = (   0.2783200   0.4820644   0.0000000), wk =   0.0045079
        k(   86) = (   0.2783200   0.4820644   0.0569457), wk =   0.0090158
        k(   87) = (   0.2783200   0.4820644   0.1138913), wk =   0.0090158
        k(   88) = (   0.2783200   0.4820644   0.1708370), wk =   0.0090158
        k(   89) = (   0.2783200   0.4820644   0.2277826), wk =   0.0090158
        k(   90) = (   0.2783200   0.4820644   0.2847283), wk =   0.0090158
        k(   91) = (   0.2783200   0.5891899   0.0000000), wk =   0.0045079
        k(   92) = (   0.2783200   0.5891899   0.0569457), wk =   0.0090158
        k(   93) = (   0.2783200   0.5891899   0.1138913), wk =   0.0090158
        k(   94) = (   0.2783200   0.5891899   0.1708370), wk =   0.0090158
        k(   95) = (   0.2783200   0.5891899   0.2277826), wk =   0.0090158
        k(   96) = (   0.2783200   0.5891899   0.2847283), wk =   0.0090158

     Dense  grid:  1245217 G-vectors     FFT dimensions: ( 120, 120, 200)

     Smooth grid:   190123 G-vectors     FFT dimensions: (  64,  64, 108)

     Estimated max dynamical RAM per process >     839.30 MB

     Estimated total dynamical RAM >      13.11 GB

     Check: negative core charge=   -0.000003
     Generating pointlists ...
     new r_m :   0.2025 (alat units)  1.8539 (a.u.) for type    1
     new r_m :   0.2001 (alat units)  1.8324 (a.u.) for type    2
     new r_m :   0.2347 (alat units)  2.1492 (a.u.) for type    3

     Initial potential from superposition of free atoms

     starting charge     171.9998, renormalised to     192.0000

     negative rho (up, down):  2.761E-03 3.263E-03
     Starting wfcs are  144 randomized atomic wfcs

     total cpu time spent up to now is       40.9 secs

     per-process dynamical memory:   701.9 Mb

     Self-consistent Calculation

     iteration #  1     ecut=   124.00 Ry     beta= 0.20
     CG style diagonalization
     ethr =  1.00E-02,  avg # of iterations =  4.4

     negative rho (up, down):  1.024E-03 1.239E-03

     total cpu time spent up to now is      965.5 secs

     total energy              =   -3248.56006065 Ry
     estimated scf accuracy    <     524.86851539 Ry

     total magnetization       =    -0.24 Bohr mag/cell
     absolute magnetization    =     1.20 Bohr mag/cell

     iteration #  2     ecut=   124.00 Ry     beta= 0.20
     CG style diagonalization
     ethr =  1.00E-02,  avg # of iterations =  3.9

     negative rho (up, down):  3.200E-05 7.389E-06

     total cpu time spent up to now is     1597.4 secs

     total energy              =   -3150.96673967 Ry
     estimated scf accuracy    <     278.67552403 Ry

     total magnetization       =    -0.35 Bohr mag/cell
     absolute magnetization    =     2.48 Bohr mag/cell

     iteration #  3     ecut=   124.00 Ry     beta= 0.20
     CG style diagonalization
     c_bands:  1 eigenvalues not converged
     c_bands:  1 eigenvalues not converged
     c_bands:  1 eigenvalues not converged
     ethr =  1.00E-02,  avg # of iterations =  6.2

     negative rho (up, down):  3.511E-04 2.594E-04

     total cpu time spent up to now is     2718.7 secs

     total energy              =   -3220.65802315 Ry
     estimated scf accuracy    <      95.60730447 Ry

     total magnetization       =    -0.32 Bohr mag/cell
     absolute magnetization    =     0.57 Bohr mag/cell

     iteration #  4     ecut=   124.00 Ry     beta= 0.20
     CG style diagonalization
     ethr =  1.00E-02,  avg # of iterations =  3.7

     negative rho (up, down):  1.182E-03 1.235E-03

     total cpu time spent up to now is     3309.2 secs

     total energy              =   -3223.22637097 Ry
     estimated scf accuracy    <      18.01860471 Ry

     total magnetization       =     0.16 Bohr mag/cell
     absolute magnetization    =     0.79 Bohr mag/cell

     iteration #  5     ecut=   124.00 Ry     beta= 0.20
     CG style diagonalization
     ethr =  9.38E-03,  avg # of iterations =  3.9

     negative rho (up, down):  1.109E-03 1.161E-03

     total cpu time spent up to now is     3941.6 secs

     total energy              =   -3234.12546797 Ry
     estimated scf accuracy    <      73.62305924 Ry

     total magnetization       =     0.92 Bohr mag/cell
     absolute magnetization    =     2.95 Bohr mag/cell

     iteration #  6     ecut=   124.00 Ry     beta= 0.20
     CG style diagonalization
     ethr =  9.38E-03,  avg # of iterations =  3.0

     negative rho (up, down):  1.027E-03 1.066E-03

     total cpu time spent up to now is     4390.5 secs

     total energy              =   -3234.10296950 Ry
     estimated scf accuracy    <      80.54643987 Ry

     total magnetization       =     1.43 Bohr mag/cell
     absolute magnetization    =     3.49 Bohr mag/cell

     iteration #  7     ecut=   124.00 Ry     beta= 0.20
     CG style diagonalization
     ethr =  9.38E-03,  avg # of iterations =  3.0

     negative rho (up, down):  1.088E-03 1.110E-03

     total cpu time spent up to now is     4836.4 secs

     total energy              =   -3233.43525194 Ry
     estimated scf accuracy    <      74.15272381 Ry

     total magnetization       =     1.66 Bohr mag/cell
     absolute magnetization    =     3.53 Bohr mag/cell

     iteration #  8     ecut=   124.00 Ry     beta= 0.20
     CG style diagonalization
     ethr =  9.38E-03,  avg # of iterations =  3.0

     negative rho (up, down):  1.737E-03 1.343E-03

     total cpu time spent up to now is     5280.5 secs

     total energy              =   -3215.65919911 Ry
     estimated scf accuracy    <      72.04786435 Ry

     total magnetization       =     1.51 Bohr mag/cell
     absolute magnetization    =     3.40 Bohr mag/cell

     iteration #  9     ecut=   124.00 Ry     beta= 0.20
     CG style diagonalization
     ethr =  9.38E-03,  avg # of iterations =  3.7

     negative rho (up, down):  2.909E-03 2.248E-03

     total cpu time spent up to now is     5866.1 secs

     total energy              =   -3222.83038565 Ry
     estimated scf accuracy    <       2.24826554 Ry

     total magnetization       =    -0.62 Bohr mag/cell
     absolute magnetization    =     0.95 Bohr mag/cell

     iteration # 10     ecut=   124.00 Ry     beta= 0.20
     CG style diagonalization
     ethr =  1.17E-03,  avg # of iterations =  4.2

     negative rho (up, down):  2.177E-03 1.782E-03

     total cpu time spent up to now is     6579.0 secs

     total energy              =   -3222.96833098 Ry
     estimated scf accuracy    <      22.47299025 Ry

     total magnetization       =    -1.99 Bohr mag/cell
     absolute magnetization    =     2.16 Bohr mag/cell

     iteration # 11     ecut=   124.00 Ry     beta= 0.20
     CG style diagonalization
     ethr =  1.17E-03,  avg # of iterations =  3.1

     negative rho (up, down):  2.093E-03 1.701E-03

     total cpu time spent up to now is     7055.0 secs

     total energy              =   -3223.52261445 Ry
     estimated scf accuracy    <       1.17068117 Ry

     total magnetization       =    -1.45 Bohr mag/cell
     absolute magnetization    =     1.55 Bohr mag/cell

     iteration # 12     ecut=   124.00 Ry     beta= 0.20
     CG style diagonalization
     ethr =  6.10E-04,  avg # of iterations =  3.0

     negative rho (up, down):  1.279E-03 9.577E-04

     total cpu time spent up to now is     7515.7 secs

     total energy              =   -3223.53922202 Ry
     estimated scf accuracy    <       0.20788735 Ry

     total magnetization       =    -1.20 Bohr mag/cell
     absolute magnetization    =     1.26 Bohr mag/cell

     iteration # 13     ecut=   124.00 Ry     beta= 0.20
     CG style diagonalization
     c_bands:  2 eigenvalues not converged
     c_bands:  1 eigenvalues not converged
     c_bands:  1 eigenvalues not converged
     c_bands:  1 eigenvalues not converged
     c_bands:  1 eigenvalues not converged
     c_bands:  1 eigenvalues not converged
     c_bands:  1 eigenvalues not converged
     c_bands:  2 eigenvalues not converged
     c_bands:  2 eigenvalues not converged
     c_bands:  1 eigenvalues not converged
     c_bands:  2 eigenvalues not converged
     c_bands:  1 eigenvalues not converged
     c_bands:  1 eigenvalues not converged
     c_bands:  1 eigenvalues not converged
     c_bands:  1 eigenvalues not converged
     c_bands:  1 eigenvalues not converged
     c_bands:  2 eigenvalues not converged
     c_bands:  1 eigenvalues not converged
     c_bands:  1 eigenvalues not converged
     c_bands:  1 eigenvalues not converged
     c_bands:  1 eigenvalues not converged
     c_bands:  1 eigenvalues not converged
     c_bands:  1 eigenvalues not converged
     c_bands:  1 eigenvalues not converged
     c_bands:  2 eigenvalues not converged
     c_bands:  1 eigenvalues not converged
     c_bands:  1 eigenvalues not converged
     c_bands:  1 eigenvalues not converged
     c_bands:  1 eigenvalues not converged
     c_bands:  2 eigenvalues not converged
     c_bands:  1 eigenvalues not converged
     c_bands:  1 eigenvalues not converged
     c_bands:  2 eigenvalues not converged
     c_bands:  2 eigenvalues not converged
     c_bands:  1 eigenvalues not converged
     c_bands:  1 eigenvalues not converged
     c_bands:  1 eigenvalues not converged
     c_bands:  2 eigenvalues not converged
     c_bands:  2 eigenvalues not converged
     c_bands:  2 eigenvalues not converged
     c_bands:  1 eigenvalues not converged
     c_bands:  1 eigenvalues not converged
     c_bands:  1 eigenvalues not converged
     c_bands:  1 eigenvalues not converged
     c_bands:  3 eigenvalues not converged
     c_bands:  1 eigenvalues not converged
     c_bands:  1 eigenvalues not converged
     c_bands:  2 eigenvalues not converged
     c_bands:  1 eigenvalues not converged
     c_bands:  2 eigenvalues not converged
     c_bands:  1 eigenvalues not converged
     c_bands:  1 eigenvalues not converged
     c_bands:  2 eigenvalues not converged
     c_bands:  1 eigenvalues not converged
     c_bands:  1 eigenvalues not converged
     c_bands:  1 eigenvalues not converged
     ethr =  1.08E-04,  avg # of iterations =  5.1

     negative rho (up, down):  1.348E-03 1.010E-03

     total cpu time spent up to now is     8435.5 secs

     total energy              =   -3224.29597324 Ry
     estimated scf accuracy    <       6.72624119 Ry

     total magnetization       =     0.03 Bohr mag/cell
     absolute magnetization    =     0.48 Bohr mag/cell

     iteration # 14     ecut=   124.00 Ry     beta= 0.20
     CG style diagonalization
     c_bands:  1 eigenvalues not converged
     ethr =  1.08E-04,  avg # of iterations =  3.1

     negative rho (up, down):  1.806E-03 1.482E-03

     total cpu time spent up to now is     8907.8 secs

     total energy              =   -3223.30487923 Ry
     estimated scf accuracy    <       6.18220853 Ry

     total magnetization       =     0.09 Bohr mag/cell
     absolute magnetization    =     0.46 Bohr mag/cell

     iteration # 15     ecut=   124.00 Ry     beta= 0.20
     CG style diagonalization
     c_bands:  1 eigenvalues not converged
     c_bands:  1 eigenvalues not converged
     c_bands:  1 eigenvalues not converged
     c_bands:  1 eigenvalues not converged
     ethr =  1.08E-04,  avg # of iterations =  4.3

     negative rho (up, down):  1.669E-03 1.392E-03

     total cpu time spent up to now is     9626.5 secs

     total energy              =   -3223.62074003 Ry
     estimated scf accuracy    <       0.54887940 Ry

     total magnetization       =    -0.30 Bohr mag/cell
     absolute magnetization    =     0.39 Bohr mag/cell

     iteration # 16     ecut=   124.00 Ry     beta= 0.20
     CG style diagonalization
     ethr =  1.08E-04,  avg # of iterations =  3.0

     negative rho (up, down):  1.663E-03 1.448E-03

     total cpu time spent up to now is    10088.3 secs

     total energy              =   -3223.56448579 Ry
     estimated scf accuracy    <       1.08770335 Ry

     total magnetization       =    -0.23 Bohr mag/cell
     absolute magnetization    =     0.28 Bohr mag/cell

     iteration # 17     ecut=   124.00 Ry     beta= 0.20
     CG style diagonalization
     c_bands:  1 eigenvalues not converged
     ethr =  1.08E-04,  avg # of iterations =  3.0

     negative rho (up, down):  1.613E-03 1.426E-03

     total cpu time spent up to now is    10531.6 secs

     total energy              =   -3223.58505750 Ry
     estimated scf accuracy    <       0.36684951 Ry

     total magnetization       =    -0.23 Bohr mag/cell
     absolute magnetization    =     0.25 Bohr mag/cell

     iteration # 18     ecut=   124.00 Ry     beta= 0.20
     CG style diagonalization
     ethr =  1.08E-04,  avg # of iterations =  3.0

     negative rho (up, down):  1.641E-03 1.472E-03

     total cpu time spent up to now is    10988.1 secs

     total energy              =   -3223.56401704 Ry
     estimated scf accuracy    <       0.51499912 Ry

     total magnetization       =    -0.21 Bohr mag/cell
     absolute magnetization    =     0.22 Bohr mag/cell

     iteration # 19     ecut=   124.00 Ry     beta= 0.20
     CG style diagonalization
     ethr =  1.08E-04,  avg # of iterations =  3.0

     negative rho (up, down):  1.686E-03 1.564E-03

     total cpu time spent up to now is    11443.7 secs

     total energy              =   -3223.56079459 Ry
     estimated scf accuracy    <       0.21278820 Ry

     total magnetization       =    -0.20 Bohr mag/cell
     absolute magnetization    =     0.23 Bohr mag/cell

     iteration # 20     ecut=   124.00 Ry     beta= 0.20
     CG style diagonalization
     ethr =  1.08E-04,  avg # of iterations =  3.0

     negative rho (up, down):  1.697E-03 1.612E-03

     total cpu time spent up to now is    11890.1 secs

     total energy              =   -3223.55469317 Ry
     estimated scf accuracy    <       0.19129519 Ry

     total magnetization       =    -0.16 Bohr mag/cell
     absolute magnetization    =     0.19 Bohr mag/cell

     iteration # 21     ecut=   124.00 Ry     beta= 0.20
     CG style diagonalization
     ethr =  9.96E-05,  avg # of iterations =  3.0

     negative rho (up, down):  1.723E-03 1.668E-03

     total cpu time spent up to now is    12328.3 secs

     total energy              =   -3223.55170533 Ry
     estimated scf accuracy    <       0.05669324 Ry

     total magnetization       =    -0.14 Bohr mag/cell
     absolute magnetization    =     0.17 Bohr mag/cell

     iteration # 22     ecut=   124.00 Ry     beta= 0.20
     CG style diagonalization
     c_bands:  1 eigenvalues not converged
     c_bands:  1 eigenvalues not converged
     c_bands:  1 eigenvalues not converged
     c_bands:  1 eigenvalues not converged
     c_bands:  1 eigenvalues not converged
     ethr =  2.95E-05,  avg # of iterations =  3.1

     negative rho (up, down):  1.733E-03 1.687E-03

     total cpu time spent up to now is    12693.2 secs

     total energy              =   -3223.55538037 Ry
     estimated scf accuracy    <       0.00205177 Ry

     total magnetization       =    -0.12 Bohr mag/cell
     absolute magnetization    =     0.15 Bohr mag/cell

     iteration # 23     ecut=   124.00 Ry     beta= 0.20
     CG style diagonalization
     c_bands:  1 eigenvalues not converged
     c_bands:  1 eigenvalues not converged
     c_bands:  1 eigenvalues not converged
     c_bands:  1 eigenvalues not converged
     c_bands:  1 eigenvalues not converged
     c_bands:  1 eigenvalues not converged
     c_bands:  1 eigenvalues not converged
     c_bands:  1 eigenvalues not converged
     c_bands:  1 eigenvalues not converged
     c_bands:  2 eigenvalues not converged
     c_bands:  3 eigenvalues not converged
     c_bands:  1 eigenvalues not converged
     c_bands:  1 eigenvalues not converged
     c_bands:  1 eigenvalues not converged
     c_bands:  2 eigenvalues not converged
     c_bands:  1 eigenvalues not converged
     c_bands:  1 eigenvalues not converged
     c_bands:  1 eigenvalues not converged
     c_bands:  1 eigenvalues not converged
     c_bands:  1 eigenvalues not converged
     c_bands:  1 eigenvalues not converged
     c_bands:  3 eigenvalues not converged
     c_bands:  3 eigenvalues not converged
     c_bands:  1 eigenvalues not converged
     c_bands:  1 eigenvalues not converged
     c_bands:  2 eigenvalues not converged
     c_bands:  2 eigenvalues not converged
     c_bands:  1 eigenvalues not converged
     c_bands:  1 eigenvalues not converged
     c_bands:  1 eigenvalues not converged
     c_bands:  2 eigenvalues not converged
     c_bands:  1 eigenvalues not converged
     c_bands:  1 eigenvalues not converged
     c_bands:  1 eigenvalues not converged
     c_bands:  1 eigenvalues not converged
     c_bands:  1 eigenvalues not converged
     c_bands:  1 eigenvalues not converged
     c_bands:  1 eigenvalues not converged
     c_bands:  2 eigenvalues not converged
     c_bands:  1 eigenvalues not converged
     c_bands:  2 eigenvalues not converged
     c_bands:  1 eigenvalues not converged
     c_bands:  2 eigenvalues not converged
     c_bands:  1 eigenvalues not converged
     c_bands:  1 eigenvalues not converged
     c_bands:  1 eigenvalues not converged
     c_bands:  2 eigenvalues not converged
     c_bands:  2 eigenvalues not converged
     c_bands:  1 eigenvalues not converged
     c_bands:  1 eigenvalues not converged
     c_bands:  2 eigenvalues not converged
     c_bands:  1 eigenvalues not converged
     c_bands:  1 eigenvalues not converged
     c_bands:  1 eigenvalues not converged
     c_bands:  4 eigenvalues not converged
     c_bands:  1 eigenvalues not converged
     c_bands:  4 eigenvalues not converged
     c_bands:  2 eigenvalues not converged
     c_bands:  1 eigenvalues not converged
     c_bands:  1 eigenvalues not converged
     c_bands:  1 eigenvalues not converged
     c_bands:  1 eigenvalues not converged
     c_bands:  1 eigenvalues not converged
     c_bands:  1 eigenvalues not converged
     c_bands:  3 eigenvalues not converged
     c_bands:  2 eigenvalues not converged
     c_bands:  4 eigenvalues not converged
     c_bands:  1 eigenvalues not converged
     ethr =  1.07E-06,  avg # of iterations =  4.4

     negative rho (up, down):  1.723E-03 1.666E-03

     total cpu time spent up to now is    13267.2 secs

     total energy              =   -3223.55536968 Ry
     estimated scf accuracy    <       0.00943956 Ry

     total magnetization       =    -0.11 Bohr mag/cell
     absolute magnetization    =     0.13 Bohr mag/cell

     iteration # 24     ecut=   124.00 Ry     beta= 0.20
     CG style diagonalization
     c_bands:  1 eigenvalues not converged
     c_bands:  1 eigenvalues not converged
     c_bands:  1 eigenvalues not converged
     c_bands:  1 eigenvalues not converged
     c_bands:  1 eigenvalues not converged
     c_bands:  1 eigenvalues not converged
     c_bands:  1 eigenvalues not converged
     c_bands:  1 eigenvalues not converged
     c_bands:  1 eigenvalues not converged
     c_bands:  1 eigenvalues not converged
     c_bands:  1 eigenvalues not converged
     c_bands:  1 eigenvalues not converged
     c_bands:  1 eigenvalues not converged
     c_bands:  1 eigenvalues not converged
     c_bands:  1 eigenvalues not converged
     ethr =  1.07E-06,  avg # of iterations =  3.2

     negative rho (up, down):  1.726E-03 1.674E-03

     total cpu time spent up to now is    13647.7 secs

     total energy              =   -3223.55593983 Ry
     estimated scf accuracy    <       0.00095575 Ry

     total magnetization       =    -0.10 Bohr mag/cell
     absolute magnetization    =     0.12 Bohr mag/cell

     iteration # 25     ecut=   124.00 Ry     beta= 0.20
     CG style diagonalization
     c_bands:  1 eigenvalues not converged
     ethr =  4.98E-07,  avg # of iterations =  3.0

     negative rho (up, down):  1.724E-03 1.671E-03

     total cpu time spent up to now is    13993.5 secs

     total energy              =   -3223.55594853 Ry
     estimated scf accuracy    <       0.00103694 Ry

     total magnetization       =    -0.10 Bohr mag/cell
     absolute magnetization    =     0.11 Bohr mag/cell

     iteration # 26     ecut=   124.00 Ry     beta= 0.20
     CG style diagonalization
     ethr =  4.98E-07,  avg # of iterations =  3.0

     negative rho (up, down):  1.721E-03 1.678E-03

     total cpu time spent up to now is    14341.6 secs

     total energy              =   -3223.55605787 Ry
     estimated scf accuracy    <       0.00044614 Ry

     total magnetization       =    -0.08 Bohr mag/cell
     absolute magnetization    =     0.09 Bohr mag/cell

     iteration # 27     ecut=   124.00 Ry     beta= 0.20
     CG style diagonalization
     ethr =  2.32E-07,  avg # of iterations =  3.0

     negative rho (up, down):  1.718E-03 1.676E-03

     total cpu time spent up to now is    14683.8 secs

     total energy              =   -3223.55607374 Ry
     estimated scf accuracy    <       0.00007984 Ry

     total magnetization       =    -0.07 Bohr mag/cell
     absolute magnetization    =     0.08 Bohr mag/cell

     iteration # 28     ecut=   124.00 Ry     beta= 0.20
     CG style diagonalization
     ethr =  4.16E-08,  avg # of iterations =  3.1

     negative rho (up, down):  1.718E-03 1.678E-03

     total cpu time spent up to now is    15052.7 secs

     total energy              =   -3223.55607396 Ry
     estimated scf accuracy    <       0.00006753 Ry

     total magnetization       =    -0.06 Bohr mag/cell
     absolute magnetization    =     0.07 Bohr mag/cell

     iteration # 29     ecut=   124.00 Ry     beta= 0.20
     CG style diagonalization
     ethr =  3.52E-08,  avg # of iterations =  3.0

     negative rho (up, down):  1.717E-03 1.680E-03

     total cpu time spent up to now is    15394.5 secs

     total energy              =   -3223.55607697 Ry
     estimated scf accuracy    <       0.00000436 Ry

     total magnetization       =    -0.06 Bohr mag/cell
     absolute magnetization    =     0.07 Bohr mag/cell

     iteration # 30     ecut=   124.00 Ry     beta= 0.20
     CG style diagonalization
     ethr =  2.27E-09,  avg # of iterations =  3.8

     negative rho (up, down):  1.716E-03 1.681E-03

     total cpu time spent up to now is    15857.1 secs

     total energy              =   -3223.55607891 Ry
     estimated scf accuracy    <       0.00000193 Ry

     total magnetization       =    -0.05 Bohr mag/cell
     absolute magnetization    =     0.06 Bohr mag/cell

     iteration # 31     ecut=   124.00 Ry     beta= 0.20
     CG style diagonalization
     ethr =  1.00E-09,  avg # of iterations =  3.2

     negative rho (up, down):  1.713E-03 1.682E-03

     total cpu time spent up to now is    16228.8 secs

     total energy              =   -3223.55607929 Ry
     estimated scf accuracy    <       0.00000098 Ry

     total magnetization       =    -0.05 Bohr mag/cell
     absolute magnetization    =     0.06 Bohr mag/cell

     iteration # 32     ecut=   124.00 Ry     beta= 0.20
     CG style diagonalization
     ethr =  5.09E-10,  avg # of iterations =  3.5

     negative rho (up, down):  1.713E-03 1.684E-03

     total cpu time spent up to now is    16653.6 secs

     total energy              =   -3223.55607952 Ry
     estimated scf accuracy    <       0.00000073 Ry

     total magnetization       =    -0.04 Bohr mag/cell
     absolute magnetization    =     0.05 Bohr mag/cell

     iteration # 33     ecut=   124.00 Ry     beta= 0.20
     CG style diagonalization
     ethr =  3.80E-10,  avg # of iterations =  3.8

     negative rho (up, down):  1.711E-03 1.684E-03

     total cpu time spent up to now is    17115.4 secs

     total energy              =   -3223.55607983 Ry
     estimated scf accuracy    <       0.00000062 Ry

     total magnetization       =    -0.03 Bohr mag/cell
     absolute magnetization    =     0.05 Bohr mag/cell

     iteration # 34     ecut=   124.00 Ry     beta= 0.20
     CG style diagonalization
     ethr =  3.22E-10,  avg # of iterations =  3.4

     negative rho (up, down):  1.711E-03 1.685E-03

     total cpu time spent up to now is    17517.2 secs

     total energy              =   -3223.55607997 Ry
     estimated scf accuracy    <       0.00000024 Ry

     total magnetization       =    -0.03 Bohr mag/cell
     absolute magnetization    =     0.05 Bohr mag/cell

     iteration # 35     ecut=   124.00 Ry     beta= 0.20
     CG style diagonalization
     ethr =  1.24E-10,  avg # of iterations =  3.0

     negative rho (up, down):  1.710E-03 1.685E-03

     total cpu time spent up to now is    17871.7 secs

     total energy              =   -3223.55608003 Ry
     estimated scf accuracy    <       0.00000006 Ry

     total magnetization       =    -0.03 Bohr mag/cell
     absolute magnetization    =     0.05 Bohr mag/cell

     iteration # 36     ecut=   124.00 Ry     beta= 0.20
     CG style diagonalization
     ethr =  3.34E-11,  avg # of iterations =  3.1

     negative rho (up, down):  1.709E-03 1.687E-03

     total cpu time spent up to now is    18220.2 secs

     total energy              =   -3223.55608004 Ry
     estimated scf accuracy    <       0.00000003 Ry

     total magnetization       =    -0.03 Bohr mag/cell
     absolute magnetization    =     0.05 Bohr mag/cell

     iteration # 37     ecut=   124.00 Ry     beta= 0.20
     CG style diagonalization
     ethr =  1.36E-11,  avg # of iterations =  4.0

     negative rho (up, down):  1.709E-03 1.687E-03

     total cpu time spent up to now is    18720.7 secs

     total energy              =   -3223.55608014 Ry
     estimated scf accuracy    <       0.00000003 Ry

     total magnetization       =    -0.02 Bohr mag/cell
     absolute magnetization    =     0.04 Bohr mag/cell

     iteration # 38     ecut=   124.00 Ry     beta= 0.20
     CG style diagonalization
     ethr =  1.36E-11,  avg # of iterations =  3.3

     negative rho (up, down):  1.709E-03 1.687E-03

     total cpu time spent up to now is    19113.3 secs

     total energy              =   -3223.55608017 Ry
     estimated scf accuracy    <       0.00000002 Ry

     total magnetization       =    -0.02 Bohr mag/cell
     absolute magnetization    =     0.04 Bohr mag/cell

     iteration # 39     ecut=   124.00 Ry     beta= 0.20
     CG style diagonalization
     ethr =  1.05E-11,  avg # of iterations =  3.1

     negative rho (up, down):  1.707E-03 1.689E-03

     total cpu time spent up to now is    19480.3 secs

     total energy              =   -3223.55608016 Ry
     estimated scf accuracy    <       0.00000002 Ry

     total magnetization       =    -0.02 Bohr mag/cell
     absolute magnetization    =     0.04 Bohr mag/cell

     iteration # 40     ecut=   124.00 Ry     beta= 0.20
     CG style diagonalization
     ethr =  8.45E-12,  avg # of iterations =  4.0

     negative rho (up, down):  1.707E-03 1.689E-03

     total cpu time spent up to now is    19985.4 secs

     total energy              =   -3223.55608030 Ry
     estimated scf accuracy    <       0.00000006 Ry

     total magnetization       =    -0.02 Bohr mag/cell
     absolute magnetization    =     0.03 Bohr mag/cell

     iteration # 41     ecut=   124.00 Ry     beta= 0.20
     CG style diagonalization
     ethr =  8.45E-12,  avg # of iterations =  3.0

     negative rho (up, down):  1.706E-03 1.690E-03

     total cpu time spent up to now is    20334.7 secs

     total energy              =   -3223.55608030 Ry
     estimated scf accuracy    <       0.00000003 Ry

     total magnetization       =    -0.02 Bohr mag/cell
     absolute magnetization    =     0.03 Bohr mag/cell

     iteration # 42     ecut=   124.00 Ry     beta= 0.20
     CG style diagonalization
     ethr =  8.45E-12,  avg # of iterations =  3.7

     negative rho (up, down):  1.703E-03 1.693E-03

     total cpu time spent up to now is    20796.8 secs

     total energy              =   -3223.55608017 Ry
     estimated scf accuracy    <       0.00000001 Ry

     total magnetization       =    -0.02 Bohr mag/cell
     absolute magnetization    =     0.03 Bohr mag/cell

     iteration # 43     ecut=   124.00 Ry     beta= 0.20
     CG style diagonalization
     ethr =  5.52E-12,  avg # of iterations =  4.5

     negative rho (up, down):  1.702E-03 1.693E-03

     Magnetic moment per site  (integrated on atomic sphere of radius R)
     atom   1 (R=0.200)  charge= 16.4382  magn=  0.0002
     atom   2 (R=0.200)  charge= 16.4382  magn=  0.0002
     atom   3 (R=0.200)  charge= 16.4382  magn=  0.0002
     atom   4 (R=0.200)  charge= 16.4382  magn=  0.0002
     atom   5 (R=0.200)  charge= 16.4382  magn=  0.0002
     atom   6 (R=0.200)  charge= 16.4382  magn=  0.0002
     atom   7 (R=0.202)  charge= 16.5121  magn=  0.0008
     atom   8 (R=0.202)  charge= 16.5121  magn=  0.0008
     atom   9 (R=0.235)  charge= 10.2209  magn= -0.0027
     atom  10 (R=0.235)  charge= 10.2209  magn= -0.0027
     atom  11 (R=0.235)  charge= 10.2209  magn= -0.0027
     atom  12 (R=0.235)  charge= 10.2209  magn= -0.0027

     total cpu time spent up to now is    21376.8 secs

     End of self-consistent calculation

     Number of k-points >= 100: set verbosity='high' to print the bands.

     the Fermi energy is    16.7081 ev

!    total energy              =   -3223.55608047 Ry
     estimated scf accuracy    <          5.2E-09 Ry
     smearing contrib. (-TS)   =       0.00036039 Ry
     internal energy E=F+TS    =   -3223.55644086 Ry

     The total energy is F=E-TS. E is the sum of the following terms:
     one-electron contribution =   -1959.30944636 Ry
     hartree contribution      =    1086.30724653 Ry
     xc contribution           =    -356.53882936 Ry
     ewald contribution        =   -1994.01541167 Ry

     total magnetization       =    -0.01 Bohr mag/cell
     absolute magnetization    =     0.02 Bohr mag/cell

     convergence has been achieved in  43 iterations

     negative rho (up, down):  1.702E-03 1.693E-03

     Forces acting on atoms (cartesian axes, Ry/au):

     atom    1 type  2   force =    -0.00007383    0.00004262    0.00000000
     atom    2 type  2   force =     0.00007383   -0.00004262    0.00000000
     atom    3 type  2   force =    -0.00000000    0.00008525    0.00000000
     atom    4 type  2   force =     0.00007383    0.00004262   -0.00000000
     atom    5 type  2   force =     0.00000000   -0.00008525    0.00000000
     atom    6 type  2   force =    -0.00007383   -0.00004262   -0.00000000
     atom    7 type  1   force =     0.00000000   -0.00000000    0.00000000
     atom    8 type  1   force =     0.00000000    0.00000000    0.00000000
     atom    9 type  3   force =    -0.00000000   -0.00000000   -0.00063906
     atom   10 type  3   force =     0.00000000    0.00000000   -0.00063906
     atom   11 type  3   force =     0.00000000    0.00000000    0.00063906
     atom   12 type  3   force =     0.00000000    0.00000000    0.00063906

     Total force =     0.001295     Total SCF correction =     0.000023


     Computing stress (Cartesian axis) and pressure


     negative rho (up, down):  1.702E-03 1.693E-03
          total   stress  (Ry/bohr**3)                   (kbar)     P=        0.04
   0.00000031   0.00000000   0.00000000            0.05        0.00        0.00
   0.00000000   0.00000031   0.00000000            0.00        0.05        0.00
   0.00000000   0.00000000   0.00000023            0.00        0.00        0.03


     Writing all to output data dir ./TiNi2_hex.save/ :
     XML data file
     init_run     :     39.54s CPU     40.23s WALL (       1 calls)
     electrons    :  21143.38s CPU  21336.02s WALL (       1 calls)
     forces       :     12.16s CPU     12.41s WALL (       1 calls)
     stress       :     42.67s CPU     43.20s WALL (       1 calls)

     Called by init_run:
     wfcinit      :     36.25s CPU     36.79s WALL (       1 calls)
     potinit      :      0.69s CPU      0.72s WALL (       1 calls)
     hinit0       :      0.93s CPU      0.96s WALL (       1 calls)

     Called by electrons:
     c_bands      :  20637.60s CPU  20814.13s WALL (      43 calls)
     sum_band     :    445.26s CPU    455.43s WALL (      43 calls)
     v_of_rho     :     13.04s CPU     14.10s WALL (      44 calls)
     newd         :     45.10s CPU     49.54s WALL (      44 calls)
     mix_rho      :      2.47s CPU      2.81s WALL (      43 calls)

     Called by c_bands:
     init_us_2    :     31.61s CPU     31.93s WALL (   17088 calls)
     ccgdiagg     :  19573.48s CPU  19739.42s WALL (    8256 calls)
     wfcrot       :   1031.96s CPU   1042.23s WALL (    8256 calls)

     Called by *cgdiagg:
     h_psi        :  10473.85s CPU  10560.23s WALL ( 2413586 calls)
     s_psi        :   1364.05s CPU   1384.17s WALL ( 4818916 calls)

     Called by h_psi:
     h_psi:calbec :   4643.68s CPU   4678.48s WALL ( 2413586 calls)
     vloc_psi     :   4154.70s CPU   4193.67s WALL ( 2413586 calls)
     add_vuspsi   :   1641.65s CPU   1656.84s WALL ( 2413586 calls)
     hs_1psi      :  10393.14s CPU  10478.51s WALL ( 2405330 calls)
     s_1psi       :   2893.93s CPU   2913.81s WALL ( 2405330 calls)

     General routines
     calbec       :   6972.18s CPU   7027.22s WALL ( 4830436 calls)
     fft          :      9.11s CPU     10.40s WALL (    1138 calls)
     ffts         :      0.95s CPU      1.08s WALL (    1168 calls)
     fftw         :   3266.13s CPU   3295.89s WALL ( 7670116 calls)
     interpolate  :      1.02s CPU      1.13s WALL (      88 calls)

     Parallel routines

     PWSCF        :  21238.10s CPU  21432.81s WALL


   This run was terminated on:   4:11:50  13Nov2025            

=------------------------------------------------------------------------------=
   JOB DONE.
=------------------------------------------------------------------------------=
