
     Program PWSCF v.7.4 starts on 13Nov2025 at 17: 6:23 

     This program is part of the open-source Quantum ESPRESSO suite
     for quantum simulation of materials; please cite
         "P. Giannozzi et al., J. Phys.:Condens. Matter 21 395502 (2009);
         "P. Giannozzi et al., J. Phys.:Condens. Matter 29 465901 (2017);
         "P. Giannozzi et al., J. Chem. Phys. 152 154105 (2020);
          URL http://www.quantum-espresso.org", 
     in publications or presentations arising from this work. More details at
     http://www.quantum-espresso.org/quote

     Parallel version (MPI & OpenMP), running on      16 processor cores
     Number of MPI processes:                16
     Threads/MPI process:                     1

     MPI processes distributed on     1 nodes
     220532 MiB available memory on the printing compute node when the environment starts

     Reading input from TiNi2_hex_vc_relax_mag.in
Warning: card / ignored

     Current dimensions of program PWSCF are:
     Max number of different atomic species (ntypx) = 10
     Max number of k-points (npk) =  40000
     Max angular momentum in pseudopotentials (lmaxx) =  4

     IMPORTANT: XC functional enforced from input :
     Exchange-correlation= PBE
                           (   1   4   3   4   0   0   0)
     Any further DFT definition will be discarded
     Please, verify this is what you really want

     Message from routine setup:
     using ibrav=0 with symmetry is DISCOURAGED, use correct ibrav instead

     R & G space division:  proc/nbgrp/npool/nimage =      16
     Subspace diagonalization in iterative solution of the eigenvalue problem:
     a serial algorithm will be used


     Parallelization info
     --------------------
     sticks:   dense  smooth     PW     G-vecs:    dense   smooth      PW
     Min         603     171     46                77823    11879    1696
     Max         604     172     47                77828    11884    1705
     Sum        9649    2749    745              1245217   190123   27211

     Using Slab Decomposition



     bravais-lattice index     =            0
     lattice parameter (alat)  =       8.9728  a.u.
     unit-cell volume          =    1019.2415 (a.u.)^3
     number of atoms/cell      =           12
     number of atomic types    =            3
     number of electrons       =       192.00
     number of Kohn-Sham states=          115
     kinetic-energy cutoff     =     124.0000  Ry
     charge density cutoff     =    1736.0000  Ry
     scf convergence threshold =      1.0E-08
     mixing beta               =       0.2000
     number of iterations used =            8  local-TF  mixing
     energy convergence thresh.=      1.0E-04
     force convergence thresh. =      1.0E-03
     press convergence thresh. =      1.0E-01
     Exchange-correlation= PBE
                           (   1   4   3   4   0   0   0)
     nstep                     =           50


     celldm(1)=   8.972779  celldm(2)=   0.000000  celldm(3)=   0.000000
     celldm(4)=   0.000000  celldm(5)=   0.000000  celldm(6)=   0.000000

     crystal axes: (cart. coord. in units of alat)
               a(1) = (   1.000000   0.000000   0.000000 )  
               a(2) = (  -0.500000   0.866025   0.000000 )  
               a(3) = (   0.000000   0.000000   1.629167 )  

     reciprocal axes: (cart. coord. in units 2 pi/alat)
               b(1) = (  1.000000  0.577350 -0.000000 )  
               b(2) = (  0.000000  1.154701  0.000000 )  
               b(3) = (  0.000000 -0.000000  0.613811 )  


     PseudoPot. # 1 for Ni read from file:
     ../../pseudos/ni_pbe_v1.4.uspp.F.UPF
     MD5 check sum: 1ee80287db30b12d2bc1f57a5b5d6409
     Pseudo is Ultrasoft + core correction, Zval = 18.0
     Generated by new atomic code, or converted to UPF format
     Using radial grid of  865 points,  6 beta functions with: 
                l(1) =   0
                l(2) =   0
                l(3) =   1
                l(4) =   1
                l(5) =   2
                l(6) =   2
     Q(r) pseudized with 10 coefficients,  rinner =    0.980   0.980   0.980
                                                       0.980   0.980

     PseudoPot. # 2 for Ni read from file:
     ../../pseudos/ni_pbe_v1.4.uspp.F.UPF
     MD5 check sum: 1ee80287db30b12d2bc1f57a5b5d6409
     Pseudo is Ultrasoft + core correction, Zval = 18.0
     Generated by new atomic code, or converted to UPF format
     Using radial grid of  865 points,  6 beta functions with: 
                l(1) =   0
                l(2) =   0
                l(3) =   1
                l(4) =   1
                l(5) =   2
                l(6) =   2
     Q(r) pseudized with 10 coefficients,  rinner =    0.980   0.980   0.980
                                                       0.980   0.980

     PseudoPot. # 3 for Ti read from file:
     ../../pseudos/ti_pbe_v1.4.uspp.F.UPF
     MD5 check sum: 88a00a6731bd790ddea75d31a80cb452
     Pseudo is Ultrasoft + core correction, Zval = 12.0
     Generated by new atomic code, or converted to UPF format
     Using radial grid of  851 points,  6 beta functions with: 
                l(1) =   0
                l(2) =   0
                l(3) =   1
                l(4) =   1
                l(5) =   2
                l(6) =   2
     Q(r) pseudized with  6 coefficients,  rinner =    1.000   1.000   1.000
                                                       1.000   1.000

     atomic species   valence    mass     pseudopotential
     Ni_1             18.00    58.69300     Ni( 1.00)
     Ni_2             18.00    58.69300     Ni( 1.00)
     Ti               12.00    47.86700     Ti( 1.00)

     Starting magnetic structure 
     atomic species   magnetization
     Ni_1            0.041
     Ni_2            0.041
     Ti             -0.083

     24 Sym. Ops., with inversion, found (12 have fractional translation)



   Cartesian axes

     site n.     atom                  positions (alat units)
         1        Ni_2   tau(   1) = (   0.7475311   0.1457630   0.4072917  )
         2        Ni_2   tau(   2) = (  -0.2475311   0.7202624   1.2218750  )
         3        Ni_2   tau(   3) = (  -0.0000000   0.2915259   1.2218750  )
         4        Ni_2   tau(   4) = (   0.2524689   0.1457630   0.4072917  )
         5        Ni_2   tau(   5) = (   0.5000000   0.5744995   0.4072917  )
         6        Ni_2   tau(   6) = (   0.2475311   0.7202624   1.2218750  )
         7        Ni_1   tau(   7) = (   0.0000000   0.0000000   0.0000000  )
         8        Ni_1   tau(   8) = (   0.0000000   0.0000000   0.8145834  )
         9        Ti     tau(   9) = (   0.5000000   0.2886751   1.5309996  )
        10        Ti     tau(  10) = (  -0.0000000   0.5773503   0.7164163  )
        11        Ti     tau(  11) = (  -0.0000000   0.5773503   0.0981671  )
        12        Ti     tau(  12) = (   0.5000000   0.2886751   0.9127505  )

     number of k points=    60  Marzari-Vanderbilt smearing, width (Ry)=  0.0050
                       cart. coord. in units 2pi/alat
        k(    1) = (   0.0000000   0.0000000   0.0000000), wk =   0.0013717
        k(    2) = (   0.0000000   0.0000000   0.0682012), wk =   0.0027435
        k(    3) = (   0.0000000   0.0000000   0.1364024), wk =   0.0027435
        k(    4) = (   0.0000000   0.0000000   0.2046036), wk =   0.0027435
        k(    5) = (   0.0000000   0.0000000   0.2728048), wk =   0.0027435
        k(    6) = (   0.0000000   0.1283001   0.0000000), wk =   0.0082305
        k(    7) = (   0.0000000   0.1283001   0.0682012), wk =   0.0164609
        k(    8) = (   0.0000000   0.1283001   0.1364024), wk =   0.0164609
        k(    9) = (   0.0000000   0.1283001   0.2046036), wk =   0.0164609
        k(   10) = (   0.0000000   0.1283001   0.2728048), wk =   0.0164609
        k(   11) = (   0.0000000   0.2566001   0.0000000), wk =   0.0082305
        k(   12) = (   0.0000000   0.2566001   0.0682012), wk =   0.0164609
        k(   13) = (   0.0000000   0.2566001   0.1364024), wk =   0.0164609
        k(   14) = (   0.0000000   0.2566001   0.2046036), wk =   0.0164609
        k(   15) = (   0.0000000   0.2566001   0.2728048), wk =   0.0164609
        k(   16) = (   0.0000000   0.3849002   0.0000000), wk =   0.0082305
        k(   17) = (   0.0000000   0.3849002   0.0682012), wk =   0.0164609
        k(   18) = (   0.0000000   0.3849002   0.1364024), wk =   0.0164609
        k(   19) = (   0.0000000   0.3849002   0.2046036), wk =   0.0164609
        k(   20) = (   0.0000000   0.3849002   0.2728048), wk =   0.0164609
        k(   21) = (   0.0000000   0.5132002   0.0000000), wk =   0.0082305
        k(   22) = (   0.0000000   0.5132002   0.0682012), wk =   0.0164609
        k(   23) = (   0.0000000   0.5132002   0.1364024), wk =   0.0164609
        k(   24) = (   0.0000000   0.5132002   0.2046036), wk =   0.0164609
        k(   25) = (   0.0000000   0.5132002   0.2728048), wk =   0.0164609
        k(   26) = (   0.1111111   0.1924501   0.0000000), wk =   0.0082305
        k(   27) = (   0.1111111   0.1924501   0.0682012), wk =   0.0164609
        k(   28) = (   0.1111111   0.1924501   0.1364024), wk =   0.0164609
        k(   29) = (   0.1111111   0.1924501   0.2046036), wk =   0.0164609
        k(   30) = (   0.1111111   0.1924501   0.2728048), wk =   0.0164609
        k(   31) = (   0.1111111   0.3207502   0.0000000), wk =   0.0164609
        k(   32) = (   0.1111111   0.3207502   0.0682012), wk =   0.0329218
        k(   33) = (   0.1111111   0.3207502   0.1364024), wk =   0.0329218
        k(   34) = (   0.1111111   0.3207502   0.2046036), wk =   0.0329218
        k(   35) = (   0.1111111   0.3207502   0.2728048), wk =   0.0329218
        k(   36) = (   0.1111111   0.4490502   0.0000000), wk =   0.0164609
        k(   37) = (   0.1111111   0.4490502   0.0682012), wk =   0.0329218
        k(   38) = (   0.1111111   0.4490502   0.1364024), wk =   0.0329218
        k(   39) = (   0.1111111   0.4490502   0.2046036), wk =   0.0329218
        k(   40) = (   0.1111111   0.4490502   0.2728048), wk =   0.0329218
        k(   41) = (   0.1111111   0.5773503   0.0000000), wk =   0.0082305
        k(   42) = (   0.1111111   0.5773503   0.0682012), wk =   0.0164609
        k(   43) = (   0.1111111   0.5773503   0.1364024), wk =   0.0164609
        k(   44) = (   0.1111111   0.5773503   0.2046036), wk =   0.0164609
        k(   45) = (   0.1111111   0.5773503   0.2728048), wk =   0.0164609
        k(   46) = (   0.2222222   0.3849002   0.0000000), wk =   0.0082305
        k(   47) = (   0.2222222   0.3849002   0.0682012), wk =   0.0164609
        k(   48) = (   0.2222222   0.3849002   0.1364024), wk =   0.0164609
        k(   49) = (   0.2222222   0.3849002   0.2046036), wk =   0.0164609
        k(   50) = (   0.2222222   0.3849002   0.2728048), wk =   0.0164609
        k(   51) = (   0.2222222   0.5132002   0.0000000), wk =   0.0164609
        k(   52) = (   0.2222222   0.5132002   0.0682012), wk =   0.0329218
        k(   53) = (   0.2222222   0.5132002   0.1364024), wk =   0.0329218
        k(   54) = (   0.2222222   0.5132002   0.2046036), wk =   0.0329218
        k(   55) = (   0.2222222   0.5132002   0.2728048), wk =   0.0329218
        k(   56) = (   0.3333333   0.5773503   0.0000000), wk =   0.0027435
        k(   57) = (   0.3333333   0.5773503   0.0682012), wk =   0.0054870
        k(   58) = (   0.3333333   0.5773503   0.1364024), wk =   0.0054870
        k(   59) = (   0.3333333   0.5773503   0.2046036), wk =   0.0054870
        k(   60) = (   0.3333333   0.5773503   0.2728048), wk =   0.0054870

     Dense  grid:  1245217 G-vectors     FFT dimensions: ( 120, 120, 200)

     Smooth grid:   190123 G-vectors     FFT dimensions: (  64,  64, 108)

     Estimated max dynamical RAM per process >     661.71 MB

     Estimated total dynamical RAM >      10.34 GB

     Check: negative core charge=   -0.000003
     Generating pointlists ...
     new r_m :   0.2066 (alat units)  1.8539 (a.u.) for type    1
     new r_m :   0.2042 (alat units)  1.8324 (a.u.) for type    2
     new r_m :   0.2395 (alat units)  2.1492 (a.u.) for type    3

     Initial potential from superposition of free atoms

     starting charge     171.9998, renormalised to     192.0000

     negative rho (up, down):  2.761E-03 3.263E-03
     Starting wfcs are  144 randomized atomic wfcs

     total cpu time spent up to now is       23.5 secs

     per-process dynamical memory:   516.6 Mb

     Self-consistent Calculation

     iteration #  1     ecut=   124.00 Ry     beta= 0.20
     CG style diagonalization
     ethr =  1.00E-02,  avg # of iterations =  4.4

     negative rho (up, down):  1.020E-03 1.239E-03

     total cpu time spent up to now is      345.8 secs

     total energy              =   -3248.56708498 Ry
     estimated scf accuracy    <     524.91667343 Ry

     total magnetization       =    -0.24 Bohr mag/cell
     absolute magnetization    =     1.19 Bohr mag/cell

     iteration #  2     ecut=   124.00 Ry     beta= 0.20
     CG style diagonalization
     ethr =  1.00E-02,  avg # of iterations =  3.9

     negative rho (up, down):  3.129E-05 7.443E-06

     total cpu time spent up to now is      574.2 secs

     total energy              =   -3150.89513357 Ry
     estimated scf accuracy    <     278.79772496 Ry

     total magnetization       =    -0.27 Bohr mag/cell
     absolute magnetization    =     2.47 Bohr mag/cell

     iteration #  3     ecut=   124.00 Ry     beta= 0.20
     CG style diagonalization
     c_bands:  1 eigenvalues not converged
     c_bands:  1 eigenvalues not converged
     ethr =  1.00E-02,  avg # of iterations =  6.1

     negative rho (up, down):  3.440E-04 2.595E-04

     total cpu time spent up to now is      967.6 secs

     total energy              =   -3220.65302999 Ry
     estimated scf accuracy    <      95.76040577 Ry

     total magnetization       =     0.08 Bohr mag/cell
     absolute magnetization    =     0.24 Bohr mag/cell

     iteration #  4     ecut=   124.00 Ry     beta= 0.20
     CG style diagonalization
     ethr =  1.00E-02,  avg # of iterations =  3.7

     negative rho (up, down):  1.175E-03 1.232E-03

     total cpu time spent up to now is     1178.8 secs

     total energy              =   -3223.22411935 Ry
     estimated scf accuracy    <      18.05678851 Ry

     total magnetization       =     0.18 Bohr mag/cell
     absolute magnetization    =     0.76 Bohr mag/cell

     iteration #  5     ecut=   124.00 Ry     beta= 0.20
     CG style diagonalization
     ethr =  9.40E-03,  avg # of iterations =  3.9

     negative rho (up, down):  1.091E-03 1.149E-03

     total cpu time spent up to now is     1405.7 secs

     total energy              =   -3234.10699995 Ry
     estimated scf accuracy    <      73.01794181 Ry

     total magnetization       =     0.88 Bohr mag/cell
     absolute magnetization    =     2.97 Bohr mag/cell

     iteration #  6     ecut=   124.00 Ry     beta= 0.20
     CG style diagonalization
     ethr =  9.40E-03,  avg # of iterations =  3.0

     negative rho (up, down):  1.003E-03 1.063E-03

     total cpu time spent up to now is     1567.9 secs

     total energy              =   -3234.47617255 Ry
     estimated scf accuracy    <      79.80122771 Ry

     total magnetization       =     1.51 Bohr mag/cell
     absolute magnetization    =     3.53 Bohr mag/cell

     iteration #  7     ecut=   124.00 Ry     beta= 0.20
     CG style diagonalization
     ethr =  9.40E-03,  avg # of iterations =  3.0

     negative rho (up, down):  1.186E-03 1.157E-03

     total cpu time spent up to now is     1727.9 secs

     total energy              =   -3231.88787606 Ry
     estimated scf accuracy    <      76.05893022 Ry

     total magnetization       =     1.72 Bohr mag/cell
     absolute magnetization    =     3.56 Bohr mag/cell

     iteration #  8     ecut=   124.00 Ry     beta= 0.20
     CG style diagonalization
     ethr =  9.40E-03,  avg # of iterations =  3.0

     negative rho (up, down):  2.066E-03 1.501E-03

     total cpu time spent up to now is     1887.7 secs

     total energy              =   -3218.68227073 Ry
     estimated scf accuracy    <      64.94539958 Ry

     total magnetization       =     1.11 Bohr mag/cell
     absolute magnetization    =     3.05 Bohr mag/cell

     iteration #  9     ecut=   124.00 Ry     beta= 0.20
     CG style diagonalization
     ethr =  9.40E-03,  avg # of iterations =  3.5

     negative rho (up, down):  2.827E-03 1.873E-03

     total cpu time spent up to now is     2085.8 secs

     total energy              =   -3223.42900785 Ry
     estimated scf accuracy    <       1.33305878 Ry

     total magnetization       =    -1.15 Bohr mag/cell
     absolute magnetization    =     1.65 Bohr mag/cell

     iteration # 10     ecut=   124.00 Ry     beta= 0.20
     CG style diagonalization
     c_bands:  1 eigenvalues not converged
     c_bands:  1 eigenvalues not converged
     c_bands:  1 eigenvalues not converged
     ethr =  6.94E-04,  avg # of iterations =  4.1

     negative rho (up, down):  2.194E-03 1.517E-03

     total cpu time spent up to now is     2324.5 secs

     total energy              =   -3222.99557438 Ry
     estimated scf accuracy    <       6.57595324 Ry

     total magnetization       =    -2.17 Bohr mag/cell
     absolute magnetization    =     2.39 Bohr mag/cell

     iteration # 11     ecut=   124.00 Ry     beta= 0.20
     CG style diagonalization
     c_bands:  1 eigenvalues not converged
     ethr =  6.94E-04,  avg # of iterations =  3.3

     negative rho (up, down):  2.178E-03 1.540E-03

     total cpu time spent up to now is     2509.2 secs

     total energy              =   -3223.60616928 Ry
     estimated scf accuracy    <       1.76279178 Ry

     total magnetization       =    -1.25 Bohr mag/cell
     absolute magnetization    =     1.29 Bohr mag/cell

     iteration # 12     ecut=   124.00 Ry     beta= 0.20
     CG style diagonalization
     ethr =  6.94E-04,  avg # of iterations =  3.0

     negative rho (up, down):  1.097E-03 8.775E-04

     total cpu time spent up to now is     2669.2 secs

     total energy              =   -3224.16145458 Ry
     estimated scf accuracy    <       0.95904106 Ry

     total magnetization       =    -1.04 Bohr mag/cell
     absolute magnetization    =     1.08 Bohr mag/cell

     iteration # 13     ecut=   124.00 Ry     beta= 0.20
     CG style diagonalization
     ethr =  5.00E-04,  avg # of iterations =  3.9

     negative rho (up, down):  1.266E-03 9.663E-04

     total cpu time spent up to now is     2892.4 secs

     total energy              =   -3224.50147916 Ry
     estimated scf accuracy    <      10.11679162 Ry

     total magnetization       =     0.31 Bohr mag/cell
     absolute magnetization    =     0.60 Bohr mag/cell

     iteration # 14     ecut=   124.00 Ry     beta= 0.20
     CG style diagonalization
     ethr =  5.00E-04,  avg # of iterations =  3.0

     negative rho (up, down):  1.605E-03 1.122E-03

     total cpu time spent up to now is     3053.6 secs

     total energy              =   -3223.76721459 Ry
     estimated scf accuracy    <       7.69729746 Ry

     total magnetization       =     0.23 Bohr mag/cell
     absolute magnetization    =     0.53 Bohr mag/cell

     iteration # 15     ecut=   124.00 Ry     beta= 0.20
     CG style diagonalization
     ethr =  5.00E-04,  avg # of iterations =  3.2

     negative rho (up, down):  1.867E-03 1.398E-03

     total cpu time spent up to now is     3229.0 secs

     total energy              =   -3223.28557955 Ry
     estimated scf accuracy    <       4.20694987 Ry

     total magnetization       =    -0.22 Bohr mag/cell
     absolute magnetization    =     0.40 Bohr mag/cell

     iteration # 16     ecut=   124.00 Ry     beta= 0.20
     CG style diagonalization
     ethr =  5.00E-04,  avg # of iterations =  3.3

     negative rho (up, down):  1.831E-03 1.358E-03

     total cpu time spent up to now is     3414.5 secs

     total energy              =   -3223.54294130 Ry
     estimated scf accuracy    <       0.09790779 Ry

     total magnetization       =    -0.67 Bohr mag/cell
     absolute magnetization    =     0.72 Bohr mag/cell

     iteration # 17     ecut=   124.00 Ry     beta= 0.20
     CG style diagonalization
     c_bands:  1 eigenvalues not converged
     c_bands:  1 eigenvalues not converged
     c_bands:  1 eigenvalues not converged
     c_bands:  1 eigenvalues not converged
     c_bands:  1 eigenvalues not converged
     c_bands:  1 eigenvalues not converged
     c_bands:  1 eigenvalues not converged
     c_bands:  1 eigenvalues not converged
     c_bands:  1 eigenvalues not converged
     c_bands:  1 eigenvalues not converged
     ethr =  5.10E-05,  avg # of iterations =  3.6

     negative rho (up, down):  1.847E-03 1.387E-03

     total cpu time spent up to now is     3618.7 secs

     total energy              =   -3223.56777438 Ry
     estimated scf accuracy    <       0.29325021 Ry

     total magnetization       =    -0.50 Bohr mag/cell
     absolute magnetization    =     0.54 Bohr mag/cell

     iteration # 18     ecut=   124.00 Ry     beta= 0.20
     CG style diagonalization
     ethr =  5.10E-05,  avg # of iterations =  3.0

     negative rho (up, down):  1.832E-03 1.390E-03

     total cpu time spent up to now is     3780.0 secs

     total energy              =   -3223.57269388 Ry
     estimated scf accuracy    <       0.25898176 Ry

     total magnetization       =    -0.47 Bohr mag/cell
     absolute magnetization    =     0.52 Bohr mag/cell

     iteration # 19     ecut=   124.00 Ry     beta= 0.20
     CG style diagonalization
     ethr =  5.10E-05,  avg # of iterations =  3.0

     negative rho (up, down):  1.900E-03 1.641E-03

     total cpu time spent up to now is     3940.0 secs

     total energy              =   -3223.48767085 Ry
     estimated scf accuracy    <       0.34373700 Ry

     total magnetization       =    -0.45 Bohr mag/cell
     absolute magnetization    =     0.49 Bohr mag/cell

     iteration # 20     ecut=   124.00 Ry     beta= 0.20
     CG style diagonalization
     ethr =  5.10E-05,  avg # of iterations =  3.9

     negative rho (up, down):  1.854E-03 1.488E-03

     total cpu time spent up to now is     4164.8 secs

     total energy              =   -3223.46419687 Ry
     estimated scf accuracy    <       1.47470062 Ry

     total magnetization       =    -0.45 Bohr mag/cell
     absolute magnetization    =     0.47 Bohr mag/cell

     iteration # 21     ecut=   124.00 Ry     beta= 0.20
     CG style diagonalization
     ethr =  5.10E-05,  avg # of iterations =  3.5

     negative rho (up, down):  1.851E-03 1.550E-03

     total cpu time spent up to now is     4358.2 secs

     total energy              =   -3223.55231043 Ry
     estimated scf accuracy    <       0.06039212 Ry

     total magnetization       =    -0.39 Bohr mag/cell
     absolute magnetization    =     0.46 Bohr mag/cell

     iteration # 22     ecut=   124.00 Ry     beta= 0.20
     CG style diagonalization
     ethr =  3.15E-05,  avg # of iterations =  3.0

     negative rho (up, down):  1.849E-03 1.549E-03

     total cpu time spent up to now is     4518.7 secs

     total energy              =   -3223.55574917 Ry
     estimated scf accuracy    <       0.00136589 Ry

     total magnetization       =    -0.38 Bohr mag/cell
     absolute magnetization    =     0.42 Bohr mag/cell

     iteration # 23     ecut=   124.00 Ry     beta= 0.20
     CG style diagonalization
     c_bands:  1 eigenvalues not converged
     c_bands:  1 eigenvalues not converged
     c_bands:  2 eigenvalues not converged
     c_bands:  2 eigenvalues not converged
     c_bands:  1 eigenvalues not converged
     c_bands:  1 eigenvalues not converged
     c_bands:  1 eigenvalues not converged
     c_bands:  2 eigenvalues not converged
     c_bands:  1 eigenvalues not converged
     c_bands:  1 eigenvalues not converged
     c_bands:  1 eigenvalues not converged
     c_bands:  1 eigenvalues not converged
     c_bands:  1 eigenvalues not converged
     c_bands:  1 eigenvalues not converged
     c_bands:  1 eigenvalues not converged
     c_bands:  1 eigenvalues not converged
     c_bands:  1 eigenvalues not converged
     c_bands:  1 eigenvalues not converged
     c_bands:  1 eigenvalues not converged
     c_bands:  1 eigenvalues not converged
     c_bands:  1 eigenvalues not converged
     c_bands:  1 eigenvalues not converged
     c_bands:  1 eigenvalues not converged
     c_bands:  1 eigenvalues not converged
     c_bands:  2 eigenvalues not converged
     c_bands:  2 eigenvalues not converged
     c_bands:  1 eigenvalues not converged
     c_bands:  1 eigenvalues not converged
     ethr =  7.11E-07,  avg # of iterations =  3.7

     negative rho (up, down):  1.845E-03 1.559E-03

     total cpu time spent up to now is     4730.6 secs

     total energy              =   -3223.55588454 Ry
     estimated scf accuracy    <       0.00187171 Ry

     total magnetization       =    -0.38 Bohr mag/cell
     absolute magnetization    =     0.41 Bohr mag/cell

     iteration # 24     ecut=   124.00 Ry     beta= 0.20
     CG style diagonalization
     c_bands:  1 eigenvalues not converged
     c_bands:  1 eigenvalues not converged
     c_bands:  1 eigenvalues not converged
     c_bands:  1 eigenvalues not converged
     ethr =  7.11E-07,  avg # of iterations =  3.1

     negative rho (up, down):  1.824E-03 1.608E-03

     total cpu time spent up to now is     4896.2 secs

     total energy              =   -3223.55572763 Ry
     estimated scf accuracy    <       0.00130189 Ry

     total magnetization       =    -0.35 Bohr mag/cell
     absolute magnetization    =     0.39 Bohr mag/cell

     iteration # 25     ecut=   124.00 Ry     beta= 0.20
     CG style diagonalization
     c_bands:  1 eigenvalues not converged
     ethr =  6.78E-07,  avg # of iterations =  3.1

     negative rho (up, down):  1.818E-03 1.608E-03

     total cpu time spent up to now is     5060.3 secs

     total energy              =   -3223.55586133 Ry
     estimated scf accuracy    <       0.00054875 Ry

     total magnetization       =    -0.26 Bohr mag/cell
     absolute magnetization    =     0.32 Bohr mag/cell

     iteration # 26     ecut=   124.00 Ry     beta= 0.20
     CG style diagonalization
     ethr =  2.86E-07,  avg # of iterations =  3.0

     negative rho (up, down):  1.812E-03 1.606E-03

     total cpu time spent up to now is     5221.0 secs

     total energy              =   -3223.55590053 Ry
     estimated scf accuracy    <       0.00008756 Ry

     total magnetization       =    -0.26 Bohr mag/cell
     absolute magnetization    =     0.31 Bohr mag/cell

     iteration # 27     ecut=   124.00 Ry     beta= 0.20
     CG style diagonalization
     ethr =  4.56E-08,  avg # of iterations =  3.1

     negative rho (up, down):  1.809E-03 1.613E-03

     total cpu time spent up to now is     5384.9 secs

     total energy              =   -3223.55590513 Ry
     estimated scf accuracy    <       0.00021298 Ry

     total magnetization       =    -0.25 Bohr mag/cell
     absolute magnetization    =     0.31 Bohr mag/cell

     iteration # 28     ecut=   124.00 Ry     beta= 0.20
     CG style diagonalization
     ethr =  4.56E-08,  avg # of iterations =  3.0

     negative rho (up, down):  1.796E-03 1.623E-03

     total cpu time spent up to now is     5545.0 secs

     total energy              =   -3223.55590289 Ry
     estimated scf accuracy    <       0.00010127 Ry

     total magnetization       =    -0.24 Bohr mag/cell
     absolute magnetization    =     0.30 Bohr mag/cell

     iteration # 29     ecut=   124.00 Ry     beta= 0.20
     CG style diagonalization
     ethr =  4.56E-08,  avg # of iterations =  3.0

     negative rho (up, down):  1.790E-03 1.621E-03

     total cpu time spent up to now is     5706.0 secs

     total energy              =   -3223.55591116 Ry
     estimated scf accuracy    <       0.00001786 Ry

     total magnetization       =    -0.21 Bohr mag/cell
     absolute magnetization    =     0.28 Bohr mag/cell

     iteration # 30     ecut=   124.00 Ry     beta= 0.20
     CG style diagonalization
     ethr =  9.30E-09,  avg # of iterations =  3.1

     negative rho (up, down):  1.784E-03 1.622E-03

     total cpu time spent up to now is     5871.6 secs

     total energy              =   -3223.55591170 Ry
     estimated scf accuracy    <       0.00001217 Ry

     total magnetization       =    -0.20 Bohr mag/cell
     absolute magnetization    =     0.27 Bohr mag/cell

     iteration # 31     ecut=   124.00 Ry     beta= 0.20
     CG style diagonalization
     ethr =  6.34E-09,  avg # of iterations =  3.0

     negative rho (up, down):  1.768E-03 1.628E-03

     total cpu time spent up to now is     6034.8 secs

     total energy              =   -3223.55591300 Ry
     estimated scf accuracy    <       0.00000746 Ry

     total magnetization       =    -0.19 Bohr mag/cell
     absolute magnetization    =     0.26 Bohr mag/cell

     iteration # 32     ecut=   124.00 Ry     beta= 0.20
     CG style diagonalization
     ethr =  3.88E-09,  avg # of iterations =  3.3

     negative rho (up, down):  1.762E-03 1.633E-03

     total cpu time spent up to now is     6222.6 secs

     total energy              =   -3223.55591959 Ry
     estimated scf accuracy    <       0.00000197 Ry

     total magnetization       =    -0.16 Bohr mag/cell
     absolute magnetization    =     0.24 Bohr mag/cell

     iteration # 33     ecut=   124.00 Ry     beta= 0.20
     CG style diagonalization
     ethr =  1.03E-09,  avg # of iterations =  3.5

     negative rho (up, down):  1.758E-03 1.635E-03

     total cpu time spent up to now is     6422.2 secs

     total energy              =   -3223.55592165 Ry
     estimated scf accuracy    <       0.00000122 Ry

     total magnetization       =    -0.14 Bohr mag/cell
     absolute magnetization    =     0.22 Bohr mag/cell

     iteration # 34     ecut=   124.00 Ry     beta= 0.20
     CG style diagonalization
     ethr =  6.37E-10,  avg # of iterations =  3.2

     negative rho (up, down):  1.757E-03 1.637E-03

     total cpu time spent up to now is     6598.2 secs

     total energy              =   -3223.55592256 Ry
     estimated scf accuracy    <       0.00000063 Ry

     total magnetization       =    -0.14 Bohr mag/cell
     absolute magnetization    =     0.22 Bohr mag/cell

     iteration # 35     ecut=   124.00 Ry     beta= 0.20
     CG style diagonalization
     ethr =  3.30E-10,  avg # of iterations =  3.1

     negative rho (up, down):  1.749E-03 1.645E-03

     total cpu time spent up to now is     6763.2 secs

     total energy              =   -3223.55592333 Ry
     estimated scf accuracy    <       0.00000056 Ry

     total magnetization       =    -0.13 Bohr mag/cell
     absolute magnetization    =     0.21 Bohr mag/cell

     iteration # 36     ecut=   124.00 Ry     beta= 0.20
     CG style diagonalization
     ethr =  2.89E-10,  avg # of iterations =  3.8

     negative rho (up, down):  1.737E-03 1.660E-03

     total cpu time spent up to now is     6978.8 secs

     total energy              =   -3223.55592333 Ry
     estimated scf accuracy    <       0.00000050 Ry

     total magnetization       =    -0.11 Bohr mag/cell
     absolute magnetization    =     0.19 Bohr mag/cell

     iteration # 37     ecut=   124.00 Ry     beta= 0.20
     CG style diagonalization
     ethr =  2.62E-10,  avg # of iterations =  4.4

     negative rho (up, down):  1.731E-03 1.667E-03

     total cpu time spent up to now is     7249.3 secs

     total energy              =   -3223.55592951 Ry
     estimated scf accuracy    <       0.00000125 Ry

     total magnetization       =    -0.08 Bohr mag/cell
     absolute magnetization    =     0.14 Bohr mag/cell

     iteration # 38     ecut=   124.00 Ry     beta= 0.20
     CG style diagonalization
     ethr =  2.62E-10,  avg # of iterations =  3.8

     negative rho (up, down):  1.724E-03 1.673E-03

     total cpu time spent up to now is     7477.4 secs

     total energy              =   -3223.55593128 Ry
     estimated scf accuracy    <       0.00000133 Ry

     total magnetization       =    -0.07 Bohr mag/cell
     absolute magnetization    =     0.12 Bohr mag/cell

     iteration # 39     ecut=   124.00 Ry     beta= 0.20
     CG style diagonalization
     ethr =  2.62E-10,  avg # of iterations =  3.6

     negative rho (up, down):  1.724E-03 1.672E-03

     total cpu time spent up to now is     7685.2 secs

     total energy              =   -3223.55593249 Ry
     estimated scf accuracy    <       0.00000087 Ry

     total magnetization       =    -0.05 Bohr mag/cell
     absolute magnetization    =     0.10 Bohr mag/cell

     iteration # 40     ecut=   124.00 Ry     beta= 0.20
     CG style diagonalization
     ethr =  2.62E-10,  avg # of iterations =  3.1

     negative rho (up, down):  1.718E-03 1.677E-03

     total cpu time spent up to now is     7858.2 secs

     total energy              =   -3223.55593224 Ry
     estimated scf accuracy    <       0.00000037 Ry

     total magnetization       =    -0.05 Bohr mag/cell
     absolute magnetization    =     0.10 Bohr mag/cell

     iteration # 41     ecut=   124.00 Ry     beta= 0.20
     CG style diagonalization
     ethr =  1.95E-10,  avg # of iterations =  3.7

     negative rho (up, down):  1.705E-03 1.690E-03

     total cpu time spent up to now is     8071.7 secs

     total energy              =   -3223.55592851 Ry
     estimated scf accuracy    <       0.00000021 Ry

     total magnetization       =    -0.04 Bohr mag/cell
     absolute magnetization    =     0.08 Bohr mag/cell

     iteration # 42     ecut=   124.00 Ry     beta= 0.20
     CG style diagonalization
     ethr =  1.10E-10,  avg # of iterations =  4.5

     negative rho (up, down):  1.701E-03 1.694E-03

     total cpu time spent up to now is     8337.3 secs

     total energy              =   -3223.55593398 Ry
     estimated scf accuracy    <       0.00000011 Ry

     total magnetization       =    -0.01 Bohr mag/cell
     absolute magnetization    =     0.03 Bohr mag/cell

     iteration # 43     ecut=   124.00 Ry     beta= 0.20
     CG style diagonalization
     ethr =  5.63E-11,  avg # of iterations =  4.0

     negative rho (up, down):  1.699E-03 1.696E-03

     total cpu time spent up to now is     8573.1 secs

     total energy              =   -3223.55593470 Ry
     estimated scf accuracy    <       0.00000002 Ry

     total magnetization       =    -0.00 Bohr mag/cell
     absolute magnetization    =     0.02 Bohr mag/cell

     iteration # 44     ecut=   124.00 Ry     beta= 0.20
     CG style diagonalization
     ethr =  1.20E-11,  avg # of iterations =  4.2

     negative rho (up, down):  1.698E-03 1.696E-03

     total cpu time spent up to now is     8816.8 secs

     total energy              =   -3223.55593485 Ry
     estimated scf accuracy    <       0.00000002 Ry

     total magnetization       =    -0.00 Bohr mag/cell
     absolute magnetization    =     0.01 Bohr mag/cell

     iteration # 45     ecut=   124.00 Ry     beta= 0.20
     CG style diagonalization
     ethr =  8.27E-12,  avg # of iterations =  3.7

     negative rho (up, down):  1.699E-03 1.695E-03

     total cpu time spent up to now is     9026.1 secs

     total energy              =   -3223.55593482 Ry
     estimated scf accuracy    <       0.00000002 Ry

     total magnetization       =    -0.00 Bohr mag/cell
     absolute magnetization    =     0.01 Bohr mag/cell

     iteration # 46     ecut=   124.00 Ry     beta= 0.20
     CG style diagonalization
     ethr =  8.27E-12,  avg # of iterations =  3.6

     negative rho (up, down):  1.699E-03 1.696E-03

     Magnetic moment per site  (integrated on atomic sphere of radius R)
     atom   1 (R=0.204)  charge= 16.4381  magn=  0.0002
     atom   2 (R=0.204)  charge= 16.4381  magn=  0.0002
     atom   3 (R=0.204)  charge= 16.4381  magn=  0.0002
     atom   4 (R=0.204)  charge= 16.4381  magn=  0.0002
     atom   5 (R=0.204)  charge= 16.4381  magn=  0.0002
     atom   6 (R=0.204)  charge= 16.4381  magn=  0.0002
     atom   7 (R=0.207)  charge= 16.5120  magn=  0.0003
     atom   8 (R=0.207)  charge= 16.5120  magn=  0.0003
     atom   9 (R=0.240)  charge= 10.2210  magn= -0.0011
     atom  10 (R=0.240)  charge= 10.2210  magn= -0.0011
     atom  11 (R=0.240)  charge= 10.2210  magn= -0.0011
     atom  12 (R=0.240)  charge= 10.2210  magn= -0.0011

     total cpu time spent up to now is     9225.9 secs

     End of self-consistent calculation

     Number of k-points >= 100: set verbosity='high' to print the bands.

     the Fermi energy is    16.7057 ev

!    total energy              =   -3223.55593486 Ry
     estimated scf accuracy    <          4.3E-09 Ry
     smearing contrib. (-TS)   =       0.00039344 Ry
     internal energy E=F+TS    =   -3223.55632830 Ry

     The total energy is F=E-TS. E is the sum of the following terms:
     one-electron contribution =   -1959.31042458 Ry
     hartree contribution      =    1086.30261987 Ry
     xc contribution           =    -356.53766907 Ry
     ewald contribution        =   -1994.01085452 Ry

     total magnetization       =    -0.00 Bohr mag/cell
     absolute magnetization    =     0.01 Bohr mag/cell

     convergence has been achieved in  46 iterations

     negative rho (up, down):  1.699E-03 1.696E-03

     Forces acting on atoms (cartesian axes, Ry/au):

     atom    1 type  2   force =     0.00001874   -0.00001082    0.00000000
     atom    2 type  2   force =    -0.00001874    0.00001082   -0.00000000
     atom    3 type  2   force =    -0.00000000   -0.00002164    0.00000000
     atom    4 type  2   force =    -0.00001874   -0.00001082   -0.00000000
     atom    5 type  2   force =    -0.00000000    0.00002164   -0.00000000
     atom    6 type  2   force =     0.00001874    0.00001082   -0.00000000
     atom    7 type  1   force =     0.00000000   -0.00000000   -0.00000000
     atom    8 type  1   force =    -0.00000000   -0.00000000    0.00000000
     atom    9 type  3   force =    -0.00000000   -0.00000000   -0.00016301
     atom   10 type  3   force =     0.00000000    0.00000000   -0.00016301
     atom   11 type  3   force =     0.00000000    0.00000000    0.00016301
     atom   12 type  3   force =     0.00000000   -0.00000000    0.00016301

     Total force =     0.000330     Total SCF correction =     0.000062
     SCF correction compared to forces is large: reduce conv_thr to get better values


     Computing stress (Cartesian axis) and pressure


     negative rho (up, down):  1.699E-03 1.696E-03
          total   stress  (Ry/bohr**3)                   (kbar)     P=       -0.48
  -0.00000326  -0.00000000   0.00000000           -0.48       -0.00        0.00
  -0.00000000  -0.00000326   0.00000000           -0.00       -0.48        0.00
   0.00000000   0.00000000  -0.00000321            0.00        0.00       -0.47


     BFGS Geometry Optimization
     Energy error            =      9.1E-07 Ry
     Gradient error          =      1.6E-04 Ry/Bohr
     Cell gradient error     =      4.8E-01 kbar

     number of scf cycles    =   1
     number of bfgs steps    =   0

     enthalpy           new  =   -3223.5559348570 Ry

     new trust radius        =       0.0005199966 bohr
     new conv_thr            =       0.0000000100 Ry

     new unit-cell volume =   1018.99373 a.u.^3 (   150.99929 Ang^3 )
     density =      7.26915 g/cm^3

CELL_PARAMETERS (alat=  8.97277915)
   0.999918561  -0.000000000   0.000000000
  -0.499959281   0.865954872   0.000000000
   0.000000000   0.000000000   1.629036016

ATOMIC_POSITIONS (crystal)
Ni_2             0.8316888200        0.1683111800        0.2500000000
Ni_2             0.1683111800        0.8316888200        0.7500000000
Ni_2             0.1683111800        0.3366223700        0.7500000000
Ni_2             0.3366223700        0.1683111800        0.2500000000
Ni_2             0.8316888200        0.6633776300        0.2500000000
Ni_2             0.6633776300        0.8316888200        0.7500000000
Ni_1            -0.0000000000       -0.0000000000       -0.0000000000
Ni_1            -0.0000000000       -0.0000000000        0.5000000000
Ti               0.6666666667        0.3333333333        0.9397328271
Ti               0.3333333333        0.6666666667        0.4397328271
Ti               0.3333333333        0.6666666667        0.0602671729
Ti               0.6666666667        0.3333333333        0.5602671729



     Writing config-only to output data dir ./TiNi2_hex.save/ :
     XML data file     NEW-OLD atomic charge density approx. for the potential
     New effective cutoffs (rho, wfc): 1736.26  124.02

     Check: negative core charge=   -0.000003

     negative rho (up, down):  1.699E-03 1.695E-03
     Generating pointlists ...

     total cpu time spent up to now is     9259.8 secs

     per-process dynamical memory:   554.9 Mb

     Self-consistent Calculation

     iteration #  1     ecut=   124.00 Ry     beta= 0.20
     CG style diagonalization
     ethr =  1.00E-06,  avg # of iterations =  2.0

     Threshold (ethr) on eigenvalues was too large:
     Diagonalizing with lowered threshold

     CG style diagonalization
     c_bands:  4 eigenvalues not converged
     c_bands:  4 eigenvalues not converged
     c_bands:  3 eigenvalues not converged
     c_bands:  5 eigenvalues not converged
     c_bands:  4 eigenvalues not converged
     c_bands:  5 eigenvalues not converged
     c_bands:  2 eigenvalues not converged
     c_bands:  4 eigenvalues not converged
     c_bands:  1 eigenvalues not converged
     c_bands:  5 eigenvalues not converged
     c_bands:  3 eigenvalues not converged
     c_bands:  2 eigenvalues not converged
     c_bands:  4 eigenvalues not converged
     c_bands:  1 eigenvalues not converged
     c_bands:  1 eigenvalues not converged
     c_bands:  1 eigenvalues not converged
     c_bands:  1 eigenvalues not converged
     c_bands:  1 eigenvalues not converged
     c_bands:  1 eigenvalues not converged
     c_bands:  3 eigenvalues not converged
     c_bands:  1 eigenvalues not converged
     c_bands:  3 eigenvalues not converged
     c_bands:  3 eigenvalues not converged
     c_bands:  3 eigenvalues not converged
     c_bands:  4 eigenvalues not converged
     c_bands:  2 eigenvalues not converged
     c_bands:  1 eigenvalues not converged
     c_bands:  3 eigenvalues not converged
     c_bands:  2 eigenvalues not converged
     c_bands:  2 eigenvalues not converged
     c_bands:  2 eigenvalues not converged
     c_bands:  3 eigenvalues not converged
     c_bands:  2 eigenvalues not converged
     c_bands:  1 eigenvalues not converged
     c_bands:  1 eigenvalues not converged
     c_bands:  1 eigenvalues not converged
     c_bands:  2 eigenvalues not converged
     c_bands:  1 eigenvalues not converged
     c_bands:  1 eigenvalues not converged
     c_bands:  2 eigenvalues not converged
     c_bands:  3 eigenvalues not converged
     c_bands:  5 eigenvalues not converged
     c_bands:  3 eigenvalues not converged
     c_bands:  3 eigenvalues not converged
     c_bands:  3 eigenvalues not converged
     c_bands:  2 eigenvalues not converged
     c_bands:  1 eigenvalues not converged
     c_bands:  2 eigenvalues not converged
     c_bands:  2 eigenvalues not converged
     c_bands:  1 eigenvalues not converged
     c_bands:  3 eigenvalues not converged
     c_bands:  1 eigenvalues not converged
     c_bands:  1 eigenvalues not converged
     c_bands:  1 eigenvalues not converged
     c_bands:  2 eigenvalues not converged
     c_bands:  1 eigenvalues not converged
     c_bands:  2 eigenvalues not converged
     c_bands:  2 eigenvalues not converged
     c_bands:  2 eigenvalues not converged
     c_bands:  3 eigenvalues not converged
     c_bands:  2 eigenvalues not converged
     c_bands:  1 eigenvalues not converged
     c_bands:  3 eigenvalues not converged
     c_bands:  1 eigenvalues not converged
     c_bands:  2 eigenvalues not converged
     c_bands:  3 eigenvalues not converged
     c_bands:  2 eigenvalues not converged
     c_bands:  1 eigenvalues not converged
     c_bands:  1 eigenvalues not converged
     c_bands:  1 eigenvalues not converged
     ethr =  2.81E-10,  avg # of iterations =  5.9

     negative rho (up, down):  1.698E-03 1.695E-03

     total cpu time spent up to now is     9818.4 secs

     total energy              =   -3223.55593339 Ry
     estimated scf accuracy    <       0.00001196 Ry

     total magnetization       =    -0.00 Bohr mag/cell
     absolute magnetization    =     0.01 Bohr mag/cell

     iteration #  2     ecut=   124.00 Ry     beta= 0.20
     CG style diagonalization
     ethr =  6.23E-09,  avg # of iterations =  3.0

     negative rho (up, down):  1.698E-03 1.695E-03

     total cpu time spent up to now is     9975.4 secs

     total energy              =   -3223.55593436 Ry
     estimated scf accuracy    <       0.00000024 Ry

     total magnetization       =    -0.00 Bohr mag/cell
     absolute magnetization    =     0.01 Bohr mag/cell

     iteration #  3     ecut=   124.00 Ry     beta= 0.20
     CG style diagonalization
     ethr =  1.25E-10,  avg # of iterations =  3.3

     negative rho (up, down):  1.698E-03 1.695E-03

     total cpu time spent up to now is    10150.9 secs

     total energy              =   -3223.55593458 Ry
     estimated scf accuracy    <       0.00000009 Ry

     total magnetization       =    -0.00 Bohr mag/cell
     absolute magnetization    =     0.01 Bohr mag/cell

     iteration #  4     ecut=   124.00 Ry     beta= 0.20
     CG style diagonalization
     ethr =  4.58E-11,  avg # of iterations =  3.2

     negative rho (up, down):  1.699E-03 1.695E-03

     total cpu time spent up to now is    10319.9 secs

     total energy              =   -3223.55593473 Ry
     estimated scf accuracy    <       0.00000003 Ry

     total magnetization       =    -0.00 Bohr mag/cell
     absolute magnetization    =     0.01 Bohr mag/cell

     iteration #  5     ecut=   124.00 Ry     beta= 0.20
     CG style diagonalization
     ethr =  1.34E-11,  avg # of iterations =  3.2

     negative rho (up, down):  1.699E-03 1.696E-03

     Magnetic moment per site  (integrated on atomic sphere of radius R)
     atom   1 (R=0.204)  charge= 16.4383  magn=  0.0001
     atom   2 (R=0.204)  charge= 16.4383  magn=  0.0001
     atom   3 (R=0.204)  charge= 16.4383  magn=  0.0001
     atom   4 (R=0.204)  charge= 16.4383  magn=  0.0001
     atom   5 (R=0.204)  charge= 16.4383  magn=  0.0001
     atom   6 (R=0.204)  charge= 16.4383  magn=  0.0001
     atom   7 (R=0.207)  charge= 16.5123  magn=  0.0003
     atom   8 (R=0.207)  charge= 16.5123  magn=  0.0003
     atom   9 (R=0.240)  charge= 10.2213  magn= -0.0009
     atom  10 (R=0.240)  charge= 10.2213  magn= -0.0009
     atom  11 (R=0.240)  charge= 10.2213  magn= -0.0009
     atom  12 (R=0.240)  charge= 10.2213  magn= -0.0009

     total cpu time spent up to now is    10487.2 secs

     End of self-consistent calculation

     Number of k-points >= 100: set verbosity='high' to print the bands.

     the Fermi energy is    16.7107 ev

!    total energy              =   -3223.55593498 Ry
     estimated scf accuracy    <          5.8E-09 Ry
     smearing contrib. (-TS)   =       0.00039358 Ry
     internal energy E=F+TS    =   -3223.55632856 Ry

     The total energy is F=E-TS. E is the sum of the following terms:
     one-electron contribution =   -1959.05118172 Ry
     hartree contribution      =    1086.20567267 Ry
     xc contribution           =    -356.53964072 Ry
     ewald contribution        =   -1994.17117879 Ry

     total magnetization       =    -0.00 Bohr mag/cell
     absolute magnetization    =     0.01 Bohr mag/cell

     convergence has been achieved in   5 iterations

     negative rho (up, down):  1.699E-03 1.696E-03

     Forces acting on atoms (cartesian axes, Ry/au):

     atom    1 type  2   force =    -0.00005177    0.00002989   -0.00000000
     atom    2 type  2   force =     0.00005177   -0.00002989   -0.00000000
     atom    3 type  2   force =    -0.00000000    0.00005978   -0.00000000
     atom    4 type  2   force =     0.00005177    0.00002989    0.00000000
     atom    5 type  2   force =     0.00000000   -0.00005978   -0.00000000
     atom    6 type  2   force =    -0.00005177   -0.00002989    0.00000000
     atom    7 type  1   force =    -0.00000000   -0.00000000    0.00000000
     atom    8 type  1   force =    -0.00000000   -0.00000000    0.00000000
     atom    9 type  3   force =     0.00000000    0.00000000   -0.00000454
     atom   10 type  3   force =    -0.00000000   -0.00000000   -0.00000454
     atom   11 type  3   force =    -0.00000000   -0.00000000    0.00000454
     atom   12 type  3   force =    -0.00000000   -0.00000000    0.00000454

     Total force =     0.000147     Total SCF correction =     0.000495
     SCF correction compared to forces is large: reduce conv_thr to get better values


     Computing stress (Cartesian axis) and pressure


     negative rho (up, down):  1.699E-03 1.696E-03
          total   stress  (Ry/bohr**3)                   (kbar)     P=       -0.10
  -0.00000077   0.00000000  -0.00000000           -0.11        0.00       -0.00
  -0.00000000  -0.00000077  -0.00000000           -0.00       -0.11       -0.00
   0.00000000   0.00000000  -0.00000057            0.00        0.00       -0.08

     Energy error            =      1.3E-07 Ry
     Gradient error          =      6.0E-05 Ry/Bohr
     Cell gradient error     =      1.1E-01 kbar

     number of scf cycles    =   2
     number of bfgs steps    =   1

     enthalpy           old  =   -3223.5559348570 Ry
     enthalpy           new  =   -3223.5559349823 Ry

     CASE: enthalpy          _new < enthalpy          _old

     new trust radius        =       0.0001762393 bohr
     new conv_thr            =            1.0E-10 Ry

     new unit-cell volume =   1018.91582 a.u.^3 (   150.98775 Ang^3 )
     density =      7.26970 g/cm^3

CELL_PARAMETERS (alat=  8.97277915)
   0.999890958  -0.000000000   0.000000000
  -0.499945479   0.865930967   0.000000000
  -0.000000000  -0.000000000   1.629001409

ATOMIC_POSITIONS (crystal)
Ni_2             0.8316841589        0.1683158411        0.2500000000
Ni_2             0.1683158411        0.8316841589        0.7500000000
Ni_2             0.1683158411        0.3366316922        0.7500000000
Ni_2             0.3366316922        0.1683158411        0.2500000000
Ni_2             0.8316841589        0.6633683078        0.2500000000
Ni_2             0.6633683078        0.8316841589        0.7500000000
Ni_1            -0.0000000000       -0.0000000000        0.0000000000
Ni_1            -0.0000000000       -0.0000000000        0.5000000000
Ti               0.6666666667        0.3333333333        0.9397319185
Ti               0.3333333333        0.6666666667        0.4397319185
Ti               0.3333333333        0.6666666667        0.0602680815
Ti               0.6666666667        0.3333333333        0.5602680815



     Writing config-only to output data dir ./TiNi2_hex.save/ :
     XML data file     NEW-OLD atomic charge density approx. for the potential
     New effective cutoffs (rho, wfc): 1736.35  124.03

     Check: negative core charge=   -0.000003

     negative rho (up, down):  1.698E-03 1.696E-03
     Generating pointlists ...

     total cpu time spent up to now is    10520.9 secs

     per-process dynamical memory:   535.0 Mb

     Self-consistent Calculation

     iteration #  1     ecut=   124.00 Ry     beta= 0.20
     CG style diagonalization
     ethr =  1.00E-06,  avg # of iterations =  2.0

     Threshold (ethr) on eigenvalues was too large:
     Diagonalizing with lowered threshold

     CG style diagonalization
     c_bands:  1 eigenvalues not converged
     c_bands:  2 eigenvalues not converged
     c_bands:  1 eigenvalues not converged
     c_bands:  1 eigenvalues not converged
     c_bands:  2 eigenvalues not converged
     c_bands:  3 eigenvalues not converged
     c_bands:  3 eigenvalues not converged
     c_bands:  1 eigenvalues not converged
     c_bands:  1 eigenvalues not converged
     c_bands:  1 eigenvalues not converged
     c_bands:  1 eigenvalues not converged
     c_bands:  2 eigenvalues not converged
     c_bands:  2 eigenvalues not converged
     c_bands:  3 eigenvalues not converged
     c_bands:  3 eigenvalues not converged
     c_bands:  5 eigenvalues not converged
     c_bands:  3 eigenvalues not converged
     c_bands:  3 eigenvalues not converged
     c_bands:  1 eigenvalues not converged
     c_bands:  2 eigenvalues not converged
     c_bands:  2 eigenvalues not converged
     c_bands:  3 eigenvalues not converged
     c_bands:  5 eigenvalues not converged
     c_bands:  5 eigenvalues not converged
     c_bands:  3 eigenvalues not converged
     c_bands:  3 eigenvalues not converged
     c_bands:  2 eigenvalues not converged
     c_bands:  2 eigenvalues not converged
     c_bands:  2 eigenvalues not converged
     c_bands:  4 eigenvalues not converged
     c_bands:  1 eigenvalues not converged
     c_bands:  1 eigenvalues not converged
     c_bands:  1 eigenvalues not converged
     c_bands:  1 eigenvalues not converged
     c_bands:  1 eigenvalues not converged
     c_bands:  1 eigenvalues not converged
     c_bands:  3 eigenvalues not converged
     c_bands:  1 eigenvalues not converged
     c_bands:  1 eigenvalues not converged
     c_bands:  1 eigenvalues not converged
     c_bands:  2 eigenvalues not converged
     c_bands:  1 eigenvalues not converged
     c_bands:  2 eigenvalues not converged
     c_bands:  1 eigenvalues not converged
     c_bands:  2 eigenvalues not converged
     c_bands:  3 eigenvalues not converged
     c_bands:  5 eigenvalues not converged
     c_bands:  2 eigenvalues not converged
     c_bands:  3 eigenvalues not converged
     c_bands:  3 eigenvalues not converged
     c_bands:  2 eigenvalues not converged
     c_bands:  3 eigenvalues not converged
     c_bands:  1 eigenvalues not converged
     c_bands:  2 eigenvalues not converged
     c_bands:  5 eigenvalues not converged
     c_bands:  5 eigenvalues not converged
     c_bands:  3 eigenvalues not converged
     c_bands:  3 eigenvalues not converged
     c_bands:  2 eigenvalues not converged
     c_bands:  2 eigenvalues not converged
     c_bands:  2 eigenvalues not converged
     c_bands:  3 eigenvalues not converged
     ethr =  1.01E-10,  avg # of iterations =  5.8

     negative rho (up, down):  1.698E-03 1.695E-03

     total cpu time spent up to now is    11059.5 secs

     total energy              =   -3223.55593468 Ry
     estimated scf accuracy    <       0.00000159 Ry

     total magnetization       =    -0.00 Bohr mag/cell
     absolute magnetization    =     0.01 Bohr mag/cell

     iteration #  2     ecut=   124.00 Ry     beta= 0.20
     CG style diagonalization
     ethr =  8.26E-10,  avg # of iterations =  3.0

     negative rho (up, down):  1.698E-03 1.696E-03

     total cpu time spent up to now is    11214.5 secs

     total energy              =   -3223.55593479 Ry
     estimated scf accuracy    <       0.00000007 Ry

     total magnetization       =    -0.00 Bohr mag/cell
     absolute magnetization    =     0.01 Bohr mag/cell

     iteration #  3     ecut=   124.00 Ry     beta= 0.20
     CG style diagonalization
     ethr =  3.40E-11,  avg # of iterations =  3.1

     negative rho (up, down):  1.698E-03 1.696E-03

     total cpu time spent up to now is    11379.1 secs

     total energy              =   -3223.55593481 Ry
     estimated scf accuracy    <       0.00000004 Ry

     total magnetization       =    -0.00 Bohr mag/cell
     absolute magnetization    =     0.01 Bohr mag/cell

     iteration #  4     ecut=   124.00 Ry     beta= 0.20
     CG style diagonalization
     c_bands:  1 eigenvalues not converged
     ethr =  1.92E-11,  avg # of iterations =  3.3

     negative rho (up, down):  1.698E-03 1.696E-03

     total cpu time spent up to now is    11556.5 secs

     total energy              =   -3223.55593483 Ry
     estimated scf accuracy    <          6.7E-09 Ry

     total magnetization       =    -0.00 Bohr mag/cell
     absolute magnetization    =     0.00 Bohr mag/cell

     iteration #  5     ecut=   124.00 Ry     beta= 0.20
     CG style diagonalization
     ethr =  3.47E-12,  avg # of iterations =  3.2

     negative rho (up, down):  1.698E-03 1.696E-03

     total cpu time spent up to now is    11722.6 secs

     total energy              =   -3223.55593484 Ry
     estimated scf accuracy    <          2.9E-09 Ry

     total magnetization       =    -0.00 Bohr mag/cell
     absolute magnetization    =     0.00 Bohr mag/cell

     iteration #  6     ecut=   124.00 Ry     beta= 0.20
     CG style diagonalization
     ethr =  1.51E-12,  avg # of iterations =  3.5

     negative rho (up, down):  1.698E-03 1.696E-03

     total cpu time spent up to now is    11913.7 secs

     total energy              =   -3223.55593484 Ry
     estimated scf accuracy    <          3.4E-09 Ry

     total magnetization       =    -0.00 Bohr mag/cell
     absolute magnetization    =     0.00 Bohr mag/cell

     iteration #  7     ecut=   124.00 Ry     beta= 0.20
     CG style diagonalization
     ethr =  1.51E-12,  avg # of iterations =  3.4

     negative rho (up, down):  1.698E-03 1.696E-03

     total cpu time spent up to now is    12096.4 secs

     total energy              =   -3223.55593485 Ry
     estimated scf accuracy    <          3.6E-09 Ry

     total magnetization       =    -0.00 Bohr mag/cell
     absolute magnetization    =     0.00 Bohr mag/cell

     iteration #  8     ecut=   124.00 Ry     beta= 0.20
     CG style diagonalization
     ethr =  1.51E-12,  avg # of iterations =  3.0

     negative rho (up, down):  1.698E-03 1.696E-03

     total cpu time spent up to now is    12249.0 secs

     total energy              =   -3223.55593485 Ry
     estimated scf accuracy    <          2.8E-10 Ry

     total magnetization       =    -0.00 Bohr mag/cell
     absolute magnetization    =     0.00 Bohr mag/cell

     iteration #  9     ecut=   124.00 Ry     beta= 0.20
     CG style diagonalization
     ethr =  1.47E-13,  avg # of iterations =  3.8

     negative rho (up, down):  1.698E-03 1.696E-03

     total cpu time spent up to now is    12457.1 secs

     total energy              =   -3223.55593485 Ry
     estimated scf accuracy    <          1.6E-09 Ry

     total magnetization       =    -0.00 Bohr mag/cell
     absolute magnetization    =     0.00 Bohr mag/cell

     iteration # 10     ecut=   124.00 Ry     beta= 0.20
     CG style diagonalization
     ethr =  1.47E-13,  avg # of iterations =  3.7

     negative rho (up, down):  1.698E-03 1.696E-03

     total cpu time spent up to now is    12660.4 secs

     total energy              =   -3223.55593485 Ry
     estimated scf accuracy    <          1.2E-09 Ry

     total magnetization       =    -0.00 Bohr mag/cell
     absolute magnetization    =     0.00 Bohr mag/cell

     iteration # 11     ecut=   124.00 Ry     beta= 0.20
     CG style diagonalization
     ethr =  1.47E-13,  avg # of iterations =  3.9

     negative rho (up, down):  1.697E-03 1.697E-03

     total cpu time spent up to now is    12871.1 secs

     total energy              =   -3223.55593485 Ry
     estimated scf accuracy    <          2.0E-09 Ry

     total magnetization       =    -0.00 Bohr mag/cell
     absolute magnetization    =     0.00 Bohr mag/cell

     iteration # 12     ecut=   124.00 Ry     beta= 0.20
     CG style diagonalization
     ethr =  1.47E-13,  avg # of iterations =  4.3

     negative rho (up, down):  1.697E-03 1.697E-03

     total cpu time spent up to now is    13114.6 secs

     total energy              =   -3223.55593485 Ry
     estimated scf accuracy    <          8.1E-10 Ry

     total magnetization       =    -0.00 Bohr mag/cell
     absolute magnetization    =     0.00 Bohr mag/cell

     iteration # 13     ecut=   124.00 Ry     beta= 0.20
     CG style diagonalization
     ethr =  1.47E-13,  avg # of iterations =  3.9

     negative rho (up, down):  1.697E-03 1.697E-03

     Magnetic moment per site  (integrated on atomic sphere of radius R)
     atom   1 (R=0.204)  charge= 16.4384  magn=  0.0000
     atom   2 (R=0.204)  charge= 16.4384  magn=  0.0000
     atom   3 (R=0.204)  charge= 16.4384  magn=  0.0000
     atom   4 (R=0.204)  charge= 16.4384  magn=  0.0000
     atom   5 (R=0.204)  charge= 16.4384  magn=  0.0000
     atom   6 (R=0.204)  charge= 16.4384  magn=  0.0000
     atom   7 (R=0.207)  charge= 16.5123  magn=  0.0000
     atom   8 (R=0.207)  charge= 16.5123  magn=  0.0000
     atom   9 (R=0.240)  charge= 10.2215  magn= -0.0001
     atom  10 (R=0.240)  charge= 10.2215  magn= -0.0001
     atom  11 (R=0.240)  charge= 10.2215  magn= -0.0001
     atom  12 (R=0.240)  charge= 10.2215  magn= -0.0001

     total cpu time spent up to now is    13331.9 secs

     End of self-consistent calculation

     Number of k-points >= 100: set verbosity='high' to print the bands.

     the Fermi energy is    16.7123 ev

!    total energy              =   -3223.55593486 Ry
     estimated scf accuracy    <          3.6E-11 Ry
     smearing contrib. (-TS)   =       0.00039348 Ry
     internal energy E=F+TS    =   -3223.55632834 Ry

     The total energy is F=E-TS. E is the sum of the following terms:
     one-electron contribution =   -1958.95914026 Ry
     hartree contribution      =    1086.17081560 Ry
     xc contribution           =    -356.54041667 Ry
     ewald contribution        =   -1994.22758700 Ry

     total magnetization       =    -0.00 Bohr mag/cell
     absolute magnetization    =     0.00 Bohr mag/cell

     convergence has been achieved in  13 iterations

     negative rho (up, down):  1.697E-03 1.697E-03

     Forces acting on atoms (cartesian axes, Ry/au):

     atom    1 type  2   force =     0.00000752   -0.00000434   -0.00000000
     atom    2 type  2   force =    -0.00000752    0.00000434   -0.00000000
     atom    3 type  2   force =    -0.00000000   -0.00000869   -0.00000000
     atom    4 type  2   force =    -0.00000752   -0.00000434   -0.00000000
     atom    5 type  2   force =     0.00000000    0.00000869    0.00000000
     atom    6 type  2   force =     0.00000752    0.00000434    0.00000000
     atom    7 type  1   force =     0.00000000    0.00000000    0.00000000
     atom    8 type  1   force =    -0.00000000    0.00000000    0.00000000
     atom    9 type  3   force =     0.00000000   -0.00000000   -0.00014336
     atom   10 type  3   force =     0.00000000    0.00000000   -0.00014336
     atom   11 type  3   force =     0.00000000    0.00000000    0.00014336
     atom   12 type  3   force =     0.00000000   -0.00000000    0.00014336

     Total force =     0.000288     Total SCF correction =     0.000046
     SCF correction compared to forces is large: reduce conv_thr to get better values


     Computing stress (Cartesian axis) and pressure


     negative rho (up, down):  1.697E-03 1.697E-03
          total   stress  (Ry/bohr**3)                   (kbar)     P=        0.31
   0.00000210  -0.00000000   0.00000000            0.31       -0.00        0.00
  -0.00000000   0.00000210   0.00000000           -0.00        0.31        0.00
   0.00000000   0.00000000   0.00000209            0.00        0.00        0.31

     Energy error            =      1.3E-07 Ry
     Gradient error          =      1.4E-04 Ry/Bohr
     Cell gradient error     =      3.1E-01 kbar

     number of scf cycles    =   3
     number of bfgs steps    =   2

     enthalpy           old  =   -3223.5559349823 Ry
     enthalpy           new  =   -3223.5559348565 Ry

     CASE: enthalpy          _new > enthalpy          _old

     new trust radius        =       0.0000347804 bohr

     trust_radius < trust_radius_min

     resetting bfgs history

     new conv_thr            =            1.0E-10 Ry

     new unit-cell volume =   1018.93986 a.u.^3 (   150.99131 Ang^3 )
     density =      7.26953 g/cm^3

CELL_PARAMETERS (alat=  8.97277915)
   0.999899230  -0.000000000   0.000000000
  -0.499949615   0.865938131   0.000000000
  -0.000000000  -0.000000000   1.629012878

ATOMIC_POSITIONS (crystal)
Ni_2             0.8316849731        0.1683150269        0.2500000000
Ni_2             0.1683150269        0.8316849731        0.7500000000
Ni_2             0.1683150269        0.3366300637        0.7500000000
Ni_2             0.3366300637        0.1683150269        0.2500000000
Ni_2             0.8316849731        0.6633699363        0.2500000000
Ni_2             0.6633699363        0.8316849731        0.7500000000
Ni_1            -0.0000000000       -0.0000000000        0.0000000000
Ni_1            -0.0000000000       -0.0000000000        0.5000000000
Ti               0.6666666667        0.3333333333        0.9397325163
Ti               0.3333333333        0.6666666667        0.4397325163
Ti               0.3333333333        0.6666666667        0.0602674837
Ti               0.6666666667        0.3333333333        0.5602674837



     Writing config-only to output data dir ./TiNi2_hex.save/ :
     XML data file     NEW-OLD atomic charge density approx. for the potential
     New effective cutoffs (rho, wfc): 1736.32  124.02

     Check: negative core charge=   -0.000003

     negative rho (up, down):  1.697E-03 1.697E-03
     Generating pointlists ...

     total cpu time spent up to now is    13365.4 secs

     per-process dynamical memory:   535.0 Mb

     Self-consistent Calculation

     iteration #  1     ecut=   124.00 Ry     beta= 0.20
     CG style diagonalization
     ethr =  1.00E-06,  avg # of iterations =  2.0

     Threshold (ethr) on eigenvalues was too large:
     Diagonalizing with lowered threshold

     CG style diagonalization
     c_bands:  4 eigenvalues not converged
     c_bands:  3 eigenvalues not converged
     c_bands:  3 eigenvalues not converged
     c_bands:  1 eigenvalues not converged
     c_bands:  2 eigenvalues not converged
     c_bands:  2 eigenvalues not converged
     c_bands:  2 eigenvalues not converged
     c_bands:  1 eigenvalues not converged
     c_bands:  1 eigenvalues not converged
     c_bands:  1 eigenvalues not converged
     c_bands:  2 eigenvalues not converged
     c_bands:  1 eigenvalues not converged
     c_bands:  1 eigenvalues not converged
     c_bands:  2 eigenvalues not converged
     c_bands:  1 eigenvalues not converged
     c_bands:  2 eigenvalues not converged
     c_bands:  1 eigenvalues not converged
     c_bands:  1 eigenvalues not converged
     c_bands:  1 eigenvalues not converged
     c_bands:  2 eigenvalues not converged
     c_bands:  2 eigenvalues not converged
     c_bands:  1 eigenvalues not converged
     c_bands:  2 eigenvalues not converged
     c_bands:  3 eigenvalues not converged
     c_bands:  1 eigenvalues not converged
     c_bands:  1 eigenvalues not converged
     c_bands:  3 eigenvalues not converged
     c_bands:  2 eigenvalues not converged
     c_bands:  2 eigenvalues not converged
     c_bands:  1 eigenvalues not converged
     c_bands:  1 eigenvalues not converged
     c_bands:  1 eigenvalues not converged
     c_bands:  1 eigenvalues not converged
     c_bands:  1 eigenvalues not converged
     c_bands:  1 eigenvalues not converged
     c_bands:  2 eigenvalues not converged
     c_bands:  2 eigenvalues not converged
     c_bands:  3 eigenvalues not converged
     c_bands:  4 eigenvalues not converged
     c_bands:  2 eigenvalues not converged
     c_bands:  4 eigenvalues not converged
     c_bands:  2 eigenvalues not converged
     c_bands:  1 eigenvalues not converged
     c_bands:  1 eigenvalues not converged
     c_bands:  1 eigenvalues not converged
     c_bands:  1 eigenvalues not converged
     c_bands:  1 eigenvalues not converged
     c_bands:  1 eigenvalues not converged
     c_bands:  1 eigenvalues not converged
     c_bands:  1 eigenvalues not converged
     c_bands:  1 eigenvalues not converged
     c_bands:  1 eigenvalues not converged
     c_bands:  1 eigenvalues not converged
     c_bands:  2 eigenvalues not converged
     c_bands:  2 eigenvalues not converged
     c_bands:  1 eigenvalues not converged
     c_bands:  2 eigenvalues not converged
     c_bands:  2 eigenvalues not converged
     c_bands:  2 eigenvalues not converged
     c_bands:  1 eigenvalues not converged
     c_bands:  1 eigenvalues not converged
     c_bands:  3 eigenvalues not converged
     c_bands:  2 eigenvalues not converged
     c_bands:  1 eigenvalues not converged
     c_bands:  1 eigenvalues not converged
     c_bands:  1 eigenvalues not converged
     c_bands:  3 eigenvalues not converged
     c_bands:  2 eigenvalues not converged
     c_bands:  1 eigenvalues not converged
     c_bands:  2 eigenvalues not converged
     ethr =  7.31E-12,  avg # of iterations =  5.2

     negative rho (up, down):  1.697E-03 1.697E-03

     total cpu time spent up to now is    13861.5 secs

     total energy              =   -3223.55593489 Ry
     estimated scf accuracy    <       0.00000019 Ry

     total magnetization       =    -0.00 Bohr mag/cell
     absolute magnetization    =     0.00 Bohr mag/cell

     iteration #  2     ecut=   124.00 Ry     beta= 0.20
     CG style diagonalization
     ethr =  9.68E-11,  avg # of iterations =  3.0

     negative rho (up, down):  1.697E-03 1.697E-03

     total cpu time spent up to now is    14013.8 secs

     total energy              =   -3223.55593490 Ry
     estimated scf accuracy    <          2.6E-09 Ry

     total magnetization       =    -0.00 Bohr mag/cell
     absolute magnetization    =     0.00 Bohr mag/cell

     iteration #  3     ecut=   124.00 Ry     beta= 0.20
     CG style diagonalization
     ethr =  1.36E-12,  avg # of iterations =  3.4

     negative rho (up, down):  1.697E-03 1.697E-03

     total cpu time spent up to now is    14195.9 secs

     total energy              =   -3223.55593490 Ry
     estimated scf accuracy    <          1.2E-09 Ry

     total magnetization       =    -0.00 Bohr mag/cell
     absolute magnetization    =     0.00 Bohr mag/cell

     iteration #  4     ecut=   124.00 Ry     beta= 0.20
     CG style diagonalization
     ethr =  6.15E-13,  avg # of iterations =  3.3

     negative rho (up, down):  1.697E-03 1.697E-03

     total cpu time spent up to now is    14368.2 secs

     total energy              =   -3223.55593490 Ry
     estimated scf accuracy    <          6.8E-10 Ry

     total magnetization       =    -0.00 Bohr mag/cell
     absolute magnetization    =     0.00 Bohr mag/cell

     iteration #  5     ecut=   124.00 Ry     beta= 0.20
     CG style diagonalization
     ethr =  3.54E-13,  avg # of iterations =  3.0

     negative rho (up, down):  1.697E-03 1.697E-03

     total cpu time spent up to now is    14521.3 secs

     total energy              =   -3223.55593490 Ry
     estimated scf accuracy    <          3.0E-10 Ry

     total magnetization       =    -0.00 Bohr mag/cell
     absolute magnetization    =     0.00 Bohr mag/cell

     iteration #  6     ecut=   124.00 Ry     beta= 0.20
     CG style diagonalization
     ethr =  1.54E-13,  avg # of iterations =  3.4

     negative rho (up, down):  1.697E-03 1.697E-03

     total cpu time spent up to now is    14702.1 secs

     total energy              =   -3223.55593490 Ry
     estimated scf accuracy    <          1.0E-10 Ry

     total magnetization       =    -0.00 Bohr mag/cell
     absolute magnetization    =     0.00 Bohr mag/cell

     iteration #  7     ecut=   124.00 Ry     beta= 0.20
     CG style diagonalization
     c_bands:  1 eigenvalues not converged
     ethr =  1.00E-13,  avg # of iterations =  3.4

     negative rho (up, down):  1.697E-03 1.697E-03

     Magnetic moment per site  (integrated on atomic sphere of radius R)
     atom   1 (R=0.204)  charge= 16.4384  magn=  0.0000
     atom   2 (R=0.204)  charge= 16.4384  magn=  0.0000
     atom   3 (R=0.204)  charge= 16.4384  magn=  0.0000
     atom   4 (R=0.204)  charge= 16.4384  magn=  0.0000
     atom   5 (R=0.204)  charge= 16.4384  magn=  0.0000
     atom   6 (R=0.204)  charge= 16.4384  magn=  0.0000
     atom   7 (R=0.207)  charge= 16.5123  magn=  0.0000
     atom   8 (R=0.207)  charge= 16.5123  magn=  0.0000
     atom   9 (R=0.240)  charge= 10.2214  magn= -0.0000
     atom  10 (R=0.240)  charge= 10.2214  magn= -0.0000
     atom  11 (R=0.240)  charge= 10.2214  magn= -0.0000
     atom  12 (R=0.240)  charge= 10.2214  magn= -0.0000

     total cpu time spent up to now is    14883.7 secs

     End of self-consistent calculation

     Number of k-points >= 100: set verbosity='high' to print the bands.

     the Fermi energy is    16.7118 ev

!    total energy              =   -3223.55593491 Ry
     estimated scf accuracy    <          5.3E-11 Ry
     smearing contrib. (-TS)   =       0.00039350 Ry
     internal energy E=F+TS    =   -3223.55632840 Ry

     The total energy is F=E-TS. E is the sum of the following terms:
     one-electron contribution =   -1958.98644487 Ry
     hartree contribution      =    1086.18125115 Ry
     xc contribution           =    -356.54021663 Ry
     ewald contribution        =   -1994.21091805 Ry

     total magnetization       =    -0.00 Bohr mag/cell
     absolute magnetization    =     0.00 Bohr mag/cell

     convergence has been achieved in   7 iterations

     negative rho (up, down):  1.697E-03 1.697E-03

     Forces acting on atoms (cartesian axes, Ry/au):

     atom    1 type  2   force =     0.00000271   -0.00000157   -0.00000000
     atom    2 type  2   force =    -0.00000271    0.00000157    0.00000000
     atom    3 type  2   force =    -0.00000000   -0.00000313   -0.00000000
     atom    4 type  2   force =    -0.00000271   -0.00000157   -0.00000000
     atom    5 type  2   force =     0.00000000    0.00000313    0.00000000
     atom    6 type  2   force =     0.00000271    0.00000157    0.00000000
     atom    7 type  1   force =    -0.00000000    0.00000000    0.00000000
     atom    8 type  1   force =    -0.00000000    0.00000000    0.00000000
     atom    9 type  3   force =     0.00000000    0.00000000   -0.00015033
     atom   10 type  3   force =    -0.00000000   -0.00000000   -0.00015033
     atom   11 type  3   force =    -0.00000000   -0.00000000    0.00015033
     atom   12 type  3   force =    -0.00000000    0.00000000    0.00015033

     Total force =     0.000301     Total SCF correction =     0.000049
     SCF correction compared to forces is large: reduce conv_thr to get better values


     Computing stress (Cartesian axis) and pressure


     negative rho (up, down):  1.697E-03 1.697E-03
          total   stress  (Ry/bohr**3)                   (kbar)     P=        0.26
   0.00000177   0.00000000   0.00000000            0.26        0.00        0.00
   0.00000000   0.00000177   0.00000000            0.00        0.26        0.00
   0.00000000   0.00000000   0.00000178            0.00        0.00        0.26

     Energy error            =      7.7E-08 Ry
     Gradient error          =      1.5E-04 Ry/Bohr
     Cell gradient error     =      2.6E-01 kbar

     number of scf cycles    =   4
     number of bfgs steps    =   2

     enthalpy           old  =   -3223.5559349823 Ry
     enthalpy           new  =   -3223.5559349052 Ry

     CASE: enthalpy          _new > enthalpy          _old

     new trust radius        =       0.0000270619 bohr

     trust_radius < trust_radius_min

     resetting bfgs history

     Message from routine bfgs:
     history already reset at previous step: stopping
     new conv_thr            =            1.0E-10 Ry

     new unit-cell volume =   1018.93986 a.u.^3 (   150.99131 Ang^3 )
     density =      7.26953 g/cm^3

CELL_PARAMETERS (alat=  8.97277915)
   0.999899230  -0.000000000   0.000000000
  -0.499949615   0.865938131   0.000000000
  -0.000000000  -0.000000000   1.629012878

ATOMIC_POSITIONS (crystal)
Ni_2             0.8316849732        0.1683150268        0.2500000000
Ni_2             0.1683150268        0.8316849732        0.7500000000
Ni_2             0.1683150268        0.3366300636        0.7500000000
Ni_2             0.3366300636        0.1683150268        0.2500000000
Ni_2             0.8316849732        0.6633699364        0.2500000000
Ni_2             0.6633699364        0.8316849732        0.7500000000
Ni_1            -0.0000000000       -0.0000000000        0.0000000000
Ni_1            -0.0000000000       -0.0000000000        0.5000000000
Ti               0.6666666667        0.3333333333        0.9397325163
Ti               0.3333333333        0.6666666667        0.4397325163
Ti               0.3333333333        0.6666666667        0.0602674837
Ti               0.6666666667        0.3333333333        0.5602674837



     Writing config-only to output data dir ./TiNi2_hex.save/ :
     XML data file     NEW-OLD atomic charge density approx. for the potential
     New effective cutoffs (rho, wfc): 1736.32  124.02

     Check: negative core charge=   -0.000003

     negative rho (up, down):  1.697E-03 1.697E-03
     Generating pointlists ...

     total cpu time spent up to now is    14917.3 secs

     per-process dynamical memory:   535.0 Mb

     Self-consistent Calculation

     iteration #  1     ecut=   124.00 Ry     beta= 0.20
     CG style diagonalization
     ethr =  1.00E-06,  avg # of iterations =  2.0

     Threshold (ethr) on eigenvalues was too large:
     Diagonalizing with lowered threshold

     CG style diagonalization
     ethr =  2.15E-13,  avg # of iterations =  2.5

     negative rho (up, down):  1.697E-03 1.697E-03

     total cpu time spent up to now is    15229.5 secs

     total energy              =   -3223.55593491 Ry
     estimated scf accuracy    <          4.6E-10 Ry

     total magnetization       =    -0.00 Bohr mag/cell
     absolute magnetization    =     0.00 Bohr mag/cell

     iteration #  2     ecut=   124.00 Ry     beta= 0.20
     CG style diagonalization
     ethr =  2.39E-13,  avg # of iterations =  3.0

     negative rho (up, down):  1.697E-03 1.697E-03

     total cpu time spent up to now is    15385.7 secs

     total energy              =   -3223.55593491 Ry
     estimated scf accuracy    <          8.4E-10 Ry

     total magnetization       =    -0.00 Bohr mag/cell
     absolute magnetization    =     0.00 Bohr mag/cell

     iteration #  3     ecut=   124.00 Ry     beta= 0.20
     CG style diagonalization
     ethr =  2.39E-13,  avg # of iterations =  3.0

     negative rho (up, down):  1.697E-03 1.697E-03

     total cpu time spent up to now is    15541.9 secs

     total energy              =   -3223.55593490 Ry
     estimated scf accuracy    <          6.9E-09 Ry

     total magnetization       =    -0.00 Bohr mag/cell
     absolute magnetization    =     0.00 Bohr mag/cell

     iteration #  4     ecut=   124.00 Ry     beta= 0.20
     CG style diagonalization
     ethr =  2.39E-13,  avg # of iterations =  3.4

     negative rho (up, down):  1.697E-03 1.697E-03

     Magnetic moment per site  (integrated on atomic sphere of radius R)
     atom   1 (R=0.204)  charge= 16.4384  magn=  0.0000
     atom   2 (R=0.204)  charge= 16.4384  magn=  0.0000
     atom   3 (R=0.204)  charge= 16.4384  magn=  0.0000
     atom   4 (R=0.204)  charge= 16.4384  magn=  0.0000
     atom   5 (R=0.204)  charge= 16.4384  magn=  0.0000
     atom   6 (R=0.204)  charge= 16.4384  magn=  0.0000
     atom   7 (R=0.207)  charge= 16.5123  magn=  0.0000
     atom   8 (R=0.207)  charge= 16.5123  magn=  0.0000
     atom   9 (R=0.240)  charge= 10.2214  magn= -0.0000
     atom  10 (R=0.240)  charge= 10.2214  magn= -0.0000
     atom  11 (R=0.240)  charge= 10.2214  magn= -0.0000
     atom  12 (R=0.240)  charge= 10.2214  magn= -0.0000

     total cpu time spent up to now is    15720.9 secs

     End of self-consistent calculation

     Number of k-points >= 100: set verbosity='high' to print the bands.

     the Fermi energy is    16.7118 ev

!    total energy              =   -3223.55593491 Ry
     estimated scf accuracy    <          3.8E-11 Ry
     smearing contrib. (-TS)   =       0.00039350 Ry
     internal energy E=F+TS    =   -3223.55632840 Ry

     The total energy is F=E-TS. E is the sum of the following terms:
     one-electron contribution =   -1958.98669995 Ry
     hartree contribution      =    1086.18154010 Ry
     xc contribution           =    -356.54025085 Ry
     ewald contribution        =   -1994.21091770 Ry

     total magnetization       =    -0.00 Bohr mag/cell
     absolute magnetization    =     0.00 Bohr mag/cell

     convergence has been achieved in   4 iterations

     negative rho (up, down):  1.697E-03 1.697E-03

     Forces acting on atoms (cartesian axes, Ry/au):

     atom    1 type  2   force =     0.00001893   -0.00001093    0.00000000
     atom    2 type  2   force =    -0.00001893    0.00001093   -0.00000000
     atom    3 type  2   force =    -0.00000000   -0.00002186   -0.00000000
     atom    4 type  2   force =    -0.00001893   -0.00001093    0.00000000
     atom    5 type  2   force =    -0.00000000    0.00002186   -0.00000000
     atom    6 type  2   force =     0.00001893    0.00001093    0.00000000
     atom    7 type  1   force =    -0.00000000   -0.00000000    0.00000000
     atom    8 type  1   force =     0.00000000    0.00000000    0.00000000
     atom    9 type  3   force =     0.00000000    0.00000000   -0.00014554
     atom   10 type  3   force =     0.00000000   -0.00000000   -0.00014554
     atom   11 type  3   force =    -0.00000000   -0.00000000    0.00014554
     atom   12 type  3   force =    -0.00000000   -0.00000000    0.00014554

     Total force =     0.000296     Total SCF correction =     0.000060
     SCF correction compared to forces is large: reduce conv_thr to get better values


     Computing stress (Cartesian axis) and pressure


     negative rho (up, down):  1.697E-03 1.697E-03
          total   stress  (Ry/bohr**3)                   (kbar)     P=        0.33
   0.00000222  -0.00000000   0.00000000            0.33       -0.00        0.00
  -0.00000000   0.00000222   0.00000000           -0.00        0.33        0.00
   0.00000000   0.00000000   0.00000225            0.00        0.00        0.33

     Message from routine bfgs:
     history already reset at previous step: exiting
     Energy error            =      7.7E-08 Ry
     Gradient error          =      1.5E-04 Ry/Bohr
     Cell gradient error     =      3.3E-01 kbar

     bfgs failed after   5 scf cycles and   2 bfgs steps, convergence not achieved
     (criteria: energy <  1.0E-04 Ry, force <  1.0E-03 Ry/Bohr, cell <  1.0E-01 kbar)

     End of BFGS Geometry Optimization

     Final enthalpy           =   -3223.5559349053 Ry

     File ./TiNi2_hex.bfgs deleted, as requested
Begin final coordinates
     new unit-cell volume =   1018.93986 a.u.^3 (   150.99131 Ang^3 )
     density =      7.26953 g/cm^3

CELL_PARAMETERS (alat=  8.97277915)
   0.999899230  -0.000000000   0.000000000
  -0.499949615   0.865938131   0.000000000
  -0.000000000  -0.000000000   1.629012878

ATOMIC_POSITIONS (crystal)
Ni_2             0.8316849732        0.1683150268        0.2500000000
Ni_2             0.1683150268        0.8316849732        0.7500000000
Ni_2             0.1683150268        0.3366300636        0.7500000000
Ni_2             0.3366300636        0.1683150268        0.2500000000
Ni_2             0.8316849732        0.6633699364        0.2500000000
Ni_2             0.6633699364        0.8316849732        0.7500000000
Ni_1            -0.0000000000       -0.0000000000        0.0000000000
Ni_1            -0.0000000000       -0.0000000000        0.5000000000
Ti               0.6666666667        0.3333333333        0.9397325163
Ti               0.3333333333        0.6666666667        0.4397325163
Ti               0.3333333333        0.6666666667        0.0602674837
Ti               0.6666666667        0.3333333333        0.5602674837
End final coordinates



     Writing config-only to output data dir ./TiNi2_hex.save/ :
     XML data file
     Writing all to output data dir ./TiNi2_hex.save/ :
     XML data file
     init_run     :     22.31s CPU     22.96s WALL (       1 calls)
     electrons    :  15374.27s CPU  15562.90s WALL (       5 calls)
     update_pot   :      1.07s CPU      1.18s WALL (       4 calls)
     forces       :     34.88s CPU     35.45s WALL (       5 calls)
     stress       :    124.73s CPU    126.36s WALL (       5 calls)

     Called by init_run:
     wfcinit      :     19.60s CPU     20.05s WALL (       1 calls)
     potinit      :      0.56s CPU      0.60s WALL (       1 calls)
     hinit0       :      0.99s CPU      1.06s WALL (       1 calls)

     Called by electrons:
     c_bands      :  14819.97s CPU  14989.93s WALL (      79 calls)
     sum_band     :    476.54s CPU    487.59s WALL (      79 calls)
     v_of_rho     :     17.71s CPU     19.17s WALL (      80 calls)
     newd         :     60.09s CPU     66.00s WALL (      80 calls)
     mix_rho      :      3.18s CPU      3.68s WALL (      79 calls)

     Called by c_bands:
     init_us_2    :     27.53s CPU     27.90s WALL (   20280 calls)
     ccgdiagg     :  13836.16s CPU  13994.08s WALL (    9484 calls)
     wfcrot       :    954.44s CPU    965.92s WALL (    8524 calls)

     Called by *cgdiagg:
     h_psi        :   8210.00s CPU   8306.50s WALL ( 2810945 calls)
     s_psi        :   1126.84s CPU   1147.03s WALL ( 5613366 calls)

     Called by h_psi:
     h_psi:calbec :   3292.81s CPU   3328.58s WALL ( 2810945 calls)
     vloc_psi     :   3265.38s CPU   3310.15s WALL ( 2810945 calls)
     add_vuspsi   :   1614.20s CPU   1633.08s WALL ( 2810945 calls)
     hs_1psi      :   8071.30s CPU   8163.98s WALL ( 2802421 calls)
     s_1psi       :   1975.01s CPU   1996.65s WALL ( 2802421 calls)

     General routines
     calbec       :   4886.73s CPU   4944.86s WALL ( 5633046 calls)
     fft          :     12.34s CPU     14.30s WALL (    2202 calls)
     ffts         :      1.19s CPU      1.39s WALL (    1902 calls)
     fftw         :   2648.24s CPU   2680.51s WALL ( 8662522 calls)
     interpolate  :      1.22s CPU      1.39s WALL (     160 calls)

     Parallel routines

     PWSCF        :  15561.04s CPU  15753.33s WALL


   This run was terminated on:  21:28:56  13Nov2025            

=------------------------------------------------------------------------------=
   JOB DONE.
=------------------------------------------------------------------------------=
