
     Program PWSCF v.7.4 starts on 20Nov2025 at  1:16: 0 

     This program is part of the open-source Quantum ESPRESSO suite
     for quantum simulation of materials; please cite
         "P. Giannozzi et al., J. Phys.:Condens. Matter 21 395502 (2009);
         "P. Giannozzi et al., J. Phys.:Condens. Matter 29 465901 (2017);
         "P. Giannozzi et al., J. Chem. Phys. 152 154105 (2020);
          URL http://www.quantum-espresso.org", 
     in publications or presentations arising from this work. More details at
     http://www.quantum-espresso.org/quote

     Parallel version (MPI & OpenMP), running on      16 processor cores
     Number of MPI processes:                16
     Threads/MPI process:                     1

     MPI processes distributed on     1 nodes
     221050 MiB available memory on the printing compute node when the environment starts

     Reading input from TiFe2H_cub_symm_32e.in
Warning: card / ignored

     Current dimensions of program PWSCF are:
     Max number of different atomic species (ntypx) = 10
     Max number of k-points (npk) =  40000
     Max angular momentum in pseudopotentials (lmaxx) =  4
     file Fe.pbe-spn-kjpaw_psl.0.2.1.UPF: wavefunction(s)  3D renormalized

     IMPORTANT: XC functional enforced from input :
     Exchange-correlation= PBE
                           (   1   4   3   4   0   0   0)
     Any further DFT definition will be discarded
     Please, verify this is what you really want

     Found identity + ( -0.5000 -0.5000  0.0000) symmetry
     This is a supercell, fractional translations are disabled
     Message from routine setup:
     using ibrav=0 with symmetry is DISCOURAGED, use correct ibrav instead

     R & G space division:  proc/nbgrp/npool/nimage =      16
     Subspace diagonalization in iterative solution of the eigenvalue problem:
     one sub-group per band group will be used
     ELPA distributed-memory algorithm (size of sub-group:  2*  2 procs)


     Parallelization info
     --------------------
     sticks:   dense  smooth     PW     G-vecs:    dense   smooth      PW
     Min        1407     402    106               158861    24246    3306
     Max        1408     403    107               158864    24249    3309
     Sum       22525    6433   1701              2541805   387947   52923

     Using Slab Decomposition



     bravais-lattice index     =            0
     lattice parameter (alat)  =      12.7659  a.u.
     unit-cell volume          =    2080.4419 (a.u.)^3
     number of atoms/cell      =           56
     number of atomic types    =            3
     number of electrons       =       384.00
     number of Kohn-Sham states=          230
     kinetic-energy cutoff     =     124.0000  Ry
     charge density cutoff     =    1736.0000  Ry
     scf convergence threshold =      1.0E-08
     mixing beta               =       0.2000
     number of iterations used =            8  local-TF  mixing
     energy convergence thresh.=      1.0E-04
     force convergence thresh. =      1.0E-03
     press convergence thresh. =      1.0E-01
     Exchange-correlation= PBE
                           (   1   4   3   4   0   0   0)
     nstep                     =           50


     celldm(1)=  12.765913  celldm(2)=   0.000000  celldm(3)=   0.000000
     celldm(4)=   0.000000  celldm(5)=   0.000000  celldm(6)=   0.000000

     crystal axes: (cart. coord. in units of alat)
               a(1) = (   1.000000   0.000000   0.000000 )  
               a(2) = (   0.000000   1.000000   0.000000 )  
               a(3) = (   0.000000   0.000000   1.000000 )  

     reciprocal axes: (cart. coord. in units 2 pi/alat)
               b(1) = (  1.000000  0.000000  0.000000 )  
               b(2) = (  0.000000  1.000000  0.000000 )  
               b(3) = (  0.000000  0.000000  1.000000 )  


     PseudoPot. # 1 for Fe read from file:
     ../../pseudos/Fe.pbe-spn-kjpaw_psl.0.2.1.UPF
     MD5 check sum: e86618425769142926afa95317d90200
     Pseudo is Projector augmented-wave + core cor, Zval = 16.0
     Generated using "atomic" code by A. Dal Corso  v.5.0.99 svn rev. 10869
     Shape of augmentation charge: PSQ
     Using radial grid of 1191 points,  6 beta functions with: 
                l(1) =   0
                l(2) =   0
                l(3) =   1
                l(4) =   1
                l(5) =   2
                l(6) =   2
     Q(r) pseudized with 0 coefficients 


     PseudoPot. # 2 for Ti read from file:
     ../../pseudos/ti_pbe_v1.4.uspp.F.UPF
     MD5 check sum: 88a00a6731bd790ddea75d31a80cb452
     Pseudo is Ultrasoft + core correction, Zval = 12.0
     Generated by new atomic code, or converted to UPF format
     Using radial grid of  851 points,  6 beta functions with: 
                l(1) =   0
                l(2) =   0
                l(3) =   1
                l(4) =   1
                l(5) =   2
                l(6) =   2
     Q(r) pseudized with  6 coefficients,  rinner =    1.000   1.000   1.000
                                                       1.000   1.000

     PseudoPot. # 3 for H  read from file:
     ../../pseudos/H.pbe-rrkjus_psl.1.0.0.UPF
     MD5 check sum: f52b6d4d1c606e5624b1dc7b2218f220
     Pseudo is Ultrasoft, Zval =  1.0
     Generated using "atomic" code by A. Dal Corso  v.5.1
     Using radial grid of  929 points,  2 beta functions with: 
                l(1) =   0
                l(2) =   0
     Q(r) pseudized with 0 coefficients 


     atomic species   valence    mass     pseudopotential
     Fe               16.00    55.84500     Fe( 1.00)
     Ti               12.00    47.86700     Ti( 1.00)
     H                 1.00     1.00750     H ( 1.00)

     Starting magnetic structure 
     atomic species   magnetization
     Fe              0.111
     Ti             -0.047
     H               0.000

     24 Sym. Ops. (no inversion) found



   Cartesian axes

     site n.     atom                  positions (alat units)
         1        Fe     tau(   1) = (   0.1250000   0.1250000   0.6250000  )
         2        Fe     tau(   2) = (   0.6250000   0.6250000   0.6250000  )
         3        Fe     tau(   3) = (   0.8750000   0.6250000   0.8750000  )
         4        Fe     tau(   4) = (   0.3750000   0.8750000   0.1250000  )
         5        Fe     tau(   5) = (   0.1250000   0.6250000   0.1250000  )
         6        Fe     tau(   6) = (   0.6250000   0.1250000   0.1250000  )
         7        Fe     tau(   7) = (   0.8750000   0.3750000   0.1250000  )
         8        Fe     tau(   8) = (   0.3750000   0.6250000   0.3750000  )
         9        Fe     tau(   9) = (   0.6250000   0.3750000   0.3750000  )
        10        Fe     tau(  10) = (   0.6250000   0.8750000   0.8750000  )
        11        Fe     tau(  11) = (   0.3750000   0.1250000   0.8750000  )
        12        Fe     tau(  12) = (   0.8750000   0.8750000   0.6250000  )
        13        Fe     tau(  13) = (   0.3750000   0.3750000   0.6250000  )
        14        Fe     tau(  14) = (   0.8750000   0.1250000   0.3750000  )
        15        Fe     tau(  15) = (   0.1250000   0.3750000   0.8750000  )
        16        Fe     tau(  16) = (   0.1250000   0.8750000   0.3750000  )
        17        Ti     tau(  17) = (   0.0000000   0.0000000   0.0000000  )
        18        Ti     tau(  18) = (   0.7500000   0.7500000   0.2500000  )
        19        Ti     tau(  19) = (   0.5000000   0.0000000   0.5000000  )
        20        Ti     tau(  20) = (   0.7500000   0.2500000   0.7500000  )
        21        Ti     tau(  21) = (   0.0000000   0.5000000   0.5000000  )
        22        Ti     tau(  22) = (   0.2500000   0.2500000   0.2500000  )
        23        Ti     tau(  23) = (   0.2500000   0.7500000   0.7500000  )
        24        Ti     tau(  24) = (   0.5000000   0.5000000   0.0000000  )
        25        H      tau(  25) = (   0.1550000   0.1550000   0.1550000  )
        26        H      tau(  26) = (   0.5950000   0.5950000   0.0950000  )
        27        H      tau(  27) = (   0.9050000   0.5950000   0.4050000  )
        28        H      tau(  28) = (   0.9050000   0.9050000   0.0950000  )
        29        H      tau(  29) = (   0.5950000   0.9050000   0.4050000  )
        30        H      tau(  30) = (   0.6550000   0.1550000   0.6550000  )
        31        H      tau(  31) = (   0.6550000   0.8450000   0.3450000  )
        32        H      tau(  32) = (   0.3450000   0.1550000   0.3450000  )
        33        H      tau(  33) = (   0.3450000   0.8450000   0.6550000  )
        34        H      tau(  34) = (   0.5950000   0.4050000   0.9050000  )
        35        H      tau(  35) = (   0.9050000   0.0950000   0.9050000  )
        36        H      tau(  36) = (   0.9050000   0.4050000   0.5950000  )
        37        H      tau(  37) = (   0.1550000   0.3450000   0.3450000  )
        38        H      tau(  38) = (   0.8450000   0.6550000   0.3450000  )
        39        H      tau(  39) = (   0.8450000   0.3450000   0.6550000  )
        40        H      tau(  40) = (   0.0950000   0.0950000   0.0950000  )
        41        H      tau(  41) = (   0.0950000   0.4050000   0.4050000  )
        42        H      tau(  42) = (   0.0950000   0.9050000   0.9050000  )
        43        H      tau(  43) = (   0.5950000   0.0950000   0.5950000  )
        44        H      tau(  44) = (   0.6550000   0.3450000   0.8450000  )
        45        H      tau(  45) = (   0.3450000   0.6550000   0.8450000  )
        46        H      tau(  46) = (   0.3450000   0.3450000   0.1550000  )
        47        H      tau(  47) = (   0.1550000   0.8450000   0.8450000  )
        48        H      tau(  48) = (   0.8450000   0.1550000   0.8450000  )
        49        H      tau(  49) = (   0.8450000   0.8450000   0.1550000  )
        50        H      tau(  50) = (   0.4050000   0.0950000   0.4050000  )
        51        H      tau(  51) = (   0.4050000   0.4050000   0.0950000  )
        52        H      tau(  52) = (   0.4050000   0.5950000   0.9050000  )
        53        H      tau(  53) = (   0.4050000   0.9050000   0.5950000  )
        54        H      tau(  54) = (   0.1550000   0.6550000   0.6550000  )
        55        H      tau(  55) = (   0.6550000   0.6550000   0.1550000  )
        56        H      tau(  56) = (   0.0950000   0.5950000   0.5950000  )

     number of k points=    10  Marzari-Vanderbilt smearing, width (Ry)=  0.0050
                       cart. coord. in units 2pi/alat
        k(    1) = (   0.0000000   0.0000000   0.0000000), wk =   0.0080000
        k(    2) = (   0.0000000   0.0000000   0.2000000), wk =   0.0480000
        k(    3) = (   0.0000000   0.0000000   0.4000000), wk =   0.0480000
        k(    4) = (   0.0000000   0.2000000   0.2000000), wk =   0.0960000
        k(    5) = (   0.0000000   0.2000000   0.4000000), wk =   0.1920000
        k(    6) = (   0.0000000   0.4000000   0.4000000), wk =   0.0960000
        k(    7) = (   0.2000000   0.2000000   0.2000000), wk =   0.0640000
        k(    8) = (   0.2000000   0.2000000   0.4000000), wk =   0.1920000
        k(    9) = (   0.2000000   0.4000000   0.4000000), wk =   0.1920000
        k(   10) = (   0.4000000   0.4000000   0.4000000), wk =   0.0640000

     Dense  grid:  2541805 G-vectors     FFT dimensions: ( 180, 180, 180)

     Smooth grid:   387947 G-vectors     FFT dimensions: (  96,  96,  96)

     Estimated max dynamical RAM per process >       1.09 GB

     Estimated total dynamical RAM >      17.38 GB

     Check: negative core charge=   -0.000002
     Generating pointlists ...
     new r_m :   0.1458 (alat units)  1.8618 (a.u.) for type    1
     new r_m :   0.0679 (alat units)  0.8665 (a.u.) for type    2
     new r_m :   0.0429 (alat units)  0.5473 (a.u.) for type    3

     Initial potential from superposition of free atoms

     starting charge     375.9923, renormalised to     384.0000

     negative rho (up, down):  3.891E-03 4.433E-03
     Starting wfcs are  320 randomized atomic wfcs
     Checking if some PAW data can be deallocated... 

     total cpu time spent up to now is       50.4 secs

     per-process dynamical memory:   510.3 Mb

     Self-consistent Calculation

     iteration #  1     ecut=   124.00 Ry     beta= 0.20
     CG style diagonalization
     ethr =  1.00E-02,  avg # of iterations =  2.7

     negative rho (up, down):  1.003E-03 1.176E-03

     total cpu time spent up to now is      660.9 secs

     total energy              =   -6246.49842039 Ry
     estimated scf accuracy    <     265.27207361 Ry

     total magnetization       =    10.59 Bohr mag/cell
     absolute magnetization    =    12.57 Bohr mag/cell

     iteration #  2     ecut=   124.00 Ry     beta= 0.20
     CG style diagonalization
     ethr =  1.00E-02,  avg # of iterations =  3.2

     negative rho (up, down):  5.556E-05 4.525E-05

     total cpu time spent up to now is     1161.6 secs

     total energy              =   -6235.33746840 Ry
     estimated scf accuracy    <      82.05425447 Ry

     total magnetization       =    15.77 Bohr mag/cell
     absolute magnetization    =    18.57 Bohr mag/cell

     iteration #  3     ecut=   124.00 Ry     beta= 0.20
     CG style diagonalization
     ethr =  1.00E-02,  avg # of iterations =  3.3

     negative rho (up, down):  5.176E-04 4.811E-04

     total cpu time spent up to now is     1685.9 secs

     total energy              =   -6243.26747403 Ry
     estimated scf accuracy    <      28.40872795 Ry

     total magnetization       =    10.42 Bohr mag/cell
     absolute magnetization    =    12.89 Bohr mag/cell

     iteration #  4     ecut=   124.00 Ry     beta= 0.20
     CG style diagonalization
     ethr =  7.40E-03,  avg # of iterations =  3.1

     negative rho (up, down):  1.078E-03 7.399E-04

     total cpu time spent up to now is     2158.3 secs

     total energy              =   -6246.80686341 Ry
     estimated scf accuracy    <       4.57817731 Ry

     total magnetization       =    18.28 Bohr mag/cell
     absolute magnetization    =    23.68 Bohr mag/cell

     iteration #  5     ecut=   124.00 Ry     beta= 0.20
     CG style diagonalization
     ethr =  1.19E-03,  avg # of iterations =  3.2

     negative rho (up, down):  1.696E-03 7.496E-04

     total cpu time spent up to now is     2655.4 secs

     total energy              =   -6245.54879617 Ry
     estimated scf accuracy    <      11.77342825 Ry

     total magnetization       =    17.72 Bohr mag/cell
     absolute magnetization    =    23.10 Bohr mag/cell

     iteration #  6     ecut=   124.00 Ry     beta= 0.20
     CG style diagonalization
     ethr =  1.19E-03,  avg # of iterations =  3.1

     negative rho (up, down):  1.624E-03 7.174E-04

     total cpu time spent up to now is     3118.2 secs

     total energy              =   -6246.35586781 Ry
     estimated scf accuracy    <       0.10076474 Ry

     total magnetization       =    17.57 Bohr mag/cell
     absolute magnetization    =    21.96 Bohr mag/cell

     iteration #  7     ecut=   124.00 Ry     beta= 0.20
     CG style diagonalization
     c_bands:  4 eigenvalues not converged
     c_bands:  2 eigenvalues not converged
     c_bands:  2 eigenvalues not converged
     c_bands:  4 eigenvalues not converged
     c_bands:  3 eigenvalues not converged
     c_bands:  1 eigenvalues not converged
     c_bands:  1 eigenvalues not converged
     c_bands:  4 eigenvalues not converged
     c_bands:  1 eigenvalues not converged
     c_bands:  5 eigenvalues not converged
     c_bands:  3 eigenvalues not converged
     c_bands:  5 eigenvalues not converged
     c_bands:  2 eigenvalues not converged
     c_bands:  5 eigenvalues not converged
     c_bands:  4 eigenvalues not converged
     ethr =  2.62E-05,  avg # of iterations =  6.3

     negative rho (up, down):  1.626E-03 7.204E-04

     total cpu time spent up to now is     4167.3 secs

     total energy              =   -6246.48089980 Ry
     estimated scf accuracy    <       0.40294468 Ry

     total magnetization       =    18.61 Bohr mag/cell
     absolute magnetization    =    23.00 Bohr mag/cell

     iteration #  8     ecut=   124.00 Ry     beta= 0.20
     CG style diagonalization
     c_bands:  2 eigenvalues not converged
     c_bands:  1 eigenvalues not converged
     ethr =  2.62E-05,  avg # of iterations =  3.1

     negative rho (up, down):  1.652E-03 7.453E-04

     total cpu time spent up to now is     4624.1 secs

     total energy              =   -6246.49054733 Ry
     estimated scf accuracy    <       0.38495150 Ry

     total magnetization       =    18.69 Bohr mag/cell
     absolute magnetization    =    23.11 Bohr mag/cell

     iteration #  9     ecut=   124.00 Ry     beta= 0.20
     CG style diagonalization
     ethr =  2.62E-05,  avg # of iterations =  3.0

     negative rho (up, down):  1.657E-03 7.562E-04

     total cpu time spent up to now is     5056.6 secs

     total energy              =   -6246.49358359 Ry
     estimated scf accuracy    <       0.45185933 Ry

     total magnetization       =    18.58 Bohr mag/cell
     absolute magnetization    =    22.99 Bohr mag/cell

     iteration # 10     ecut=   124.00 Ry     beta= 0.20
     CG style diagonalization
     ethr =  2.62E-05,  avg # of iterations =  3.0

     negative rho (up, down):  1.600E-03 5.332E-04

     total cpu time spent up to now is     5485.3 secs

     total energy              =   -6246.54587564 Ry
     estimated scf accuracy    <       0.47734827 Ry

     total magnetization       =    18.52 Bohr mag/cell
     absolute magnetization    =    22.90 Bohr mag/cell

     iteration # 11     ecut=   124.00 Ry     beta= 0.20
     CG style diagonalization
     c_bands:  1 eigenvalues not converged
     ethr =  2.62E-05,  avg # of iterations =  3.2

     negative rho (up, down):  1.668E-03 5.304E-04

     total cpu time spent up to now is     5959.4 secs

     total energy              =   -6246.56595126 Ry
     estimated scf accuracy    <       0.93019042 Ry

     total magnetization       =    18.92 Bohr mag/cell
     absolute magnetization    =    24.19 Bohr mag/cell

     iteration # 12     ecut=   124.00 Ry     beta= 0.20
     CG style diagonalization
     ethr =  2.62E-05,  avg # of iterations =  3.0

     negative rho (up, down):  2.092E-03 6.413E-04

     total cpu time spent up to now is     6387.9 secs

     total energy              =   -6246.48647042 Ry
     estimated scf accuracy    <       0.79438394 Ry

     total magnetization       =    19.29 Bohr mag/cell
     absolute magnetization    =    24.82 Bohr mag/cell

     iteration # 13     ecut=   124.00 Ry     beta= 0.20
     CG style diagonalization
     ethr =  2.62E-05,  avg # of iterations =  3.2

     negative rho (up, down):  2.098E-03 6.455E-04

     total cpu time spent up to now is     6862.6 secs

     total energy              =   -6246.54332505 Ry
     estimated scf accuracy    <       0.08731700 Ry

     total magnetization       =    22.90 Bohr mag/cell
     absolute magnetization    =    28.10 Bohr mag/cell

     iteration # 14     ecut=   124.00 Ry     beta= 0.20
     CG style diagonalization
     ethr =  2.27E-05,  avg # of iterations =  3.0

     negative rho (up, down):  2.162E-03 5.522E-04

     total cpu time spent up to now is     7292.4 secs

     total energy              =   -6246.56393354 Ry
     estimated scf accuracy    <       0.08968037 Ry

     total magnetization       =    22.92 Bohr mag/cell
     absolute magnetization    =    27.99 Bohr mag/cell

     iteration # 15     ecut=   124.00 Ry     beta= 0.20
     CG style diagonalization
     ethr =  2.27E-05,  avg # of iterations =  3.1

     negative rho (up, down):  1.912E-03 5.361E-04

     total cpu time spent up to now is     7748.2 secs

     total energy              =   -6246.59169168 Ry
     estimated scf accuracy    <       0.20920875 Ry

     total magnetization       =    24.47 Bohr mag/cell
     absolute magnetization    =    29.81 Bohr mag/cell

     iteration # 16     ecut=   124.00 Ry     beta= 0.20
     CG style diagonalization
     ethr =  2.27E-05,  avg # of iterations =  3.0

     negative rho (up, down):  1.253E-03 1.318E-03

     total cpu time spent up to now is     8182.7 secs

     total energy              =   -6246.47878130 Ry
     estimated scf accuracy    <       0.26228289 Ry

     total magnetization       =    24.90 Bohr mag/cell
     absolute magnetization    =    30.26 Bohr mag/cell

     iteration # 17     ecut=   124.00 Ry     beta= 0.20
     CG style diagonalization
     ethr =  2.27E-05,  avg # of iterations =  3.8

     negative rho (up, down):  1.276E-03 1.180E-03

     total cpu time spent up to now is     8769.1 secs

     total energy              =   -6246.51844214 Ry
     estimated scf accuracy    <       0.03328588 Ry

     total magnetization       =    26.39 Bohr mag/cell
     absolute magnetization    =    29.25 Bohr mag/cell

     iteration # 18     ecut=   124.00 Ry     beta= 0.20
     CG style diagonalization
     c_bands:  1 eigenvalues not converged
     c_bands:  1 eigenvalues not converged
     ethr =  8.67E-06,  avg # of iterations =  3.3

     negative rho (up, down):  1.298E-03 1.160E-03

     total cpu time spent up to now is     9264.3 secs

     total energy              =   -6246.52657432 Ry
     estimated scf accuracy    <       0.01051105 Ry

     total magnetization       =    24.88 Bohr mag/cell
     absolute magnetization    =    27.86 Bohr mag/cell

     iteration # 19     ecut=   124.00 Ry     beta= 0.20
     CG style diagonalization
     c_bands:  1 eigenvalues not converged
     c_bands:  1 eigenvalues not converged
     c_bands:  1 eigenvalues not converged
     c_bands:  1 eigenvalues not converged
     c_bands:  1 eigenvalues not converged
     ethr =  2.74E-06,  avg # of iterations =  3.5

     negative rho (up, down):  1.439E-03 1.053E-03

     total cpu time spent up to now is     9780.2 secs

     total energy              =   -6246.52781363 Ry
     estimated scf accuracy    <       0.01180081 Ry

     total magnetization       =    24.78 Bohr mag/cell
     absolute magnetization    =    27.83 Bohr mag/cell

     iteration # 20     ecut=   124.00 Ry     beta= 0.20
     CG style diagonalization
     c_bands:  1 eigenvalues not converged
     ethr =  2.74E-06,  avg # of iterations =  3.3

     negative rho (up, down):  1.440E-03 1.090E-03

     total cpu time spent up to now is    10266.8 secs

     total energy              =   -6246.53038381 Ry
     estimated scf accuracy    <       0.00638768 Ry

     total magnetization       =    24.48 Bohr mag/cell
     absolute magnetization    =    27.90 Bohr mag/cell

     iteration # 21     ecut=   124.00 Ry     beta= 0.20
     CG style diagonalization
     c_bands:  1 eigenvalues not converged
     c_bands:  1 eigenvalues not converged
     c_bands:  1 eigenvalues not converged
     ethr =  1.66E-06,  avg # of iterations =  3.7

     negative rho (up, down):  1.426E-03 1.075E-03

     total cpu time spent up to now is    10841.6 secs

     total energy              =   -6246.53245684 Ry
     estimated scf accuracy    <       0.00681082 Ry

     total magnetization       =    25.22 Bohr mag/cell
     absolute magnetization    =    28.53 Bohr mag/cell

     iteration # 22     ecut=   124.00 Ry     beta= 0.20
     CG style diagonalization
     c_bands:  1 eigenvalues not converged
     ethr =  1.66E-06,  avg # of iterations =  3.1

     negative rho (up, down):  1.407E-03 1.103E-03

     total cpu time spent up to now is    11285.1 secs

     total energy              =   -6246.53169454 Ry
     estimated scf accuracy    <       0.00648686 Ry

     total magnetization       =    25.23 Bohr mag/cell
     absolute magnetization    =    28.59 Bohr mag/cell

     iteration # 23     ecut=   124.00 Ry     beta= 0.20
     CG style diagonalization
     c_bands:  1 eigenvalues not converged
     ethr =  1.66E-06,  avg # of iterations =  3.1

     negative rho (up, down):  1.398E-03 1.128E-03

     total cpu time spent up to now is    11732.2 secs

     total energy              =   -6246.53168311 Ry
     estimated scf accuracy    <       0.00131799 Ry

     total magnetization       =    25.51 Bohr mag/cell
     absolute magnetization    =    28.80 Bohr mag/cell

     iteration # 24     ecut=   124.00 Ry     beta= 0.20
     CG style diagonalization
     ethr =  3.43E-07,  avg # of iterations =  3.4

     negative rho (up, down):  1.411E-03 1.124E-03

     total cpu time spent up to now is    12246.4 secs

     total energy              =   -6246.53199436 Ry
     estimated scf accuracy    <       0.00024486 Ry

     total magnetization       =    25.80 Bohr mag/cell
     absolute magnetization    =    29.02 Bohr mag/cell

     iteration # 25     ecut=   124.00 Ry     beta= 0.20
     CG style diagonalization
     ethr =  6.38E-08,  avg # of iterations =  4.4

     negative rho (up, down):  1.414E-03 1.123E-03

     total cpu time spent up to now is    12951.8 secs

     total energy              =   -6246.53213314 Ry
     estimated scf accuracy    <       0.00032155 Ry

     total magnetization       =    25.64 Bohr mag/cell
     absolute magnetization    =    28.87 Bohr mag/cell

     iteration # 26     ecut=   124.00 Ry     beta= 0.20
     CG style diagonalization
     ethr =  6.38E-08,  avg # of iterations =  3.3

     negative rho (up, down):  1.410E-03 1.127E-03

     total cpu time spent up to now is    13447.1 secs

     total energy              =   -6246.53215102 Ry
     estimated scf accuracy    <       0.00015894 Ry

     total magnetization       =    25.60 Bohr mag/cell
     absolute magnetization    =    28.84 Bohr mag/cell

     iteration # 27     ecut=   124.00 Ry     beta= 0.20
     CG style diagonalization
     ethr =  4.14E-08,  avg # of iterations =  3.1

     negative rho (up, down):  1.391E-03 1.139E-03

     total cpu time spent up to now is    13893.9 secs

     total energy              =   -6246.53214248 Ry
     estimated scf accuracy    <       0.00007219 Ry

     total magnetization       =    25.61 Bohr mag/cell
     absolute magnetization    =    28.84 Bohr mag/cell

     iteration # 28     ecut=   124.00 Ry     beta= 0.20
     CG style diagonalization
     ethr =  1.88E-08,  avg # of iterations =  3.7

     negative rho (up, down):  1.389E-03 1.140E-03

     total cpu time spent up to now is    14456.0 secs

     total energy              =   -6246.53217011 Ry
     estimated scf accuracy    <       0.00000613 Ry

     total magnetization       =    25.69 Bohr mag/cell
     absolute magnetization    =    28.86 Bohr mag/cell

     iteration # 29     ecut=   124.00 Ry     beta= 0.20
     CG style diagonalization
     ethr =  1.60E-09,  avg # of iterations =  5.8

     negative rho (up, down):  1.385E-03 1.143E-03

     total cpu time spent up to now is    15416.0 secs

     total energy              =   -6246.53218118 Ry
     estimated scf accuracy    <       0.00000275 Ry

     total magnetization       =    25.70 Bohr mag/cell
     absolute magnetization    =    28.86 Bohr mag/cell

     iteration # 30     ecut=   124.00 Ry     beta= 0.20
     CG style diagonalization
     ethr =  7.17E-10,  avg # of iterations =  4.2

     negative rho (up, down):  1.382E-03 1.145E-03

     total cpu time spent up to now is    16068.1 secs

     total energy              =   -6246.53218304 Ry
     estimated scf accuracy    <       0.00000126 Ry

     total magnetization       =    25.70 Bohr mag/cell
     absolute magnetization    =    28.85 Bohr mag/cell

     iteration # 31     ecut=   124.00 Ry     beta= 0.20
     CG style diagonalization
     ethr =  3.28E-10,  avg # of iterations =  3.8

     negative rho (up, down):  1.381E-03 1.147E-03

     total cpu time spent up to now is    16653.5 secs

     total energy              =   -6246.53218349 Ry
     estimated scf accuracy    <       0.00000069 Ry

     total magnetization       =    25.71 Bohr mag/cell
     absolute magnetization    =    28.85 Bohr mag/cell

     iteration # 32     ecut=   124.00 Ry     beta= 0.20
     CG style diagonalization
     ethr =  1.79E-10,  avg # of iterations =  3.6

     negative rho (up, down):  1.380E-03 1.148E-03

     total cpu time spent up to now is    17203.1 secs

     total energy              =   -6246.53218378 Ry
     estimated scf accuracy    <       0.00000054 Ry

     total magnetization       =    25.71 Bohr mag/cell
     absolute magnetization    =    28.84 Bohr mag/cell

     iteration # 33     ecut=   124.00 Ry     beta= 0.20
     CG style diagonalization
     c_bands:  1 eigenvalues not converged
     ethr =  1.42E-10,  avg # of iterations =  3.7

     negative rho (up, down):  1.380E-03 1.150E-03

     total cpu time spent up to now is    17774.4 secs

     total energy              =   -6246.53218406 Ry
     estimated scf accuracy    <       0.00000030 Ry

     total magnetization       =    25.71 Bohr mag/cell
     absolute magnetization    =    28.84 Bohr mag/cell

     iteration # 34     ecut=   124.00 Ry     beta= 0.20
     CG style diagonalization
     c_bands:  1 eigenvalues not converged
     ethr =  7.69E-11,  avg # of iterations =  3.7

     negative rho (up, down):  1.378E-03 1.151E-03

     total cpu time spent up to now is    18346.0 secs

     total energy              =   -6246.53218418 Ry
     estimated scf accuracy    <       0.00000013 Ry

     total magnetization       =    25.71 Bohr mag/cell
     absolute magnetization    =    28.84 Bohr mag/cell

     iteration # 35     ecut=   124.00 Ry     beta= 0.20
     CG style diagonalization
     ethr =  3.45E-11,  avg # of iterations =  4.0

     negative rho (up, down):  1.377E-03 1.151E-03

     total cpu time spent up to now is    18971.0 secs

     total energy              =   -6246.53218428 Ry
     estimated scf accuracy    <       0.00000004 Ry

     total magnetization       =    25.72 Bohr mag/cell
     absolute magnetization    =    28.85 Bohr mag/cell

     iteration # 36     ecut=   124.00 Ry     beta= 0.20
     CG style diagonalization
     ethr =  9.69E-12,  avg # of iterations =  4.8

     negative rho (up, down):  1.377E-03 1.151E-03

     total cpu time spent up to now is    19755.0 secs

     total energy              =   -6246.53218432 Ry
     estimated scf accuracy    <       0.00000003 Ry

     total magnetization       =    25.72 Bohr mag/cell
     absolute magnetization    =    28.85 Bohr mag/cell

     iteration # 37     ecut=   124.00 Ry     beta= 0.20
     CG style diagonalization
     ethr =  7.85E-12,  avg # of iterations =  3.6

     negative rho (up, down):  1.377E-03 1.152E-03

     Magnetic moment per site  (integrated on atomic sphere of radius R)
     atom   1 (R=0.146)  charge= 14.3358  magn=  1.6612
     atom   2 (R=0.146)  charge= 14.3358  magn=  1.6612
     atom   3 (R=0.146)  charge= 14.3358  magn=  1.6612
     atom   4 (R=0.146)  charge= 14.3358  magn=  1.6612
     atom   5 (R=0.146)  charge= 14.3358  magn=  1.6612
     atom   6 (R=0.146)  charge= 14.3358  magn=  1.6612
     atom   7 (R=0.146)  charge= 14.3358  magn=  1.6612
     atom   8 (R=0.146)  charge= 14.3358  magn=  1.6612
     atom   9 (R=0.146)  charge= 14.3358  magn=  1.6612
     atom  10 (R=0.146)  charge= 14.3358  magn=  1.6612
     atom  11 (R=0.146)  charge= 14.3358  magn=  1.6612
     atom  12 (R=0.146)  charge= 14.3358  magn=  1.6612
     atom  13 (R=0.146)  charge= 14.3358  magn=  1.6612
     atom  14 (R=0.146)  charge= 14.3358  magn=  1.6612
     atom  15 (R=0.146)  charge= 14.3358  magn=  1.6612
     atom  16 (R=0.146)  charge= 14.3358  magn=  1.6612
     atom  17 (R=0.068)  charge=  4.1990  magn= -0.0186
     atom  18 (R=0.068)  charge=  4.1990  magn= -0.0186
     atom  19 (R=0.068)  charge=  4.1990  magn= -0.0186
     atom  20 (R=0.068)  charge=  4.1990  magn= -0.0186
     atom  21 (R=0.068)  charge=  4.1990  magn= -0.0186
     atom  22 (R=0.068)  charge=  4.1990  magn= -0.0186
     atom  23 (R=0.068)  charge=  4.1990  magn= -0.0186
     atom  24 (R=0.068)  charge=  4.1990  magn= -0.0186
     atom  25 (R=0.043)  charge=  0.2585  magn=  0.0022
     atom  26 (R=0.043)  charge=  0.2585  magn=  0.0022
     atom  27 (R=0.043)  charge=  0.2585  magn=  0.0022
     atom  28 (R=0.043)  charge=  0.2585  magn=  0.0022
     atom  29 (R=0.043)  charge=  0.2585  magn=  0.0022
     atom  30 (R=0.043)  charge=  0.2585  magn=  0.0022
     atom  31 (R=0.043)  charge=  0.2585  magn=  0.0022
     atom  32 (R=0.043)  charge=  0.2585  magn=  0.0022
     atom  33 (R=0.043)  charge=  0.2585  magn=  0.0022
     atom  34 (R=0.043)  charge=  0.2585  magn=  0.0022
     atom  35 (R=0.043)  charge=  0.2585  magn=  0.0022
     atom  36 (R=0.043)  charge=  0.2585  magn=  0.0022
     atom  37 (R=0.043)  charge=  0.2585  magn=  0.0022
     atom  38 (R=0.043)  charge=  0.2585  magn=  0.0022
     atom  39 (R=0.043)  charge=  0.2585  magn=  0.0022
     atom  40 (R=0.043)  charge=  0.2585  magn=  0.0022
     atom  41 (R=0.043)  charge=  0.2585  magn=  0.0022
     atom  42 (R=0.043)  charge=  0.2585  magn=  0.0022
     atom  43 (R=0.043)  charge=  0.2585  magn=  0.0022
     atom  44 (R=0.043)  charge=  0.2585  magn=  0.0022
     atom  45 (R=0.043)  charge=  0.2585  magn=  0.0022
     atom  46 (R=0.043)  charge=  0.2585  magn=  0.0022
     atom  47 (R=0.043)  charge=  0.2585  magn=  0.0022
     atom  48 (R=0.043)  charge=  0.2585  magn=  0.0022
     atom  49 (R=0.043)  charge=  0.2585  magn=  0.0022
     atom  50 (R=0.043)  charge=  0.2585  magn=  0.0022
     atom  51 (R=0.043)  charge=  0.2585  magn=  0.0022
     atom  52 (R=0.043)  charge=  0.2585  magn=  0.0022
     atom  53 (R=0.043)  charge=  0.2585  magn=  0.0022
     atom  54 (R=0.043)  charge=  0.2585  magn=  0.0022
     atom  55 (R=0.043)  charge=  0.2585  magn=  0.0022
     atom  56 (R=0.043)  charge=  0.2585  magn=  0.0022

     total cpu time spent up to now is    20295.3 secs

     End of self-consistent calculation

 ------ SPIN UP ------------


          k = 0.0000 0.0000 0.0000 ( 48489 PWs)   bands (ev):

   -69.4123 -69.3638 -69.3638 -69.3637 -69.3637 -69.3637 -69.3637 -69.3149
   -69.3149 -69.3149 -69.3149 -69.3149 -69.3149 -69.3149 -69.3149 -69.3149
   -38.0231 -37.9158 -37.9158 -37.9158 -37.9158 -37.9158 -37.9158 -37.8023
   -35.8942 -35.6617 -35.6617 -35.6617 -35.6617 -35.6617 -35.6617 -35.5638
   -35.5638 -35.5638 -35.4512 -35.4512 -35.4190 -35.4190 -35.4190 -35.4190
   -35.4190 -35.4190 -35.4142 -35.4142 -35.4142 -35.4142 -35.4142 -35.4142
   -35.3894 -35.3894 -35.3894 -35.3894 -35.3894 -35.3894 -35.3481 -35.3481
   -35.3481 -35.3481 -35.3481 -35.3481 -35.2441 -35.2441 -35.2441 -35.2424
   -35.2424 -35.2424 -35.2424 -35.2424 -35.2424 -35.2407 -35.2407 -35.2407
   -15.5941 -15.5941 -15.5941 -15.5941 -15.5941 -15.5941 -15.5535 -15.5535
   -15.5535 -15.1448 -15.1448 -15.1448 -15.1447 -15.1447 -15.1447 -14.7192
   -14.7192 -14.7192 -14.6737 -14.6737 -14.6737 -14.6737 -14.6737 -14.6737
     5.8121   7.4196   7.4196   7.4196   7.4196   7.4196   7.4196   8.0929
     8.0929   8.0929   8.2067   8.2067   8.2067   8.2067   8.2067   8.2067
    12.5024  12.9363  12.9363  12.9363  12.9363  12.9363  12.9363  14.2102
    14.2102  14.2102  14.7868  14.7868  14.7868  14.7868  14.7868  14.7868
    14.8327  14.8327  14.8327  14.8327  14.8327  14.8327  15.2088  15.2088
    15.2088  15.2088  15.2088  15.2088  15.3285  15.3285  15.7705  15.7705
    15.7705  15.7705  15.7705  15.7705  15.8034  15.8034  15.8034  15.8034
    15.8034  15.8034  15.9021  15.9021  15.9021  15.9899  15.9899  15.9899
    16.0973  16.0973  16.1594  16.1594  16.1594  16.1594  16.1594  16.1594
    16.3788  16.3788  16.3788  16.3788  16.3788  16.3788  17.0073  17.0073
    17.0073  17.0073  17.0073  17.0073  17.3164  17.3164  17.3780  17.3780
    17.3780  17.5083  17.5083  17.5083  17.5083  17.5083  17.5083  17.5384
    17.5384  17.5384  17.6330  17.6330  17.6330  17.6330  17.6330  17.6330
    17.9501  18.6447  18.6447  18.6447  18.6447  18.6447  18.6447  19.1837
    19.1837  19.1837  19.6570  19.6570  19.6570  19.6570  19.6570  19.6571
    19.6776  20.0013  20.0013  20.0013  20.0013  20.0013  20.0014  20.2478
    20.2478  20.2478  20.2478  20.2478  20.2478  21.0670

          k = 0.0000 0.0000 0.2000 ( 48469 PWs)   bands (ev):

   -69.4100 -69.3788 -69.3638 -69.3637 -69.3637 -69.3637 -69.3487 -69.3173
   -69.3149 -69.3149 -69.3149 -69.3149 -69.3149 -69.3149 -69.3149 -69.3149
   -38.0181 -37.9501 -37.9158 -37.9158 -37.9158 -37.9158 -37.8808 -37.8078
   -35.8817 -35.7254 -35.6598 -35.6598 -35.6598 -35.6598 -35.6129 -35.5652
   -35.5561 -35.5561 -35.4557 -35.4557 -35.4510 -35.4462 -35.4447 -35.4447
   -35.4447 -35.4447 -35.4349 -35.4037 -35.4037 -35.4037 -35.4037 -35.3830
   -35.3830 -35.3830 -35.3830 -35.3801 -35.3785 -35.3525 -35.3525 -35.3340
   -35.3340 -35.3340 -35.3340 -35.3161 -35.2524 -35.2506 -35.2506 -35.2498
   -35.2498 -35.2498 -35.2498 -35.2493 -35.2424 -35.2424 -35.2422 -35.2422
   -15.5948 -15.5948 -15.5948 -15.5948 -15.5903 -15.5903 -15.5575 -15.5575
   -15.5331 -15.2703 -15.1441 -15.1441 -15.1441 -15.1441 -15.0177 -14.7413
   -14.7148 -14.7148 -14.6780 -14.6780 -14.6736 -14.6736 -14.6736 -14.6736
     5.9166   7.0527   7.4109   7.4109   7.4109   7.4109   7.6850   8.0673
     8.1059   8.1059   8.1980   8.1980   8.2125   8.2125   8.2125   8.2125
    12.5282  12.7234  12.9799  12.9799  12.9799  12.9799  13.2862  14.1724
    14.2017  14.2017  14.4658  14.6042  14.6042  14.7793  14.7793  14.7793
    14.7793  14.8798  14.8798  14.8798  14.8798  15.0765  15.0765  15.0765
    15.0765  15.1169  15.3185  15.3650  15.4179  15.4179  15.4923  15.5243
    15.6607  15.6607  15.6607  15.6607  15.6683  15.7044  15.8089  15.8358
    15.8614  15.8614  15.8614  15.8614  15.8682  15.8682  16.0352  16.0352
    16.0458  16.2080  16.2080  16.2080  16.2080  16.2645  16.3471  16.3700
    16.3700  16.4345  16.4345  16.4345  16.4345  16.5144  17.0335  17.0335
    17.0335  17.0335  17.0432  17.0432  17.2869  17.3043  17.3460  17.3573
    17.3573  17.4688  17.4688  17.4688  17.4688  17.4783  17.6087  17.6289
    17.6289  17.6698  17.6698  17.7087  17.7455  17.7455  17.7455  17.7455
    18.5783  18.5783  18.5783  18.5783  18.6483  18.7278  18.7278  19.1079
    19.1079  19.1396  19.2918  19.4947  19.4947  19.4947  19.4947  19.5871
    19.8479  19.8479  19.8479  19.8479  19.8580  20.0236  20.0237  20.0548
    20.3436  20.3436  20.3436  20.3441  20.6867  20.8408

          k = 0.0000 0.0000 0.4000 ( 48538 PWs)   bands (ev):

   -69.4031 -69.3923 -69.3638 -69.3637 -69.3637 -69.3637 -69.3351 -69.3242
   -69.3149 -69.3149 -69.3149 -69.3149 -69.3149 -69.3149 -69.3149 -69.3149
   -38.0036 -37.9803 -37.9158 -37.9158 -37.9158 -37.9157 -37.8490 -37.8238
   -35.8456 -35.7907 -35.6565 -35.6565 -35.6565 -35.6565 -35.5843 -35.5706
   -35.5338 -35.5338 -35.4990 -35.4990 -35.4648 -35.4648 -35.4648 -35.4648
   -35.4495 -35.4451 -35.4316 -35.4088 -35.4019 -35.4019 -35.4019 -35.4019
   -35.3790 -35.3790 -35.3790 -35.3790 -35.3312 -35.3086 -35.3086 -35.3021
   -35.3021 -35.3021 -35.3021 -35.2871 -35.2851 -35.2732 -35.2732 -35.2706
   -35.2706 -35.2706 -35.2706 -35.2641 -35.2425 -35.2425 -35.2425 -35.2425
   -15.5958 -15.5958 -15.5958 -15.5958 -15.5802 -15.5802 -15.5677 -15.5677
   -15.4743 -15.3836 -15.1431 -15.1431 -15.1431 -15.1431 -14.9004 -14.8046
   -14.7033 -14.7033 -14.6893 -14.6893 -14.6734 -14.6734 -14.6734 -14.6734
     6.2075   6.6186   7.3971   7.3971   7.3971   7.3971   7.8672   7.9917
     8.1378   8.1378   8.1731   8.1731   8.2216   8.2216   8.2216   8.2216
    12.5867  12.6410  13.0598  13.0598  13.0598  13.0598  13.6827  14.0109
    14.2216  14.2216  14.3479  14.3479  14.4268  14.7150  14.7150  14.7150
    14.7150  14.7801  14.8302  14.8302  14.8302  14.8302  15.1089  15.1384
    15.1384  15.1384  15.1384  15.1577  15.4410  15.4410  15.4410  15.4410
    15.4566  15.4639  15.5511  15.5926  15.6420  15.6420  15.7831  15.7831
    15.8594  15.9441  15.9945  15.9945  15.9945  15.9945  16.0942  16.1503
    16.1503  16.2720  16.2720  16.2720  16.2720  16.2895  16.2895  16.3289
    16.3759  16.3759  16.3759  16.3759  16.8239  16.8869  17.1403  17.1403
    17.1470  17.1711  17.1711  17.1711  17.1711  17.2628  17.2628  17.2771
    17.2795  17.4127  17.4127  17.4127  17.4127  17.4510  17.6875  17.8036
    17.8036  17.8064  17.8125  17.8125  17.8768  17.8768  17.8768  17.8768
    18.6107  18.6107  18.6107  18.6107  18.8322  18.8322  18.9399  18.9399
    18.9744  18.9744  18.9744  18.9744  19.0512  19.0616  19.7459  19.8049
    19.8549  19.9813  19.9813  19.9813  19.9814  20.2641  20.3178  20.3178
    20.3178  20.3178  20.4348  20.4425  20.7598  21.3053

          k = 0.0000 0.2000 0.2000 ( 48486 PWs)   bands (ev):

   -69.4077 -69.3781 -69.3781 -69.3684 -69.3591 -69.3494 -69.3494 -69.3196
   -69.3149 -69.3149 -69.3149 -69.3149 -69.3149 -69.3149 -69.3149 -69.3149
   -38.0134 -37.9485 -37.9485 -37.9266 -37.9048 -37.8824 -37.8824 -37.8130
   -35.8700 -35.7223 -35.7223 -35.6828 -35.6334 -35.6098 -35.6098 -35.5608
   -35.5543 -35.5492 -35.4699 -35.4699 -35.4589 -35.4581 -35.4581 -35.4483
   -35.4452 -35.4427 -35.4336 -35.4219 -35.4219 -35.4040 -35.4021 -35.4021
   -35.3692 -35.3692 -35.3652 -35.3582 -35.3522 -35.3522 -35.3445 -35.3445
   -35.3296 -35.3257 -35.2997 -35.2997 -35.2752 -35.2708 -35.2523 -35.2512
   -35.2499 -35.2499 -35.2496 -35.2496 -35.2494 -35.2485 -35.2424 -35.2421
   -15.5993 -15.5924 -15.5924 -15.5895 -15.5893 -15.5893 -15.5614 -15.5567
   -15.5183 -15.2663 -15.2663 -15.1908 -15.0965 -15.0208 -15.0208 -14.7578
   -14.7150 -14.7106 -14.6791 -14.6791 -14.6782 -14.6765 -14.6765 -14.6704
     6.0149   7.0724   7.0724   7.3208   7.4772   7.6566   7.6566   8.0303
     8.1179   8.1284   8.2026   8.2026   8.2095   8.2095   8.2113   8.2234
    12.5363  12.7209  12.7209  12.8714  13.1444  13.3389  13.3389  14.0897
    14.1772  14.2587  14.4931  14.4931  14.5817  14.5817  14.6647  14.7224
    14.7224  14.8070  14.9163  14.9259  14.9955  15.0909  15.1100  15.1100
    15.2169  15.2169  15.2921  15.2921  15.3253  15.3692  15.3774  15.3929
    15.5906  15.6198  15.6198  15.6609  15.6634  15.7522  15.7559  15.7559
    15.7816  15.7827  15.7827  15.8610  15.8610  15.8633  15.9780  16.0249
    16.1766  16.1766  16.1969  16.2156  16.3440  16.4105  16.4105  16.4218
    16.4341  16.4897  16.4897  16.6220  16.6220  16.6827  16.9371  16.9843
    16.9843  17.0744  17.1116  17.1116  17.2683  17.3067  17.3791  17.3859
    17.3902  17.3948  17.3948  17.4452  17.5396  17.5396  17.5719  17.5833
    17.5983  17.6127  17.6785  17.6785  17.8708  17.9054  17.9269  17.9269
    18.5177  18.5344  18.6295  18.6295  18.6618  18.6618  18.9579  19.0193
    19.0365  19.1665  19.2001  19.3945  19.3945  19.4217  19.4217  19.5887
    19.6016  19.6455  19.6455  19.7381  19.9335  19.9335  19.9809  20.3433
    20.3439  20.4656  20.4964  20.5058  20.8527  21.4336

          k = 0.0000 0.2000 0.4000 ( 48550 PWs)   bands (ev):

   -69.4012 -69.3909 -69.3759 -69.3726 -69.3549 -69.3516 -69.3365 -69.3262
   -69.3149 -69.3149 -69.3149 -69.3149 -69.3149 -69.3149 -69.3149 -69.3149
   -37.9995 -37.9773 -37.9438 -37.9363 -37.8950 -37.8873 -37.8522 -37.8283
   -35.8363 -35.7847 -35.7138 -35.7006 -35.6114 -35.6050 -35.5793 -35.5649
   -35.5339 -35.5297 -35.5008 -35.4997 -35.4799 -35.4749 -35.4660 -35.4658
   -35.4454 -35.4388 -35.4330 -35.4269 -35.4251 -35.4138 -35.4105 -35.4013
   -35.3600 -35.3526 -35.3518 -35.3461 -35.3432 -35.3386 -35.3137 -35.3085
   -35.3050 -35.3045 -35.3001 -35.2998 -35.2733 -35.2731 -35.2720 -35.2714
   -35.2704 -35.2678 -35.2516 -35.2503 -35.2501 -35.2498 -35.2494 -35.2479
   -15.6003 -15.5971 -15.5875 -15.5869 -15.5835 -15.5780 -15.5715 -15.5650
   -15.4638 -15.3764 -15.2531 -15.2283 -15.0574 -15.0325 -14.9074 -14.8158
   -14.7056 -14.6997 -14.6913 -14.6866 -14.6813 -14.6812 -14.6732 -14.6704
     6.2876   6.6706   7.1303   7.2191   7.5326   7.5946   7.8277   7.9490
     8.1474   8.1625   8.1796   8.1924   8.2108   8.2138   8.2282   8.2334
    12.5557  12.5976  12.7384  12.7931  13.3412  13.4194  13.7054  13.9704
    14.1788  14.2671  14.2952  14.3491  14.4875  14.5459  14.5693  14.6242
    14.6589  14.9076  14.9276  14.9339  15.0347  15.0480  15.1175  15.1190
    15.1338  15.1401  15.1401  15.1741  15.3526  15.3762  15.3838  15.4085
    15.4089  15.4710  15.4771  15.5855  15.5940  15.5995  15.7012  15.7553
    15.7617  15.8539  15.9023  15.9055  15.9693  16.0569  16.0617  16.1485
    16.1599  16.2037  16.2236  16.2657  16.3631  16.3944  16.3978  16.4426
    16.5704  16.5708  16.6877  16.6904  16.7184  16.9920  17.0179  17.0485
    17.0901  17.1507  17.1621  17.1751  17.2147  17.2269  17.2369  17.3450
    17.3508  17.3561  17.3656  17.4371  17.4402  17.4570  17.6991  17.7031
    17.7134  17.7305  17.7552  17.7852  18.0508  18.0702  18.0907  18.1038
    18.4709  18.5307  18.5859  18.6306  18.6758  18.6923  18.7151  18.8050
    18.8624  18.8688  19.0733  19.1172  19.1352  19.2897  19.4409  19.6015
    19.7919  19.7932  19.8292  19.8733  19.8734  19.9028  19.9999  20.2381
    20.4809  20.4944  20.5468  20.6350  20.6978  20.8188

          k = 0.0000 0.4000 0.4000 ( 48478 PWs)   bands (ev):

   -69.3956 -69.3869 -69.3869 -69.3806 -69.3469 -69.3406 -69.3406 -69.3318
   -69.3149 -69.3149 -69.3149 -69.3149 -69.3149 -69.3149 -69.3149 -69.3149
   -37.9876 -37.9685 -37.9685 -37.9544 -37.8763 -37.8616 -37.8615 -37.8412
   -35.8092 -35.7669 -35.7669 -35.7384 -35.5772 -35.5700 -35.5700 -35.5569
   -35.5277 -35.5175 -35.5001 -35.5001 -35.4991 -35.4991 -35.4890 -35.4886
   -35.4393 -35.4311 -35.4311 -35.4281 -35.4242 -35.4078 -35.3998 -35.3998
   -35.3761 -35.3761 -35.3573 -35.3402 -35.3155 -35.3145 -35.3083 -35.3083
   -35.3057 -35.3057 -35.2990 -35.2921 -35.2778 -35.2749 -35.2719 -35.2719
   -35.2708 -35.2695 -35.2695 -35.2651 -35.2497 -35.2497 -35.2424 -35.2424
   -15.5981 -15.5911 -15.5911 -15.5809 -15.5783 -15.5753 -15.5753 -15.5657
   -15.4240 -15.3507 -15.3507 -15.3007 -14.9840 -14.9332 -14.9332 -14.8576
   -14.7038 -14.6934 -14.6934 -14.6905 -14.6897 -14.6800 -14.6800 -14.6733
     6.5080   6.8136   6.8136   7.0118   7.6406   7.7402   7.7402   7.8570
     8.1701   8.1939   8.1939   8.2004   8.2064   8.2238   8.2238   8.2386
    12.5105  12.5497  12.5497  12.6071  13.5934  13.7232  13.7232  13.9009
    14.2061  14.2803  14.3200  14.3200  14.3592  14.3592  14.3721  14.4910
    15.0095  15.0095  15.0290  15.0565  15.1157  15.1336  15.1336  15.1395
    15.1395  15.1495  15.1547  15.2287  15.2498  15.2498  15.2673  15.3586
    15.4170  15.4304  15.4619  15.4619  15.4619  15.6199  15.6640  15.6640
    15.6911  15.8025  15.8025  15.8623  16.0116  16.0135  16.0135  16.0935
    16.2032  16.2126  16.2126  16.4157  16.5809  16.6297  16.6340  16.6340
    16.6998  16.6998  16.7468  16.7544  16.7959  16.9675  16.9675  17.0517
    17.0517  17.1200  17.1370  17.2017  17.2170  17.3616  17.3616  17.3817
    17.3817  17.3958  17.4168  17.4298  17.4547  17.5771  17.5771  17.6127
    17.6225  17.6933  17.6933  17.9940  18.2368  18.2861  18.2861  18.3032
    18.3622  18.3679  18.4744  18.4744  18.4765  18.6738  18.6738  18.7041
    18.7234  18.7864  18.7864  19.0598  19.2169  19.2682  19.2682  19.3632
    19.4202  19.4202  19.4461  19.8403  19.8849  19.9546  19.9546  20.1299
    20.2906  20.7195  20.7794  20.8517  20.8659  21.4589

          k = 0.2000 0.2000 0.2000 ( 48503 PWs)   bands (ev):

   -69.4056 -69.3781 -69.3781 -69.3781 -69.3494 -69.3494 -69.3494 -69.3217
   -69.3149 -69.3149 -69.3149 -69.3149 -69.3149 -69.3149 -69.3149 -69.3149
   -38.0090 -37.9486 -37.9486 -37.9486 -37.8823 -37.8823 -37.8823 -37.8179
   -35.8594 -35.7243 -35.7243 -35.7243 -35.6021 -35.6021 -35.6021 -35.5550
   -35.5486 -35.5486 -35.4725 -35.4725 -35.4725 -35.4711 -35.4711 -35.4711
   -35.4420 -35.4420 -35.4154 -35.4154 -35.4154 -35.4012 -35.4012 -35.4012
   -35.3756 -35.3756 -35.3756 -35.3631 -35.3631 -35.3631 -35.3165 -35.3165
   -35.3165 -35.2944 -35.2944 -35.2944 -35.2851 -35.2707 -35.2707 -35.2707
   -35.2683 -35.2683 -35.2441 -35.2424 -35.2424 -35.2424 -35.2416 -35.2416
   -15.5946 -15.5946 -15.5946 -15.5864 -15.5864 -15.5864 -15.5598 -15.5598
   -15.5061 -15.2716 -15.2716 -15.2716 -15.0148 -15.0148 -15.0148 -14.7716
   -14.7115 -14.7115 -14.6817 -14.6817 -14.6817 -14.6753 -14.6753 -14.6753
     6.1068   7.0780   7.0780   7.0780   7.6358   7.6358   7.6358   7.9922
     8.1399   8.1399   8.2094   8.2094   8.2094   8.2169   8.2169   8.2169
    12.5237  12.6761  12.6761  12.6761  13.4161  13.4161  13.4161  14.0404
    14.2296  14.2296  14.5085  14.5085  14.5085  14.5362  14.5362  14.5362
    14.8105  14.8105  14.8105  15.1083  15.1083  15.1083  15.1100  15.1100
    15.1100  15.2173  15.2805  15.2805  15.2805  15.2917  15.2917  15.4610
    15.4610  15.6303  15.6303  15.6303  15.7061  15.7061  15.7061  15.7474
    15.7474  15.7474  15.8325  15.8325  15.8325  15.9322  15.9322  15.9921
    16.1976  16.1976  16.1976  16.3958  16.3958  16.4478  16.4478  16.4478
    16.5328  16.5328  16.5328  16.7737  16.7737  16.7737  16.9747  16.9747
    16.9747  17.1019  17.1019  17.1019  17.1549  17.3055  17.3055  17.3505
    17.4227  17.4227  17.4227  17.5256  17.5256  17.5630  17.5630  17.5630
    17.6771  17.6771  17.6771  17.8530  17.8530  17.9929  17.9929  17.9929
    18.5429  18.5429  18.5429  18.6211  18.6211  18.6211  18.9537  18.9537
    18.9938  19.0040  19.0040  19.0040  19.1834  19.4890  19.4890  19.4890
    19.6383  19.6383  19.6383  19.8445  19.8445  19.8445  20.1052  20.2753
    20.4600  20.4601  20.8518  20.8519  20.8519  21.4675

          k = 0.2000 0.2000 0.4000 ( 48490 PWs)   bands (ev):

   -69.3994 -69.3899 -69.3781 -69.3780 -69.3494 -69.3494 -69.3375 -69.3279
   -69.3149 -69.3149 -69.3149 -69.3149 -69.3149 -69.3149 -69.3149 -69.3149
   -37.9959 -37.9751 -37.9488 -37.9488 -37.8821 -37.8821 -37.8546 -37.8322
   -35.8286 -35.7812 -35.7273 -35.7273 -35.5884 -35.5884 -35.5725 -35.5580
   -35.5317 -35.5294 -35.5049 -35.4992 -35.4827 -35.4827 -35.4791 -35.4791
   -35.4389 -35.4303 -35.4303 -35.4293 -35.4239 -35.3965 -35.3894 -35.3894
   -35.3841 -35.3841 -35.3715 -35.3379 -35.3379 -35.3348 -35.3244 -35.3086
   -35.3086 -35.3011 -35.3011 -35.2976 -35.2786 -35.2711 -35.2706 -35.2706
   -35.2696 -35.2674 -35.2506 -35.2497 -35.2497 -35.2497 -35.2424 -35.2423
   -15.5961 -15.5961 -15.5836 -15.5836 -15.5822 -15.5782 -15.5681 -15.5676
   -15.4571 -15.3744 -15.2798 -15.2798 -15.0055 -15.0055 -14.9095 -14.8236
   -14.7031 -14.7023 -14.6909 -14.6881 -14.6847 -14.6846 -14.6746 -14.6746
     6.3606   6.7141   7.0879   7.0879   7.6027   7.6027   7.7905   7.9076
     8.1677   8.1739   8.1971   8.1987   8.2158   8.2158   8.2320   8.2320
    12.5023  12.5295  12.6157  12.6157  13.5529  13.5529  13.7697  14.0004
    14.2087  14.2111  14.2997  14.3057  14.4040  14.4040  14.5417  14.5417
    14.7880  14.9451  14.9451  14.9655  15.0695  15.0695  15.1208  15.1208
    15.1357  15.1445  15.1950  15.2347  15.2483  15.2483  15.3898  15.4247
    15.4584  15.4584  15.5542  15.6193  15.6556  15.6556  15.6591  15.7391
    15.7443  15.7443  15.8291  15.8291  16.0003  16.0318  16.0555  16.0816
    16.2483  16.2483  16.2971  16.3456  16.4063  16.4503  16.4846  16.4846
    16.6357  16.6367  16.6367  16.8874  16.9005  16.9005  17.0178  17.0178
    17.0784  17.0967  17.1969  17.2046  17.2046  17.2096  17.2992  17.3577
    17.3677  17.3869  17.4113  17.4113  17.5133  17.5133  17.6061  17.6903
    17.6903  17.7578  17.8683  17.9742  18.0736  18.0813  18.0813  18.0933
    18.4334  18.4334  18.4407  18.5440  18.5440  18.6049  18.7532  18.7701
    18.7701  18.8417  19.0769  19.1551  19.1999  19.2690  19.2690  19.3869
    19.5509  19.6380  19.6380  19.7620  19.7620  19.7700  19.9270  20.1091
    20.1960  20.3399  20.8005  20.8020  20.8624  21.6710

          k = 0.2000 0.4000 0.4000 ( 48499 PWs)   bands (ev):

   -69.3945 -69.3869 -69.3869 -69.3825 -69.3449 -69.3406 -69.3406 -69.3329
   -69.3149 -69.3149 -69.3149 -69.3149 -69.3149 -69.3149 -69.3149 -69.3149
   -37.9853 -37.9687 -37.9687 -37.9590 -37.8715 -37.8614 -37.8614 -37.8437
   -35.8058 -35.7701 -35.7701 -35.7510 -35.5624 -35.5588 -35.5588 -35.5469
   -35.5281 -35.5186 -35.5076 -35.5076 -35.4998 -35.4978 -35.4978 -35.4894
   -35.4289 -35.4268 -35.4170 -35.4170 -35.4068 -35.4062 -35.4032 -35.4032
   -35.3749 -35.3749 -35.3626 -35.3569 -35.3445 -35.3445 -35.3395 -35.3302
   -35.3102 -35.3020 -35.3020 -35.2965 -35.2768 -35.2725 -35.2725 -35.2675
   -35.2513 -35.2513 -35.2508 -35.2496 -35.2485 -35.2485 -35.2424 -35.2423
   -15.5920 -15.5861 -15.5861 -15.5770 -15.5755 -15.5750 -15.5750 -15.5668
   -15.4256 -15.3615 -15.3615 -15.3274 -14.9575 -14.9229 -14.9229 -14.8572
   -14.7026 -14.6950 -14.6937 -14.6937 -14.6912 -14.6845 -14.6845 -14.6789
     6.5598   6.8290   6.8290   6.9728   7.6407   7.7121   7.7121   7.8177
     8.1905   8.2070   8.2095   8.2095   8.2173   8.2269   8.2269   8.2380
    12.4200  12.4390  12.4390  12.4627  13.7551  13.8396  13.8396  14.0098
    14.2032  14.2104  14.2356  14.2356  14.2643  14.3669  14.3670  14.4680
    14.9759  14.9759  14.9974  15.0143  15.0741  15.0817  15.0817  15.1131
    15.1159  15.1183  15.1651  15.1651  15.3272  15.3272  15.4031  15.4643
    15.4724  15.5584  15.5633  15.5633  15.5769  15.6828  15.6828  15.6937
    15.7194  15.8139  15.8139  15.8246  15.9712  15.9712  15.9915  16.1154
    16.2602  16.2644  16.2644  16.4606  16.5075  16.5886  16.5920  16.5920
    16.6497  16.7265  16.7265  16.8929  16.9853  16.9969  17.0298  17.0298
    17.1894  17.1894  17.1965  17.2733  17.2812  17.2812  17.3035  17.3903
    17.3941  17.4110  17.4110  17.4851  17.5841  17.5841  17.6238  17.6404
    17.6562  17.8607  17.8607  18.0599  18.0920  18.1238  18.1591  18.1591
    18.2525  18.3240  18.3312  18.3312  18.4972  18.4972  18.5301  18.6575
    18.7851  18.8037  18.8037  18.8171  19.2000  19.2163  19.2163  19.3764
    19.4760  19.4947  19.5304  19.5304  19.7889  19.8400  19.8664  19.8664
    20.0264  20.2530  20.2531  20.5112  21.1749  21.4933

          k = 0.4000 0.4000 0.4000 ( 48449 PWs)   bands (ev):

   -69.3913 -69.3869 -69.3869 -69.3869 -69.3406 -69.3406 -69.3406 -69.3361
   -69.3149 -69.3149 -69.3149 -69.3149 -69.3149 -69.3149 -69.3149 -69.3149
   -37.9787 -37.9689 -37.9689 -37.9689 -37.8611 -37.8611 -37.8611 -37.8507
   -35.7946 -35.7749 -35.7749 -35.7749 -35.5378 -35.5378 -35.5378 -35.5257
   -35.5257 -35.5198 -35.5161 -35.5161 -35.5161 -35.4973 -35.4973 -35.4973
   -35.4156 -35.4156 -35.4156 -35.4023 -35.4023 -35.3881 -35.3881 -35.3881
   -35.3861 -35.3706 -35.3706 -35.3706 -35.3673 -35.3673 -35.3673 -35.3380
   -35.3380 -35.3380 -35.3320 -35.3320 -35.2508 -35.2508 -35.2508 -35.2496
   -35.2496 -35.2496 -35.2441 -35.2423 -35.2423 -35.2423 -35.2416 -35.2416
   -15.5782 -15.5782 -15.5782 -15.5737 -15.5737 -15.5737 -15.5698 -15.5698
   -15.4169 -15.3793 -15.3793 -15.3793 -14.9061 -14.9061 -14.9061 -14.8681
   -14.6993 -14.6993 -14.6949 -14.6949 -14.6949 -14.6915 -14.6915 -14.6915
     6.6945   6.8553   6.8553   6.8553   7.6680   7.6680   7.6680   7.7371
     8.2215   8.2215   8.2307   8.2307   8.2307   8.2334   8.2334   8.2334
    12.2883  12.2916  12.2916  12.2916  13.9767  13.9767  13.9767  14.1013
    14.1013  14.1197  14.1197  14.1197  14.2633  14.3900  14.3900  14.3900
    14.9664  15.0220  15.0220  15.0220  15.0707  15.0707  15.0723  15.0723
    15.0723  15.0768  15.0768  15.0768  15.5041  15.5041  15.5041  15.5560
    15.5560  15.6263  15.6264  15.6264  15.7513  15.7513  15.7513  15.8173
    15.8173  15.8173  15.8203  15.8203  15.8203  15.8606  15.8606  16.0846
    16.3635  16.3635  16.3635  16.3715  16.5943  16.5943  16.6425  16.6425
    16.6425  16.7571  16.7571  16.7571  17.1935  17.1935  17.1935  17.1954
    17.1954  17.1954  17.3065  17.3253  17.3253  17.3253  17.3378  17.3378
    17.4648  17.4648  17.4648  17.6251  17.6251  17.6251  17.6520  17.6520
    17.9799  17.9799  17.9799  18.0261  18.0261  18.0955  18.0955  18.0955
    18.1406  18.1406  18.1406  18.2343  18.2637  18.2637  18.2637  18.6090
    18.7289  18.7289  18.7289  18.7920  18.7920  19.1828  19.2127  19.2127
    19.2127  19.4412  19.4412  19.4412  19.7283  19.7283  19.7283  19.7982
    19.7982  19.7982  19.8269  19.8269  21.8366  22.1371

 ------ SPIN DOWN ----------


          k = 0.0000 0.0000 0.0000 ( 48489 PWs)   bands (ev):

   -67.4744 -67.4227 -67.4227 -67.4227 -67.4227 -67.4227 -67.4227 -67.3707
   -67.3707 -67.3707 -67.3707 -67.3707 -67.3707 -67.3707 -67.3707 -67.3707
   -38.0911 -37.9831 -37.9831 -37.9831 -37.9831 -37.9831 -37.9831 -37.8708
   -34.0672 -33.8130 -33.8130 -33.8130 -33.8130 -33.8130 -33.8130 -33.6865
   -33.6865 -33.6865 -33.5474 -33.5474 -33.5452 -33.5452 -33.5452 -33.5452
   -33.5452 -33.5452 -33.5130 -33.5130 -33.5130 -33.5130 -33.5130 -33.5130
   -33.4811 -33.4811 -33.4811 -33.4811 -33.4811 -33.4811 -33.4363 -33.4363
   -33.4363 -33.4363 -33.4363 -33.4363 -33.3459 -33.3459 -33.3459 -33.3329
   -33.3329 -33.3329 -33.3329 -33.3329 -33.3329 -33.3241 -33.3241 -33.3241
   -15.6616 -15.6616 -15.6616 -15.6616 -15.6616 -15.6616 -15.6211 -15.6211
   -15.6211 -15.2146 -15.2146 -15.2146 -15.2146 -15.2146 -15.2146 -14.7914
   -14.7914 -14.7914 -14.7459 -14.7459 -14.7459 -14.7458 -14.7458 -14.7458
     5.8279   7.4213   7.4213   7.4213   7.4213   7.4213   7.4213   8.1119
     8.1119   8.1119   8.2133   8.2133   8.2133   8.2133   8.2133   8.2133
    13.1301  13.1301  13.1301  13.1301  13.1301  13.1301  13.3224  15.3913
    15.3913  15.3913  15.6813  15.6813  15.6813  15.6813  15.6813  15.6813
    15.9522  15.9522  15.9522  15.9522  15.9522  15.9522  15.9792  15.9792
    15.9792  16.0276  16.0276  16.0276  16.0276  16.0276  16.0276  16.0285
    16.0285  16.3694  16.3694  16.4304  16.4304  16.4304  16.4304  16.4304
    16.4304  16.8683  16.8683  16.8683  16.8683  16.8683  16.8683  17.0650
    17.0650  17.0650  17.4564  17.4564  17.4564  17.4564  17.4564  17.4564
    17.4729  17.4729  17.4729  17.4729  17.4729  17.4729  18.8245  18.8604
    18.8604  18.8604  18.8604  18.8605  18.8605  19.0382  19.0382  19.1090
    19.1090  19.1090  19.1090  19.1090  19.1090  19.1652  19.1652  19.1652
    19.1652  19.1652  19.1652  19.3109  19.3109  19.3109  19.3109  19.3109
    19.3109  19.3802  19.3802  19.3802  19.4247  19.4247  19.4247  19.7647
    20.4854  20.4854  20.4854  20.4855  20.4856  20.4856  20.5311  20.5311
    20.5311  20.5311  20.5311  20.5311  20.6253  20.6254  20.6258  21.2711
    21.2712  21.2713  21.2717  21.2746  22.0496  22.0502

          k = 0.0000 0.0000 0.2000 ( 48469 PWs)   bands (ev):

   -67.4719 -67.4387 -67.4227 -67.4227 -67.4227 -67.4227 -67.4067 -67.3732
   -67.3707 -67.3707 -67.3707 -67.3707 -67.3707 -67.3707 -67.3707 -67.3707
   -38.0860 -38.0172 -37.9831 -37.9831 -37.9831 -37.9831 -37.9486 -37.8763
   -34.0537 -33.8843 -33.8113 -33.8113 -33.8113 -33.8113 -33.7548 -33.6889
   -33.6784 -33.6784 -33.5750 -33.5750 -33.5610 -33.5610 -33.5610 -33.5610
   -33.5471 -33.5420 -33.5321 -33.5088 -33.5088 -33.5088 -33.5088 -33.4803
   -33.4760 -33.4760 -33.4760 -33.4760 -33.4707 -33.4512 -33.4512 -33.4238
   -33.4238 -33.4238 -33.4238 -33.4017 -33.3578 -33.3512 -33.3512 -33.3405
   -33.3405 -33.3405 -33.3405 -33.3328 -33.3328 -33.3296 -33.3272 -33.3272
   -15.6623 -15.6623 -15.6623 -15.6623 -15.6578 -15.6578 -15.6250 -15.6250
   -15.6008 -15.3393 -15.2139 -15.2139 -15.2139 -15.2139 -15.0883 -14.8134
   -14.7870 -14.7870 -14.7502 -14.7502 -14.7457 -14.7457 -14.7457 -14.7457
     5.9309   7.0540   7.4138   7.4138   7.4138   7.4138   7.6910   8.0854
     8.1235   8.1235   8.2056   8.2056   8.2182   8.2182   8.2182   8.2182
    12.9226  13.1749  13.1749  13.1749  13.1749  13.2729  13.5448  15.1260
    15.2364  15.2364  15.3774  15.3774  15.4573  15.4573  15.4573  15.4573
    15.6616  15.7593  15.9783  15.9783  15.9783  15.9783  16.0431  16.0724
    16.0906  16.0906  16.0906  16.0906  16.2112  16.2112  16.2913  16.2913
    16.3008  16.3898  16.3970  16.4036  16.5177  16.5777  16.5777  16.5777
    16.5777  16.7114  16.8278  16.8278  16.8278  16.8278  17.0619  17.0648
    17.0648  17.1919  17.2066  17.3581  17.3581  17.3581  17.3581  17.4167
    17.4167  17.6432  17.6432  17.6432  17.6432  18.0317  18.7027  18.7027
    18.7027  18.7027  18.9073  18.9073  18.9466  19.0054  19.0083  19.0369
    19.0369  19.0369  19.0369  19.0519  19.0519  19.1081  19.1767  19.1767
    19.1767  19.1767  19.3308  19.3308  19.3324  19.4416  19.4492  19.4492
    19.4492  19.4492  19.4769  19.4769  19.4922  19.5291  19.5291  19.9571
    19.9898  20.2183  20.4606  20.4609  20.4624  20.4624  20.4624  20.4625
    20.5388  20.5833  20.5833  20.5833  20.5834  20.7386  20.8131  20.9862
    20.9862  20.9862  20.9871  21.1849  21.2200  21.2206

          k = 0.0000 0.0000 0.4000 ( 48538 PWs)   bands (ev):

   -67.4645 -67.4531 -67.4227 -67.4227 -67.4227 -67.4227 -67.3922 -67.3807
   -67.3707 -67.3707 -67.3707 -67.3707 -67.3707 -67.3707 -67.3707 -67.3707
   -38.0711 -38.0475 -37.9831 -37.9831 -37.9831 -37.9831 -37.9172 -37.8923
   -34.0148 -33.9555 -33.8085 -33.8085 -33.8085 -33.8085 -33.7174 -33.6977
   -33.6549 -33.6549 -33.6186 -33.6186 -33.5786 -33.5786 -33.5786 -33.5786
   -33.5457 -33.5416 -33.5262 -33.5068 -33.5068 -33.5068 -33.5068 -33.5017
   -33.4719 -33.4719 -33.4719 -33.4719 -33.4358 -33.4074 -33.4074 -33.3940
   -33.3940 -33.3940 -33.3940 -33.3906 -33.3718 -33.3718 -33.3705 -33.3617
   -33.3617 -33.3617 -33.3617 -33.3456 -33.3323 -33.3323 -33.3309 -33.3309
   -15.6635 -15.6635 -15.6635 -15.6635 -15.6478 -15.6478 -15.6353 -15.6353
   -15.5422 -15.4520 -15.2129 -15.2129 -15.2129 -15.2129 -14.9717 -14.8764
   -14.7755 -14.7755 -14.7615 -14.7615 -14.7456 -14.7456 -14.7456 -14.7456
     6.2178   6.6237   7.4020   7.4020   7.4020   7.4020   7.8786   8.0073
     8.1520   8.1520   8.1835   8.1835   8.2258   8.2258   8.2258   8.2258
    12.9541  13.1248  13.2561  13.2561  13.2561  13.2561  14.0640  14.6121
    15.0890  15.0890  15.1297  15.1297  15.1826  15.1826  15.1826  15.1826
    15.4554  15.4827  16.0019  16.0019  16.0019  16.0019  16.0910  16.1602
    16.1785  16.2662  16.2662  16.2662  16.2662  16.3165  16.4637  16.4879
    16.4960  16.4960  16.4960  16.4960  16.5230  16.5412  16.5412  16.5838
    16.5838  16.5926  17.0194  17.0194  17.0194  17.0194  17.0830  17.0830
    17.2351  17.2351  17.2992  17.3133  17.3133  17.3133  17.3133  17.3572
    17.6381  17.6522  17.6522  17.6522  17.6522  18.4309  18.6237  18.6449
    18.6449  18.6449  18.6450  18.8815  18.9304  18.9333  18.9380  18.9380
    18.9380  18.9380  19.0389  19.0389  19.0707  19.0707  19.0707  19.0707
    19.1971  19.1971  19.2733  19.2733  19.5511  19.5511  19.6057  19.7270
    19.7270  19.7270  19.7270  19.7506  19.7576  19.7628  19.7628  20.0136
    20.0229  20.0229  20.0604  20.2907  20.2907  20.2907  20.2907  20.3043
    20.3978  20.5567  20.6647  20.6647  20.6649  20.6650  20.7490  20.7490
    20.7491  20.7492  20.9625  21.0429  21.1480  21.6866

          k = 0.0000 0.2000 0.2000 ( 48486 PWs)   bands (ev):

   -67.4695 -67.4379 -67.4379 -67.4277 -67.4178 -67.4075 -67.4075 -67.3757
   -67.3707 -67.3707 -67.3707 -67.3707 -67.3707 -67.3707 -67.3707 -67.3707
   -38.0811 -38.0156 -38.0156 -37.9938 -37.9724 -37.9502 -37.9502 -37.8815
   -34.0411 -33.8809 -33.8809 -33.8365 -33.7830 -33.7524 -33.7524 -33.6852
   -33.6767 -33.6711 -33.5849 -33.5849 -33.5787 -33.5787 -33.5739 -33.5672
   -33.5443 -33.5383 -33.5309 -33.5214 -33.5214 -33.5011 -33.5011 -33.4968
   -33.4745 -33.4623 -33.4623 -33.4502 -33.4500 -33.4500 -33.4409 -33.4409
   -33.4184 -33.4163 -33.3886 -33.3886 -33.3779 -33.3623 -33.3551 -33.3494
   -33.3404 -33.3404 -33.3402 -33.3402 -33.3367 -33.3327 -33.3317 -33.3265
   -15.6670 -15.6600 -15.6600 -15.6571 -15.6569 -15.6569 -15.6290 -15.6243
   -15.5860 -15.3353 -15.3353 -15.2604 -15.1665 -15.0913 -15.0913 -14.8297
   -14.7872 -14.7828 -14.7513 -14.7513 -14.7503 -14.7487 -14.7487 -14.7426
     6.0278   7.0738   7.0738   7.3218   7.4845   7.6649   7.6649   8.0497
     8.1342   8.1430   8.2095   8.2095   8.2152   8.2152   8.2169   8.2275
    12.9272  12.9272  13.0789  13.2005  13.3334  13.5921  13.5921  14.9589
    15.1185  15.1400  15.1819  15.1819  15.2169  15.4384  15.4384  15.5004
    15.7008  15.7008  15.8608  15.9418  16.0534  16.0627  16.0722  16.0808
    16.0808  16.1248  16.1311  16.2085  16.2583  16.2583  16.2969  16.3515
    16.3516  16.4020  16.4360  16.5512  16.5512  16.6197  16.6197  16.6624
    16.6917  16.7173  16.7592  16.7592  16.7842  16.9338  16.9338  17.0986
    17.1348  17.2271  17.2271  17.2808  17.3837  17.4662  17.4682  17.4682
    17.5378  17.5378  17.5423  17.8165  18.0434  18.0434  18.4051  18.6070
    18.6070  18.7594  18.7594  18.7891  18.8115  18.9413  18.9567  18.9724
    18.9724  18.9743  19.0173  19.0173  19.0688  19.1425  19.2143  19.2143
    19.2842  19.3412  19.3482  19.3703  19.3750  19.4109  19.4109  19.4242
    19.4535  19.4535  19.6147  19.6295  19.7304  19.7304  19.8704  19.9688
    20.0845  20.0845  20.2503  20.2503  20.2805  20.2980  20.3988  20.4288
    20.4507  20.5859  20.5865  20.6102  20.6105  20.6998  20.7696  20.8208
    20.8209  21.0494  21.0501  21.2405  21.2410  21.4643

          k = 0.0000 0.2000 0.4000 ( 48550 PWs)   bands (ev):

   -67.4625 -67.4516 -67.4357 -67.4321 -67.4133 -67.4097 -67.3937 -67.3827
   -67.3707 -67.3707 -67.3707 -67.3707 -67.3707 -67.3707 -67.3707 -67.3707
   -38.0669 -38.0445 -38.0109 -38.0034 -37.9627 -37.9551 -37.9204 -37.8967
   -34.0047 -33.9489 -33.8714 -33.8566 -33.7593 -33.7501 -33.7132 -33.6924
   -33.6555 -33.6501 -33.6200 -33.6190 -33.5936 -33.5889 -33.5870 -33.5853
   -33.5414 -33.5354 -33.5312 -33.5223 -33.5217 -33.5109 -33.5051 -33.4948
   -33.4624 -33.4580 -33.4544 -33.4383 -33.4367 -33.4303 -33.4167 -33.4078
   -33.3995 -33.3963 -33.3932 -33.3902 -33.3731 -33.3672 -33.3656 -33.3619
   -33.3596 -33.3564 -33.3446 -33.3399 -33.3399 -33.3389 -33.3378 -33.3328
   -15.6680 -15.6648 -15.6550 -15.6544 -15.6511 -15.6456 -15.6391 -15.6326
   -15.5318 -15.4448 -15.3223 -15.2977 -15.1276 -15.1028 -14.9787 -14.8875
   -14.7777 -14.7719 -14.7635 -14.7588 -14.7534 -14.7533 -14.7454 -14.7426
     6.2967   6.6751   7.1319   7.2203   7.5439   7.6062   7.8421   7.9673
     8.1604   8.1731   8.1891   8.1997   8.2164   8.2190   8.2311   8.2358
    12.8986  12.9551  13.0105  13.0330  13.5391  13.6486  14.0795  14.5670
    14.9146  14.9466  14.9603  14.9820  15.1264  15.2675  15.4504  15.4696
    15.5177  15.6595  15.7847  15.8334  16.0061  16.0452  16.1168  16.2167
    16.2239  16.2325  16.3007  16.3024  16.3509  16.3552  16.3854  16.3855
    16.4075  16.4990  16.5193  16.5291  16.5424  16.5788  16.6108  16.6233
    16.6672  16.7416  16.7789  16.8152  16.9462  16.9604  17.1616  17.2042
    17.2201  17.3665  17.3697  17.3743  17.4316  17.4576  17.4899  17.5008
    17.5937  17.6141  17.6707  17.7310  17.9367  18.2154  18.2990  18.4387
    18.5366  18.5637  18.6730  18.7195  18.7752  18.8310  18.8433  18.9129
    18.9867  19.0398  19.0796  19.1002  19.1189  19.1474  19.1889  19.2680
    19.2692  19.2901  19.2934  19.3032  19.4729  19.5129  19.5371  19.5666
    19.5912  19.5949  19.7097  19.8196  19.8337  19.8376  19.8467  19.9435
    19.9491  20.0443  20.0703  20.1547  20.1753  20.3184  20.3328  20.3465
    20.3807  20.3979  20.4147  20.4950  20.5780  20.6075  20.6739  20.7141
    20.8745  20.8972  20.9775  21.0873  21.1955  21.2976

          k = 0.0000 0.4000 0.4000 ( 48478 PWs)   bands (ev):

   -67.4566 -67.4473 -67.4473 -67.4406 -67.4048 -67.3980 -67.3980 -67.3887
   -67.3707 -67.3707 -67.3707 -67.3707 -67.3707 -67.3707 -67.3707 -67.3707
   -38.0548 -38.0355 -38.0355 -38.0214 -37.9443 -37.9297 -37.9297 -37.9096
   -33.9753 -33.9293 -33.9293 -33.8979 -33.7205 -33.7072 -33.7072 -33.6877
   -33.6491 -33.6363 -33.6212 -33.6212 -33.6155 -33.6155 -33.6092 -33.6042
   -33.5347 -33.5265 -33.5265 -33.5258 -33.5185 -33.5029 -33.4998 -33.4998
   -33.4709 -33.4709 -33.4595 -33.4375 -33.4196 -33.4101 -33.4101 -33.4053
   -33.3975 -33.3975 -33.3877 -33.3833 -33.3816 -33.3651 -33.3636 -33.3636
   -33.3628 -33.3604 -33.3604 -33.3529 -33.3382 -33.3382 -33.3320 -33.3302
   -15.6659 -15.6587 -15.6587 -15.6485 -15.6458 -15.6428 -15.6428 -15.6332
   -15.4922 -15.4193 -15.4193 -15.3696 -15.0546 -15.0041 -15.0041 -14.9290
   -14.7760 -14.7656 -14.7656 -14.7627 -14.7619 -14.7522 -14.7522 -14.7455
     6.5141   6.8163   6.8163   7.0128   7.6573   7.7581   7.7581   7.8772
     8.1805   8.2015   8.2015   8.2060   8.2124   8.2267   8.2267   8.2398
    12.8252  12.8252  12.8534  12.8770  13.8327  14.0492  14.0492  14.3960
    14.7591  14.7591  14.7610  14.7695  15.2674  15.4995  15.4995  15.6405
    15.6998  15.6998  15.8172  15.8563  15.8655  16.0564  16.0564  16.1550
    16.2126  16.2377  16.2377  16.2670  16.2900  16.4081  16.4648  16.4648
    16.5316  16.5316  16.5342  16.5347  16.5564  16.6030  16.6030  16.6039
    16.7144  16.7353  16.7353  16.7725  16.8703  17.2077  17.2077  17.2152
    17.2746  17.2746  17.4103  17.4812  17.6232  17.7036  17.7036  17.7247
    17.7247  17.7416  17.8143  17.9045  17.9589  17.9899  18.2231  18.2231
    18.4382  18.4876  18.4876  18.4921  18.5202  18.5202  18.8128  18.8956
    18.9255  18.9255  18.9987  19.0817  19.1892  19.1892  19.2174  19.2628
    19.2953  19.2953  19.3709  19.3724  19.4323  19.5947  19.5947  19.6366
    19.6417  19.6746  19.6746  19.7008  19.8441  19.8799  19.8853  19.9125
    19.9125  19.9321  19.9672  19.9673  20.0712  20.1843  20.1843  20.2984
    20.2985  20.3082  20.3119  20.4418  20.4596  20.4598  20.5421  20.6532
    21.0174  21.0642  21.2405  21.4656  21.4657  21.8101

          k = 0.2000 0.2000 0.2000 ( 48503 PWs)   bands (ev):

   -67.4672 -67.4379 -67.4379 -67.4379 -67.4075 -67.4075 -67.4075 -67.3780
   -67.3707 -67.3707 -67.3707 -67.3707 -67.3707 -67.3707 -67.3707 -67.3707
   -38.0766 -38.0157 -38.0157 -38.0157 -37.9502 -37.9502 -37.9502 -37.8864
   -34.0296 -33.8828 -33.8828 -33.8828 -33.7452 -33.7452 -33.7452 -33.6800
   -33.6705 -33.6705 -33.5895 -33.5895 -33.5894 -33.5878 -33.5878 -33.5878
   -33.5377 -33.5377 -33.5178 -33.5178 -33.5178 -33.4993 -33.4993 -33.4993
   -33.4726 -33.4726 -33.4726 -33.4539 -33.4539 -33.4539 -33.4158 -33.4158
   -33.4158 -33.3915 -33.3827 -33.3827 -33.3827 -33.3620 -33.3620 -33.3620
   -33.3613 -33.3613 -33.3353 -33.3353 -33.3325 -33.3325 -33.3325 -33.3241
   -15.6623 -15.6623 -15.6623 -15.6539 -15.6539 -15.6539 -15.6274 -15.6274
   -15.5740 -15.3407 -15.3407 -15.3407 -15.0853 -15.0853 -15.0853 -14.8435
   -14.7837 -14.7837 -14.7539 -14.7539 -14.7539 -14.7475 -14.7475 -14.7475
     6.1184   7.0791   7.0791   7.0791   7.6470   7.6470   7.6470   8.0130
     8.1533   8.1533   8.2149   8.2149   8.2149   8.2217   8.2217   8.2217
    12.8927  12.8927  12.8927  13.1087  13.6604  13.6604  13.6604  14.9880
    14.9880  14.9962  15.0468  15.0468  15.0468  15.4825  15.4825  15.4825
    15.7388  15.7388  15.7388  16.0264  16.0264  16.0264  16.0549  16.0549
    16.0721  16.2370  16.2370  16.2593  16.2593  16.2593  16.4241  16.4241
    16.4241  16.4539  16.4539  16.5537  16.5537  16.5537  16.6688  16.6688
    16.6688  16.7941  16.7941  16.7941  16.8665  16.8665  16.8665  17.0883
    17.2762  17.2762  17.2762  17.3035  17.3035  17.4859  17.4859  17.4859
    17.6667  17.6667  17.6667  18.0235  18.0235  18.0235  18.4398  18.4398
    18.4398  18.5768  18.7418  18.7418  18.7418  18.8603  18.8603  18.8603
    18.9169  18.9169  18.9659  18.9659  18.9659  19.3272  19.3272  19.3272
    19.3399  19.3835  19.3835  19.4217  19.4217  19.4217  19.4234  19.4234
    19.4234  19.5853  19.6220  19.6220  19.7971  19.7971  19.7971  20.1091
    20.1091  20.1190  20.1190  20.1190  20.2870  20.2870  20.2871  20.3358
    20.3358  20.3358  20.4666  20.6250  20.6357  20.6447  20.6447  20.6448
    20.7633  20.7634  21.2440  21.2440  21.2443  22.0184

          k = 0.2000 0.2000 0.4000 ( 48490 PWs)   bands (ev):

   -67.4607 -67.4505 -67.4379 -67.4379 -67.4075 -67.4075 -67.3948 -67.3846
   -67.3707 -67.3707 -67.3707 -67.3707 -67.3707 -67.3707 -67.3707 -67.3707
   -38.0632 -38.0422 -38.0158 -38.0158 -37.9501 -37.9501 -37.9228 -37.9006
   -33.9962 -33.9449 -33.8857 -33.8857 -33.7326 -33.7326 -33.7069 -33.6858
   -33.6523 -33.6508 -33.6238 -33.6184 -33.6004 -33.6004 -33.5962 -33.5962
   -33.5348 -33.5277 -33.5277 -33.5267 -33.5188 -33.4901 -33.4885 -33.4885
   -33.4808 -33.4808 -33.4743 -33.4305 -33.4305 -33.4299 -33.4296 -33.4054
   -33.4054 -33.3932 -33.3932 -33.3909 -33.3785 -33.3650 -33.3617 -33.3617
   -33.3597 -33.3552 -33.3451 -33.3399 -33.3393 -33.3393 -33.3315 -33.3277
   -15.6638 -15.6638 -15.6511 -15.6511 -15.6498 -15.6457 -15.6356 -15.6352
   -15.5252 -15.4430 -15.3489 -15.3489 -15.0760 -15.0760 -14.9806 -14.8952
   -14.7753 -14.7745 -14.7631 -14.7603 -14.7568 -14.7568 -14.7468 -14.7468
     6.3686   6.7176   7.0881   7.0881   7.6185   7.6185   7.8079   7.9285
     8.1780   8.1829   8.2042   8.2049   8.2203   8.2203   8.2344   8.2344
    12.8199  12.8439  12.8439  12.9274  13.7862  13.7863  14.1286  14.5960
    14.8124  14.8124  14.8412  14.8585  15.1313  15.3673  15.5769  15.5769
    15.5977  15.7841  15.7841  15.8023  15.9887  15.9887  16.1210  16.1503
    16.2304  16.3051  16.3225  16.3274  16.3274  16.4080  16.4080  16.4167
    16.4497  16.4825  16.5294  16.5665  16.5665  16.5905  16.6055  16.7236
    16.7236  16.7611  16.7611  16.7848  16.8951  16.8951  17.1576  17.2536
    17.3473  17.3664  17.4349  17.4349  17.4559  17.4921  17.5753  17.5753
    17.6094  17.7899  17.7899  17.8472  17.8472  18.0346  18.3175  18.3175
    18.5460  18.5764  18.6108  18.6108  18.6439  18.6439  18.7709  18.8035
    18.8425  19.0206  19.0287  19.1213  19.1213  19.2300  19.2886  19.2989
    19.2989  19.3235  19.3784  19.3784  19.3813  19.5057  19.5057  19.5192
    19.5201  19.5412  19.6155  19.6619  19.8417  19.8718  19.8718  19.8824
    19.9357  20.0420  20.0499  20.0499  20.1786  20.1786  20.2162  20.2692
    20.2729  20.3409  20.3409  20.4880  20.5458  20.5458  20.5858  20.6589
    20.6878  20.9921  21.2668  21.2668  21.3622  21.3631

          k = 0.2000 0.4000 0.4000 ( 48499 PWs)   bands (ev):

   -67.4554 -67.4473 -67.4473 -67.4427 -67.4027 -67.3980 -67.3980 -67.3899
   -67.3707 -67.3707 -67.3707 -67.3707 -67.3707 -67.3707 -67.3707 -67.3707
   -38.0524 -38.0356 -38.0356 -38.0259 -37.9396 -37.9296 -37.9296 -37.9121
   -33.9713 -33.9323 -33.9323 -33.9113 -33.7038 -33.6957 -33.6957 -33.6777
   -33.6487 -33.6388 -33.6269 -33.6269 -33.6189 -33.6170 -33.6170 -33.6078
   -33.5244 -33.5241 -33.5140 -33.5140 -33.5027 -33.5027 -33.5019 -33.5018
   -33.4699 -33.4699 -33.4661 -33.4572 -33.4402 -33.4402 -33.4321 -33.4217
   -33.4058 -33.3946 -33.3946 -33.3877 -33.3744 -33.3678 -33.3678 -33.3569
   -33.3471 -33.3453 -33.3453 -33.3414 -33.3340 -33.3340 -33.3313 -33.3275
   -15.6597 -15.6538 -15.6538 -15.6445 -15.6431 -15.6425 -15.6425 -15.6343
   -15.4940 -15.4302 -15.4302 -15.3964 -15.0281 -14.9938 -14.9938 -14.9285
   -14.7748 -14.7671 -14.7659 -14.7659 -14.7634 -14.7566 -14.7566 -14.7511
     6.5646   6.8303   6.8303   6.9722   7.6621   7.7338   7.7338   7.8410
     8.1980   8.2119   8.2146   8.2146   8.2214   8.2295   8.2295   8.2393
    12.7077  12.7077  12.7100  12.7564  14.0245  14.1671  14.1671  14.4944
    14.6510  14.6559  14.6575  14.6575  15.2839  15.5445  15.5445  15.6783
    15.7945  15.7945  15.8513  15.9395  15.9842  16.0537  16.0570  16.0570
    16.1915  16.2468  16.2468  16.2915  16.4343  16.4607  16.4968  16.4968
    16.5350  16.5676  16.5676  16.6075  16.6195  16.6432  16.6883  16.6883
    16.7064  16.7432  16.7432  16.7721  16.8609  17.1110  17.1110  17.2399
    17.3527  17.3527  17.4956  17.5763  17.6053  17.6606  17.6951  17.6951
    17.7897  17.8059  17.8135  17.8135  18.1261  18.1334  18.2294  18.2294
    18.2933  18.3941  18.3941  18.5438  18.5438  18.5510  18.7247  18.7910
    18.7910  18.8571  18.9102  18.9655  19.0765  19.0765  19.0877  19.1413
    19.3217  19.3217  19.3361  19.3838  19.4796  19.5154  19.5248  19.5248
    19.5730  19.6277  19.6277  19.6691  19.7169  19.7453  19.8040  19.8040
    19.9273  19.9377  19.9377  19.9598  20.1071  20.1305  20.1305  20.1349
    20.3684  20.4411  20.4411  20.5107  20.5199  20.5200  20.5791  20.5821
    20.6483  20.9548  20.9550  21.1056  21.6376  21.6704

          k = 0.4000 0.4000 0.4000 ( 48449 PWs)   bands (ev):

   -67.4520 -67.4473 -67.4473 -67.4473 -67.3981 -67.3980 -67.3980 -67.3933
   -67.3707 -67.3707 -67.3707 -67.3707 -67.3707 -67.3707 -67.3707 -67.3707
   -38.0456 -38.0358 -38.0358 -38.0358 -37.9294 -37.9294 -37.9294 -37.9192
   -33.9587 -33.9369 -33.9369 -33.9369 -33.6727 -33.6727 -33.6727 -33.6557
   -33.6451 -33.6451 -33.6347 -33.6347 -33.6347 -33.6228 -33.6228 -33.6228
   -33.5139 -33.5139 -33.5139 -33.4975 -33.4975 -33.4891 -33.4846 -33.4846
   -33.4846 -33.4683 -33.4683 -33.4683 -33.4581 -33.4581 -33.4581 -33.4310
   -33.4310 -33.4310 -33.4249 -33.4249 -33.3481 -33.3481 -33.3481 -33.3416
   -33.3416 -33.3416 -33.3384 -33.3384 -33.3276 -33.3276 -33.3276 -33.3241
   -15.6458 -15.6457 -15.6457 -15.6412 -15.6412 -15.6412 -15.6373 -15.6373
   -15.4856 -15.4482 -15.4482 -15.4482 -14.9769 -14.9769 -14.9769 -14.9392
   -14.7714 -14.7714 -14.7671 -14.7671 -14.7671 -14.7637 -14.7637 -14.7637
     6.6960   6.8541   6.8541   6.8541   7.6954   7.6954   7.6954   7.7647
     8.2247   8.2247   8.2326   8.2326   8.2326   8.2352   8.2352   8.2352
    12.5521  12.5521  12.5521  12.5788  14.3201  14.3201  14.3201  14.5108
    14.5108  14.5120  14.5120  14.5120  15.4323  15.6287  15.6287  15.6287
    15.9616  15.9616  15.9616  16.0731  16.0731  16.0731  16.0880  16.0880
    16.1233  16.2426  16.2426  16.2426  16.5956  16.5956  16.6075  16.6075
    16.6075  16.6632  16.6632  16.6632  16.7028  16.7028  16.7213  16.7213
    16.7213  16.7919  16.7919  16.7919  16.8777  16.8777  16.8777  17.1886
    17.4255  17.5612  17.5612  17.5612  17.7441  17.7441  17.7964  17.7964
    17.7964  17.8834  17.8834  17.8834  18.0049  18.0049  18.0049  18.4264
    18.4264  18.4264  18.4609  18.4691  18.4691  18.4691  18.6335  18.6335
    18.7862  18.7862  18.7862  18.7941  18.7941  18.7941  18.8585  18.8585
    19.2762  19.3359  19.3359  19.3359  19.4909  19.4909  19.4909  19.5171
    19.5551  19.5551  19.5551  19.6061  19.6061  19.6061  19.6379  19.6379
    19.8407  19.8407  19.8694  19.8694  19.8694  20.0807  20.0807  20.0807
    20.5434  20.5434  20.5434  20.5878  20.5878  20.6246  20.6297  20.6297
    20.6298  20.6761  20.6761  20.6761  22.2130  22.2444

     the Fermi energy is    18.6151 ev

!    total energy              =   -6246.53218434 Ry
     estimated scf accuracy    <          4.8E-09 Ry
     smearing contrib. (-TS)   =      -0.00006346 Ry
     internal energy E=F+TS    =   -6246.53212088 Ry

     The total energy is F=E-TS. E is the sum of the following terms:
     one-electron contribution =   -2144.36541212 Ry
     hartree contribution      =    1323.05095524 Ry
     xc contribution           =    -737.32129101 Ry
     ewald contribution        =   -3469.44470784 Ry
     one-center paw contrib.   =   -1218.45166515 Ry

     total magnetization       =    25.73 Bohr mag/cell
     absolute magnetization    =    28.85 Bohr mag/cell

     convergence has been achieved in  37 iterations

     negative rho (up, down):  1.377E-03 1.152E-03

     Forces acting on atoms (cartesian axes, Ry/au):

     atom    1 type  1   force =     0.00000400    0.00000400    0.00000603
     atom    2 type  1   force =    -0.00000346   -0.00000346   -0.00000346
     atom    3 type  1   force =    -0.00000400    0.00000603   -0.00000400
     atom    4 type  1   force =    -0.00000603   -0.00000400    0.00000400
     atom    5 type  1   force =     0.00000400    0.00000603    0.00000400
     atom    6 type  1   force =     0.00000603    0.00000400    0.00000400
     atom    7 type  1   force =    -0.00000400   -0.00000603    0.00000400
     atom    8 type  1   force =     0.00000346   -0.00000346    0.00000346
     atom    9 type  1   force =    -0.00000346    0.00000346    0.00000346
     atom   10 type  1   force =     0.00000603   -0.00000400   -0.00000400
     atom   11 type  1   force =    -0.00000603    0.00000400   -0.00000400
     atom   12 type  1   force =    -0.00000400   -0.00000400    0.00000603
     atom   13 type  1   force =     0.00000346    0.00000346   -0.00000346
     atom   14 type  1   force =    -0.00000400    0.00000400   -0.00000603
     atom   15 type  1   force =     0.00000400   -0.00000603   -0.00000400
     atom   16 type  1   force =     0.00000400   -0.00000400   -0.00000603
     atom   17 type  2   force =     0.00000000    0.00000000    0.00000000
     atom   18 type  2   force =    -0.00000003   -0.00000003    0.00000003
     atom   19 type  2   force =     0.00000000    0.00000000    0.00000000
     atom   20 type  2   force =    -0.00000003    0.00000003   -0.00000003
     atom   21 type  2   force =     0.00000000    0.00000000    0.00000000
     atom   22 type  2   force =     0.00000003    0.00000003    0.00000003
     atom   23 type  2   force =     0.00000003   -0.00000003   -0.00000003
     atom   24 type  2   force =     0.00000000    0.00000000    0.00000000
     atom   25 type  3   force =    -0.30717161   -0.30717161   -0.30717161
     atom   26 type  3   force =     0.30717223    0.30717223    0.30717224
     atom   27 type  3   force =    -0.30717224    0.30717223   -0.30717223
     atom   28 type  3   force =    -0.30717069   -0.30717069    0.30717069
     atom   29 type  3   force =     0.30717223   -0.30717224   -0.30717223
     atom   30 type  3   force =    -0.30717163   -0.30717151   -0.30717163
     atom   31 type  3   force =    -0.30717163    0.30717151    0.30717163
     atom   32 type  3   force =     0.30717163   -0.30717151    0.30717163
     atom   33 type  3   force =     0.30717163    0.30717151   -0.30717163
     atom   34 type  3   force =     0.30717223   -0.30717223   -0.30717224
     atom   35 type  3   force =    -0.30717069    0.30717069   -0.30717069
     atom   36 type  3   force =    -0.30717224   -0.30717223    0.30717223
     atom   37 type  3   force =    -0.30717151    0.30717163    0.30717163
     atom   38 type  3   force =     0.30717151   -0.30717163    0.30717163
     atom   39 type  3   force =     0.30717151    0.30717163   -0.30717163
     atom   40 type  3   force =     0.30717069    0.30717069    0.30717069
     atom   41 type  3   force =     0.30717224   -0.30717223   -0.30717223
     atom   42 type  3   force =     0.30717069   -0.30717069   -0.30717069
     atom   43 type  3   force =     0.30717223    0.30717224    0.30717223
     atom   44 type  3   force =    -0.30717163    0.30717163    0.30717151
     atom   45 type  3   force =     0.30717163   -0.30717163    0.30717151
     atom   46 type  3   force =     0.30717163    0.30717163   -0.30717151
     atom   47 type  3   force =    -0.30717161    0.30717161    0.30717161
     atom   48 type  3   force =     0.30717161   -0.30717161    0.30717161
     atom   49 type  3   force =     0.30717161    0.30717161   -0.30717161
     atom   50 type  3   force =    -0.30717223    0.30717224   -0.30717223
     atom   51 type  3   force =    -0.30717223   -0.30717223    0.30717224
     atom   52 type  3   force =    -0.30717223    0.30717223   -0.30717224
     atom   53 type  3   force =    -0.30717223   -0.30717224    0.30717223
     atom   54 type  3   force =    -0.30717151   -0.30717163   -0.30717163
     atom   55 type  3   force =    -0.30717163   -0.30717163   -0.30717151
     atom   56 type  3   force =     0.30717224    0.30717223    0.30717223

     Total force =     3.009656     Total SCF correction =     0.000076


     Computing stress (Cartesian axis) and pressure


     negative rho (up, down):  1.377E-03 1.152E-03
          total   stress  (Ry/bohr**3)                   (kbar)     P=     1386.21
   0.00942329   0.00000000   0.00000000         1386.21        0.00        0.00
   0.00000000   0.00942329   0.00000000            0.00     1386.21        0.00
   0.00000000   0.00000000   0.00942329            0.00        0.00     1386.21


     BFGS Geometry Optimization
     Energy error            =      3.0E+01 Ry
     Gradient error          =      3.1E-01 Ry/Bohr
     Cell gradient error     =      1.4E+03 kbar

     number of scf cycles    =   1
     number of bfgs steps    =   0

     enthalpy           new  =   -6246.5321843417 Ry

     new trust radius        =       0.5000000000 bohr
     new conv_thr            =       0.0000000100 Ry

     new unit-cell volume =   2441.62344 a.u.^3 (   361.81127 Ang^3 )
     density =      6.00628 g/cm^3

CELL_PARAMETERS (alat= 12.76591255)
   1.054810304   0.000000000   0.000000000
   0.000000000   1.054810304   0.000000000
   0.000000000   0.000000000   1.054810304

ATOMIC_POSITIONS (crystal)
Fe               0.1250000729        0.1250000729        0.6250001100
Fe               0.6249999369        0.6249999369        0.6249999369
Fe               0.8749999271        0.6250001100        0.8749999271
Fe               0.3749998900        0.8749999271        0.1250000729
Fe               0.1250000729        0.6250001100        0.1250000729
Fe               0.6250001100        0.1250000729        0.1250000729
Fe               0.8749999271        0.3749998900        0.1250000729
Fe               0.3750000631        0.6249999369        0.3750000631
Fe               0.6249999369        0.3750000631        0.3750000631
Fe               0.6250001100        0.8749999271        0.8749999271
Fe               0.3749998900        0.1250000729        0.8749999271
Fe               0.8749999271        0.8749999271        0.6250001100
Fe               0.3750000631        0.3750000631        0.6249999369
Fe               0.8749999271        0.1250000729        0.3749998900
Fe               0.1250000729        0.3749998900        0.8749999271
Fe               0.1250000729        0.8749999271        0.3749998900
Ti               0.0000000000        0.0000000000        0.0000000000
Ti               0.7499999994        0.7499999994        0.2500000006
Ti               0.5000000000        0.0000000000        0.5000000000
Ti               0.7499999994        0.2500000006        0.7499999994
Ti               0.0000000000        0.5000000000        0.5000000000
Ti               0.2500000006        0.2500000006        0.2500000006
Ti               0.2500000006        0.7499999994        0.7499999994
Ti               0.5000000000        0.5000000000        0.0000000000
H                0.1494017922        0.1494017922        0.1494017922
H                0.6005982192        0.6005982192        0.1005982192
H                0.8994017808        0.6005982192        0.3994017808
H                0.8994018091        0.8994018091        0.1005981909
H                0.6005982192        0.8994017808        0.3994017808
H                0.6494017919        0.1494017940        0.6494017919
H                0.6494017919        0.8505982060        0.3505982081
H                0.3505982081        0.1494017940        0.3505982081
H                0.3505982081        0.8505982060        0.6494017919
H                0.6005982192        0.3994017808        0.8994017808
H                0.8994018091        0.1005981909        0.8994018091
H                0.8994017808        0.3994017808        0.6005982192
H                0.1494017940        0.3505982081        0.3505982081
H                0.8505982060        0.6494017919        0.3505982081
H                0.8505982060        0.3505982081        0.6494017919
H                0.1005981909        0.1005981909        0.1005981909
H                0.1005982192        0.3994017808        0.3994017808
H                0.1005981909        0.8994018091        0.8994018091
H                0.6005982192        0.1005982192        0.6005982192
H                0.6494017919        0.3505982081        0.8505982060
H                0.3505982081        0.6494017919        0.8505982060
H                0.3505982081        0.3505982081        0.1494017940
H                0.1494017922        0.8505982078        0.8505982078
H                0.8505982078        0.1494017922        0.8505982078
H                0.8505982078        0.8505982078        0.1494017922
H                0.3994017808        0.1005982192        0.3994017808
H                0.3994017808        0.3994017808        0.1005982192
H                0.3994017808        0.6005982192        0.8994017808
H                0.3994017808        0.8994017808        0.6005982192
H                0.1494017940        0.6494017919        0.6494017919
H                0.6494017919        0.6494017919        0.1494017940
H                0.1005982192        0.6005982192        0.6005982192



     Writing config-only to output data dir ./TiFe2_cub_32e_32H.save/ :
     XML data file     NEW-OLD atomic charge density approx. for the potential
     New effective cutoffs (rho, wfc): 1560.21  111.43

     Check: negative core charge=   -0.000001

     negative rho (up, down):  2.010E-03 1.748E-03
     Generating pointlists ...
     new r_m :   0.0368 (alat units)  0.4695 (a.u.) for type    3

     total cpu time spent up to now is    20364.7 secs

     per-process dynamical memory:   558.7 Mb

     Self-consistent Calculation

     iteration #  1     ecut=   124.00 Ry     beta= 0.20
     CG style diagonalization
     c_bands:  1 eigenvalues not converged
     c_bands:  1 eigenvalues not converged
     c_bands:  1 eigenvalues not converged
     c_bands:  3 eigenvalues not converged
     c_bands:  1 eigenvalues not converged
     ethr =  1.00E-06,  avg # of iterations = 18.5

     negative rho (up, down):  2.435E-03 1.989E-03

     total cpu time spent up to now is    23777.7 secs

     total energy              =   -6250.06929431 Ry
     estimated scf accuracy    <       5.26415766 Ry

     total magnetization       =    23.81 Bohr mag/cell
     absolute magnetization    =    30.07 Bohr mag/cell

     iteration #  2     ecut=   124.00 Ry     beta= 0.20
     CG style diagonalization
     ethr =  1.37E-03,  avg # of iterations =  3.0

     negative rho (up, down):  2.639E-03 2.020E-03

     total cpu time spent up to now is    24206.3 secs

     total energy              =   -6250.19950343 Ry
     estimated scf accuracy    <       0.56226813 Ry

     total magnetization       =    26.22 Bohr mag/cell
     absolute magnetization    =    31.22 Bohr mag/cell

     iteration #  3     ecut=   124.00 Ry     beta= 0.20
     CG style diagonalization
     ethr =  1.46E-04,  avg # of iterations =  3.1

     negative rho (up, down):  2.618E-03 1.924E-03

     total cpu time spent up to now is    24654.4 secs

     total energy              =   -6250.25263432 Ry
     estimated scf accuracy    <       0.07029098 Ry

     total magnetization       =    27.52 Bohr mag/cell
     absolute magnetization    =    32.14 Bohr mag/cell

     iteration #  4     ecut=   124.00 Ry     beta= 0.20
     CG style diagonalization
     ethr =  1.83E-05,  avg # of iterations =  3.8

     negative rho (up, down):  2.430E-03 1.725E-03

     total cpu time spent up to now is    25244.2 secs

     total energy              =   -6250.27550404 Ry
     estimated scf accuracy    <       0.06095770 Ry

     total magnetization       =    28.09 Bohr mag/cell
     absolute magnetization    =    32.98 Bohr mag/cell

     iteration #  5     ecut=   124.00 Ry     beta= 0.20
     CG style diagonalization
     ethr =  1.59E-05,  avg # of iterations =  3.2

     negative rho (up, down):  2.408E-03 1.516E-03

     total cpu time spent up to now is    25709.7 secs

     total energy              =   -6250.28803583 Ry
     estimated scf accuracy    <       0.05634978 Ry

     total magnetization       =    28.20 Bohr mag/cell
     absolute magnetization    =    33.63 Bohr mag/cell

     iteration #  6     ecut=   124.00 Ry     beta= 0.20
     CG style diagonalization
     ethr =  1.47E-05,  avg # of iterations =  3.1

     negative rho (up, down):  2.377E-03 1.468E-03

     total cpu time spent up to now is    26166.6 secs

     total energy              =   -6250.29731817 Ry
     estimated scf accuracy    <       0.01131214 Ry

     total magnetization       =    29.76 Bohr mag/cell
     absolute magnetization    =    35.21 Bohr mag/cell

     iteration #  7     ecut=   124.00 Ry     beta= 0.20
     CG style diagonalization
     ethr =  2.95E-06,  avg # of iterations =  3.8

     negative rho (up, down):  2.204E-03 1.325E-03

     total cpu time spent up to now is    26751.8 secs

     total energy              =   -6250.29620301 Ry
     estimated scf accuracy    <       0.03849420 Ry

     total magnetization       =    30.34 Bohr mag/cell
     absolute magnetization    =    35.77 Bohr mag/cell

     iteration #  8     ecut=   124.00 Ry     beta= 0.20
     CG style diagonalization
     ethr =  2.95E-06,  avg # of iterations =  3.8

     negative rho (up, down):  2.221E-03 1.357E-03

     total cpu time spent up to now is    27348.0 secs

     total energy              =   -6250.29962665 Ry
     estimated scf accuracy    <       0.06045847 Ry

     total magnetization       =    30.94 Bohr mag/cell
     absolute magnetization    =    36.90 Bohr mag/cell

     iteration #  9     ecut=   124.00 Ry     beta= 0.20
     CG style diagonalization
     ethr =  2.95E-06,  avg # of iterations =  3.2

     negative rho (up, down):  2.289E-03 1.436E-03

     total cpu time spent up to now is    27817.8 secs

     total energy              =   -6250.29136419 Ry
     estimated scf accuracy    <       0.07118520 Ry

     total magnetization       =    29.60 Bohr mag/cell
     absolute magnetization    =    35.48 Bohr mag/cell

     iteration # 10     ecut=   124.00 Ry     beta= 0.20
     CG style diagonalization
     ethr =  2.95E-06,  avg # of iterations =  3.5

     negative rho (up, down):  2.301E-03 1.441E-03

     total cpu time spent up to now is    28347.5 secs

     total energy              =   -6250.31195757 Ry
     estimated scf accuracy    <       0.02028303 Ry

     total magnetization       =    33.35 Bohr mag/cell
     absolute magnetization    =    39.08 Bohr mag/cell

     iteration # 11     ecut=   124.00 Ry     beta= 0.20
     CG style diagonalization
     ethr =  2.95E-06,  avg # of iterations =  3.0

     negative rho (up, down):  2.315E-03 1.432E-03

     total cpu time spent up to now is    28783.5 secs

     total energy              =   -6250.31248537 Ry
     estimated scf accuracy    <       0.01901980 Ry

     total magnetization       =    33.29 Bohr mag/cell
     absolute magnetization    =    38.97 Bohr mag/cell

     iteration # 12     ecut=   124.00 Ry     beta= 0.20
     CG style diagonalization
     ethr =  2.95E-06,  avg # of iterations =  3.0

     negative rho (up, down):  2.112E-03 1.607E-03

     total cpu time spent up to now is    29218.4 secs

     total energy              =   -6250.22559075 Ry
     estimated scf accuracy    <       0.02567765 Ry

     total magnetization       =    33.29 Bohr mag/cell
     absolute magnetization    =    39.06 Bohr mag/cell

     iteration # 13     ecut=   124.00 Ry     beta= 0.20
     CG style diagonalization
     c_bands:  1 eigenvalues not converged
     c_bands:  1 eigenvalues not converged
     ethr =  2.95E-06,  avg # of iterations =  4.4

     negative rho (up, down):  2.254E-03 1.518E-03

     total cpu time spent up to now is    29932.0 secs

     total energy              =   -6250.28644356 Ry
     estimated scf accuracy    <       0.05133257 Ry

     total magnetization       =    36.77 Bohr mag/cell
     absolute magnetization    =    43.59 Bohr mag/cell

     iteration # 14     ecut=   124.00 Ry     beta= 0.20
     CG style diagonalization
     ethr =  2.95E-06,  avg # of iterations =  3.9

     negative rho (up, down):  2.363E-03 1.459E-03

     total cpu time spent up to now is    30555.7 secs

     total energy              =   -6250.29423913 Ry
     estimated scf accuracy    <       0.00052734 Ry

     total magnetization       =    34.35 Bohr mag/cell
     absolute magnetization    =    40.51 Bohr mag/cell

     iteration # 15     ecut=   124.00 Ry     beta= 0.20
     CG style diagonalization
     c_bands:  1 eigenvalues not converged
     ethr =  1.37E-07,  avg # of iterations =  5.2

     negative rho (up, down):  2.281E-03 1.484E-03

     total cpu time spent up to now is    31425.7 secs

     total energy              =   -6250.30253972 Ry
     estimated scf accuracy    <       0.00457511 Ry

     total magnetization       =    32.02 Bohr mag/cell
     absolute magnetization    =    37.64 Bohr mag/cell

     iteration # 16     ecut=   124.00 Ry     beta= 0.20
     CG style diagonalization
     ethr =  1.37E-07,  avg # of iterations =  4.7

     negative rho (up, down):  2.295E-03 1.465E-03

     total cpu time spent up to now is    32198.4 secs

     total energy              =   -6250.31149494 Ry
     estimated scf accuracy    <       0.00059415 Ry

     total magnetization       =    34.17 Bohr mag/cell
     absolute magnetization    =    40.10 Bohr mag/cell

     iteration # 17     ecut=   124.00 Ry     beta= 0.20
     CG style diagonalization
     ethr =  1.37E-07,  avg # of iterations =  3.7

     negative rho (up, down):  2.274E-03 1.496E-03

     total cpu time spent up to now is    32774.5 secs

     total energy              =   -6250.31285338 Ry
     estimated scf accuracy    <       0.00304024 Ry

     total magnetization       =    33.59 Bohr mag/cell
     absolute magnetization    =    39.24 Bohr mag/cell

     iteration # 18     ecut=   124.00 Ry     beta= 0.20
     CG style diagonalization
     ethr =  1.37E-07,  avg # of iterations =  3.8

     negative rho (up, down):  2.293E-03 1.487E-03

     total cpu time spent up to now is    33361.1 secs

     total energy              =   -6250.31378959 Ry
     estimated scf accuracy    <       0.00100438 Ry

     total magnetization       =    34.23 Bohr mag/cell
     absolute magnetization    =    40.22 Bohr mag/cell

     iteration # 19     ecut=   124.00 Ry     beta= 0.20
     CG style diagonalization
     ethr =  1.37E-07,  avg # of iterations =  3.5

     negative rho (up, down):  2.295E-03 1.493E-03

     total cpu time spent up to now is    33889.9 secs

     total energy              =   -6250.31422470 Ry
     estimated scf accuracy    <       0.00231084 Ry

     total magnetization       =    33.98 Bohr mag/cell
     absolute magnetization    =    39.75 Bohr mag/cell

     iteration # 20     ecut=   124.00 Ry     beta= 0.20
     CG style diagonalization
     ethr =  1.37E-07,  avg # of iterations =  3.0

     negative rho (up, down):  2.292E-03 1.495E-03

     total cpu time spent up to now is    34325.8 secs

     total energy              =   -6250.31428870 Ry
     estimated scf accuracy    <       0.00226639 Ry

     total magnetization       =    33.99 Bohr mag/cell
     absolute magnetization    =    39.76 Bohr mag/cell

     iteration # 21     ecut=   124.00 Ry     beta= 0.20
     CG style diagonalization
     ethr =  1.37E-07,  avg # of iterations =  3.0

     negative rho (up, down):  2.289E-03 1.500E-03

     total cpu time spent up to now is    34761.0 secs

     total energy              =   -6250.31411943 Ry
     estimated scf accuracy    <       0.00226080 Ry

     total magnetization       =    34.00 Bohr mag/cell
     absolute magnetization    =    39.78 Bohr mag/cell

     iteration # 22     ecut=   124.00 Ry     beta= 0.20
     CG style diagonalization
     ethr =  1.37E-07,  avg # of iterations =  3.0

     negative rho (up, down):  2.365E-03 1.447E-03

     total cpu time spent up to now is    35195.7 secs

     total energy              =   -6250.31359719 Ry
     estimated scf accuracy    <       0.00264823 Ry

     total magnetization       =    33.96 Bohr mag/cell
     absolute magnetization    =    39.70 Bohr mag/cell

     iteration # 23     ecut=   124.00 Ry     beta= 0.20
     CG style diagonalization
     ethr =  1.37E-07,  avg # of iterations =  3.7

     negative rho (up, down):  2.363E-03 1.450E-03

     total cpu time spent up to now is    35773.1 secs

     total energy              =   -6250.31496130 Ry
     estimated scf accuracy    <       0.00009270 Ry

     total magnetization       =    34.29 Bohr mag/cell
     absolute magnetization    =    40.53 Bohr mag/cell

     iteration # 24     ecut=   124.00 Ry     beta= 0.20
     CG style diagonalization
     ethr =  2.41E-08,  avg # of iterations =  3.8

     negative rho (up, down):  2.365E-03 1.449E-03

     total cpu time spent up to now is    36366.5 secs

     total energy              =   -6250.31501626 Ry
     estimated scf accuracy    <       0.00003780 Ry

     total magnetization       =    34.26 Bohr mag/cell
     absolute magnetization    =    40.44 Bohr mag/cell

     iteration # 25     ecut=   124.00 Ry     beta= 0.20
     CG style diagonalization
     ethr =  9.84E-09,  avg # of iterations =  3.6

     negative rho (up, down):  2.364E-03 1.450E-03

     total cpu time spent up to now is    36914.2 secs

     total energy              =   -6250.31502850 Ry
     estimated scf accuracy    <       0.00003326 Ry

     total magnetization       =    34.27 Bohr mag/cell
     absolute magnetization    =    40.47 Bohr mag/cell

     iteration # 26     ecut=   124.00 Ry     beta= 0.20
     CG style diagonalization
     ethr =  8.66E-09,  avg # of iterations =  3.4

     negative rho (up, down):  2.378E-03 1.433E-03

     total cpu time spent up to now is    37421.4 secs

     total energy              =   -6250.31502132 Ry
     estimated scf accuracy    <       0.00004105 Ry

     total magnetization       =    34.28 Bohr mag/cell
     absolute magnetization    =    40.50 Bohr mag/cell

     iteration # 27     ecut=   124.00 Ry     beta= 0.20
     CG style diagonalization
