
     Program PWSCF v.7.4 starts on 16Nov2025 at 13:55:16 

     This program is part of the open-source Quantum ESPRESSO suite
     for quantum simulation of materials; please cite
         "P. Giannozzi et al., J. Phys.:Condens. Matter 21 395502 (2009);
         "P. Giannozzi et al., J. Phys.:Condens. Matter 29 465901 (2017);
         "P. Giannozzi et al., J. Chem. Phys. 152 154105 (2020);
          URL http://www.quantum-espresso.org", 
     in publications or presentations arising from this work. More details at
     http://www.quantum-espresso.org/quote

     Parallel version (MPI & OpenMP), running on      16 processor cores
     Number of MPI processes:                16
     Threads/MPI process:                     1

     MPI processes distributed on     1 nodes
     179784 MiB available memory on the printing compute node when the environment starts

     Reading input from TiFeH.in

     Current dimensions of program PWSCF are:
     Max number of different atomic species (ntypx) = 10
     Max number of k-points (npk) =  40000
     Max angular momentum in pseudopotentials (lmaxx) =  4

     File ./TiFeH.update deleted, as requested
     file Fe.pbe-spn-kjpaw_psl.0.2.1.UPF: wavefunction(s)  3D renormalized
     file H.pbe-kjpaw_psl.1.0.0.UPF: wavefunction(s)  1S renormalized

     IMPORTANT: XC functional enforced from input :
     Exchange-correlation= PBE
                           (   1   4   3   4   0   0   0)
     Any further DFT definition will be discarded
     Please, verify this is what you really want


     R & G space division:  proc/nbgrp/npool/nimage =      16
     Subspace diagonalization in iterative solution of the eigenvalue problem:
     a serial algorithm will be used


     Parallelization info
     --------------------
     sticks:   dense  smooth     PW     G-vecs:    dense   smooth      PW
     Min         269      76     22                13288     2024     320
     Max         271      77     23                13289     2027     323
     Sum        4309    1225    357               212623    32423    5137

     Using Slab Decomposition



     bravais-lattice index     =            0
     lattice parameter (alat)  =       5.5824  a.u.
     unit-cell volume          =     173.9675 (a.u.)^3
     number of atoms/cell      =            3
     number of atomic types    =            3
     number of electrons       =        29.00
     number of Kohn-Sham states=           19
     kinetic-energy cutoff     =     124.0000  Ry
     charge density cutoff     =    1736.0000  Ry
     scf convergence threshold =      1.0E-08
     mixing beta               =       0.7000
     number of iterations used =            8  plain     mixing
     energy convergence thresh.=      1.0E-04
     force convergence thresh. =      1.0E-03
     press convergence thresh. =      1.0E-01
     Exchange-correlation= PBE
                           (   1   4   3   4   0   0   0)
     nstep                     =           50


     celldm(1)=   5.582423  celldm(2)=   0.000000  celldm(3)=   0.000000
     celldm(4)=   0.000000  celldm(5)=   0.000000  celldm(6)=   0.000000

     crystal axes: (cart. coord. in units of alat)
               a(1) = (   1.000000   0.000000   0.000000 )  
               a(2) = (   0.000000   1.000000   0.000000 )  
               a(3) = (   0.000000   0.000000   1.000000 )  

     reciprocal axes: (cart. coord. in units 2 pi/alat)
               b(1) = (  1.000000  0.000000  0.000000 )  
               b(2) = (  0.000000  1.000000  0.000000 )  
               b(3) = (  0.000000  0.000000  1.000000 )  


     PseudoPot. # 1 for Fe read from file:
     ../../pseudos/Fe.pbe-spn-kjpaw_psl.0.2.1.UPF
     MD5 check sum: e86618425769142926afa95317d90200
     Pseudo is Projector augmented-wave + core cor, Zval = 16.0
     Generated using "atomic" code by A. Dal Corso  v.5.0.99 svn rev. 10869
     Shape of augmentation charge: PSQ
     Using radial grid of 1191 points,  6 beta functions with: 
                l(1) =   0
                l(2) =   0
                l(3) =   1
                l(4) =   1
                l(5) =   2
                l(6) =   2
     Q(r) pseudized with 0 coefficients 


     PseudoPot. # 2 for Ti read from file:
     ../../pseudos/ti_pbe_v1.4.uspp.F.UPF
     MD5 check sum: 88a00a6731bd790ddea75d31a80cb452
     Pseudo is Ultrasoft + core correction, Zval = 12.0
     Generated by new atomic code, or converted to UPF format
     Using radial grid of  851 points,  6 beta functions with: 
                l(1) =   0
                l(2) =   0
                l(3) =   1
                l(4) =   1
                l(5) =   2
                l(6) =   2
     Q(r) pseudized with  6 coefficients,  rinner =    1.000   1.000   1.000
                                                       1.000   1.000

     PseudoPot. # 3 for H  read from file:
     ../../pseudos/H.pbe-kjpaw_psl.1.0.0.UPF
     MD5 check sum: d81a744832360e4a8af0b0b5b123bc2a
     Pseudo is Projector augmented-wave, Zval =  1.0
     Generated using &quot;atomic&quot; code by A. Dal Corso  v.6.3MaX
     Shape of augmentation charge: PSQ
     Using radial grid of  929 points,  2 beta functions with: 
                l(1) =   0
                l(2) =   0
     Q(r) pseudized with 0 coefficients 


     atomic species   valence    mass     pseudopotential
     Fe               16.00    55.84500     Fe( 1.00)
     Ti               12.00    47.86700     Ti( 1.00)
     H                 1.00     1.00784     H ( 1.00)

     No symmetry found



   Cartesian axes

     site n.     atom                  positions (alat units)
         1        Fe     tau(   1) = (   0.5000000   0.5000000   0.5000000  )
         2        Ti     tau(   2) = (   0.0000000   0.0000000   0.0000000  )
         3        H      tau(   3) = (   0.5000000   0.1200000   0.2400000  )

     number of k points=  1688  Marzari-Vanderbilt smearing, width (Ry)=  0.0050

     Number of k-points >= 100: set verbosity='high' to print them.

     Dense  grid:   212623 G-vectors     FFT dimensions: (  75,  75,  75)

     Smooth grid:    32423 G-vectors     FFT dimensions: (  40,  40,  40)

     Estimated max dynamical RAM per process >     193.02 MB

     Estimated total dynamical RAM >       3.02 GB

     Check: negative core charge=   -0.000001

     Initial potential from superposition of free atoms

     starting charge      27.9995, renormalised to      29.0000

     negative rho (up, down):  1.331E-03 0.000E+00
     Starting wfcs are   24 randomized atomic wfcs
     Checking if some PAW data can be deallocated... 

     total cpu time spent up to now is        8.3 secs

     per-process dynamical memory:   271.3 Mb

     Self-consistent Calculation

     iteration #  1     ecut=   124.00 Ry     beta= 0.70
     Davidson diagonalization with overlap
     ethr =  1.00E-02,  avg # of iterations =  2.1

     negative rho (up, down):  1.500E-05 0.000E+00

     total cpu time spent up to now is       26.1 secs

     total energy              =    -438.12871980 Ry
     estimated scf accuracy    <      14.83691238 Ry

     iteration #  2     ecut=   124.00 Ry     beta= 0.70
     Davidson diagonalization with overlap
     ethr =  1.00E-02,  avg # of iterations =  5.9

     negative rho (up, down):  8.105E-05 0.000E+00

     total cpu time spent up to now is       57.4 secs

     total energy              =    -449.44184795 Ry
     estimated scf accuracy    <      58.47540612 Ry

     iteration #  3     ecut=   124.00 Ry     beta= 0.70
     Davidson diagonalization with overlap
     ethr =  1.00E-02,  avg # of iterations =  3.0

     negative rho (up, down):  3.244E-04 0.000E+00

     total cpu time spent up to now is       79.0 secs

     total energy              =    -449.57599225 Ry
     estimated scf accuracy    <      14.53801830 Ry

     iteration #  4     ecut=   124.00 Ry     beta= 0.70
     Davidson diagonalization with overlap
     ethr =  1.00E-02,  avg # of iterations =  2.4

     negative rho (up, down):  3.382E-04 0.000E+00

     total cpu time spent up to now is       96.4 secs

     total energy              =    -450.10147478 Ry
     estimated scf accuracy    <       3.71803620 Ry

     iteration #  5     ecut=   124.00 Ry     beta= 0.70
     Davidson diagonalization with overlap
     ethr =  1.00E-02,  avg # of iterations =  1.0

     negative rho (up, down):  4.648E-04 0.000E+00

     total cpu time spent up to now is      110.3 secs

     total energy              =    -450.17599078 Ry
     estimated scf accuracy    <       3.61789848 Ry

     iteration #  6     ecut=   124.00 Ry     beta= 0.70
     Davidson diagonalization with overlap
     ethr =  1.00E-02,  avg # of iterations =  1.1

     negative rho (up, down):  1.354E-03 0.000E+00

     total cpu time spent up to now is      124.4 secs

     total energy              =    -448.89698523 Ry
     estimated scf accuracy    <       5.04101381 Ry

     iteration #  7     ecut=   124.00 Ry     beta= 0.70
     Davidson diagonalization with overlap
     ethr =  1.00E-02,  avg # of iterations =  2.4

     negative rho (up, down):  8.801E-04 0.000E+00

     total cpu time spent up to now is      141.4 secs

     total energy              =    -449.27683265 Ry
     estimated scf accuracy    <       6.98948502 Ry

     iteration #  8     ecut=   124.00 Ry     beta= 0.70
     Davidson diagonalization with overlap
     ethr =  1.00E-02,  avg # of iterations =  1.0

     negative rho (up, down):  8.806E-04 0.000E+00

     total cpu time spent up to now is      155.4 secs

     total energy              =    -449.65732542 Ry
     estimated scf accuracy    <       0.01908857 Ry

     iteration #  9     ecut=   124.00 Ry     beta= 0.70
     Davidson diagonalization with overlap
     ethr =  6.58E-05,  avg # of iterations =  5.4

     negative rho (up, down):  9.160E-04 0.000E+00

     total cpu time spent up to now is      179.3 secs

     total energy              =    -449.65992492 Ry
     estimated scf accuracy    <       0.01638976 Ry

     iteration # 10     ecut=   124.00 Ry     beta= 0.70
     Davidson diagonalization with overlap
     ethr =  5.65E-05,  avg # of iterations =  1.1

     negative rho (up, down):  9.504E-04 0.000E+00

     total cpu time spent up to now is      193.4 secs

     total energy              =    -449.69086267 Ry
     estimated scf accuracy    <       0.03239958 Ry

     iteration # 11     ecut=   124.00 Ry     beta= 0.70
     Davidson diagonalization with overlap
     ethr =  5.65E-05,  avg # of iterations =  4.5

     negative rho (up, down):  9.557E-04 0.000E+00

     total cpu time spent up to now is      215.9 secs

     total energy              =    -449.79884100 Ry
     estimated scf accuracy    <       1.80400809 Ry

     iteration # 12     ecut=   124.00 Ry     beta= 0.70
     Davidson diagonalization with overlap
     ethr =  5.65E-05,  avg # of iterations =  2.1

     negative rho (up, down):  5.182E-04 0.000E+00

     total cpu time spent up to now is      231.6 secs

     total energy              =    -449.38406508 Ry
     estimated scf accuracy    <       2.79600185 Ry

     iteration # 13     ecut=   124.00 Ry     beta= 0.70
     Davidson diagonalization with overlap
     ethr =  5.65E-05,  avg # of iterations =  5.8

     negative rho (up, down):  5.303E-04 0.000E+00

     total cpu time spent up to now is      260.0 secs

     total energy              =    -449.69010495 Ry
     estimated scf accuracy    <       0.42077888 Ry

     iteration # 14     ecut=   124.00 Ry     beta= 0.70
     Davidson diagonalization with overlap
     ethr =  5.65E-05,  avg # of iterations =  1.1

     negative rho (up, down):  5.191E-04 0.000E+00

     total cpu time spent up to now is      273.9 secs

     total energy              =    -449.69051040 Ry
     estimated scf accuracy    <       0.31672157 Ry

     iteration # 15     ecut=   124.00 Ry     beta= 0.70
     Davidson diagonalization with overlap
     ethr =  5.65E-05,  avg # of iterations =  1.0

     negative rho (up, down):  4.957E-04 0.000E+00

     total cpu time spent up to now is      287.7 secs

     total energy              =    -449.68517564 Ry
     estimated scf accuracy    <       0.30557370 Ry

     iteration # 16     ecut=   124.00 Ry     beta= 0.70
     Davidson diagonalization with overlap
     ethr =  5.65E-05,  avg # of iterations =  1.7

     negative rho (up, down):  4.919E-04 0.000E+00

     total cpu time spent up to now is      302.4 secs

     total energy              =    -449.68601745 Ry
     estimated scf accuracy    <       0.20711492 Ry

     iteration # 17     ecut=   124.00 Ry     beta= 0.70
     Davidson diagonalization with overlap
     ethr =  5.65E-05,  avg # of iterations =  1.0

     negative rho (up, down):  6.946E-04 0.000E+00

     total cpu time spent up to now is      316.3 secs

     total energy              =    -449.66574518 Ry
     estimated scf accuracy    <       0.16350103 Ry

     iteration # 18     ecut=   124.00 Ry     beta= 0.70
     Davidson diagonalization with overlap
     ethr =  5.65E-05,  avg # of iterations =  2.0

     negative rho (up, down):  7.473E-04 0.000E+00

     total cpu time spent up to now is      333.3 secs

     total energy              =    -449.67111359 Ry
     estimated scf accuracy    <       0.14883156 Ry

     iteration # 19     ecut=   124.00 Ry     beta= 0.70
     Davidson diagonalization with overlap
     ethr =  5.65E-05,  avg # of iterations =  2.0

     negative rho (up, down):  8.262E-04 0.000E+00

     total cpu time spent up to now is      349.4 secs

     total energy              =    -449.65832584 Ry
     estimated scf accuracy    <       0.25485417 Ry

     iteration # 20     ecut=   124.00 Ry     beta= 0.70
     Davidson diagonalization with overlap
     ethr =  5.65E-05,  avg # of iterations =  1.9

     negative rho (up, down):  1.005E-03 0.000E+00

     total cpu time spent up to now is      364.6 secs

     total energy              =    -449.64744757 Ry
     estimated scf accuracy    <       0.07465494 Ry

     iteration # 21     ecut=   124.00 Ry     beta= 0.70
     Davidson diagonalization with overlap
     ethr =  5.65E-05,  avg # of iterations =  3.3

     negative rho (up, down):  9.427E-04 0.000E+00

     total cpu time spent up to now is      384.9 secs

     total energy              =    -449.65545462 Ry
     estimated scf accuracy    <       0.01446188 Ry

     iteration # 22     ecut=   124.00 Ry     beta= 0.70
     Davidson diagonalization with overlap
     ethr =  4.99E-05,  avg # of iterations =  1.1

     negative rho (up, down):  9.360E-04 0.000E+00

     total cpu time spent up to now is      398.8 secs

     total energy              =    -449.65637885 Ry
     estimated scf accuracy    <       0.00004830 Ry

     iteration # 23     ecut=   124.00 Ry     beta= 0.70
     Davidson diagonalization with overlap
     ethr =  1.67E-07,  avg # of iterations =  5.8

     negative rho (up, down):  9.337E-04 0.000E+00

     total cpu time spent up to now is      429.0 secs

     total energy              =    -449.65645313 Ry
     estimated scf accuracy    <       0.00002080 Ry

     iteration # 24     ecut=   124.00 Ry     beta= 0.70
     Davidson diagonalization with overlap
     ethr =  7.17E-08,  avg # of iterations =  2.0

     negative rho (up, down):  9.335E-04 0.000E+00

     total cpu time spent up to now is      445.4 secs

     total energy              =    -449.65645652 Ry
     estimated scf accuracy    <       0.00000056 Ry

     iteration # 25     ecut=   124.00 Ry     beta= 0.70
     Davidson diagonalization with overlap
     ethr =  1.92E-09,  avg # of iterations =  4.7

     negative rho (up, down):  9.333E-04 0.000E+00

     total cpu time spent up to now is      468.3 secs

     total energy              =    -449.65645675 Ry
     estimated scf accuracy    <       0.00000009 Ry

     iteration # 26     ecut=   124.00 Ry     beta= 0.70
     Davidson diagonalization with overlap
     ethr =  3.06E-10,  avg # of iterations =  2.2

     negative rho (up, down):  9.332E-04 0.000E+00

     total cpu time spent up to now is      485.2 secs

     total energy              =    -449.65645677 Ry
     estimated scf accuracy    <       0.00000002 Ry

     iteration # 27     ecut=   124.00 Ry     beta= 0.70
     Davidson diagonalization with overlap
     ethr =  6.20E-11,  avg # of iterations =  3.0

     negative rho (up, down):  9.332E-04 0.000E+00

     total cpu time spent up to now is      502.3 secs

     End of self-consistent calculation

     Number of k-points >= 100: set verbosity='high' to print the bands.

     the Fermi energy is    18.2859 ev

!    total energy              =    -449.65645677 Ry
     estimated scf accuracy    <          2.0E-09 Ry
     smearing contrib. (-TS)   =      -0.00008234 Ry
     internal energy E=F+TS    =    -449.65637443 Ry

     The total energy is F=E-TS. E is the sum of the following terms:
     one-electron contribution =    -149.66388538 Ry
     hartree contribution      =      92.06559176 Ry
     xc contribution           =     -53.88358666 Ry
     ewald contribution        =    -262.02034790 Ry
     one-center paw contrib.   =     -76.15414624 Ry

     convergence has been achieved in  27 iterations

     negative rho (up, down):  9.332E-04 0.000E+00

     Forces acting on atoms (cartesian axes, Ry/au):

     atom    1 type  1   force =    -0.00000023    0.12141953    0.07284389
     atom    2 type  2   force =     0.00000012   -0.01887628   -0.05014157
     atom    3 type  3   force =     0.00000012   -0.10254325   -0.02270232

     Total force =     0.184255     Total SCF correction =     0.000028


     Computing stress (Cartesian axis) and pressure


     negative rho (up, down):  9.332E-04 0.000E+00
          total   stress  (Ry/bohr**3)                   (kbar)     P=      351.54
   0.00256606  -0.00000000  -0.00000000          377.48       -0.00       -0.00
  -0.00000000   0.00256173   0.00120655           -0.00      376.84      177.49
  -0.00000000   0.00120655   0.00204141           -0.00      177.49      300.30


     BFGS Geometry Optimization
     Energy error            =      1.0E-01 Ry
     Gradient error          =      1.2E-01 Ry/Bohr
     Cell gradient error     =      3.8E+02 kbar

     number of scf cycles    =   1
     number of bfgs steps    =   0

     enthalpy           new  =    -449.6564567723 Ry

     new trust radius        =       0.1867425347 bohr
     new conv_thr            =       0.0000000100 Ry

     new unit-cell volume =    206.86866 a.u.^3 (    30.65477 Ang^3 )
     density =      5.67257 g/cm^3

CELL_PARAMETERS (alat=  5.58242261)
   1.064151378  -0.000000006  -0.000000002
  -0.000000006   1.064043296   0.030163691
  -0.000000002   0.030163691   1.051035337

ATOMIC_POSITIONS (crystal)
Fe               0.4999999583        0.5217503295        0.5130487957
Ti               0.0000000206       -0.0033813777       -0.0089820449
H                0.5000000211        0.1016310481        0.2359332493



     Writing config-only to output data dir ./TiFeH.save/ :
     XML data file     NEW-OLD atomic charge density approx. for the potential
     New effective cutoffs (rho, wfc): 1646.49  117.63

     Check: negative core charge=   -0.000002

     negative rho (up, down):  9.940E-04 0.000E+00

     total cpu time spent up to now is      508.5 secs

     per-process dynamical memory:   279.5 Mb

     Self-consistent Calculation

     iteration #  1     ecut=   124.00 Ry     beta= 0.70
     Davidson diagonalization with overlap
     c_bands:  1 eigenvalues not converged
     c_bands:  1 eigenvalues not converged
     c_bands:  1 eigenvalues not converged
     c_bands:  1 eigenvalues not converged
     c_bands:  1 eigenvalues not converged
     c_bands:  1 eigenvalues not converged
     c_bands:  1 eigenvalues not converged
     c_bands:  1 eigenvalues not converged
     c_bands:  1 eigenvalues not converged
     c_bands:  1 eigenvalues not converged
     c_bands:  1 eigenvalues not converged
     c_bands:  1 eigenvalues not converged
     c_bands:  1 eigenvalues not converged
     c_bands:  1 eigenvalues not converged
     c_bands:  1 eigenvalues not converged
     c_bands:  1 eigenvalues not converged
     c_bands:  1 eigenvalues not converged
     c_bands:  1 eigenvalues not converged
     c_bands:  1 eigenvalues not converged
     c_bands:  1 eigenvalues not converged
     c_bands:  1 eigenvalues not converged
     c_bands:  1 eigenvalues not converged
     c_bands:  1 eigenvalues not converged
     c_bands:  1 eigenvalues not converged
     c_bands:  1 eigenvalues not converged
     c_bands:  1 eigenvalues not converged
     c_bands:  1 eigenvalues not converged
     c_bands:  1 eigenvalues not converged
     c_bands:  1 eigenvalues not converged
     c_bands:  1 eigenvalues not converged
     c_bands:  1 eigenvalues not converged
     c_bands:  1 eigenvalues not converged
     c_bands:  1 eigenvalues not converged
     c_bands:  1 eigenvalues not converged
     c_bands:  1 eigenvalues not converged
     c_bands:  1 eigenvalues not converged
     c_bands:  1 eigenvalues not converged
     c_bands:  1 eigenvalues not converged
     c_bands:  1 eigenvalues not converged
     c_bands:  1 eigenvalues not converged
     c_bands:  1 eigenvalues not converged
     c_bands:  1 eigenvalues not converged
     c_bands:  1 eigenvalues not converged
     c_bands:  1 eigenvalues not converged
     c_bands:  1 eigenvalues not converged
     c_bands:  1 eigenvalues not converged
     c_bands:  1 eigenvalues not converged
     ethr =  1.00E-06,  avg # of iterations = 17.6

     negative rho (up, down):  8.674E-04 0.000E+00

     total cpu time spent up to now is      600.1 secs

     total energy              =    -449.69480418 Ry
     estimated scf accuracy    <       0.01919990 Ry

     iteration #  2     ecut=   124.00 Ry     beta= 0.70
     Davidson diagonalization with overlap
     ethr =  6.62E-05,  avg # of iterations =  3.2

     negative rho (up, down):  8.366E-04 0.000E+00

     total cpu time spent up to now is      618.8 secs

     total energy              =    -449.67016832 Ry
     estimated scf accuracy    <       0.26443623 Ry

     iteration #  3     ecut=   124.00 Ry     beta= 0.70
     Davidson diagonalization with overlap
     ethr =  6.62E-05,  avg # of iterations =  3.6

     negative rho (up, down):  8.992E-04 0.000E+00

     total cpu time spent up to now is      638.5 secs

     total energy              =    -449.69082729 Ry
     estimated scf accuracy    <       0.23589290 Ry

     iteration #  4     ecut=   124.00 Ry     beta= 0.70
     Davidson diagonalization with overlap
     ethr =  6.62E-05,  avg # of iterations =  2.4

     negative rho (up, down):  8.891E-04 0.000E+00

     total cpu time spent up to now is      654.8 secs

     total energy              =    -449.70119207 Ry
     estimated scf accuracy    <       0.00077064 Ry

     iteration #  5     ecut=   124.00 Ry     beta= 0.70
     Davidson diagonalization with overlap
     ethr =  2.66E-06,  avg # of iterations =  3.9

     negative rho (up, down):  8.829E-04 0.000E+00

     total cpu time spent up to now is      675.2 secs

     total energy              =    -449.70133732 Ry
     estimated scf accuracy    <       0.00003423 Ry

     iteration #  6     ecut=   124.00 Ry     beta= 0.70
     Davidson diagonalization with overlap
     ethr =  1.18E-07,  avg # of iterations =  4.2

     negative rho (up, down):  8.824E-04 0.000E+00

     total cpu time spent up to now is      696.9 secs

     total energy              =    -449.70135295 Ry
     estimated scf accuracy    <       0.00000879 Ry

     iteration #  7     ecut=   124.00 Ry     beta= 0.70
     Davidson diagonalization with overlap
     ethr =  3.03E-08,  avg # of iterations =  1.9

     negative rho (up, down):  8.826E-04 0.000E+00

     total cpu time spent up to now is      712.1 secs

     total energy              =    -449.70135390 Ry
     estimated scf accuracy    <       0.00000126 Ry

     iteration #  8     ecut=   124.00 Ry     beta= 0.70
     Davidson diagonalization with overlap
     ethr =  4.34E-09,  avg # of iterations =  3.9

     negative rho (up, down):  8.826E-04 0.000E+00

     total cpu time spent up to now is      730.7 secs

     total energy              =    -449.70135420 Ry
     estimated scf accuracy    <       0.00000020 Ry

     iteration #  9     ecut=   124.00 Ry     beta= 0.70
     Davidson diagonalization with overlap
     ethr =  6.97E-10,  avg # of iterations =  3.0

     negative rho (up, down):  8.825E-04 0.000E+00

     total cpu time spent up to now is      747.8 secs

     total energy              =    -449.70135423 Ry
     estimated scf accuracy    <       0.00000002 Ry

     iteration # 10     ecut=   124.00 Ry     beta= 0.70
     Davidson diagonalization with overlap
     ethr =  5.42E-11,  avg # of iterations =  4.1

     negative rho (up, down):  8.825E-04 0.000E+00

     total cpu time spent up to now is      769.0 secs

     End of self-consistent calculation

     Number of k-points >= 100: set verbosity='high' to print the bands.

     the Fermi energy is    14.9323 ev

!    total energy              =    -449.70135424 Ry
     estimated scf accuracy    <          5.2E-10 Ry
     smearing contrib. (-TS)   =      -0.00013073 Ry
     internal energy E=F+TS    =    -449.70122350 Ry

     The total energy is F=E-TS. E is the sum of the following terms:
     one-electron contribution =    -171.86149640 Ry
     hartree contribution      =      99.59681939 Ry
     xc contribution           =     -53.52714738 Ry
     ewald contribution        =    -247.76049549 Ry
     one-center paw contrib.   =     -76.14890362 Ry

     convergence has been achieved in  10 iterations

     negative rho (up, down):  8.825E-04 0.000E+00

     Forces acting on atoms (cartesian axes, Ry/au):

     atom    1 type  1   force =     0.00000003    0.01318196   -0.01077588
     atom    2 type  2   force =    -0.00000002   -0.00075576   -0.02150181
     atom    3 type  3   force =    -0.00000001   -0.01242620    0.03227769

     Total force =     0.044148     Total SCF correction =     0.000060


     Computing stress (Cartesian axis) and pressure


     negative rho (up, down):  8.825E-04 0.000E+00
          total   stress  (Ry/bohr**3)                   (kbar)     P=      -70.09
  -0.00017913   0.00000000  -0.00000000          -26.35        0.00       -0.00
   0.00000000  -0.00068630   0.00010352            0.00     -100.96       15.23
  -0.00000000   0.00010352  -0.00056387           -0.00       15.23      -82.95

     Energy error            =      4.5E-02 Ry
     Gradient error          =      3.2E-02 Ry/Bohr
     Cell gradient error     =      1.0E+02 kbar

     number of scf cycles    =   2
     number of bfgs steps    =   1

     enthalpy           old  =    -449.6564567723 Ry
     enthalpy           new  =    -449.7013542385 Ry

     CASE: enthalpy          _new < enthalpy          _old

     new trust radius        =       0.0431347188 bohr
     new conv_thr            =       0.0000000032 Ry

     new unit-cell volume =    201.01827 a.u.^3 (    29.78783 Ang^3 )
     density =      5.83766 g/cm^3

CELL_PARAMETERS (alat=  5.58242261)
   1.061999515  -0.000000007  -0.000000006
  -0.000000007   1.048951762   0.034319274
  -0.000000006   0.034440812   1.038386658

ATOMIC_POSITIONS (crystal)
Fe               0.4999999623        0.5247839249        0.5117591727
Ti               0.0000000174       -0.0037430005       -0.0129896966
H                0.5000000203        0.0989590756        0.2412305239



     Writing config-only to output data dir ./TiFeH.save/ :
     XML data file     NEW-OLD atomic charge density approx. for the potential
     New effective cutoffs (rho, wfc): 1704.79  121.81

     Check: negative core charge=   -0.000001

     negative rho (up, down):  9.066E-04 0.000E+00

     total cpu time spent up to now is      775.2 secs

     per-process dynamical memory:   279.4 Mb

     Self-consistent Calculation

     iteration #  1     ecut=   124.00 Ry     beta= 0.70
     Davidson diagonalization with overlap
     ethr =  1.00E-06,  avg # of iterations =  9.5

     negative rho (up, down):  9.295E-04 0.000E+00

     total cpu time spent up to now is      827.0 secs

     total energy              =    -449.70557957 Ry
     estimated scf accuracy    <       0.00073835 Ry

     iteration #  2     ecut=   124.00 Ry     beta= 0.70
     Davidson diagonalization with overlap
     ethr =  2.55E-06,  avg # of iterations =  5.2

     negative rho (up, down):  9.169E-04 0.000E+00

     total cpu time spent up to now is      852.2 secs

     total energy              =    -449.70210744 Ry
     estimated scf accuracy    <       0.09685087 Ry

     iteration #  3     ecut=   124.00 Ry     beta= 0.70
     Davidson diagonalization with overlap
     ethr =  2.55E-06,  avg # of iterations =  4.4

     negative rho (up, down):  9.152E-04 0.000E+00

     total cpu time spent up to now is      875.1 secs

     total energy              =    -449.70619749 Ry
     estimated scf accuracy    <       0.00005170 Ry

     iteration #  4     ecut=   124.00 Ry     beta= 0.70
     Davidson diagonalization with overlap
     ethr =  1.78E-07,  avg # of iterations =  2.8

     negative rho (up, down):  9.166E-04 0.000E+00

     total cpu time spent up to now is      892.8 secs

     total energy              =    -449.70621485 Ry
     estimated scf accuracy    <       0.00002529 Ry

     iteration #  5     ecut=   124.00 Ry     beta= 0.70
     Davidson diagonalization with overlap
     ethr =  8.72E-08,  avg # of iterations =  1.3

     negative rho (up, down):  9.173E-04 0.000E+00

     total cpu time spent up to now is      907.1 secs

     total energy              =    -449.70621830 Ry
     estimated scf accuracy    <       0.00000115 Ry

     iteration #  6     ecut=   124.00 Ry     beta= 0.70
     Davidson diagonalization with overlap
     ethr =  3.97E-09,  avg # of iterations =  4.9

     negative rho (up, down):  9.172E-04 0.000E+00

     total cpu time spent up to now is      932.0 secs

     total energy              =    -449.70621920 Ry
     estimated scf accuracy    <       0.00000029 Ry

     iteration #  7     ecut=   124.00 Ry     beta= 0.70
     Davidson diagonalization with overlap
     ethr =  1.01E-09,  avg # of iterations =  2.0

     negative rho (up, down):  9.173E-04 0.000E+00

     total cpu time spent up to now is      948.6 secs

     total energy              =    -449.70621926 Ry
     estimated scf accuracy    <       0.00000002 Ry

     iteration #  8     ecut=   124.00 Ry     beta= 0.70
     Davidson diagonalization with overlap
     ethr =  7.98E-11,  avg # of iterations =  3.6

     negative rho (up, down):  9.173E-04 0.000E+00

     total cpu time spent up to now is      968.7 secs

     total energy              =    -449.70621926 Ry
     estimated scf accuracy    <       0.00000001 Ry

     iteration #  9     ecut=   124.00 Ry     beta= 0.70
     Davidson diagonalization with overlap
     ethr =  3.81E-11,  avg # of iterations =  1.6

     negative rho (up, down):  9.173E-04 0.000E+00

     total cpu time spent up to now is      983.4 secs

     End of self-consistent calculation

     Number of k-points >= 100: set verbosity='high' to print the bands.

     the Fermi energy is    15.4849 ev

!    total energy              =    -449.70621926 Ry
     estimated scf accuracy    <          6.9E-11 Ry
     smearing contrib. (-TS)   =      -0.00012310 Ry
     internal energy E=F+TS    =    -449.70609616 Ry

     The total energy is F=E-TS. E is the sum of the following terms:
     one-electron contribution =    -168.22795375 Ry
     hartree contribution      =      98.35221453 Ry
     xc contribution           =     -53.57546747 Ry
     ewald contribution        =    -250.10538766 Ry
     one-center paw contrib.   =     -76.14950182 Ry

     convergence has been achieved in   9 iterations

     negative rho (up, down):  9.173E-04 0.000E+00

     Forces acting on atoms (cartesian axes, Ry/au):

     atom    1 type  1   force =     0.00000001    0.01433590   -0.01109832
     atom    2 type  2   force =    -0.00000001    0.00217962   -0.01936459
     atom    3 type  3   force =    -0.00000000   -0.01651552    0.03046290

     Total force =     0.043694     Total SCF correction =     0.000016


     Computing stress (Cartesian axis) and pressure


     negative rho (up, down):  9.173E-04 0.000E+00
          total   stress  (Ry/bohr**3)                   (kbar)     P=      -31.59
   0.00005016  -0.00000000  -0.00000000            7.38       -0.00       -0.00
  -0.00000000  -0.00040059   0.00009615           -0.00      -58.93       14.14
  -0.00000000   0.00009615  -0.00029390           -0.00       14.14      -43.23

     Energy error            =      4.9E-03 Ry
     Gradient error          =      3.0E-02 Ry/Bohr
     Cell gradient error     =      5.9E+01 kbar

     number of scf cycles    =   3
     number of bfgs steps    =   2

     enthalpy           old  =    -449.7013542385 Ry
     enthalpy           new  =    -449.7062192642 Ry

     CASE: enthalpy          _new < enthalpy          _old

     new trust radius        =       0.0475629818 bohr
     new conv_thr            =       0.0000000030 Ry

     new unit-cell volume =    196.89592 a.u.^3 (    29.17697 Ang^3 )
     density =      5.95989 g/cm^3

CELL_PARAMETERS (alat=  5.58242261)
   1.065039040  -0.000000009  -0.000000008
  -0.000000009   1.035289980   0.039520310
  -0.000000008   0.039804943   1.027977156

ATOMIC_POSITIONS (crystal)
Fe               0.4999999644        0.5290995645        0.5097504068
Ti               0.0000000151       -0.0036394035       -0.0181601201
H                0.5000000205        0.0945398390        0.2484097132



     Writing config-only to output data dir ./TiFeH.save/ :
     XML data file     NEW-OLD atomic charge density approx. for the potential
     New effective cutoffs (rho, wfc): 1763.15  126.01

     Check: negative core charge=   -0.000001

     negative rho (up, down):  8.771E-04 0.000E+00

     total cpu time spent up to now is      989.6 secs

     per-process dynamical memory:   276.2 Mb

     Self-consistent Calculation

     iteration #  1     ecut=   124.00 Ry     beta= 0.70
     Davidson diagonalization with overlap
     ethr =  1.00E-06,  avg # of iterations =  9.6

     negative rho (up, down):  9.052E-04 0.000E+00

     total cpu time spent up to now is     1043.5 secs

     total energy              =    -449.70903351 Ry
     estimated scf accuracy    <       0.00164699 Ry

     iteration #  2     ecut=   124.00 Ry     beta= 0.70
     Davidson diagonalization with overlap
     ethr =  5.68E-06,  avg # of iterations =  4.9

     negative rho (up, down):  8.840E-04 0.000E+00

     total cpu time spent up to now is     1068.2 secs

     total energy              =    -449.69969871 Ry
     estimated scf accuracy    <       0.24654596 Ry

     iteration #  3     ecut=   124.00 Ry     beta= 0.70
     Davidson diagonalization with overlap
     ethr =  5.68E-06,  avg # of iterations =  4.6

     negative rho (up, down):  8.859E-04 0.000E+00

     total cpu time spent up to now is     1091.9 secs

     total energy              =    -449.71019509 Ry
     estimated scf accuracy    <       0.00016579 Ry

     iteration #  4     ecut=   124.00 Ry     beta= 0.70
     Davidson diagonalization with overlap
     ethr =  5.72E-07,  avg # of iterations =  2.2

     negative rho (up, down):  8.860E-04 0.000E+00

     total cpu time spent up to now is     1108.0 secs

     total energy              =    -449.71022708 Ry
     estimated scf accuracy    <       0.00002930 Ry

     iteration #  5     ecut=   124.00 Ry     beta= 0.70
     Davidson diagonalization with overlap
     ethr =  1.01E-07,  avg # of iterations =  2.8

     negative rho (up, down):  8.861E-04 0.000E+00

     total cpu time spent up to now is     1124.8 secs

     total energy              =    -449.71023385 Ry
     estimated scf accuracy    <       0.00000116 Ry

     iteration #  6     ecut=   124.00 Ry     beta= 0.70
     Davidson diagonalization with overlap
     ethr =  4.00E-09,  avg # of iterations =  5.1

     negative rho (up, down):  8.864E-04 0.000E+00

     total cpu time spent up to now is     1151.3 secs

     total energy              =    -449.71023512 Ry
     estimated scf accuracy    <       0.00000019 Ry

     iteration #  7     ecut=   124.00 Ry     beta= 0.70
     Davidson diagonalization with overlap
     ethr =  6.64E-10,  avg # of iterations =  2.0

     negative rho (up, down):  8.864E-04 0.000E+00

     total cpu time spent up to now is     1166.8 secs

     total energy              =    -449.71023515 Ry
     estimated scf accuracy    <       0.00000004 Ry

     iteration #  8     ecut=   124.00 Ry     beta= 0.70
     Davidson diagonalization with overlap
     ethr =  1.40E-10,  avg # of iterations =  2.7

     negative rho (up, down):  8.864E-04 0.000E+00

     total cpu time spent up to now is     1185.0 secs

     total energy              =    -449.71023515 Ry
     estimated scf accuracy    <       0.00000002 Ry

     iteration #  9     ecut=   124.00 Ry     beta= 0.70
     Davidson diagonalization with overlap
     ethr =  7.18E-11,  avg # of iterations =  1.3

     negative rho (up, down):  8.864E-04 0.000E+00

     total cpu time spent up to now is     1199.3 secs

     End of self-consistent calculation

     Number of k-points >= 100: set verbosity='high' to print the bands.

     the Fermi energy is    15.9016 ev

!    total energy              =    -449.71023515 Ry
     estimated scf accuracy    <          4.8E-10 Ry
     smearing contrib. (-TS)   =      -0.00007912 Ry
     internal energy E=F+TS    =    -449.71015603 Ry

     The total energy is F=E-TS. E is the sum of the following terms:
     one-electron contribution =    -165.67928391 Ry
     hartree contribution      =      97.50550700 Ry
     xc contribution           =     -53.61193110 Ry
     ewald contribution        =    -251.77451847 Ry
     one-center paw contrib.   =     -76.14992956 Ry

     convergence has been achieved in   9 iterations

     negative rho (up, down):  8.864E-04 0.000E+00

     Forces acting on atoms (cartesian axes, Ry/au):

     atom    1 type  1   force =     0.00000002    0.01361045   -0.01242924
     atom    2 type  2   force =    -0.00000002    0.00580596   -0.01513016
     atom    3 type  3   force =    -0.00000000   -0.01941640    0.02755940

     Total force =     0.041700     Total SCF correction =     0.000020


     Computing stress (Cartesian axis) and pressure


     negative rho (up, down):  8.864E-04 0.000E+00
          total   stress  (Ry/bohr**3)                   (kbar)     P=       -2.18
   0.00022184  -0.00000000  -0.00000000           32.63       -0.00       -0.00
  -0.00000000  -0.00017212   0.00005942           -0.00      -25.32        8.74
  -0.00000000   0.00005942  -0.00009426           -0.00        8.74      -13.87

     Energy error            =      4.0E-03 Ry
     Gradient error          =      2.8E-02 Ry/Bohr
     Cell gradient error     =      3.3E+01 kbar

     number of scf cycles    =   4
     number of bfgs steps    =   3

     enthalpy           old  =    -449.7062192642 Ry
     enthalpy           new  =    -449.7102351549 Ry

     CASE: enthalpy          _new < enthalpy          _old

     new trust radius        =       0.0702172260 bohr
     new conv_thr            =       0.0000000028 Ry

     new unit-cell volume =    193.41702 a.u.^3 (    28.66144 Ang^3 )
     density =      6.06708 g/cm^3

CELL_PARAMETERS (alat=  5.58242261)
   1.073743108  -0.000000012  -0.000000011
  -0.000000012   1.020132061   0.045781924
  -0.000000011   0.046281393   1.017085720

ATOMIC_POSITIONS (crystal)
Fe               0.4999999706        0.5352817307        0.5062153089
Ti               0.0000000097       -0.0026585380       -0.0250663537
H                0.5000000197        0.0873768073        0.2588510449



     Writing config-only to output data dir ./TiFeH.save/ :
     XML data file     NEW-OLD atomic charge density approx. for the potential
     New effective cutoffs (rho, wfc): 1831.95  130.97

     Check: negative core charge=   -0.000001

     negative rho (up, down):  8.986E-04 0.000E+00

     total cpu time spent up to now is     1205.5 secs

     per-process dynamical memory:   280.1 Mb

     Self-consistent Calculation

     iteration #  1     ecut=   124.00 Ry     beta= 0.70
     Davidson diagonalization with overlap
     ethr =  1.00E-06,  avg # of iterations = 10.8

     negative rho (up, down):  9.216E-04 0.000E+00

     total cpu time spent up to now is     1266.4 secs

     total energy              =    -449.71252195 Ry
     estimated scf accuracy    <       0.00263530 Ry

     iteration #  2     ecut=   124.00 Ry     beta= 0.70
     Davidson diagonalization with overlap
     ethr =  9.09E-06,  avg # of iterations =  4.7

     negative rho (up, down):  8.966E-04 0.000E+00

     total cpu time spent up to now is     1290.5 secs

     total energy              =    -449.69800284 Ry
     estimated scf accuracy    <       0.37759855 Ry

     iteration #  3     ecut=   124.00 Ry     beta= 0.70
     Davidson diagonalization with overlap
     ethr =  9.09E-06,  avg # of iterations =  4.5

     negative rho (up, down):  8.990E-04 0.000E+00

     total cpu time spent up to now is     1314.0 secs

     total energy              =    -449.71424163 Ry
     estimated scf accuracy    <       0.00023641 Ry

     iteration #  4     ecut=   124.00 Ry     beta= 0.70
     Davidson diagonalization with overlap
     ethr =  8.15E-07,  avg # of iterations =  2.2

     negative rho (up, down):  8.973E-04 0.000E+00

     total cpu time spent up to now is     1330.6 secs

     total energy              =    -449.71428110 Ry
     estimated scf accuracy    <       0.00002084 Ry

     iteration #  5     ecut=   124.00 Ry     beta= 0.70
     Davidson diagonalization with overlap
     ethr =  7.19E-08,  avg # of iterations =  4.3

     negative rho (up, down):  8.975E-04 0.000E+00

     total cpu time spent up to now is     1352.7 secs

     total energy              =    -449.71428960 Ry
     estimated scf accuracy    <       0.00000215 Ry

     iteration #  6     ecut=   124.00 Ry     beta= 0.70
     Davidson diagonalization with overlap
     ethr =  7.41E-09,  avg # of iterations =  3.0

     negative rho (up, down):  8.978E-04 0.000E+00

     total cpu time spent up to now is     1371.0 secs

     total energy              =    -449.71429008 Ry
     estimated scf accuracy    <       0.00000023 Ry

     iteration #  7     ecut=   124.00 Ry     beta= 0.70
     Davidson diagonalization with overlap
     ethr =  7.89E-10,  avg # of iterations =  3.8

     negative rho (up, down):  8.977E-04 0.000E+00

     total cpu time spent up to now is     1390.9 secs

     total energy              =    -449.71429014 Ry
     estimated scf accuracy    <       0.00000006 Ry

     iteration #  8     ecut=   124.00 Ry     beta= 0.70
     Davidson diagonalization with overlap
     ethr =  2.00E-10,  avg # of iterations =  3.2

     negative rho (up, down):  8.977E-04 0.000E+00

     total cpu time spent up to now is     1409.7 secs

     total energy              =    -449.71429016 Ry
     estimated scf accuracy    <          8.8E-09 Ry

     iteration #  9     ecut=   124.00 Ry     beta= 0.70
     Davidson diagonalization with overlap
     ethr =  3.05E-11,  avg # of iterations =  2.5

     negative rho (up, down):  8.977E-04 0.000E+00

     total cpu time spent up to now is     1427.0 secs

     End of self-consistent calculation

     Number of k-points >= 100: set verbosity='high' to print the bands.

     the Fermi energy is    16.2693 ev

!    total energy              =    -449.71429016 Ry
     estimated scf accuracy    <          1.2E-10 Ry
     smearing contrib. (-TS)   =      -0.00005000 Ry
     internal energy E=F+TS    =    -449.71424016 Ry

     The total energy is F=E-TS. E is the sum of the following terms:
     one-electron contribution =    -163.61112241 Ry
     hartree contribution      =      96.84683383 Ry
     xc contribution           =     -53.64548291 Ry
     ewald contribution        =    -253.15406587 Ry
     one-center paw contrib.   =     -76.15040280 Ry

     convergence has been achieved in   9 iterations

     negative rho (up, down):  8.977E-04 0.000E+00

     Forces acting on atoms (cartesian axes, Ry/au):

     atom    1 type  1   force =     0.00000001    0.00973607   -0.01320298
     atom    2 type  2   force =    -0.00000001    0.00978760   -0.00886201
     atom    3 type  3   force =    -0.00000000   -0.01952367    0.02206498

     Total force =     0.036214     Total SCF correction =     0.000024


     Computing stress (Cartesian axis) and pressure


     negative rho (up, down):  8.977E-04 0.000E+00
          total   stress  (Ry/bohr**3)                   (kbar)     P=       25.27
   0.00035320  -0.00000000  -0.00000000           51.96       -0.00       -0.00
  -0.00000000   0.00008772  -0.00002734           -0.00       12.90       -4.02
  -0.00000000  -0.00002734   0.00007437           -0.00       -4.02       10.94

     Energy error            =      4.1E-03 Ry
     Gradient error          =      2.2E-02 Ry/Bohr
     Cell gradient error     =      5.2E+01 kbar

     number of scf cycles    =   5
     number of bfgs steps    =   4

     enthalpy           old  =    -449.7102351549 Ry
     enthalpy           new  =    -449.7142901599 Ry

     CASE: enthalpy          _new < enthalpy          _old

     new trust radius        =       0.1034026625 bohr
     new conv_thr            =       0.0000000022 Ry

     new unit-cell volume =    191.00206 a.u.^3 (    28.30359 Ang^3 )
     density =      6.14379 g/cm^3

CELL_PARAMETERS (alat=  5.58242261)
   1.090791172  -0.000000016  -0.000000017
  -0.000000015   1.004547455   0.051257756
  -0.000000017   0.051924218   1.004626681

ATOMIC_POSITIONS (crystal)
Fe               0.4999999801        0.5436448630        0.5000103276
Ti               0.0000000016        0.0001116210       -0.0342668114
H                0.5000000183        0.0762435159        0.2742564838



     Writing config-only to output data dir ./TiFeH.save/ :
     XML data file     NEW-OLD atomic charge density approx. for the potential
     New effective cutoffs (rho, wfc): 1906.34  136.32

     Check: negative core charge=   -0.000001

     negative rho (up, down):  9.010E-04 0.000E+00

     total cpu time spent up to now is     1433.2 secs

     per-process dynamical memory:   276.2 Mb

     Self-consistent Calculation

     iteration #  1     ecut=   124.00 Ry     beta= 0.70
     Davidson diagonalization with overlap
     c_bands:  1 eigenvalues not converged
     c_bands:  1 eigenvalues not converged
     c_bands:  1 eigenvalues not converged
     c_bands:  1 eigenvalues not converged
     c_bands:  1 eigenvalues not converged
     c_bands:  1 eigenvalues not converged
     c_bands:  1 eigenvalues not converged
     c_bands:  1 eigenvalues not converged
     ethr =  1.00E-06,  avg # of iterations = 12.0

     negative rho (up, down):  9.194E-04 0.000E+00

     total cpu time spent up to now is     1500.6 secs

     total energy              =    -449.71554868 Ry
     estimated scf accuracy    <       0.00338726 Ry

     iteration #  2     ecut=   124.00 Ry     beta= 0.70
     Davidson diagonalization with overlap
     ethr =  1.17E-05,  avg # of iterations =  4.5

     negative rho (up, down):  8.935E-04 0.000E+00

     total cpu time spent up to now is     1524.0 secs

     total energy              =    -449.70017697 Ry
     estimated scf accuracy    <       0.38382625 Ry

     iteration #  3     ecut=   124.00 Ry     beta= 0.70
     Davidson diagonalization with overlap
     ethr =  1.17E-05,  avg # of iterations =  4.3

     negative rho (up, down):  8.945E-04 0.000E+00

     total cpu time spent up to now is     1546.7 secs

     total energy              =    -449.71744222 Ry
     estimated scf accuracy    <       0.00045416 Ry

     iteration #  4     ecut=   124.00 Ry     beta= 0.70
     Davidson diagonalization with overlap
     ethr =  1.57E-06,  avg # of iterations =  2.1

     negative rho (up, down):  8.923E-04 0.000E+00

     total cpu time spent up to now is     1562.1 secs

     total energy              =    -449.71748920 Ry
     estimated scf accuracy    <       0.00002364 Ry

     iteration #  5     ecut=   124.00 Ry     beta= 0.70
     Davidson diagonalization with overlap
     ethr =  8.15E-08,  avg # of iterations =  4.5

     negative rho (up, down):  8.926E-04 0.000E+00

     total cpu time spent up to now is     1585.4 secs

     total energy              =    -449.71750219 Ry
     estimated scf accuracy    <       0.00000282 Ry

     iteration #  6     ecut=   124.00 Ry     beta= 0.70
     Davidson diagonalization with overlap
     ethr =  9.71E-09,  avg # of iterations =  2.2

     negative rho (up, down):  8.929E-04 0.000E+00

     total cpu time spent up to now is     1601.5 secs

     total energy              =    -449.71750263 Ry
     estimated scf accuracy    <       0.00000034 Ry

     iteration #  7     ecut=   124.00 Ry     beta= 0.70
     Davidson diagonalization with overlap
     ethr =  1.18E-09,  avg # of iterations =  3.6

     negative rho (up, down):  8.927E-04 0.000E+00

     total cpu time spent up to now is     1621.2 secs

     total energy              =    -449.71750270 Ry
     estimated scf accuracy    <       0.00000009 Ry

     iteration #  8     ecut=   124.00 Ry     beta= 0.70
     Davidson diagonalization with overlap
     ethr =  3.20E-10,  avg # of iterations =  3.0

     negative rho (up, down):  8.928E-04 0.000E+00

     total cpu time spent up to now is     1639.6 secs

     total energy              =    -449.71750272 Ry
     estimated scf accuracy    <          8.9E-09 Ry

     iteration #  9     ecut=   124.00 Ry     beta= 0.70
     Davidson diagonalization with overlap
     ethr =  3.07E-11,  avg # of iterations =  3.6

     negative rho (up, down):  8.928E-04 0.000E+00

     total cpu time spent up to now is     1659.4 secs

     End of self-consistent calculation

     Number of k-points >= 100: set verbosity='high' to print the bands.

     the Fermi energy is    16.5124 ev

!    total energy              =    -449.71750272 Ry
     estimated scf accuracy    <          2.4E-10 Ry
     smearing contrib. (-TS)   =      -0.00006237 Ry
     internal energy E=F+TS    =    -449.71744035 Ry

     The total energy is F=E-TS. E is the sum of the following terms:
     one-electron contribution =    -162.37693828 Ry
     hartree contribution      =      96.49191441 Ry
     xc contribution           =     -53.67242146 Ry
     ewald contribution        =    -254.00896332 Ry
     one-center paw contrib.   =     -76.15103170 Ry

     convergence has been achieved in   9 iterations

     negative rho (up, down):  8.928E-04 0.000E+00

     Forces acting on atoms (cartesian axes, Ry/au):

     atom    1 type  1   force =     0.00000000   -0.00264863   -0.01003348
     atom    2 type  2   force =    -0.00000000    0.01332709   -0.00104409
     atom    3 type  3   force =    -0.00000000   -0.01067846    0.01107757

     Total force =     0.022872     Total SCF correction =     0.000031


     Computing stress (Cartesian axis) and pressure


     negative rho (up, down):  8.928E-04 0.000E+00
          total   stress  (Ry/bohr**3)                   (kbar)     P=       48.85
   0.00039281   0.00000000   0.00000000           57.78        0.00        0.00
   0.00000000   0.00040695  -0.00017934            0.00       59.86      -26.38
   0.00000000  -0.00017934   0.00019645            0.00      -26.38       28.90

     Energy error            =      3.2E-03 Ry
     Gradient error          =      1.3E-02 Ry/Bohr
     Cell gradient error     =      6.0E+01 kbar

     number of scf cycles    =   6
     number of bfgs steps    =   5

     enthalpy           old  =    -449.7142901599 Ry
     enthalpy           new  =    -449.7175027245 Ry

     CASE: enthalpy          _new < enthalpy          _old

     new trust radius        =       0.0552116395 bohr
     new conv_thr            =       0.0000000013 Ry

     new unit-cell volume =    192.53068 a.u.^3 (    28.53010 Ang^3 )
     density =      6.09501 g/cm^3

CELL_PARAMETERS (alat=  5.58242261)
   1.103612558  -0.000000017  -0.000000021
  -0.000000016   1.004914383   0.048304945
  -0.000000020   0.048724766   1.000240029

ATOMIC_POSITIONS (crystal)
Fe               0.4999999857        0.5461700321        0.4956931038
Ti              -0.0000000030        0.0032968605       -0.0385595189
H                0.5000000173        0.0705331074        0.2828664151



     Writing config-only to output data dir ./TiFeH.save/ :
     XML data file     NEW-OLD atomic charge density approx. for the potential
     New effective cutoffs (rho, wfc): 1904.15  136.13

     Check: negative core charge=   -0.000002

     negative rho (up, down):  9.147E-04 0.000E+00

     total cpu time spent up to now is     1665.7 secs

     per-process dynamical memory:   276.2 Mb

     Self-consistent Calculation

     iteration #  1     ecut=   124.00 Ry     beta= 0.70
     Davidson diagonalization with overlap
     ethr =  1.00E-06,  avg # of iterations =  9.4

     negative rho (up, down):  9.225E-04 0.000E+00

     total cpu time spent up to now is     1719.3 secs

     total energy              =    -449.71875728 Ry
     estimated scf accuracy    <       0.00076005 Ry

     iteration #  2     ecut=   124.00 Ry     beta= 0.70
     Davidson diagonalization with overlap
     ethr =  2.62E-06,  avg # of iterations =  4.6

     negative rho (up, down):  9.088E-04 0.000E+00

     total cpu time spent up to now is     1743.1 secs

     total energy              =    -449.71495337 Ry
     estimated scf accuracy    <       0.09687952 Ry

     iteration #  3     ecut=   124.00 Ry     beta= 0.70
     Davidson diagonalization with overlap
     ethr =  2.62E-06,  avg # of iterations =  4.4

     negative rho (up, down):  9.108E-04 0.000E+00

     total cpu time spent up to now is     1766.4 secs

     total energy              =    -449.71928593 Ry
     estimated scf accuracy    <       0.00006038 Ry

     iteration #  4     ecut=   124.00 Ry     beta= 0.70
     Davidson diagonalization with overlap
     ethr =  2.08E-07,  avg # of iterations =  2.7

     negative rho (up, down):  9.086E-04 0.000E+00

     total cpu time spent up to now is     1784.5 secs

     total energy              =    -449.71929555 Ry
     estimated scf accuracy    <       0.00000951 Ry

     iteration #  5     ecut=   124.00 Ry     beta= 0.70
     Davidson diagonalization with overlap
     ethr =  3.28E-08,  avg # of iterations =  2.7

     negative rho (up, down):  9.087E-04 0.000E+00

     total cpu time spent up to now is     1803.2 secs

     total energy              =    -449.71929776 Ry
     estimated scf accuracy    <       0.00000082 Ry

     iteration #  6     ecut=   124.00 Ry     beta= 0.70
     Davidson diagonalization with overlap
     ethr =  2.81E-09,  avg # of iterations =  4.4

     negative rho (up, down):  9.087E-04 0.000E+00

     total cpu time spent up to now is     1824.9 secs

     total energy              =    -449.71929804 Ry
     estimated scf accuracy    <       0.00000004 Ry

     iteration #  7     ecut=   124.00 Ry     beta= 0.70
     Davidson diagonalization with overlap
     ethr =  1.44E-10,  avg # of iterations =  3.4

     negative rho (up, down):  9.087E-04 0.000E+00

     total cpu time spent up to now is     1845.0 secs

     total energy              =    -449.71929806 Ry
     estimated scf accuracy    <       0.00000002 Ry

     iteration #  8     ecut=   124.00 Ry     beta= 0.70
     Davidson diagonalization with overlap
     ethr =  7.32E-11,  avg # of iterations =  1.3

     negative rho (up, down):  9.087E-04 0.000E+00

     total cpu time spent up to now is     1859.2 secs

     End of self-consistent calculation

     Number of k-points >= 100: set verbosity='high' to print the bands.

     the Fermi energy is    16.3384 ev

!    total energy              =    -449.71929806 Ry
     estimated scf accuracy    <          1.3E-09 Ry
     smearing contrib. (-TS)   =      -0.00004685 Ry
     internal energy E=F+TS    =    -449.71925121 Ry

     The total energy is F=E-TS. E is the sum of the following terms:
     one-electron contribution =    -163.53114095 Ry
     hartree contribution      =      96.89684368 Ry
     xc contribution           =     -53.65786230 Ry
     ewald contribution        =    -253.27595528 Ry
     one-center paw contrib.   =     -76.15113637 Ry

     convergence has been achieved in   8 iterations

     negative rho (up, down):  9.087E-04 0.000E+00

     Forces acting on atoms (cartesian axes, Ry/au):

     atom    1 type  1   force =    -0.00000000   -0.00717666   -0.00734581
     atom    2 type  2   force =     0.00000000    0.01366215    0.00185155
     atom    3 type  3   force =     0.00000000   -0.00648549    0.00549426

     Total force =     0.019178     Total SCF correction =     0.000044


     Computing stress (Cartesian axis) and pressure


     negative rho (up, down):  9.087E-04 0.000E+00
          total   stress  (Ry/bohr**3)                   (kbar)     P=       34.68
   0.00019500   0.00000000   0.00000000           28.69        0.00        0.00
   0.00000000   0.00040293  -0.00019514            0.00       59.27      -28.71
   0.00000000  -0.00019514   0.00010939            0.00      -28.71       16.09

     Energy error            =      1.8E-03 Ry
     Gradient error          =      1.4E-02 Ry/Bohr
     Cell gradient error     =      5.9E+01 kbar

     number of scf cycles    =   7
     number of bfgs steps    =   6

     enthalpy           old  =    -449.7175027245 Ry
     enthalpy           new  =    -449.7192980623 Ry

     CASE: enthalpy          _new < enthalpy          _old

     new trust radius        =       0.0828028315 bohr
     new conv_thr            =       0.0000000014 Ry

     new unit-cell volume =    197.28682 a.u.^3 (    29.23489 Ang^3 )
     density =      5.94808 g/cm^3

CELL_PARAMETERS (alat=  5.58242261)
   1.121801657  -0.000000017  -0.000000024
  -0.000000015   1.018407702   0.035640747
  -0.000000023   0.035017302   0.993866441

ATOMIC_POSITIONS (crystal)
Fe               0.4999999931        0.5467342283        0.4878347458
Ti              -0.0000000088        0.0112581648       -0.0436404971
H                0.5000000156        0.0620076069        0.2958057513



     Writing config-only to output data dir ./TiFeH.save/ :
     XML data file     NEW-OLD atomic charge density approx. for the potential
     New effective cutoffs (rho, wfc): 1848.66  132.11

     Check: negative core charge=   -0.000002

     negative rho (up, down):  9.225E-04 0.000E+00

     total cpu time spent up to now is     1865.5 secs

     per-process dynamical memory:   276.0 Mb

     Self-consistent Calculation

     iteration #  1     ecut=   124.00 Ry     beta= 0.70
     Davidson diagonalization with overlap
     c_bands:  1 eigenvalues not converged
     c_bands:  1 eigenvalues not converged
     c_bands:  1 eigenvalues not converged
     ethr =  1.00E-06,  avg # of iterations = 11.8

     negative rho (up, down):  9.265E-04 0.000E+00

     total cpu time spent up to now is     1930.7 secs

     total energy              =    -449.72070082 Ry
     estimated scf accuracy    <       0.00198912 Ry

     iteration #  2     ecut=   124.00 Ry     beta= 0.70
     Davidson diagonalization with overlap
     ethr =  6.86E-06,  avg # of iterations =  4.9

     negative rho (up, down):  9.033E-04 0.000E+00

     total cpu time spent up to now is     1955.2 secs

     total energy              =    -449.70979431 Ry
     estimated scf accuracy    <       0.28120334 Ry

     iteration #  3     ecut=   124.00 Ry     beta= 0.70
     Davidson diagonalization with overlap
     ethr =  6.86E-06,  avg # of iterations =  4.5

     negative rho (up, down):  9.092E-04 0.000E+00

     total cpu time spent up to now is     1978.5 secs

     total energy              =    -449.72198843 Ry
     estimated scf accuracy    <       0.00026565 Ry

     iteration #  4     ecut=   124.00 Ry     beta= 0.70
     Davidson diagonalization with overlap
     ethr =  9.16E-07,  avg # of iterations =  2.2

     negative rho (up, down):  9.043E-04 0.000E+00

     total cpu time spent up to now is     1995.7 secs

     total energy              =    -449.72203110 Ry
     estimated scf accuracy    <       0.00004580 Ry

     iteration #  5     ecut=   124.00 Ry     beta= 0.70
     Davidson diagonalization with overlap
     ethr =  1.58E-07,  avg # of iterations =  2.2

     negative rho (up, down):  9.037E-04 0.000E+00

     total cpu time spent up to now is     2012.8 secs

     total energy              =    -449.72203878 Ry
     estimated scf accuracy    <       0.00000310 Ry

     iteration #  6     ecut=   124.00 Ry     beta= 0.70
     Davidson diagonalization with overlap
     ethr =  1.07E-08,  avg # of iterations =  4.8

     negative rho (up, down):  9.039E-04 0.000E+00

     total cpu time spent up to now is     2036.1 secs

     total energy              =    -449.72204010 Ry
     estimated scf accuracy    <       0.00000024 Ry

     iteration #  7     ecut=   124.00 Ry     beta= 0.70
     Davidson diagonalization with overlap
     ethr =  8.36E-10,  avg # of iterations =  2.4

     negative rho (up, down):  9.039E-04 0.000E+00

     total cpu time spent up to now is     2053.7 secs

     total energy              =    -449.72204015 Ry
     estimated scf accuracy    <       0.00000007 Ry

     iteration #  8     ecut=   124.00 Ry     beta= 0.70
     Davidson diagonalization with overlap
     ethr =  2.51E-10,  avg # of iterations =  1.9

     negative rho (up, down):  9.039E-04 0.000E+00

     total cpu time spent up to now is     2069.0 secs

     total energy              =    -449.72204016 Ry
     estimated scf accuracy    <          6.6E-09 Ry

     iteration #  9     ecut=   124.00 Ry     beta= 0.70
     Davidson diagonalization with overlap
     ethr =  2.27E-11,  avg # of iterations =  4.6

     negative rho (up, down):  9.039E-04 0.000E+00

     total cpu time spent up to now is     2092.4 secs

     End of self-consistent calculation

     Number of k-points >= 100: set verbosity='high' to print the bands.

     the Fermi energy is    15.8320 ev

!    total energy              =    -449.72204016 Ry
     estimated scf accuracy    <          7.0E-10 Ry
     smearing contrib. (-TS)   =      -0.00007747 Ry
     internal energy E=F+TS    =    -449.72196269 Ry

     The total energy is F=E-TS. E is the sum of the following terms:
     one-electron contribution =    -166.65507181 Ry
     hartree contribution      =      97.94921610 Ry
     xc contribution           =     -53.61036918 Ry
     ewald contribution        =    -251.25476891 Ry
     one-center paw contrib.   =     -76.15096888 Ry

     convergence has been achieved in   9 iterations

     negative rho (up, down):  9.039E-04 0.000E+00

     Forces acting on atoms (cartesian axes, Ry/au):

     atom    1 type  1   force =    -0.00000001   -0.00588538   -0.00493585
     atom    2 type  2   force =     0.00000001    0.01135455    0.00287965
     atom    3 type  3   force =     0.00000000   -0.00546917    0.00205621

     Total force =     0.015178     Total SCF correction =     0.000045


     Computing stress (Cartesian axis) and pressure


     negative rho (up, down):  9.039E-04 0.000E+00
          total   stress  (Ry/bohr**3)                   (kbar)     P=       -9.88
  -0.00030134   0.00000000   0.00000000          -44.33        0.00        0.00
   0.00000000   0.00019081  -0.00012787            0.00       28.07      -18.81
   0.00000000  -0.00012787  -0.00009100            0.00      -18.81      -13.39

     Energy error            =      2.7E-03 Ry
     Gradient error          =      1.1E-02 Ry/Bohr
     Cell gradient error     =      4.4E+01 kbar

     number of scf cycles    =   8
     number of bfgs steps    =   7

     enthalpy           old  =    -449.7192980623 Ry
     enthalpy           new  =    -449.7220401610 Ry

     CASE: enthalpy          _new < enthalpy          _old

     new trust radius        =       0.0601611901 bohr
     new conv_thr            =       0.0000000011 Ry

     new unit-cell volume =    199.61699 a.u.^3 (    29.58019 Ang^3 )
     density =      5.87864 g/cm^3

CELL_PARAMETERS (alat=  5.58242261)
   1.123924195  -0.000000016  -0.000000025
  -0.000000014   1.034088759   0.023230663
  -0.000000024   0.021529890   0.987750482

ATOMIC_POSITIONS (crystal)
Fe               0.4999999959        0.5458391510        0.4814939023
Ti              -0.0000000105        0.0190141056       -0.0460543059
H                0.5000000146        0.0551467434        0.3045604036



     Writing config-only to output data dir ./TiFeH.save/ :
     XML data file     NEW-OLD atomic charge density approx. for the potential
     New effective cutoffs (rho, wfc): 1810.95  129.44

     Check: negative core charge=   -0.000002

     negative rho (up, down):  8.691E-04 0.000E+00

     total cpu time spent up to now is     2098.5 secs

     per-process dynamical memory:   276.0 Mb

     Self-consistent Calculation

     iteration #  1     ecut=   124.00 Ry     beta= 0.70
     Davidson diagonalization with overlap
     ethr =  1.00E-06,  avg # of iterations = 11.1

     negative rho (up, down):  8.746E-04 0.000E+00

     total cpu time spent up to now is     2158.7 secs

     total energy              =    -449.72317782 Ry
     estimated scf accuracy    <       0.00116093 Ry

     iteration #  2     ecut=   124.00 Ry     beta= 0.70
     Davidson diagonalization with overlap
     ethr =  4.00E-06,  avg # of iterations =  4.4

     negative rho (up, down):  8.606E-04 0.000E+00

     total cpu time spent up to now is     2181.4 secs

     total energy              =    -449.71830984 Ry
     estimated scf accuracy    <       0.11933792 Ry

     iteration #  3     ecut=   124.00 Ry     beta= 0.70
     Davidson diagonalization with overlap
     ethr =  4.00E-06,  avg # of iterations =  4.3

     negative rho (up, down):  8.640E-04 0.000E+00

     total cpu time spent up to now is     2203.8 secs

     total energy              =    -449.72384141 Ry
     estimated scf accuracy    <       0.00059295 Ry

     iteration #  4     ecut=   124.00 Ry     beta= 0.70
     Davidson diagonalization with overlap
     ethr =  2.04E-06,  avg # of iterations =  1.0

     negative rho (up, down):  8.620E-04 0.000E+00

     total cpu time spent up to now is     2217.7 secs

     total energy              =    -449.72388260 Ry
     estimated scf accuracy    <       0.00002004 Ry

     iteration #  5     ecut=   124.00 Ry     beta= 0.70
     Davidson diagonalization with overlap
     ethr =  6.91E-08,  avg # of iterations =  3.4

     negative rho (up, down):  8.622E-04 0.000E+00

     total cpu time spent up to now is     2237.1 secs

     total energy              =    -449.72388815 Ry
     estimated scf accuracy    <       0.00000177 Ry

     iteration #  6     ecut=   124.00 Ry     beta= 0.70
     Davidson diagonalization with overlap
     ethr =  6.12E-09,  avg # of iterations =  4.3

     negative rho (up, down):  8.623E-04 0.000E+00

     total cpu time spent up to now is     2258.4 secs

     total energy              =    -449.72388881 Ry
     estimated scf accuracy    <       0.00000010 Ry

     iteration #  7     ecut=   124.00 Ry     beta= 0.70
     Davidson diagonalization with overlap
     ethr =  3.46E-10,  avg # of iterations =  3.1

     negative rho (up, down):  8.623E-04 0.000E+00

     total cpu time spent up to now is     2277.6 secs

     total energy              =    -449.72388885 Ry
     estimated scf accuracy    <       0.00000002 Ry

     iteration #  8     ecut=   124.00 Ry     beta= 0.70
     Davidson diagonalization with overlap
     ethr =  6.08E-11,  avg # of iterations =  3.7

     negative rho (up, down):  8.623E-04 0.000E+00

     total cpu time spent up to now is     2296.0 secs

     total energy              =    -449.72388885 Ry
     estimated scf accuracy    <          2.8E-09 Ry

     iteration #  9     ecut=   124.00 Ry     beta= 0.70
     Davidson diagonalization with overlap
     ethr =  9.50E-12,  avg # of iterations =  4.2

     negative rho (up, down):  8.623E-04 0.000E+00

     total cpu time spent up to now is     2315.6 secs

     End of self-consistent calculation

     Number of k-points >= 100: set verbosity='high' to print the bands.

     the Fermi energy is    15.5845 ev

!    total energy              =    -449.72388885 Ry
     estimated scf accuracy    <          6.2E-11 Ry
     smearing contrib. (-TS)   =      -0.00002894 Ry
     internal energy E=F+TS    =    -449.72385991 Ry

     The total energy is F=E-TS. E is the sum of the following terms:
     one-electron contribution =    -168.00080297 Ry
     hartree contribution      =      98.38182737 Ry
     xc contribution           =     -53.58570242 Ry
     ewald contribution        =    -250.36834096 Ry
     one-center paw contrib.   =     -76.15084093 Ry

     convergence has been achieved in   9 iterations

     negative rho (up, down):  8.623E-04 0.000E+00

     Forces acting on atoms (cartesian axes, Ry/au):

     atom    1 type  1   force =    -0.00000001   -0.00365358   -0.00522199
     atom    2 type  2   force =     0.00000001    0.00851046    0.00107703
     atom    3 type  3   force =     0.00000000   -0.00485688    0.00414496

     Total force =     0.012449     Total SCF correction =     0.000022


     Computing stress (Cartesian axis) and pressure


     negative rho (up, down):  8.623E-04 0.000E+00
          total   stress  (Ry/bohr**3)                   (kbar)     P=      -32.03
  -0.00060367   0.00000000   0.00000000          -88.80        0.00        0.00
   0.00000000   0.00007085  -0.00006806            0.00       10.42      -10.01
   0.00000000  -0.00006806  -0.00012032            0.00      -10.01      -17.70

     Energy error            =      1.8E-03 Ry
     Gradient error          =      8.5E-03 Ry/Bohr
     Cell gradient error     =      8.9E+01 kbar

     number of scf cycles    =   9
     number of bfgs steps    =   8

     enthalpy           old  =    -449.7220401610 Ry
     enthalpy           new  =    -449.7238888507 Ry

     CASE: enthalpy          _new < enthalpy          _old

     new trust radius        =       0.0671955440 bohr
     new conv_thr            =       0.0000000009 Ry

     new unit-cell volume =    201.04691 a.u.^3 (    29.79208 Ang^3 )
     density =      5.83683 g/cm^3

CELL_PARAMETERS (alat=  5.58242261)
   1.117852280  -0.000000016  -0.000000025
  -0.000000014   1.052569905   0.009662563
  -0.000000024   0.006822408   0.982249012

ATOMIC_POSITIONS (crystal)
Fe               0.4999999973        0.5445142312        0.4745580353
Ti              -0.0000000110        0.0276381197       -0.0481579280
H                0.5000000137        0.0478476491        0.3135998927



     Writing config-only to output data dir ./TiFeH.save/ :
     XML data file     NEW-OLD atomic charge density approx. for the potential
     New effective cutoffs (rho, wfc): 1800.51  128.72

     Check: negative core charge=   -0.000002

     negative rho (up, down):  9.137E-04 0.000E+00

     total cpu time spent up to now is     2321.8 secs

     per-process dynamical memory:   276.0 Mb

     Self-consistent Calculation

     iteration #  1     ecut=   124.00 Ry     beta= 0.70
     Davidson diagonalization with overlap
     c_bands:  1 eigenvalues not converged
     c_bands:  1 eigenvalues not converged
     ethr =  1.00E-06,  avg # of iterations = 11.0

     negative rho (up, down):  9.141E-04 0.000E+00

     total cpu time spent up to now is     2381.5 secs

     total energy              =    -449.72561811 Ry
     estimated scf accuracy    <       0.00099317 Ry

     iteration #  2     ecut=   124.00 Ry     beta= 0.70
     Davidson diagonalization with overlap
     ethr =  3.42E-06,  avg # of iterations =  3.7

     negative rho (up, down):  9.035E-04 0.000E+00

     total cpu time spent up to now is     2401.6 secs

     total energy              =    -449.72348216 Ry
     estimated scf accuracy    <       0.04320861 Ry

     iteration #  3     ecut=   124.00 Ry     beta= 0.70
     Davidson diagonalization with overlap
     ethr =  3.42E-06,  avg # of iterations =  3.8

     negative rho (up, down):  9.073E-04 0.000E+00

     total cpu time spent up to now is     2421.8 secs

     total energy              =    -449.72597954 Ry
     estimated scf accuracy    <       0.00184599 Ry

     iteration #  4     ecut=   124.00 Ry     beta= 0.70
     Davidson diagonalization with overlap
     ethr =  3.42E-06,  avg # of iterations =  1.0

     negative rho (up, down):  9.052E-04 0.000E+00

     total cpu time spent up to now is     2435.6 secs

     total energy              =    -449.72607278 Ry
     estimated scf accuracy    <       0.00001490 Ry

     iteration #  5     ecut=   124.00 Ry     beta= 0.70
     Davidson diagonalization with overlap
     ethr =  5.14E-08,  avg # of iterations =  3.4

     negative rho (up, down):  9.056E-04 0.000E+00

     total cpu time spent up to now is     2454.8 secs

     total energy              =    -449.72607787 Ry
     estimated scf accuracy    <       0.00000073 Ry

     iteration #  6     ecut=   124.00 Ry     beta= 0.70
     Davidson diagonalization with overlap
     ethr =  2.52E-09,  avg # of iterations =  5.0

     negative rho (up, down):  9.056E-04 0.000E+00

     total cpu time spent up to now is     2480.1 secs

     total energy              =    -449.72607841 Ry
     estimated scf accuracy    <       0.00000010 Ry

     iteration #  7     ecut=   124.00 Ry     beta= 0.70
     Davidson diagonalization with overlap
     ethr =  3.49E-10,  avg # of iterations =  2.3

     negative rho (up, down):  9.057E-04 0.000E+00

     total cpu time spent up to now is     2497.6 secs

     total energy              =    -449.72607843 Ry
     estimated scf accuracy    <       0.00000003 Ry

     iteration #  8     ecut=   124.00 Ry     beta= 0.70
     Davidson diagonalization with overlap
     ethr =  9.94E-11,  avg # of iterations =  2.2

     negative rho (up, down):  9.057E-04 0.000E+00

     total cpu time spent up to now is     2515.1 secs

     total energy              =    -449.72607844 Ry
     estimated scf accuracy    <          2.8E-09 Ry

     iteration #  9     ecut=   124.00 Ry     beta= 0.70
     Davidson diagonalization with overlap
     ethr =  9.64E-12,  avg # of iterations =  4.5

     negative rho (up, down):  9.057E-04 0.000E+00

     total cpu time spent up to now is     2535.6 secs

     End of self-consistent calculation

     Number of k-points >= 100: set verbosity='high' to print the bands.

     the Fermi energy is    15.4322 ev

!    total energy              =    -449.72607844 Ry
     estimated scf accuracy    <          8.9E-11 Ry
     smearing contrib. (-TS)   =      -0.00003680 Ry
     internal energy E=F+TS    =    -449.72604164 Ry

     The total energy is F=E-TS. E is the sum of the following terms:
     one-electron contribution =    -168.70910664 Ry
     hartree contribution      =      98.59039800 Ry
     xc contribution           =     -53.56891927 Ry
     ewald contribution        =    -249.88767238 Ry
     one-center paw contrib.   =     -76.15074135 Ry

     convergence has been achieved in   9 iterations

     negative rho (up, down):  9.057E-04 0.000E+00

     Forces acting on atoms (cartesian axes, Ry/au):

     atom    1 type  1   force =    -0.00000001   -0.00245134   -0.00623094
     atom    2 type  2   force =     0.00000001    0.00529679   -0.00172992
     atom    3 type  3   force =    -0.00000000   -0.00284545    0.00796086

     Total force =     0.012139     Total SCF correction =     0.000016


     Computing stress (Cartesian axis) and pressure


     negative rho (up, down):  9.057E-04 0.000E+00
          total   stress  (Ry/bohr**3)                   (kbar)     P=      -47.22
  -0.00080364   0.00000000   0.00000000         -118.22        0.00        0.00
   0.00000000  -0.00006904  -0.00001455            0.00      -10.16       -2.14
   0.00000000  -0.00001455  -0.00009039            0.00       -2.14      -13.30

     Energy error            =      2.2E-03 Ry
     Gradient error          =      8.0E-03 Ry/Bohr
     Cell gradient error     =      1.2E+02 kbar

     number of scf cycles    =  10
     number of bfgs steps    =   9

     enthalpy           old  =    -449.7238888507 Ry
     enthalpy           new  =    -449.7260784411 Ry

     CASE: enthalpy          _new < enthalpy          _old

     new trust radius        =       0.0989454703 bohr
     new conv_thr            =       0.0000000008 Ry

     new unit-cell volume =    201.98290 a.u.^3 (    29.93078 Ang^3 )
     density =      5.80978 g/cm^3

CELL_PARAMETERS (alat=  5.58242261)
   1.100874069  -0.000000014  -0.000000025
  -0.000000013   1.080238211  -0.010813904
  -0.000000023  -0.015296837   0.976466640

ATOMIC_POSITIONS (crystal)
Fe               0.4999999984        0.5421059156        0.4637232148
Ti              -0.0000000108        0.0407720011       -0.0512546838
H                0.5000000124        0.0371220833        0.3275314690



     Writing config-only to output data dir ./TiFeH.save/ :
     XML data file     NEW-OLD atomic charge density approx. for the potential
     New effective cutoffs (rho, wfc): 1823.00  130.43

     Check: negative core charge=   -0.000002

     negative rho (up, down):  9.351E-04 0.000E+00

     total cpu time spent up to now is     2541.8 secs

     per-process dynamical memory:   276.0 Mb

     Self-consistent Calculation

     iteration #  1     ecut=   124.00 Ry     beta= 0.70
     Davidson diagonalization with overlap
     c_bands:  1 eigenvalues not converged
     c_bands:  1 eigenvalues not converged
     c_bands:  1 eigenvalues not converged
     c_bands:  2 eigenvalues not converged
     c_bands:  2 eigenvalues not converged
     c_bands:  1 eigenvalues not converged
     ethr =  1.00E-06,  avg # of iterations = 12.6

     negative rho (up, down):  9.191E-04 0.000E+00

     total cpu time spent up to now is     2609.9 secs

     total energy              =    -449.72909507 Ry
     estimated scf accuracy    <       0.00209796 Ry

     iteration #  2     ecut=   124.00 Ry     beta= 0.70
     Davidson diagonalization with overlap
     ethr =  7.23E-06,  avg # of iterations =  2.0

     negative rho (up, down):  9.056E-04 0.000E+00

     total cpu time spent up to now is     2626.4 secs

     total energy              =    -449.72827233 Ry
     estimated scf accuracy    <       0.00420011 Ry

     iteration #  3     ecut=   124.00 Ry     beta= 0.70
     Davidson diagonalization with overlap
     ethr =  7.23E-06,  avg # of iterations =  3.3

     negative rho (up, down):  9.177E-04 0.000E+00

     total cpu time spent up to now is     2645.7 secs

     total energy              =    -449.72682579 Ry
     estimated scf accuracy    <       0.06219496 Ry

     iteration #  4     ecut=   124.00 Ry     beta= 0.70
     Davidson diagonalization with overlap
     ethr =  7.23E-06,  avg # of iterations =  2.8

     negative rho (up, down):  9.145E-04 0.000E+00

     total cpu time spent up to now is     2663.3 secs

     total energy              =    -449.72966428 Ry
     estimated scf accuracy    <       0.00004032 Ry

     iteration #  5     ecut=   124.00 Ry     beta= 0.70
     Davidson diagonalization with overlap
     ethr =  1.39E-07,  avg # of iterations =  3.8

     negative rho (up, down):  9.154E-04 0.000E+00

     total cpu time spent up to now is     2682.9 secs

     total energy              =    -449.72967814 Ry
     estimated scf accuracy    <       0.00000998 Ry

     iteration #  6     ecut=   124.00 Ry     beta= 0.70
     Davidson diagonalization with overlap
     ethr =  3.44E-08,  avg # of iterations =  2.2

     negative rho (up, down):  9.149E-04 0.000E+00

     total cpu time spent up to now is     2699.8 secs

     total energy              =    -449.72967963 Ry
     estimated scf accuracy    <       0.00000089 Ry

     iteration #  7     ecut=   124.00 Ry     beta= 0.70
     Davidson diagonalization with overlap
     ethr =  3.08E-09,  avg # of iterations =  4.4

     negative rho (up, down):  9.149E-04 0.000E+00

     total cpu time spent up to now is     2720.5 secs

     total energy              =    -449.72967991 Ry
     estimated scf accuracy    <       0.00000002 Ry

     iteration #  8     ecut=   124.00 Ry     beta= 0.70
     Davidson diagonalization with overlap
     ethr =  7.30E-11,  avg # of iterations =  4.6

     negative rho (up, down):  9.148E-04 0.000E+00

     total cpu time spent up to now is     2745.2 secs

     total energy              =    -449.72967993 Ry
     estimated scf accuracy    <          8.9E-09 Ry

     iteration #  9     ecut=   124.00 Ry     beta= 0.70
     Davidson diagonalization with overlap
     ethr =  3.08E-11,  avg # of iterations =  1.7

     negative rho (up, down):  9.149E-04 0.000E+00

     total cpu time spent up to now is     2759.9 secs

     End of self-consistent calculation

     Number of k-points >= 100: set verbosity='high' to print the bands.

     the Fermi energy is    15.3279 ev

!    total energy              =    -449.72967993 Ry
     estimated scf accuracy    <          1.3E-10 Ry
     smearing contrib. (-TS)   =      -0.00004250 Ry
     internal energy E=F+TS    =    -449.72963743 Ry

     The total energy is F=E-TS. E is the sum of the following terms:
     one-electron contribution =    -169.06138491 Ry
     hartree contribution      =      98.67189315 Ry
     xc contribution           =     -53.55552942 Ry
     ewald contribution        =    -249.63390949 Ry
     one-center paw contrib.   =     -76.15070676 Ry

     convergence has been achieved in   9 iterations

     negative rho (up, down):  9.149E-04 0.000E+00

     Forces acting on atoms (cartesian axes, Ry/au):

     atom    1 type  1   force =    -0.00000001   -0.00269810   -0.00761232
     atom    2 type  2   force =     0.00000001    0.00084562   -0.00597335
     atom    3 type  3   force =    -0.00000000    0.00185248    0.01358567

     Total force =     0.017018     Total SCF correction =     0.000028


     Computing stress (Cartesian axis) and pressure


     negative rho (up, down):  9.149E-04 0.000E+00
          total   stress  (Ry/bohr**3)                   (kbar)     P=      -60.95
  -0.00098395   0.00000000   0.00000000         -144.74        0.00        0.00
   0.00000000  -0.00022838   0.00005424            0.00      -33.60        7.98
   0.00000000   0.00005424  -0.00003058            0.00        7.98       -4.50

     Energy error            =      3.6E-03 Ry
     Gradient error          =      1.4E-02 Ry/Bohr
     Cell gradient error     =      1.4E+02 kbar

     number of scf cycles    =  11
     number of bfgs steps    =  10

     enthalpy           old  =    -449.7260784411 Ry
     enthalpy           new  =    -449.7296799337 Ry

     CASE: enthalpy          _new < enthalpy          _old

     new trust radius        =       0.1515264962 bohr
     new conv_thr            =       0.0000000014 Ry

     new unit-cell volume =    201.92252 a.u.^3 (    29.92183 Ang^3 )
     density =      5.81152 g/cm^3

CELL_PARAMETERS (alat=  5.58242261)
   1.065955432  -0.000000011  -0.000000022
  -0.000000010   1.122986353  -0.042115353
  -0.000000020  -0.049153566   0.971466813

ATOMIC_POSITIONS (crystal)
Fe               0.4999999987        0.5373362999        0.4467419459
Ti              -0.0000000092        0.0608397746       -0.0558919151
H                0.5000000104        0.0218239256        0.3491499692



     Writing config-only to output data dir ./TiFeH.save/ :
     XML data file     NEW-OLD atomic charge density approx. for the potential
     New effective cutoffs (rho, wfc): 1885.88  134.85

     Check: negative core charge=   -0.000002

     negative rho (up, down):  9.282E-04 0.000E+00

     total cpu time spent up to now is     2766.1 secs

     per-process dynamical memory:   276.0 Mb

     Self-consistent Calculation

     iteration #  1     ecut=   124.00 Ry     beta= 0.70
     Davidson diagonalization with overlap
     c_bands:  1 eigenvalues not converged
     c_bands:  1 eigenvalues not converged
     c_bands:  1 eigenvalues not converged
     c_bands:  1 eigenvalues not converged
     c_bands:  1 eigenvalues not converged
     c_bands:  1 eigenvalues not converged
     c_bands:  1 eigenvalues not converged
     c_bands:  1 eigenvalues not converged
     c_bands:  1 eigenvalues not converged
     c_bands:  1 eigenvalues not converged
     c_bands:  1 eigenvalues not converged
     c_bands:  1 eigenvalues not converged
     c_bands:  1 eigenvalues not converged
     c_bands:  1 eigenvalues not converged
     c_bands:  1 eigenvalues not converged
     c_bands:  1 eigenvalues not converged
     c_bands:  1 eigenvalues not converged
     c_bands:  1 eigenvalues not converged
     c_bands:  1 eigenvalues not converged
     c_bands:  1 eigenvalues not converged
     c_bands:  1 eigenvalues not converged
     c_bands:  1 eigenvalues not converged
     c_bands:  1 eigenvalues not converged
     c_bands:  1 eigenvalues not converged
     c_bands:  1 eigenvalues not converged
     c_bands:  1 eigenvalues not converged
     c_bands:  1 eigenvalues not converged
     c_bands:  1 eigenvalues not converged
     c_bands:  1 eigenvalues not converged
     c_bands:  1 eigenvalues not converged
     c_bands:  1 eigenvalues not converged
     c_bands:  1 eigenvalues not converged
     ethr =  1.00E-06,  avg # of iterations = 14.7

     negative rho (up, down):  8.715E-04 0.000E+00

     total cpu time spent up to now is     2845.4 secs

     total energy              =    -449.73335874 Ry
     estimated scf accuracy    <       0.00591593 Ry

     iteration #  2     ecut=   124.00 Ry     beta= 0.70
     Davidson diagonalization with overlap
     ethr =  2.04E-05,  avg # of iterations =  2.0

     negative rho (up, down):  8.956E-04 0.000E+00

     total cpu time spent up to now is     2862.0 secs

     total energy              =    -449.72965632 Ry
     estimated scf accuracy    <       0.01845844 Ry

     iteration #  3     ecut=   124.00 Ry     beta= 0.70
     Davidson diagonalization with overlap
     ethr =  2.04E-05,  avg # of iterations =  3.3

     negative rho (up, down):  8.777E-04 0.000E+00

     total cpu time spent up to now is     2881.3 secs

     total energy              =    -449.72718703 Ry
     estimated scf accuracy    <       0.16504883 Ry

     iteration #  4     ecut=   124.00 Ry     beta= 0.70
     Davidson diagonalization with overlap
     ethr =  2.04E-05,  avg # of iterations =  2.9

     negative rho (up, down):  8.729E-04 0.000E+00

     total cpu time spent up to now is     2898.8 secs

     total energy              =    -449.73465616 Ry
     estimated scf accuracy    <       0.00005115 Ry

     iteration #  5     ecut=   124.00 Ry     beta= 0.70
     Davidson diagonalization with overlap
     ethr =  1.76E-07,  avg # of iterations =  4.7

     negative rho (up, down):  8.726E-04 0.000E+00

     total cpu time spent up to now is     2923.1 secs

     total energy              =    -449.73469136 Ry
     estimated scf accuracy    <       0.00003091 Ry

     iteration #  6     ecut=   124.00 Ry     beta= 0.70
     Davidson diagonalization with overlap
     ethr =  1.07E-07,  avg # of iterations =  1.2

     negative rho (up, down):  8.732E-04 0.000E+00

     total cpu time spent up to now is     2937.1 secs

     total energy              =    -449.73469327 Ry
     estimated scf accuracy    <       0.00000082 Ry

     iteration #  7     ecut=   124.00 Ry     beta= 0.70
     Davidson diagonalization with overlap
     ethr =  2.83E-09,  avg # of iterations =  4.6

     negative rho (up, down):  8.730E-04 0.000E+00

     total cpu time spent up to now is     2960.9 secs

     total energy              =    -449.73469373 Ry
     estimated scf accuracy    <       0.00000019 Ry

     iteration #  8     ecut=   124.00 Ry     beta= 0.70
     Davidson diagonalization with overlap
     ethr =  6.41E-10,  avg # of iterations =  2.9

     negative rho (up, down):  8.730E-04 0.000E+00

     total cpu time spent up to now is     2978.8 secs

     total energy              =    -449.73469376 Ry
     estimated scf accuracy    <       0.00000006 Ry

     iteration #  9     ecut=   124.00 Ry     beta= 0.70
     Davidson diagonalization with overlap
     ethr =  2.02E-10,  avg # of iterations =  2.0

     negative rho (up, down):  8.731E-04 0.000E+00

     total cpu time spent up to now is     2994.4 secs

     End of self-consistent calculation

     Number of k-points >= 100: set verbosity='high' to print the bands.

     the Fermi energy is    15.2958 ev

!    total energy              =    -449.73469377 Ry
     estimated scf accuracy    <          1.9E-10 Ry
     smearing contrib. (-TS)   =      -0.00002631 Ry
     internal energy E=F+TS    =    -449.73466746 Ry

     The total energy is F=E-TS. E is the sum of the following terms:
     one-electron contribution =    -169.06621053 Ry
     hartree contribution      =      98.68325500 Ry
     xc contribution           =     -53.55285428 Ry
     ewald contribution        =    -249.64808532 Ry
     one-center paw contrib.   =     -76.15077233 Ry

     convergence has been achieved in   9 iterations

     negative rho (up, down):  8.731E-04 0.000E+00

     Forces acting on atoms (cartesian axes, Ry/au):

     atom    1 type  1   force =    -0.00000001   -0.00324030   -0.00648800
     atom    2 type  2   force =     0.00000001   -0.00641047   -0.01226702
     atom    3 type  3   force =    -0.00000000    0.00965077    0.01875502

     Total force =     0.026250     Total SCF correction =     0.000030


     Computing stress (Cartesian axis) and pressure


     negative rho (up, down):  8.731E-04 0.000E+00
          total   stress  (Ry/bohr**3)                   (kbar)     P=      -69.48
  -0.00105492   0.00000000   0.00000000         -155.18        0.00        0.00
   0.00000000  -0.00041494   0.00019394            0.00      -61.04       28.53
   0.00000000   0.00019394   0.00005295            0.00       28.53        7.79

     Energy error            =      5.0E-03 Ry
     Gradient error          =      1.9E-02 Ry/Bohr
     Cell gradient error     =      1.6E+02 kbar

     number of scf cycles    =  12
     number of bfgs steps    =  11

     enthalpy           old  =    -449.7296799337 Ry
     enthalpy           new  =    -449.7346937699 Ry

     CASE: enthalpy          _new < enthalpy          _old

     new trust radius        =       0.1590211701 bohr
     new conv_thr            =       0.0000000019 Ry

     new unit-cell volume =    199.07839 a.u.^3 (    29.50037 Ang^3 )
     density =      5.89455 g/cm^3

CELL_PARAMETERS (alat=  5.58242261)
   1.006310764  -0.000000003  -0.000000014
  -0.000000002   1.172877655  -0.073828715
  -0.000000012  -0.083731293   0.974822716

ATOMIC_POSITIONS (crystal)
Fe               0.4999999941        0.5289000354        0.4290626018
Ti              -0.0000000030        0.0818454372       -0.0595889530
H                0.5000000089        0.0092545275        0.3705263512



     Writing config-only to output data dir ./TiFeH.save/ :
     XML data file     NEW-OLD atomic charge density approx. for the potential
     New effective cutoffs (rho, wfc): 1933.72  138.12

     Check: negative core charge=   -0.000002

     negative rho (up, down):  9.396E-04 0.000E+00

     total cpu time spent up to now is     3000.5 secs

     per-process dynamical memory:   276.0 Mb

     Self-consistent Calculation

     iteration #  1     ecut=   124.00 Ry     beta= 0.70
     Davidson diagonalization with overlap
     c_bands:  1 eigenvalues not converged
     c_bands:  1 eigenvalues not converged
     c_bands:  1 eigenvalues not converged
     c_bands:  1 eigenvalues not converged
     c_bands:  1 eigenvalues not converged
     c_bands:  1 eigenvalues not converged
     c_bands:  1 eigenvalues not converged
     c_bands:  1 eigenvalues not converged
     c_bands:  1 eigenvalues not converged
     c_bands:  1 eigenvalues not converged
     c_bands:  1 eigenvalues not converged
     c_bands:  1 eigenvalues not converged
     c_bands:  1 eigenvalues not converged
     c_bands:  1 eigenvalues not converged
     c_bands:  1 eigenvalues not converged
     c_bands:  1 eigenvalues not converged
     c_bands:  1 eigenvalues not converged
     c_bands:  1 eigenvalues not converged
     c_bands:  1 eigenvalues not converged
     c_bands:  1 eigenvalues not converged
     c_bands:  1 eigenvalues not converged
     c_bands:  1 eigenvalues not converged
     c_bands:  1 eigenvalues not converged
     c_bands:  1 eigenvalues not converged
     c_bands:  1 eigenvalues not converged
     c_bands:  1 eigenvalues not converged
     c_bands:  1 eigenvalues not converged
     c_bands:  1 eigenvalues not converged
     c_bands:  1 eigenvalues not converged
     c_bands:  1 eigenvalues not converged
     c_bands:  1 eigenvalues not converged
     c_bands:  1 eigenvalues not converged
     c_bands:  1 eigenvalues not converged
     c_bands:  1 eigenvalues not converged
     c_bands:  1 eigenvalues not converged
     c_bands:  1 eigenvalues not converged
     c_bands:  1 eigenvalues not converged
     c_bands:  1 eigenvalues not converged
     c_bands:  1 eigenvalues not converged
     c_bands:  1 eigenvalues not converged
     c_bands:  1 eigenvalues not converged
     c_bands:  1 eigenvalues not converged
     c_bands:  1 eigenvalues not converged
     c_bands:  1 eigenvalues not converged
     c_bands:  1 eigenvalues not converged
     c_bands:  1 eigenvalues not converged
     c_bands:  1 eigenvalues not converged
     c_bands:  2 eigenvalues not converged
     c_bands:  2 eigenvalues not converged
     c_bands:  1 eigenvalues not converged
     c_bands:  1 eigenvalues not converged
     c_bands:  1 eigenvalues not converged
     c_bands:  1 eigenvalues not converged
     c_bands:  1 eigenvalues not converged
     c_bands:  2 eigenvalues not converged
     c_bands:  1 eigenvalues not converged
     c_bands:  1 eigenvalues not converged
     c_bands:  1 eigenvalues not converged
     c_bands:  1 eigenvalues not converged
     c_bands:  1 eigenvalues not converged
     c_bands:  2 eigenvalues not converged
     c_bands:  1 eigenvalues not converged
     c_bands:  1 eigenvalues not converged
     c_bands:  1 eigenvalues not converged
     c_bands:  1 eigenvalues not converged
     c_bands:  1 eigenvalues not converged
     c_bands:  1 eigenvalues not converged
     c_bands:  1 eigenvalues not converged
     c_bands:  1 eigenvalues not converged
     c_bands:  1 eigenvalues not converged
     c_bands:  1 eigenvalues not converged
     c_bands:  1 eigenvalues not converged
     c_bands:  1 eigenvalues not converged
     c_bands:  1 eigenvalues not converged
     c_bands:  1 eigenvalues not converged
     c_bands:  1 eigenvalues not converged
     c_bands:  1 eigenvalues not converged
     c_bands:  1 eigenvalues not converged
     c_bands:  1 eigenvalues not converged
     c_bands:  1 eigenvalues not converged
     c_bands:  1 eigenvalues not converged
     c_bands:  1 eigenvalues not converged
     c_bands:  1 eigenvalues not converged
     c_bands:  1 eigenvalues not converged
     c_bands:  1 eigenvalues not converged
     c_bands:  1 eigenvalues not converged
     c_bands:  1 eigenvalues not converged
     c_bands:  1 eigenvalues not converged
     c_bands:  1 eigenvalues not converged
     c_bands:  1 eigenvalues not converged
     c_bands:  1 eigenvalues not converged
     c_bands:  1 eigenvalues not converged
     c_bands:  1 eigenvalues not converged
     c_bands:  1 eigenvalues not converged
     c_bands:  1 eigenvalues not converged
     c_bands:  1 eigenvalues not converged
     c_bands:  1 eigenvalues not converged
     c_bands:  1 eigenvalues not converged
     c_bands:  1 eigenvalues not converged
     c_bands:  1 eigenvalues not converged
     c_bands:  1 eigenvalues not converged
     c_bands:  1 eigenvalues not converged
     c_bands:  1 eigenvalues not converged
     c_bands:  1 eigenvalues not converged
     c_bands:  1 eigenvalues not converged
     c_bands:  1 eigenvalues not converged
     c_bands:  1 eigenvalues not converged
     c_bands:  1 eigenvalues not converged
     c_bands:  1 eigenvalues not converged
     c_bands:  1 eigenvalues not converged
     c_bands:  1 eigenvalues not converged
     c_bands:  1 eigenvalues not converged
     c_bands:  1 eigenvalues not converged
     c_bands:  1 eigenvalues not converged
     c_bands:  1 eigenvalues not converged
     c_bands:  1 eigenvalues not converged
     c_bands:  1 eigenvalues not converged
     c_bands:  1 eigenvalues not converged
     c_bands:  1 eigenvalues not converged
     c_bands:  1 eigenvalues not converged
     ethr =  1.00E-06,  avg # of iterations = 15.8

     negative rho (up, down):  8.611E-04 0.000E+00

     total cpu time spent up to now is     3085.1 secs

     total energy              =    -449.73218297 Ry
     estimated scf accuracy    <       0.01161147 Ry

     iteration #  2     ecut=   124.00 Ry     beta= 0.70
     Davidson diagonalization with overlap
     ethr =  4.00E-05,  avg # of iterations =  2.4

     negative rho (up, down):  9.050E-04 0.000E+00

     total cpu time spent up to now is     3102.9 secs

     total energy              =    -449.72566736 Ry
     estimated scf accuracy    <       0.03475556 Ry

     iteration #  3     ecut=   124.00 Ry     beta= 0.70
     Davidson diagonalization with overlap
     ethr =  4.00E-05,  avg # of iterations =  3.5

     negative rho (up, down):  8.879E-04 0.000E+00

     total cpu time spent up to now is     3122.8 secs

     total energy              =    -449.71960414 Ry
     estimated scf accuracy    <       0.33443695 Ry

     iteration #  4     ecut=   124.00 Ry     beta= 0.70
     Davidson diagonalization with overlap
     ethr =  4.00E-05,  avg # of iterations =  2.9

     negative rho (up, down):  8.782E-04 0.000E+00

     total cpu time spent up to now is     3140.3 secs

     total energy              =    -449.73532539 Ry
     estimated scf accuracy    <       0.00014578 Ry

     iteration #  5     ecut=   124.00 Ry     beta= 0.70
     Davidson diagonalization with overlap
     ethr =  5.03E-07,  avg # of iterations =  4.6

     negative rho (up, down):  8.805E-04 0.000E+00

     total cpu time spent up to now is     3164.2 secs

     total energy              =    -449.73540343 Ry
     estimated scf accuracy    <       0.00006496 Ry

     iteration #  6     ecut=   124.00 Ry     beta= 0.70
     Davidson diagonalization with overlap
     ethr =  2.24E-07,  avg # of iterations =  1.7

     negative rho (up, down):  8.800E-04 0.000E+00

     total cpu time spent up to now is     3179.0 secs

     total energy              =    -449.73540901 Ry
     estimated scf accuracy    <       0.00000317 Ry

     iteration #  7     ecut=   124.00 Ry     beta= 0.70
     Davidson diagonalization with overlap
     ethr =  1.09E-08,  avg # of iterations =  4.8

     negative rho (up, down):  8.800E-04 0.000E+00

     total cpu time spent up to now is     3202.3 secs

     total energy              =    -449.73541089 Ry
     estimated scf accuracy    <       0.00000041 Ry

     iteration #  8     ecut=   124.00 Ry     beta= 0.70
     Davidson diagonalization with overlap
     ethr =  1.40E-09,  avg # of iterations =  2.2

     negative rho (up, down):  8.801E-04 0.000E+00

     total cpu time spent up to now is     3218.2 secs

     total energy              =    -449.73541092 Ry
     estimated scf accuracy    <       0.00000005 Ry

     iteration #  9     ecut=   124.00 Ry     beta= 0.70
     Davidson diagonalization with overlap
     ethr =  1.85E-10,  avg # of iterations =  4.0

     negative rho (up, down):  8.800E-04 0.000E+00

     total cpu time spent up to now is     3238.3 secs

     End of self-consistent calculation

     Number of k-points >= 100: set verbosity='high' to print the bands.

     the Fermi energy is    15.4259 ev

!    total energy              =    -449.73541094 Ry
     estimated scf accuracy    <          7.5E-10 Ry
     smearing contrib. (-TS)   =       0.00001723 Ry
     internal energy E=F+TS    =    -449.73542817 Ry

     The total energy is F=E-TS. E is the sum of the following terms:
     one-electron contribution =    -168.45168943 Ry
     hartree contribution      =      98.68295742 Ry
     xc contribution           =     -53.58885642 Ry
     ewald contribution        =    -250.22687452 Ry
     one-center paw contrib.   =     -76.15096520 Ry

     convergence has been achieved in   9 iterations

     negative rho (up, down):  8.800E-04 0.000E+00

     Forces acting on atoms (cartesian axes, Ry/au):

     atom    1 type  1   force =    -0.00000000    0.00628907   -0.00103944
     atom    2 type  2   force =     0.00000001   -0.01757284   -0.01840763
     atom    3 type  3   force =    -0.00000000    0.01128377    0.01944706

     Total force =     0.034551     Total SCF correction =     0.000032


     Computing stress (Cartesian axis) and pressure


     negative rho (up, down):  8.800E-04 0.000E+00
          total   stress  (Ry/bohr**3)                   (kbar)     P=      -45.37
  -0.00030544   0.00000000   0.00000000          -44.93        0.00        0.00
   0.00000000  -0.00069254   0.00041459            0.00     -101.88       60.99
   0.00000000   0.00041459   0.00007266            0.00       60.99       10.69

     Energy error            =      7.2E-04 Ry
     Gradient error          =      1.9E-02 Ry/Bohr
     Cell gradient error     =      1.0E+02 kbar

     number of scf cycles    =  13
     number of bfgs steps    =  12

     enthalpy           old  =    -449.7346937699 Ry
     enthalpy           new  =    -449.7354109404 Ry

     CASE: enthalpy          _new < enthalpy          _old

     new trust radius        =       0.1057743510 bohr
     new conv_thr            =       0.0000000007 Ry

     new unit-cell volume =    198.51707 a.u.^3 (    29.41720 Ang^3 )
     density =      5.91122 g/cm^3

CELL_PARAMETERS (alat=  5.58242261)
   1.026233088  -0.000000004  -0.000000014
  -0.000000003   1.139333311  -0.049009853
  -0.000000012  -0.057002724   0.978414072

ATOMIC_POSITIONS (crystal)
Fe               0.4999999927        0.5330205844        0.4402620269
Ti              -0.0000000029        0.0675309612       -0.0574877022
H                0.5000000101        0.0194484545        0.3572256753



     Writing config-only to output data dir ./TiFeH.save/ :
     XML data file     NEW-OLD atomic charge density approx. for the potential
     New effective cutoffs (rho, wfc): 1872.34  133.83

     Check: negative core charge=   -0.000002

     negative rho (up, down):  9.122E-04 0.000E+00

     total cpu time spent up to now is     3244.4 secs

     per-process dynamical memory:   276.0 Mb

     Self-consistent Calculation

     iteration #  1     ecut=   124.00 Ry     beta= 0.70
     Davidson diagonalization with overlap
     c_bands:  1 eigenvalues not converged
     c_bands:  1 eigenvalues not converged
     c_bands:  1 eigenvalues not converged
     c_bands:  1 eigenvalues not converged
     c_bands:  1 eigenvalues not converged
     c_bands:  1 eigenvalues not converged
     c_bands:  1 eigenvalues not converged
     c_bands:  1 eigenvalues not converged
     c_bands:  1 eigenvalues not converged
     c_bands:  1 eigenvalues not converged
     c_bands:  1 eigenvalues not converged
     c_bands:  1 eigenvalues not converged
     c_bands:  1 eigenvalues not converged
     c_bands:  1 eigenvalues not converged
     c_bands:  1 eigenvalues not converged
     c_bands:  1 eigenvalues not converged
     c_bands:  1 eigenvalues not converged
     c_bands:  1 eigenvalues not converged
     c_bands:  1 eigenvalues not converged
     c_bands:  1 eigenvalues not converged
     c_bands:  1 eigenvalues not converged
     c_bands:  1 eigenvalues not converged
     c_bands:  1 eigenvalues not converged
     c_bands:  1 eigenvalues not converged
     c_bands:  1 eigenvalues not converged
     c_bands:  1 eigenvalues not converged
     c_bands:  1 eigenvalues not converged
     c_bands:  1 eigenvalues not converged
     c_bands:  1 eigenvalues not converged
     c_bands:  1 eigenvalues not converged
     c_bands:  1 eigenvalues not converged
     c_bands:  1 eigenvalues not converged
     c_bands:  1 eigenvalues not converged
     c_bands:  1 eigenvalues not converged
     ethr =  1.00E-06,  avg # of iterations = 13.4

     negative rho (up, down):  9.299E-04 0.000E+00

     total cpu time spent up to now is     3317.8 secs

     total energy              =    -449.73859917 Ry
     estimated scf accuracy    <       0.00452166 Ry

     iteration #  2     ecut=   124.00 Ry     beta= 0.70
     Davidson diagonalization with overlap
     ethr =  1.56E-05,  avg # of iterations =  2.8

     negative rho (up, down):  9.064E-04 0.000E+00

     total cpu time spent up to now is     3336.4 secs

     total energy              =    -449.73397763 Ry
     estimated scf accuracy    <       0.04371554 Ry

     iteration #  3     ecut=   124.00 Ry     beta= 0.70
     Davidson diagonalization with overlap
     ethr =  1.56E-05,  avg # of iterations =  3.1

     negative rho (up, down):  9.001E-04 0.000E+00

     total cpu time spent up to now is     3355.3 secs

     total energy              =    -449.73778942 Ry
     estimated scf accuracy    <       0.04326792 Ry

     iteration #  4     ecut=   124.00 Ry     beta= 0.70
     Davidson diagonalization with overlap
     ethr =  1.56E-05,  avg # of iterations =  2.1

     negative rho (up, down):  9.074E-04 0.000E+00

     total cpu time spent up to now is     3371.4 secs

     total energy              =    -449.73996489 Ry
     estimated scf accuracy    <       0.00015326 Ry

     iteration #  5     ecut=   124.00 Ry     beta= 0.70
     Davidson diagonalization with overlap
     ethr =  5.28E-07,  avg # of iterations =  3.3

     negative rho (up, down):  9.058E-04 0.000E+00

     total cpu time spent up to now is     3390.8 secs

     total energy              =    -449.74000166 Ry
     estimated scf accuracy    <       0.00001107 Ry

     iteration #  6     ecut=   124.00 Ry     beta= 0.70
     Davidson diagonalization with overlap
     ethr =  3.82E-08,  avg # of iterations =  2.8

     negative rho (up, down):  9.058E-04 0.000E+00

     total cpu time spent up to now is     3408.7 secs

     total energy              =    -449.74000413 Ry
     estimated scf accuracy    <       0.00000064 Ry

     iteration #  7     ecut=   124.00 Ry     beta= 0.70
     Davidson diagonalization with overlap
     ethr =  2.20E-09,  avg # of iterations =  4.8

     negative rho (up, down):  9.059E-04 0.000E+00

     total cpu time spent up to now is     3432.5 secs

     total energy              =    -449.74000450 Ry
     estimated scf accuracy    <       0.00000003 Ry

     iteration #  8     ecut=   124.00 Ry     beta= 0.70
     Davidson diagonalization with overlap
     ethr =  9.29E-11,  avg # of iterations =  4.2

     negative rho (up, down):  9.059E-04 0.000E+00

     total cpu time spent up to now is     3454.1 secs

     total energy              =    -449.74000451 Ry
     estimated scf accuracy    <          1.9E-09 Ry

     iteration #  9     ecut=   124.00 Ry     beta= 0.70
     Davidson diagonalization with overlap
     ethr =  6.44E-12,  avg # of iterations =  3.7

     negative rho (up, down):  9.059E-04 0.000E+00

     total cpu time spent up to now is     3474.6 secs

     End of self-consistent calculation

     Number of k-points >= 100: set verbosity='high' to print the bands.

     the Fermi energy is    15.5471 ev

!    total energy              =    -449.74000451 Ry
     estimated scf accuracy    <          3.5E-10 Ry
     smearing contrib. (-TS)   =       0.00003254 Ry
     internal energy E=F+TS    =    -449.74003704 Ry

     The total energy is F=E-TS. E is the sum of the following terms:
     one-electron contribution =    -166.95688422 Ry
     hartree contribution      =      97.96253735 Ry
     xc contribution           =     -53.58091772 Ry
     ewald contribution        =    -251.01356574 Ry
     one-center paw contrib.   =     -76.15120672 Ry

     convergence has been achieved in   9 iterations

     negative rho (up, down):  9.059E-04 0.000E+00

     Forces acting on atoms (cartesian axes, Ry/au):

     atom    1 type  1   force =    -0.00000001    0.00308197   -0.00562497
     atom    2 type  2   force =     0.00000001   -0.01060653   -0.01771688
     atom    3 type  3   force =    -0.00000000    0.00752456    0.02334185

     Total force =     0.032695     Total SCF correction =     0.000023


     Computing stress (Cartesian axis) and pressure


     negative rho (up, down):  9.059E-04 0.000E+00
          total   stress  (Ry/bohr**3)                   (kbar)     P=      -46.71
  -0.00054965   0.00000000   0.00000000          -80.86        0.00        0.00
   0.00000000  -0.00044863   0.00025426            0.00      -66.00       37.40
   0.00000000   0.00025426   0.00004562            0.00       37.40        6.71

     Energy error            =      4.6E-03 Ry
     Gradient error          =      2.3E-02 Ry/Bohr
     Cell gradient error     =      8.1E+01 kbar

     number of scf cycles    =  14
     number of bfgs steps    =  13

     enthalpy           old  =    -449.7354109404 Ry
     enthalpy           new  =    -449.7400045077 Ry

     CASE: enthalpy          _new < enthalpy          _old

     new trust radius        =       0.0708352187 bohr
     new conv_thr            =       0.0000000023 Ry

     new unit-cell volume =    195.11277 a.u.^3 (    28.91273 Ang^3 )
     density =      6.01435 g/cm^3

CELL_PARAMETERS (alat=  5.58242261)
   1.023878668  -0.000000000  -0.000000011
  -0.000000001   1.118170965  -0.031603549
  -0.000000009  -0.038632045   0.980719129

ATOMIC_POSITIONS (crystal)
Fe               0.4999999908        0.5367050565        0.4419308239
Ti              -0.0000000014        0.0613801813       -0.0619222355
H                0.5000000106        0.0219147622        0.3599914116



     Writing config-only to output data dir ./TiFeH.save/ :
     XML data file     NEW-OLD atomic charge density approx. for the potential
     New effective cutoffs (rho, wfc): 1833.24  131.12

     Check: negative core charge=   -0.000002

     negative rho (up, down):  8.546E-04 0.000E+00

     total cpu time spent up to now is     3480.8 secs

     per-process dynamical memory:   276.0 Mb

     Self-consistent Calculation

     iteration #  1     ecut=   124.00 Ry     beta= 0.70
     Davidson diagonalization with overlap
     ethr =  1.00E-06,  avg # of iterations = 10.4

     negative rho (up, down):  8.841E-04 0.000E+00

     total cpu time spent up to now is     3537.3 secs

     total energy              =    -449.74281046 Ry
     estimated scf accuracy    <       0.00182146 Ry

     iteration #  2     ecut=   124.00 Ry     beta= 0.70
     Davidson diagonalization with overlap
     ethr =  6.28E-06,  avg # of iterations =  4.2

     negative rho (up, down):  8.682E-04 0.000E+00

     total cpu time spent up to now is     3559.8 secs

     total energy              =    -449.73877572 Ry
     estimated scf accuracy    <       0.07125190 Ry

     iteration #  3     ecut=   124.00 Ry     beta= 0.70
     Davidson diagonalization with overlap
     ethr =  6.28E-06,  avg # of iterations =  4.0

     negative rho (up, down):  8.612E-04 0.000E+00

     total cpu time spent up to now is     3580.7 secs

     total energy              =    -449.74342205 Ry
     estimated scf accuracy    <       0.00415429 Ry

     iteration #  4     ecut=   124.00 Ry     beta= 0.70
     Davidson diagonalization with overlap
     ethr =  6.28E-06,  avg # of iterations =  2.0

     negative rho (up, down):  8.653E-04 0.000E+00

     total cpu time spent up to now is     3596.6 secs

     total energy              =    -449.74369414 Ry
     estimated scf accuracy    <       0.00003182 Ry

     iteration #  5     ecut=   124.00 Ry     beta= 0.70
     Davidson diagonalization with overlap
     ethr =  1.10E-07,  avg # of iterations =  3.4

     negative rho (up, down):  8.659E-04 0.000E+00

     total cpu time spent up to now is     3616.3 secs

     total energy              =    -449.74370434 Ry
     estimated scf accuracy    <       0.00000226 Ry

     iteration #  6     ecut=   124.00 Ry     beta= 0.70
     Davidson diagonalization with overlap
     ethr =  7.78E-09,  avg # of iterations =  4.1

     negative rho (up, down):  8.662E-04 0.000E+00

     total cpu time spent up to now is     3637.7 secs

     total energy              =    -449.74370526 Ry
     estimated scf accuracy    <       0.00000006 Ry

     iteration #  7     ecut=   124.00 Ry     beta= 0.70
     Davidson diagonalization with overlap
     ethr =  2.03E-10,  avg # of iterations =  4.7

     negative rho (up, down):  8.662E-04 0.000E+00

     total cpu time spent up to now is     3662.5 secs

     total energy              =    -449.74370531 Ry
     estimated scf accuracy    <          7.0E-09 Ry

     iteration #  8     ecut=   124.00 Ry     beta= 0.70
     Davidson diagonalization with overlap
     ethr =  2.42E-11,  avg # of iterations =  2.4

     negative rho (up, down):  8.662E-04 0.000E+00

     total cpu time spent up to now is     3680.0 secs

     End of self-consistent calculation

     Number of k-points >= 100: set verbosity='high' to print the bands.

     the Fermi energy is    15.9142 ev

!    total energy              =    -449.74370531 Ry
     estimated scf accuracy    <          6.1E-10 Ry
     smearing contrib. (-TS)   =       0.00000810 Ry
     internal energy E=F+TS    =    -449.74371341 Ry

     The total energy is F=E-TS. E is the sum of the following terms:
     one-electron contribution =    -164.31042084 Ry
     hartree contribution      =      96.97282487 Ry
     xc contribution           =     -53.60636786 Ry
     ewald contribution        =    -252.64796106 Ry
     one-center paw contrib.   =     -76.15178852 Ry

     convergence has been achieved in   8 iterations

     negative rho (up, down):  8.662E-04 0.000E+00

     Forces acting on atoms (cartesian axes, Ry/au):

     atom    1 type  1   force =    -0.00000000   -0.00392181   -0.00583272
     atom    2 type  2   force =     0.00000001   -0.00879095   -0.01431107
     atom    3 type  3   force =    -0.00000000    0.01271276    0.02014380

     Total force =     0.029981     Total SCF correction =     0.000023


     Computing stress (Cartesian axis) and pressure


     negative rho (up, down):  8.662E-04 0.000E+00
          total   stress  (Ry/bohr**3)                   (kbar)     P=      -19.56
  -0.00045904   0.00000000   0.00000000          -67.53        0.00        0.00
   0.00000000  -0.00005123   0.00016078            0.00       -7.54       23.65
   0.00000000   0.00016078   0.00011146            0.00       23.65       16.40

     Energy error            =      3.7E-03 Ry
     Gradient error          =      2.0E-02 Ry/Bohr
     Cell gradient error     =      6.8E+01 kbar

     number of scf cycles    =  15
     number of bfgs steps    =  14

     enthalpy           old  =    -449.7400045077 Ry
     enthalpy           new  =    -449.7437053146 Ry

     CASE: enthalpy          _new < enthalpy          _old

     new trust radius        =       0.0791511990 bohr
     new conv_thr            =       0.0000000020 Ry

     new unit-cell volume =    190.07062 a.u.^3 (    28.16556 Ang^3 )
     density =      6.17390 g/cm^3

CELL_PARAMETERS (alat=  5.58242261)
   0.998111248   0.000000010  -0.000000004
   0.000000008   1.103833528  -0.007398004
  -0.000000001  -0.013039014   0.991750865

ATOMIC_POSITIONS (crystal)
Fe               0.4999999843        0.5377987961        0.4409448266
Ti               0.0000000049        0.0537983454       -0.0702814534
H                0.5000000108        0.0284028585        0.3693366269



     Writing config-only to output data dir ./TiFeH.save/ :
     XML data file     NEW-OLD atomic charge density approx. for the potential
     New effective cutoffs (rho, wfc): 1766.37  126.27

     Check: negative core charge=   -0.000001

     negative rho (up, down):  9.034E-04 0.000E+00

     total cpu time spent up to now is     3686.2 secs

     per-process dynamical memory:   276.0 Mb

     Self-consistent Calculation

     iteration #  1     ecut=   124.00 Ry     beta= 0.70
     Davidson diagonalization with overlap
     c_bands:  1 eigenvalues not converged
     c_bands:  1 eigenvalues not converged
     ethr =  1.00E-06,  avg # of iterations = 11.3

     negative rho (up, down):  9.272E-04 0.000E+00

     total cpu time spent up to now is     3748.5 secs

     total energy              =    -449.74717831 Ry
     estimated scf accuracy    <       0.00172210 Ry

     iteration #  2     ecut=   124.00 Ry     beta= 0.70
     Davidson diagonalization with overlap
     ethr =  5.94E-06,  avg # of iterations =  3.0

     negative rho (up, down):  9.140E-04 0.000E+00

     total cpu time spent up to now is     3768.0 secs

     total energy              =    -449.74557894 Ry
     estimated scf accuracy    <       0.01668757 Ry

     iteration #  3     ecut=   124.00 Ry     beta= 0.70
     Davidson diagonalization with overlap
     ethr =  5.94E-06,  avg # of iterations =  3.1

     negative rho (up, down):  9.116E-04 0.000E+00

     total cpu time spent up to now is     3786.7 secs

     total energy              =    -449.74712289 Ry
     estimated scf accuracy    <       0.01308275 Ry

     iteration #  4     ecut=   124.00 Ry     beta= 0.70
     Davidson diagonalization with overlap
     ethr =  5.94E-06,  avg # of iterations =  2.1

     negative rho (up, down):  9.166E-04 0.000E+00

     total cpu time spent up to now is     3802.9 secs

     total energy              =    -449.74785638 Ry
     estimated scf accuracy    <       0.00003772 Ry

     iteration #  5     ecut=   124.00 Ry     beta= 0.70
     Davidson diagonalization with overlap
     ethr =  1.30E-07,  avg # of iterations =  3.3

     negative rho (up, down):  9.165E-04 0.000E+00

     total cpu time spent up to now is     3822.3 secs

     total energy              =    -449.74786873 Ry
     estimated scf accuracy    <       0.00000649 Ry

     iteration #  6     ecut=   124.00 Ry     beta= 0.70
     Davidson diagonalization with overlap
     ethr =  2.24E-08,  avg # of iterations =  2.0

     negative rho (up, down):  9.167E-04 0.000E+00

     total cpu time spent up to now is     3837.7 secs

     total energy              =    -449.74786946 Ry
     estimated scf accuracy    <       0.00000018 Ry

     iteration #  7     ecut=   124.00 Ry     beta= 0.70
     Davidson diagonalization with overlap
     ethr =  6.28E-10,  avg # of iterations =  5.0

     negative rho (up, down):  9.167E-04 0.000E+00

     total cpu time spent up to now is     3864.8 secs

     total energy              =    -449.74786966 Ry
     estimated scf accuracy    <       0.00000001 Ry

     iteration #  8     ecut=   124.00 Ry     beta= 0.70
     Davidson diagonalization with overlap
     ethr =  4.14E-11,  avg # of iterations =  2.6

     negative rho (up, down):  9.167E-04 0.000E+00

     total cpu time spent up to now is     3882.8 secs

     End of self-consistent calculation

     Number of k-points >= 100: set verbosity='high' to print the bands.

     the Fermi energy is    16.4351 ev

!    total energy              =    -449.74786966 Ry
     estimated scf accuracy    <          1.7E-09 Ry
     smearing contrib. (-TS)   =      -0.00003434 Ry
     internal energy E=F+TS    =    -449.74783532 Ry

     The total energy is F=E-TS. E is the sum of the following terms:
     one-electron contribution =    -160.57937293 Ry
     hartree contribution      =      95.63646908 Ry
     xc contribution           =     -53.64983290 Ry
     ewald contribution        =    -255.00254335 Ry
     one-center paw contrib.   =     -76.15255523 Ry

     convergence has been achieved in   8 iterations

     negative rho (up, down):  9.167E-04 0.000E+00

     Forces acting on atoms (cartesian axes, Ry/au):

     atom    1 type  1   force =     0.00000000   -0.00492958   -0.00753732
     atom    2 type  2   force =    -0.00000000   -0.00707516   -0.01020465
     atom    3 type  3   force =    -0.00000000    0.01200474    0.01774197

     Total force =     0.026348     Total SCF correction =     0.000052


     Computing stress (Cartesian axis) and pressure


     negative rho (up, down):  9.167E-04 0.000E+00
          total   stress  (Ry/bohr**3)                   (kbar)     P=       24.97
   0.00003494  -0.00000000  -0.00000000            5.14       -0.00       -0.00
  -0.00000000   0.00040587   0.00003014           -0.00       59.71        4.43
  -0.00000000   0.00003014   0.00006842           -0.00        4.43       10.07

     Energy error            =      4.2E-03 Ry
     Gradient error          =      1.8E-02 Ry/Bohr
     Cell gradient error     =      6.0E+01 kbar

     number of scf cycles    =  16
     number of bfgs steps    =  15

     enthalpy           old  =    -449.7437053146 Ry
     enthalpy           new  =    -449.7478696581 Ry

     CASE: enthalpy          _new < enthalpy          _old

     new trust radius        =       0.1064610493 bohr
     new conv_thr            =       0.0000000018 Ry

     new unit-cell volume =    188.83179 a.u.^3 (    27.98198 Ang^3 )
     density =      6.21440 g/cm^3

CELL_PARAMETERS (alat=  5.58242261)
   0.981263600   0.000000016  -0.000000001
   0.000000014   1.113669972  -0.001235206
   0.000000003  -0.006799169   0.993271752

ATOMIC_POSITIONS (crystal)
Fe               0.4999999844        0.5379687952        0.4322311460
Ti               0.0000000063        0.0546792847       -0.0807366903
H                0.5000000094        0.0273519202        0.3885055443



     Writing config-only to output data dir ./TiFeH.save/ :
     XML data file     NEW-OLD atomic charge density approx. for the potential
     New effective cutoffs (rho, wfc): 1802.42  128.73

     Check: negative core charge=   -0.000002

     negative rho (up, down):  9.236E-04 0.000E+00

     total cpu time spent up to now is     3889.0 secs

     per-process dynamical memory:   276.0 Mb

     Self-consistent Calculation

     iteration #  1     ecut=   124.00 Ry     beta= 0.70
     Davidson diagonalization with overlap
     ethr =  1.00E-06,  avg # of iterations = 11.1

     negative rho (up, down):  9.169E-04 0.000E+00

     total cpu time spent up to now is     3949.4 secs

     total energy              =    -449.74987191 Ry
     estimated scf accuracy    <       0.00110153 Ry

     iteration #  2     ecut=   124.00 Ry     beta= 0.70
     Davidson diagonalization with overlap
     ethr =  3.80E-06,  avg # of iterations =  2.0

     negative rho (up, down):  9.086E-04 0.000E+00

     total cpu time spent up to now is     3965.9 secs

     total energy              =    -449.74959048 Ry
     estimated scf accuracy    <       0.00206916 Ry

     iteration #  3     ecut=   124.00 Ry     beta= 0.70
     Davidson diagonalization with overlap
     ethr =  3.80E-06,  avg # of iterations =  3.1

     negative rho (up, down):  9.181E-04 0.000E+00

     total cpu time spent up to now is     3984.6 secs

     total energy              =    -449.74916325 Ry
     estimated scf accuracy    <       0.02082735 Ry

     iteration #  4     ecut=   124.00 Ry     beta= 0.70
     Davidson diagonalization with overlap
     ethr =  3.80E-06,  avg # of iterations =  2.8

     negative rho (up, down):  9.157E-04 0.000E+00

     total cpu time spent up to now is     4001.7 secs

     total energy              =    -449.75030371 Ry
     estimated scf accuracy    <       0.00001332 Ry

     iteration #  5     ecut=   124.00 Ry     beta= 0.70
     Davidson diagonalization with overlap
     ethr =  4.59E-08,  avg # of iterations =  3.9

     negative rho (up, down):  9.169E-04 0.000E+00

     total cpu time spent up to now is     4022.5 secs

     total energy              =    -449.75031006 Ry
     estimated scf accuracy    <       0.00000490 Ry

     iteration #  6     ecut=   124.00 Ry     beta= 0.70
     Davidson diagonalization with overlap
     ethr =  1.69E-08,  avg # of iterations =  2.2

     negative rho (up, down):  9.168E-04 0.000E+00

     total cpu time spent up to now is     4039.1 secs

     total energy              =    -449.75031087 Ry
     estimated scf accuracy    <       0.00000040 Ry

     iteration #  7     ecut=   124.00 Ry     beta= 0.70
     Davidson diagonalization with overlap
     ethr =  1.38E-09,  avg # of iterations =  3.6

     negative rho (up, down):  9.166E-04 0.000E+00

     total cpu time spent up to now is     4057.7 secs

     total energy              =    -449.75031095 Ry
     estimated scf accuracy    <       0.00000002 Ry

     iteration #  8     ecut=   124.00 Ry     beta= 0.70
     Davidson diagonalization with overlap
     ethr =  7.93E-11,  avg # of iterations =  4.6

     negative rho (up, down):  9.166E-04 0.000E+00

     total cpu time spent up to now is     4081.8 secs

     total energy              =    -449.75031097 Ry
     estimated scf accuracy    <          2.0E-09 Ry

     iteration #  9     ecut=   124.00 Ry     beta= 0.70
     Davidson diagonalization with overlap
     ethr =  6.84E-12,  avg # of iterations =  3.2

     negative rho (up, down):  9.166E-04 0.000E+00

     total cpu time spent up to now is     4099.6 secs

     End of self-consistent calculation

     Number of k-points >= 100: set verbosity='high' to print the bands.

     the Fermi energy is    16.5128 ev

!    total energy              =    -449.75031097 Ry
     estimated scf accuracy    <          2.7E-11 Ry
     smearing contrib. (-TS)   =       0.00002217 Ry
     internal energy E=F+TS    =    -449.75033314 Ry

     The total energy is F=E-TS. E is the sum of the following terms:
     one-electron contribution =    -159.64294647 Ry
     hartree contribution      =      95.31477053 Ry
     xc contribution           =     -53.66045210 Ry
     ewald contribution        =    -255.60899845 Ry
     one-center paw contrib.   =     -76.15270665 Ry

     convergence has been achieved in   9 iterations

     negative rho (up, down):  9.166E-04 0.000E+00

     Forces acting on atoms (cartesian axes, Ry/au):

     atom    1 type  1   force =     0.00000000   -0.00738007   -0.00756067
     atom    2 type  2   force =    -0.00000000   -0.00778944   -0.00333415
     atom    3 type  3   force =    -0.00000000    0.01516951    0.01089482

     Total force =     0.023070     Total SCF correction =     0.000004


     Computing stress (Cartesian axis) and pressure


     negative rho (up, down):  9.166E-04 0.000E+00
          total   stress  (Ry/bohr**3)                   (kbar)     P=       31.39
   0.00025411  -0.00000000  -0.00000000           37.38       -0.00       -0.00
  -0.00000000   0.00037024   0.00000418           -0.00       54.46        0.62
  -0.00000000   0.00000418   0.00001576           -0.00        0.62        2.32

     Energy error            =      2.4E-03 Ry
     Gradient error          =      1.5E-02 Ry/Bohr
     Cell gradient error     =      5.4E+01 kbar

     number of scf cycles    =  17
     number of bfgs steps    =  16

     enthalpy           old  =    -449.7478696581 Ry
     enthalpy           new  =    -449.7503109671 Ry

     CASE: enthalpy          _new < enthalpy          _old

     new trust radius        =       0.1028632487 bohr
     new conv_thr            =       0.0000000015 Ry

     new unit-cell volume =    189.77677 a.u.^3 (    28.12202 Ang^3 )
     density =      6.18346 g/cm^3

CELL_PARAMETERS (alat=  5.58242261)
   0.974900746   0.000000018  -0.000000000
   0.000000016   1.127716884   0.003931802
   0.000000004  -0.001526376   0.992229411

ATOMIC_POSITIONS (crystal)
Fe               0.4999999861        0.5365173786        0.4231593813
Ti               0.0000000061        0.0533924115       -0.0899841998
H                0.5000000078        0.0300902099        0.4068248185



     Writing config-only to output data dir ./TiFeH.save/ :
     XML data file     NEW-OLD atomic charge density approx. for the potential
     New effective cutoffs (rho, wfc): 1826.01  130.40

     Check: negative core charge=   -0.000002

     negative rho (up, down):  9.181E-04 0.000E+00

     total cpu time spent up to now is     4105.8 secs

     per-process dynamical memory:   276.0 Mb

     Self-consistent Calculation

     iteration #  1     ecut=   124.00 Ry     beta= 0.70
     Davidson diagonalization with overlap
     ethr =  1.00E-06,  avg # of iterations = 10.6

     negative rho (up, down):  9.007E-04 0.000E+00

     total cpu time spent up to now is     4162.6 secs

     total energy              =    -449.75138863 Ry
     estimated scf accuracy    <       0.00117670 Ry

     iteration #  2     ecut=   124.00 Ry     beta= 0.70
     Davidson diagonalization with overlap
     ethr =  4.06E-06,  avg # of iterations =  3.0

     negative rho (up, down):  9.104E-04 0.000E+00

     total cpu time spent up to now is     4181.4 secs

     total energy              =    -449.75007992 Ry
     estimated scf accuracy    <       0.01566818 Ry

     iteration #  3     ecut=   124.00 Ry     beta= 0.70
     Davidson diagonalization with overlap
     ethr =  4.06E-06,  avg # of iterations =  3.1

     negative rho (up, down):  9.108E-04 0.000E+00

     total cpu time spent up to now is     4200.0 secs

     total energy              =    -449.75150285 Ry
     estimated scf accuracy    <       0.00557754 Ry

     iteration #  4     ecut=   124.00 Ry     beta= 0.70
     Davidson diagonalization with overlap
     ethr =  4.06E-06,  avg # of iterations =  1.8

     negative rho (up, down):  9.075E-04 0.000E+00

     total cpu time spent up to now is     4214.9 secs

     total energy              =    -449.75179524 Ry
     estimated scf accuracy    <       0.00001567 Ry

     iteration #  5     ecut=   124.00 Ry     beta= 0.70
     Davidson diagonalization with overlap
     ethr =  5.40E-08,  avg # of iterations =  3.5

     negative rho (up, down):  9.083E-04 0.000E+00

     total cpu time spent up to now is     4234.7 secs

     total energy              =    -449.75180267 Ry
     estimated scf accuracy    <       0.00000425 Ry

     iteration #  6     ecut=   124.00 Ry     beta= 0.70
     Davidson diagonalization with overlap
     ethr =  1.46E-08,  avg # of iterations =  2.1

     negative rho (up, down):  9.083E-04 0.000E+00

     total cpu time spent up to now is     4251.4 secs

     total energy              =    -449.75180335 Ry
     estimated scf accuracy    <       0.00000031 Ry

     iteration #  7     ecut=   124.00 Ry     beta= 0.70
     Davidson diagonalization with overlap
     ethr =  1.06E-09,  avg # of iterations =  4.2

     negative rho (up, down):  9.082E-04 0.000E+00

     total cpu time spent up to now is     4274.1 secs

     total energy              =    -449.75180349 Ry
     estimated scf accuracy    <       0.00000002 Ry

     iteration #  8     ecut=   124.00 Ry     beta= 0.70
     Davidson diagonalization with overlap
     ethr =  7.79E-11,  avg # of iterations =  2.8

     negative rho (up, down):  9.082E-04 0.000E+00

     total cpu time spent up to now is     4292.4 secs

     total energy              =    -449.75180350 Ry
     estimated scf accuracy    <          8.6E-09 Ry

     iteration #  9     ecut=   124.00 Ry     beta= 0.70
     Davidson diagonalization with overlap
     ethr =  2.97E-11,  avg # of iterations =  1.9

     negative rho (up, down):  9.082E-04 0.000E+00

     total cpu time spent up to now is     4307.6 secs

     End of self-consistent calculation

     Number of k-points >= 100: set verbosity='high' to print the bands.

     the Fermi energy is    16.3606 ev

!    total energy              =    -449.75180350 Ry
     estimated scf accuracy    <          1.3E-10 Ry
     smearing contrib. (-TS)   =       0.00004702 Ry
     internal energy E=F+TS    =    -449.75185052 Ry

     The total energy is F=E-TS. E is the sum of the following terms:
     one-electron contribution =    -160.21199674 Ry
     hartree contribution      =      95.49739661 Ry
     xc contribution           =     -53.64799853 Ry
     ewald contribution        =    -255.23664980 Ry
     one-center paw contrib.   =     -76.15260206 Ry

     convergence has been achieved in   9 iterations

     negative rho (up, down):  9.082E-04 0.000E+00

     Forces acting on atoms (cartesian axes, Ry/au):

     atom    1 type  1   force =     0.00000000   -0.00225330   -0.00604177
     atom    2 type  2   force =    -0.00000000   -0.00707276    0.00390690
     atom    3 type  3   force =    -0.00000000    0.00932607    0.00213487

     Total force =     0.014086     Total SCF correction =     0.000015


     Computing stress (Cartesian axis) and pressure


     negative rho (up, down):  9.082E-04 0.000E+00
          total   stress  (Ry/bohr**3)                   (kbar)     P=       17.23
   0.00031135  -0.00000000  -0.00000000           45.80       -0.00       -0.00
  -0.00000000   0.00005582  -0.00000610           -0.00        8.21       -0.90
  -0.00000000  -0.00000610  -0.00001581           -0.00       -0.90       -2.33

     Energy error            =      1.5E-03 Ry
     Gradient error          =      9.3E-03 Ry/Bohr
     Cell gradient error     =      4.6E+01 kbar

     number of scf cycles    =  18
     number of bfgs steps    =  17

     enthalpy           old  =    -449.7503109671 Ry
     enthalpy           new  =    -449.7518035010 Ry

     CASE: enthalpy          _new < enthalpy          _old

     new trust radius        =       0.0313171289 bohr
     new conv_thr            =       0.0000000009 Ry

     new unit-cell volume =    191.34098 a.u.^3 (    28.35381 Ang^3 )
     density =      6.13291 g/cm^3

CELL_PARAMETERS (alat=  5.58242261)
   0.984669615   0.000000015  -0.000000002
   0.000000013   1.127908666   0.007532362
   0.000000002   0.002390687   0.990335625

ATOMIC_POSITIONS (crystal)
Fe               0.4999999882        0.5364112298        0.4212883931
Ti               0.0000000046        0.0494910238       -0.0914540250
H                0.5000000073        0.0340977464        0.4101656319



     Writing config-only to output data dir ./TiFeH.save/ :
     XML data file     NEW-OLD atomic charge density approx. for the potential
     New effective cutoffs (rho, wfc): 1789.99  127.84

     Check: negative core charge=   -0.000002

     negative rho (up, down):  8.921E-04 0.000E+00

     total cpu time spent up to now is     4313.6 secs

     per-process dynamical memory:   276.0 Mb

     Self-consistent Calculation

     iteration #  1     ecut=   124.00 Ry     beta= 0.70
     Davidson diagonalization with overlap
     ethr =  1.00E-06,  avg # of iterations =  8.3

     negative rho (up, down):  8.929E-04 0.000E+00

     total cpu time spent up to now is     4358.9 secs

     total energy              =    -449.75230238 Ry
     estimated scf accuracy    <       0.00023782 Ry

     iteration #  2     ecut=   124.00 Ry     beta= 0.70
     Davidson diagonalization with overlap
     ethr =  8.20E-07,  avg # of iterations =  3.8

     negative rho (up, down):  8.880E-04 0.000E+00

     total cpu time spent up to now is     4378.5 secs

     total energy              =    -449.75177713 Ry
     estimated scf accuracy    <       0.01151114 Ry

     iteration #  3     ecut=   124.00 Ry     beta= 0.70
     Davidson diagonalization with overlap
     ethr =  8.20E-07,  avg # of iterations =  3.8

     negative rho (up, down):  8.906E-04 0.000E+00

     total cpu time spent up to now is     4398.0 secs

     total energy              =    -449.75249903 Ry
     estimated scf accuracy    <       0.00020490 Ry

     iteration #  4     ecut=   124.00 Ry     beta= 0.70
     Davidson diagonalization with overlap
     ethr =  7.07E-07,  avg # of iterations =  1.1

     negative rho (up, down):  8.893E-04 0.000E+00

     total cpu time spent up to now is     4411.8 secs

     total energy              =    -449.75251322 Ry
     estimated scf accuracy    <       0.00000417 Ry

     iteration #  5     ecut=   124.00 Ry     beta= 0.70
     Davidson diagonalization with overlap
     ethr =  1.44E-08,  avg # of iterations =  3.4

     negative rho (up, down):  8.896E-04 0.000E+00

     total cpu time spent up to now is     4431.7 secs

     total energy              =    -449.75251484 Ry
     estimated scf accuracy    <       0.00000019 Ry

     iteration #  6     ecut=   124.00 Ry     beta= 0.70
     Davidson diagonalization with overlap
     ethr =  6.56E-10,  avg # of iterations =  4.9

     negative rho (up, down):  8.895E-04 0.000E+00

     total cpu time spent up to now is     4456.2 secs

     total energy              =    -449.75251497 Ry
     estimated scf accuracy    <       0.00000003 Ry

     iteration #  7     ecut=   124.00 Ry     beta= 0.70
     Davidson diagonalization with overlap
     ethr =  9.41E-11,  avg # of iterations =  2.4

     negative rho (up, down):  8.896E-04 0.000E+00

     total cpu time spent up to now is     4473.6 secs

     total energy              =    -449.75251498 Ry
     estimated scf accuracy    <          2.3E-09 Ry

     iteration #  8     ecut=   124.00 Ry     beta= 0.70
     Davidson diagonalization with overlap
     ethr =  8.04E-12,  avg # of iterations =  4.1

     negative rho (up, down):  8.896E-04 0.000E+00

     total cpu time spent up to now is     4494.5 secs

     End of self-consistent calculation

     Number of k-points >= 100: set verbosity='high' to print the bands.

     the Fermi energy is    16.2190 ev

!    total energy              =    -449.75251498 Ry
     estimated scf accuracy    <          2.9E-10 Ry
     smearing contrib. (-TS)   =       0.00004860 Ry
     internal energy E=F+TS    =    -449.75256358 Ry

     The total energy is F=E-TS. E is the sum of the following terms:
     one-electron contribution =    -161.27673013 Ry
     hartree contribution      =      95.85771949 Ry
     xc contribution           =     -53.63277036 Ry
     ewald contribution        =    -254.54838764 Ry
     one-center paw contrib.   =     -76.15239493 Ry

     convergence has been achieved in   8 iterations

     negative rho (up, down):  8.896E-04 0.000E+00

     Forces acting on atoms (cartesian axes, Ry/au):

     atom    1 type  1   force =    -0.00000000    0.00106037   -0.00548412
     atom    2 type  2   force =     0.00000000   -0.00506903    0.00512908
     atom    3 type  3   force =    -0.00000000    0.00400867    0.00035504

     Total force =     0.009970     Total SCF correction =     0.000014


     Computing stress (Cartesian axis) and pressure


     negative rho (up, down):  8.896E-04 0.000E+00
          total   stress  (Ry/bohr**3)                   (kbar)     P=        1.19
   0.00006875  -0.00000000   0.00000000           10.11       -0.00        0.00
  -0.00000000  -0.00000875  -0.00002497           -0.00       -1.29       -3.67
   0.00000000  -0.00002497  -0.00003568            0.00       -3.67       -5.25

     Energy error            =      7.1E-04 Ry
     Gradient error          =      5.5E-03 Ry/Bohr
     Cell gradient error     =      1.0E+01 kbar

     number of scf cycles    =  19
     number of bfgs steps    =  18

     enthalpy           old  =    -449.7518035010 Ry
     enthalpy           new  =    -449.7525149828 Ry

     CASE: enthalpy          _new < enthalpy          _old

     new trust radius        =       0.0198671338 bohr
     new conv_thr            =       0.0000000005 Ry

     new unit-cell volume =    191.96636 a.u.^3 (    28.44648 Ang^3 )
     density =      6.11293 g/cm^3

CELL_PARAMETERS (alat=  5.58242261)
   0.989403778   0.000000012  -0.000000002
   0.000000010   1.127861157   0.008246391
   0.000000002   0.003154966   0.988867096

ATOMIC_POSITIONS (crystal)
Fe               0.4999999885        0.5366515831        0.4197957901
Ti               0.0000000044        0.0464325514       -0.0905387424
H                0.5000000071        0.0369158656        0.4107429523



     Writing config-only to output data dir ./TiFeH.save/ :
     XML data file     NEW-OLD atomic charge density approx. for the potential
     New effective cutoffs (rho, wfc): 1775.60  126.85

     Check: negative core charge=   -0.000002

     negative rho (up, down):  8.706E-04 0.000E+00

     total cpu time spent up to now is     4500.5 secs

     per-process dynamical memory:   276.0 Mb

     Self-consistent Calculation

     iteration #  1     ecut=   124.00 Ry     beta= 0.70
     Davidson diagonalization with overlap
     ethr =  1.00E-06,  avg # of iterations =  7.2

     negative rho (up, down):  8.702E-04 0.000E+00

     total cpu time spent up to now is     4538.9 secs

     total energy              =    -449.75265964 Ry
     estimated scf accuracy    <       0.00009692 Ry

     iteration #  2     ecut=   124.00 Ry     beta= 0.70
     Davidson diagonalization with overlap
     ethr =  3.34E-07,  avg # of iterations =  3.2

     negative rho (up, down):  8.676E-04 0.000E+00

     total cpu time spent up to now is     4556.8 secs

     total energy              =    -449.75256580 Ry
     estimated scf accuracy    <       0.00139052 Ry

     iteration #  3     ecut=   124.00 Ry     beta= 0.70
     Davidson diagonalization with overlap
     ethr =  3.34E-07,  avg # of iterations =  3.1

     negative rho (up, down):  8.688E-04 0.000E+00

     total cpu time spent up to now is     4574.3 secs

     total energy              =    -449.75269427 Ry
     estimated scf accuracy    <       0.00049968 Ry

     iteration #  4     ecut=   124.00 Ry     beta= 0.70
     Davidson diagonalization with overlap
     ethr =  3.34E-07,  avg # of iterations =  1.6

     negative rho (up, down):  8.685E-04 0.000E+00

     total cpu time spent up to now is     4588.7 secs

     total energy              =    -449.75272082 Ry
     estimated scf accuracy    <       0.00000096 Ry

     iteration #  5     ecut=   124.00 Ry     beta= 0.70
     Davidson diagonalization with overlap
     ethr =  3.32E-09,  avg # of iterations =  4.6

     negative rho (up, down):  8.685E-04 0.000E+00

     total cpu time spent up to now is     4611.3 secs

     total energy              =    -449.75272146 Ry
     estimated scf accuracy    <       0.00000012 Ry

     iteration #  6     ecut=   124.00 Ry     beta= 0.70
     Davidson diagonalization with overlap
     ethr =  4.28E-10,  avg # of iterations =  2.5

     negative rho (up, down):  8.685E-04 0.000E+00

     total cpu time spent up to now is     4627.4 secs

     total energy              =    -449.75272148 Ry
     estimated scf accuracy    <          4.5E-09 Ry

     iteration #  7     ecut=   124.00 Ry     beta= 0.70
     Davidson diagonalization with overlap
     ethr =  1.57E-11,  avg # of iterations =  4.9

     negative rho (up, down):  8.685E-04 0.000E+00

     total cpu time spent up to now is     4653.1 secs

     total energy              =    -449.75272148 Ry
     estimated scf accuracy    <          1.0E-09 Ry

     iteration #  8     ecut=   124.00 Ry     beta= 0.70
     Davidson diagonalization with overlap
     ethr =  3.45E-12,  avg # of iterations =  2.5

     negative rho (up, down):  8.685E-04 0.000E+00

     total cpu time spent up to now is     4670.2 secs

     End of self-consistent calculation

     Number of k-points >= 100: set verbosity='high' to print the bands.

     the Fermi energy is    16.1637 ev

!    total energy              =    -449.75272148 Ry
     estimated scf accuracy    <          2.0E-11 Ry
     smearing contrib. (-TS)   =       0.00004551 Ry
     internal energy E=F+TS    =    -449.75276699 Ry

     The total energy is F=E-TS. E is the sum of the following terms:
     one-electron contribution =    -161.67974866 Ry
     hartree contribution      =      95.99120978 Ry
     xc contribution           =     -53.62656792 Ry
     ewald contribution        =    -254.28534591 Ry
     one-center paw contrib.   =     -76.15231427 Ry

     convergence has been achieved in   8 iterations

     negative rho (up, down):  8.685E-04 0.000E+00

     Forces acting on atoms (cartesian axes, Ry/au):

     atom    1 type  1   force =     0.00000000    0.00303735   -0.00443481
     atom    2 type  2   force =     0.00000000   -0.00357676    0.00414366
     atom    3 type  3   force =    -0.00000000    0.00053941    0.00029116

     Total force =     0.007696     Total SCF correction =     0.000014


     Computing stress (Cartesian axis) and pressure


     negative rho (up, down):  8.685E-04 0.000E+00
          total   stress  (Ry/bohr**3)                   (kbar)     P=       -5.12
  -0.00004043  -0.00000000   0.00000000           -5.95       -0.00        0.00
  -0.00000000  -0.00003342  -0.00002921           -0.00       -4.92       -4.30
   0.00000000  -0.00002921  -0.00003051            0.00       -4.30       -4.49

     Energy error            =      2.1E-04 Ry
     Gradient error          =      4.4E-03 Ry/Bohr
     Cell gradient error     =      5.9E+00 kbar

     number of scf cycles    =  20
     number of bfgs steps    =  19

     enthalpy           old  =    -449.7525149828 Ry
     enthalpy           new  =    -449.7527214803 Ry

     CASE: enthalpy          _new < enthalpy          _old

     new trust radius        =       0.0173533964 bohr
     new conv_thr            =       0.0000000002 Ry

     new unit-cell volume =    192.01620 a.u.^3 (    28.45386 Ang^3 )
     density =      6.11135 g/cm^3

CELL_PARAMETERS (alat=  5.58242261)
   0.991059962   0.000000008  -0.000000002
   0.000000007   1.127921666   0.007518548
   0.000000002   0.002305831   0.987410232

ATOMIC_POSITIONS (crystal)
Fe               0.4999999888        0.5375033974        0.4176773766
Ti               0.0000000045        0.0439272063       -0.0891982977
H                0.5000000067        0.0385693964        0.4115209211



     Writing config-only to output data dir ./TiFeH.save/ :
     XML data file     NEW-OLD atomic charge density approx. for the potential
     New effective cutoffs (rho, wfc): 1780.67  127.21

     Check: negative core charge=   -0.000002

     negative rho (up, down):  8.794E-04 0.000E+00

     total cpu time spent up to now is     4676.2 secs

     per-process dynamical memory:   276.0 Mb

     Self-consistent Calculation

     iteration #  1     ecut=   124.00 Ry     beta= 0.70
     Davidson diagonalization with overlap
     ethr =  1.00E-06,  avg # of iterations =  7.5

     negative rho (up, down):  8.785E-04 0.000E+00

     total cpu time spent up to now is     4715.5 secs

     total energy              =    -449.75281111 Ry
     estimated scf accuracy    <       0.00010505 Ry

     iteration #  2     ecut=   124.00 Ry     beta= 0.70
     Davidson diagonalization with overlap
     ethr =  3.62E-07,  avg # of iterations =  2.1

     negative rho (up, down):  8.785E-04 0.000E+00

     total cpu time spent up to now is     4732.0 secs

     total energy              =    -449.75284204 Ry
     estimated scf accuracy    <       0.00001170 Ry

     iteration #  3     ecut=   124.00 Ry     beta= 0.70
     Davidson diagonalization with overlap
     ethr =  4.03E-08,  avg # of iterations =  2.4

     negative rho (up, down):  8.777E-04 0.000E+00

     total cpu time spent up to now is     4749.4 secs

     total energy              =    -449.75284043 Ry
     estimated scf accuracy    <       0.00002026 Ry

     iteration #  4     ecut=   124.00 Ry     beta= 0.70
     Davidson diagonalization with overlap
     ethr =  4.03E-08,  avg # of iterations =  2.6

     negative rho (up, down):  8.782E-04 0.000E+00

     total cpu time spent up to now is     4766.2 secs

     total energy              =    -449.75283975 Ry
     estimated scf accuracy    <       0.00012306 Ry

     iteration #  5     ecut=   124.00 Ry     beta= 0.70
     Davidson diagonalization with overlap
     ethr =  4.03E-08,  avg # of iterations =  2.1

     negative rho (up, down):  8.781E-04 0.000E+00

     total cpu time spent up to now is     4781.7 secs

     total energy              =    -449.75284612 Ry
     estimated scf accuracy    <       0.00000003 Ry

     iteration #  6     ecut=   124.00 Ry     beta= 0.70
     Davidson diagonalization with overlap
     ethr =  1.07E-10,  avg # of iterations =  6.1

     negative rho (up, down):  8.781E-04 0.000E+00

     total cpu time spent up to now is     4812.3 secs

     total energy              =    -449.75284621 Ry
     estimated scf accuracy    <       0.00000004 Ry

     iteration #  7     ecut=   124.00 Ry     beta= 0.70
     Davidson diagonalization with overlap
     ethr =  1.07E-10,  avg # of iterations =  1.0

     negative rho (up, down):  8.781E-04 0.000E+00

     total cpu time spent up to now is     4825.9 secs

     total energy              =    -449.75284621 Ry
     estimated scf accuracy    <          2.3E-09 Ry

     iteration #  8     ecut=   124.00 Ry     beta= 0.70
     Davidson diagonalization with overlap
     ethr =  7.96E-12,  avg # of iterations =  2.2

     negative rho (up, down):  8.781E-04 0.000E+00

     total cpu time spent up to now is     4842.3 secs

     total energy              =    -449.75284621 Ry
     estimated scf accuracy    <          5.8E-10 Ry

     iteration #  9     ecut=   124.00 Ry     beta= 0.70
     Davidson diagonalization with overlap
     ethr =  1.99E-12,  avg # of iterations =  1.8

     negative rho (up, down):  8.781E-04 0.000E+00

     total cpu time spent up to now is     4857.1 secs

     End of self-consistent calculation

     Number of k-points >= 100: set verbosity='high' to print the bands.

     the Fermi energy is    16.1590 ev

!    total energy              =    -449.75284621 Ry
     estimated scf accuracy    <          9.9E-12 Ry
     smearing contrib. (-TS)   =       0.00004391 Ry
     internal energy E=F+TS    =    -449.75289012 Ry

     The total energy is F=E-TS. E is the sum of the following terms:
     one-electron contribution =    -161.67912547 Ry
     hartree contribution      =      95.98497426 Ry
     xc contribution           =     -53.62561272 Ry
     ewald contribution        =    -254.28081538 Ry
     one-center paw contrib.   =     -76.15231081 Ry

     convergence has been achieved in   9 iterations

     negative rho (up, down):  8.781E-04 0.000E+00

     Forces acting on atoms (cartesian axes, Ry/au):

     atom    1 type  1   force =    -0.00000000    0.00303923   -0.00296229
     atom    2 type  2   force =     0.00000000   -0.00227385    0.00273431
     atom    3 type  3   force =    -0.00000000   -0.00076538    0.00022798

     Total force =     0.005594     Total SCF correction =     0.000009


     Computing stress (Cartesian axis) and pressure


     negative rho (up, down):  8.781E-04 0.000E+00
          total   stress  (Ry/bohr**3)                   (kbar)     P=       -6.01
  -0.00007401  -0.00000000   0.00000000          -10.89       -0.00        0.00
  -0.00000000  -0.00004131  -0.00002540           -0.00       -6.08       -3.74
   0.00000000  -0.00002540  -0.00000733            0.00       -3.74       -1.08

     Energy error            =      1.2E-04 Ry
     Gradient error          =      3.0E-03 Ry/Bohr
     Cell gradient error     =      1.1E+01 kbar

     number of scf cycles    =  21
     number of bfgs steps    =  20

     enthalpy           old  =    -449.7527214803 Ry
     enthalpy           new  =    -449.7528462102 Ry

     CASE: enthalpy          _new < enthalpy          _old

     new trust radius        =       0.0190955918 bohr
     new conv_thr            =       0.0000000001 Ry

     new unit-cell volume =    191.71395 a.u.^3 (    28.40908 Ang^3 )
     density =      6.12098 g/cm^3

CELL_PARAMETERS (alat=  5.58242261)
   0.990588562   0.000000004  -0.000000001
   0.000000003   1.127567337   0.006079124
   0.000000003   0.000642764   0.986623188

ATOMIC_POSITIONS (crystal)
Fe               0.4999999887        0.5387798277        0.4151522682
Ti               0.0000000050        0.0413092823       -0.0874224749
H                0.5000000063        0.0399108900        0.4122702067



     Writing config-only to output data dir ./TiFeH.save/ :
     XML data file     NEW-OLD atomic charge density approx. for the potential
     New effective cutoffs (rho, wfc): 1783.19  127.38

     Check: negative core charge=   -0.000002

     negative rho (up, down):  9.062E-04 0.000E+00

     total cpu time spent up to now is     4863.2 secs

     per-process dynamical memory:   280.1 Mb

     Self-consistent Calculation

     iteration #  1     ecut=   124.00 Ry     beta= 0.70
     Davidson diagonalization with overlap
     ethr =  1.00E-06,  avg # of iterations =  7.8

     negative rho (up, down):  9.060E-04 0.000E+00

     total cpu time spent up to now is     4904.1 secs

     total energy              =    -449.75290429 Ry
     estimated scf accuracy    <       0.00015210 Ry

     iteration #  2     ecut=   124.00 Ry     beta= 0.70
     Davidson diagonalization with overlap
     ethr =  5.24E-07,  avg # of iterations =  2.1

     negative rho (up, down):  9.089E-04 0.000E+00

     total cpu time spent up to now is     4920.5 secs

     total energy              =    -449.75290277 Ry
     estimated scf accuracy    <       0.00009552 Ry

     iteration #  3     ecut=   124.00 Ry     beta= 0.70
     Davidson diagonalization with overlap
     ethr =  3.29E-07,  avg # of iterations =  3.5

     negative rho (up, down):  9.058E-04 0.000E+00

     total cpu time spent up to now is     4938.8 secs

     total energy              =    -449.75278105 Ry
     estimated scf accuracy    <       0.00324481 Ry

     iteration #  4     ecut=   124.00 Ry     beta= 0.70
     Davidson diagonalization with overlap
     ethr =  3.29E-07,  avg # of iterations =  3.2

     negative rho (up, down):  9.063E-04 0.000E+00

     total cpu time spent up to now is     4956.3 secs

     total energy              =    -449.75294998 Ry
     estimated scf accuracy    <       0.00000117 Ry

     iteration #  5     ecut=   124.00 Ry     beta= 0.70
     Davidson diagonalization with overlap
     ethr =  4.04E-09,  avg # of iterations =  4.3

     negative rho (up, down):  9.059E-04 0.000E+00

     total cpu time spent up to now is     4979.0 secs

     total energy              =    -449.75295061 Ry
     estimated scf accuracy    <       0.00000057 Ry

     iteration #  6     ecut=   124.00 Ry     beta= 0.70
     Davidson diagonalization with overlap
     ethr =  1.98E-09,  avg # of iterations =  2.1

     negative rho (up, down):  9.060E-04 0.000E+00

     total cpu time spent up to now is     4995.3 secs

     total energy              =    -449.75295069 Ry
     estimated scf accuracy    <       0.00000006 Ry

     iteration #  7     ecut=   124.00 Ry     beta= 0.70
     Davidson diagonalization with overlap
     ethr =  1.96E-10,  avg # of iterations =  3.0

     negative rho (up, down):  9.061E-04 0.000E+00

     total cpu time spent up to now is     5012.7 secs

     total energy              =    -449.75295071 Ry
     estimated scf accuracy    <          1.6E-09 Ry

     iteration #  8     ecut=   124.00 Ry     beta= 0.70
     Davidson diagonalization with overlap
     ethr =  5.45E-12,  avg # of iterations =  5.3

     negative rho (up, down):  9.061E-04 0.000E+00

     total cpu time spent up to now is     5040.3 secs

     End of self-consistent calculation

     Number of k-points >= 100: set verbosity='high' to print the bands.

     the Fermi energy is    16.1877 ev

!    total energy              =    -449.75295071 Ry
     estimated scf accuracy    <          1.1E-10 Ry
     smearing contrib. (-TS)   =       0.00004402 Ry
     internal energy E=F+TS    =    -449.75299473 Ry

     The total energy is F=E-TS. E is the sum of the following terms:
     one-electron contribution =    -161.44383486 Ry
     hartree contribution      =      95.89940476 Ry
     xc contribution           =     -53.62809874 Ry
     ewald contribution        =    -254.42811258 Ry
     one-center paw contrib.   =     -76.15235331 Ry

     convergence has been achieved in   8 iterations

     negative rho (up, down):  9.061E-04 0.000E+00

     Forces acting on atoms (cartesian axes, Ry/au):

     atom    1 type  1   force =     0.00000000    0.00205003   -0.00116219
     atom    2 type  2   force =     0.00000000   -0.00084869    0.00087791
     atom    3 type  3   force =    -0.00000000   -0.00120133    0.00028428

     Total force =     0.002927     Total SCF correction =     0.000028


     Computing stress (Cartesian axis) and pressure


     negative rho (up, down):  9.061E-04 0.000E+00
          total   stress  (Ry/bohr**3)                   (kbar)     P=       -3.40
  -0.00005723  -0.00000000  -0.00000000           -8.42       -0.00       -0.00
  -0.00000000  -0.00002771  -0.00001742           -0.00       -4.08       -2.56
  -0.00000000  -0.00001742   0.00001567           -0.00       -2.56        2.30

     Energy error            =      1.0E-04 Ry
     Gradient error          =      2.1E-03 Ry/Bohr
     Cell gradient error     =      8.4E+00 kbar

     number of scf cycles    =  22
     number of bfgs steps    =  21

     enthalpy           old  =    -449.7528462102 Ry
     enthalpy           new  =    -449.7529507098 Ry

     CASE: enthalpy          _new < enthalpy          _old

     new trust radius        =       0.0122768617 bohr
     new conv_thr            =       0.0000000001 Ry

     new unit-cell volume =    191.37559 a.u.^3 (    28.35894 Ang^3 )
     density =      6.13180 g/cm^3

CELL_PARAMETERS (alat=  5.58242261)
   0.988856587   0.000000001  -0.000000001
   0.000000001   1.127232891   0.004415093
   0.000000003  -0.001261752   0.986891201

ATOMIC_POSITIONS (crystal)
Fe               0.4999999887        0.5398617351        0.4132901580
Ti               0.0000000054        0.0399076396       -0.0862647638
H                0.5000000060        0.0402306252        0.4129746057



     Writing config-only to output data dir ./TiFeH.save/ :
     XML data file     NEW-OLD atomic charge density approx. for the potential
     New effective cutoffs (rho, wfc): 1781.96  127.29

     Check: negative core charge=   -0.000002

     negative rho (up, down):  9.094E-04 0.000E+00

     total cpu time spent up to now is     5046.3 secs

     per-process dynamical memory:   280.1 Mb

     Self-consistent Calculation

     iteration #  1     ecut=   124.00 Ry     beta= 0.70
     Davidson diagonalization with overlap
     ethr =  1.00E-06,  avg # of iterations =  7.1

     negative rho (up, down):  9.099E-04 0.000E+00

     total cpu time spent up to now is     5084.0 secs

     total energy              =    -449.75296452 Ry
     estimated scf accuracy    <       0.00007695 Ry

     iteration #  2     ecut=   124.00 Ry     beta= 0.70
     Davidson diagonalization with overlap
     ethr =  2.65E-07,  avg # of iterations =  2.3

     negative rho (up, down):  9.123E-04 0.000E+00

     total cpu time spent up to now is     5100.9 secs

     total energy              =    -449.75295512 Ry
     estimated scf accuracy    <       0.00007972 Ry

     iteration #  3     ecut=   124.00 Ry     beta= 0.70
     Davidson diagonalization with overlap
     ethr =  2.65E-07,  avg # of iterations =  3.2

     negative rho (up, down):  9.099E-04 0.000E+00

     total cpu time spent up to now is     5118.6 secs

     total energy              =    -449.75289498 Ry
     estimated scf accuracy    <       0.00185392 Ry

     iteration #  4     ecut=   124.00 Ry     beta= 0.70
     Davidson diagonalization with overlap
     ethr =  2.65E-07,  avg # of iterations =  2.9

     negative rho (up, down):  9.103E-04 0.000E+00

     total cpu time spent up to now is     5135.7 secs

     total energy              =    -449.75299086 Ry
     estimated scf accuracy    <       0.00000050 Ry

     iteration #  5     ecut=   124.00 Ry     beta= 0.70
     Davidson diagonalization with overlap
     ethr =  1.72E-09,  avg # of iterations =  5.1

     negative rho (up, down):  9.101E-04 0.000E+00

     total cpu time spent up to now is     5161.7 secs

     total energy              =    -449.75299133 Ry
     estimated scf accuracy    <       0.00000040 Ry

     iteration #  6     ecut=   124.00 Ry     beta= 0.70
     Davidson diagonalization with overlap
     ethr =  1.38E-09,  avg # of iterations =  2.0

     negative rho (up, down):  9.101E-04 0.000E+00

     total cpu time spent up to now is     5177.9 secs

     total energy              =    -449.75299137 Ry
     estimated scf accuracy    <       0.00000004 Ry

     iteration #  7     ecut=   124.00 Ry     beta= 0.70
     Davidson diagonalization with overlap
     ethr =  1.35E-10,  avg # of iterations =  2.2

     negative rho (up, down):  9.102E-04 0.000E+00

     total cpu time spent up to now is     5193.5 secs

     total energy              =    -449.75299138 Ry
     estimated scf accuracy    <          1.2E-09 Ry

     iteration #  8     ecut=   124.00 Ry     beta= 0.70
     Davidson diagonalization with overlap
     ethr =  4.19E-12,  avg # of iterations =  5.3

     negative rho (up, down):  9.102E-04 0.000E+00

     total cpu time spent up to now is     5220.3 secs

     total energy              =    -449.75299138 Ry
     estimated scf accuracy    <          1.7E-10 Ry

     iteration #  9     ecut=   124.00 Ry     beta= 0.70
     Davidson diagonalization with overlap
     ethr =  5.74E-13,  avg # of iterations =  2.1

     negative rho (up, down):  9.102E-04 0.000E+00

     total cpu time spent up to now is     5236.6 secs

     End of self-consistent calculation

     Number of k-points >= 100: set verbosity='high' to print the bands.

     the Fermi energy is    16.2197 ev

!    total energy              =    -449.75299138 Ry
     estimated scf accuracy    <          4.9E-12 Ry
     smearing contrib. (-TS)   =       0.00004571 Ry
     internal energy E=F+TS    =    -449.75303709 Ry

     The total energy is F=E-TS. E is the sum of the following terms:
     one-electron contribution =    -161.20130664 Ry
     hartree contribution      =      95.81460717 Ry
     xc contribution           =     -53.63119386 Ry
     ewald contribution        =    -254.58274516 Ry
     one-center paw contrib.   =     -76.15239860 Ry

     convergence has been achieved in   9 iterations

     negative rho (up, down):  9.102E-04 0.000E+00

     Forces acting on atoms (cartesian axes, Ry/au):

     atom    1 type  1   force =     0.00000000    0.00044615    0.00014936
     atom    2 type  2   force =    -0.00000000    0.00001368   -0.00038370
     atom    3 type  3   force =    -0.00000000   -0.00045983    0.00023434

     Total force =     0.000797     Total SCF correction =     0.000004


     Computing stress (Cartesian axis) and pressure


     negative rho (up, down):  9.102E-04 0.000E+00
          total   stress  (Ry/bohr**3)                   (kbar)     P=       -0.26
  -0.00001524  -0.00000000  -0.00000000           -2.24       -0.00       -0.00
  -0.00000000  -0.00001111  -0.00000773           -0.00       -1.63       -1.14
  -0.00000000  -0.00000773   0.00002108           -0.00       -1.14        3.10

     Energy error            =      4.1E-05 Ry
     Gradient error          =      4.6E-04 Ry/Bohr
     Cell gradient error     =      3.1E+00 kbar

     number of scf cycles    =  23
     number of bfgs steps    =  22

     enthalpy           old  =    -449.7529507098 Ry
     enthalpy           new  =    -449.7529913808 Ry

     CASE: enthalpy          _new < enthalpy          _old

     new trust radius        =       0.0021513532 bohr
     new conv_thr            =            1.0E-10 Ry

     new unit-cell volume =    191.31968 a.u.^3 (    28.35065 Ang^3 )
     density =      6.13359 g/cm^3

CELL_PARAMETERS (alat=  5.58242261)
   0.988099964   0.000000001  -0.000000001
   0.000000001   1.127013540   0.003966086
   0.000000003  -0.001775558   0.987549204

ATOMIC_POSITIONS (crystal)
Fe               0.4999999889        0.5400037486        0.4131504846
Ti               0.0000000054        0.0399646772       -0.0862774571
H                0.5000000057        0.0400315742        0.4131269725



     Writing config-only to output data dir ./TiFeH.save/ :
     XML data file     NEW-OLD atomic charge density approx. for the potential
     New effective cutoffs (rho, wfc): 1779.58  127.12

     Check: negative core charge=   -0.000002

     negative rho (up, down):  9.098E-04 0.000E+00

     total cpu time spent up to now is     5242.7 secs

     per-process dynamical memory:   280.1 Mb

     Self-consistent Calculation

     iteration #  1     ecut=   124.00 Ry     beta= 0.70
     Davidson diagonalization with overlap
     ethr =  1.00E-06,  avg # of iterations =  3.0

     Threshold (ethr) on eigenvalues was too large:
     Diagonalizing with lowered threshold

     Davidson diagonalization with overlap
     ethr =  4.42E-09,  avg # of iterations =  6.3

     negative rho (up, down):  9.102E-04 0.000E+00

     total cpu time spent up to now is     5296.9 secs

     total energy              =    -449.75299534 Ry
     estimated scf accuracy    <       0.00000109 Ry

     iteration #  2     ecut=   124.00 Ry     beta= 0.70
     Davidson diagonalization with overlap
     ethr =  3.75E-09,  avg # of iterations =  2.1

     negative rho (up, down):  9.098E-04 0.000E+00

     total cpu time spent up to now is     5313.4 secs

     total energy              =    -449.75299536 Ry
     estimated scf accuracy    <       0.00000491 Ry

     iteration #  3     ecut=   124.00 Ry     beta= 0.70
     Davidson diagonalization with overlap
     ethr =  3.75E-09,  avg # of iterations =  2.8

     negative rho (up, down):  9.099E-04 0.000E+00

     total cpu time spent up to now is     5330.5 secs

     total energy              =    -449.75299574 Ry
     estimated scf accuracy    <       0.00001374 Ry

     iteration #  4     ecut=   124.00 Ry     beta= 0.70
     Davidson diagonalization with overlap
     ethr =  3.75E-09,  avg # of iterations =  2.3

     negative rho (up, down):  9.100E-04 0.000E+00

     total cpu time spent up to now is     5346.6 secs

     total energy              =    -449.75299647 Ry
     estimated scf accuracy    <          7.0E-09 Ry

     iteration #  5     ecut=   124.00 Ry     beta= 0.70
     Davidson diagonalization with overlap
     ethr =  2.42E-11,  avg # of iterations =  4.8

     negative rho (up, down):  9.100E-04 0.000E+00

     total cpu time spent up to now is     5370.6 secs

     total energy              =    -449.75299648 Ry
     estimated scf accuracy    <          5.6E-09 Ry

     iteration #  6     ecut=   124.00 Ry     beta= 0.70
     Davidson diagonalization with overlap
     ethr =  1.94E-11,  avg # of iterations =  1.4

     negative rho (up, down):  9.100E-04 0.000E+00

     total cpu time spent up to now is     5384.8 secs

     total energy              =    -449.75299648 Ry
     estimated scf accuracy    <          2.7E-10 Ry

     iteration #  7     ecut=   124.00 Ry     beta= 0.70
     Davidson diagonalization with overlap
     ethr =  9.37E-13,  avg # of iterations =  3.8

     negative rho (up, down):  9.100E-04 0.000E+00

     total cpu time spent up to now is     5404.9 secs

     End of self-consistent calculation

     Number of k-points >= 100: set verbosity='high' to print the bands.

     the Fermi energy is    16.2258 ev

!    total energy              =    -449.75299648 Ry
     estimated scf accuracy    <          4.3E-11 Ry
     smearing contrib. (-TS)   =       0.00004567 Ry
     internal energy E=F+TS    =    -449.75304215 Ry

     The total energy is F=E-TS. E is the sum of the following terms:
     one-electron contribution =    -161.16369441 Ry
     hartree contribution      =      95.80188164 Ry
     xc contribution           =     -53.63177151 Ry
     ewald contribution        =    -254.60705158 Ry
     one-center paw contrib.   =     -76.15240629 Ry

     convergence has been achieved in   7 iterations

     negative rho (up, down):  9.100E-04 0.000E+00

     Forces acting on atoms (cartesian axes, Ry/au):

     atom    1 type  1   force =    -0.00000000    0.00002543    0.00021400
     atom    2 type  2   force =     0.00000000    0.00001559   -0.00038516
     atom    3 type  3   force =     0.00000000   -0.00004101    0.00017115

     Total force =     0.000475     Total SCF correction =     0.000005


     Computing stress (Cartesian axis) and pressure


     negative rho (up, down):  9.100E-04 0.000E+00
          total   stress  (Ry/bohr**3)                   (kbar)     P=        0.32
   0.00000049   0.00000000  -0.00000000            0.07        0.00       -0.00
   0.00000000  -0.00000460  -0.00000504            0.00       -0.68       -0.74
  -0.00000000  -0.00000504   0.00001063           -0.00       -0.74        1.56

     Energy error            =      5.1E-06 Ry
     Gradient error          =      3.9E-04 Ry/Bohr
     Cell gradient error     =      1.6E+00 kbar

     number of scf cycles    =  24
     number of bfgs steps    =  23

     enthalpy           old  =    -449.7529913808 Ry
     enthalpy           new  =    -449.7529964776 Ry

     CASE: enthalpy          _new < enthalpy          _old

     new trust radius        =       0.0014454155 bohr
     new conv_thr            =            1.0E-10 Ry

     new unit-cell volume =    191.34239 a.u.^3 (    28.35402 Ang^3 )
     density =      6.13287 g/cm^3

CELL_PARAMETERS (alat=  5.58242261)
   0.987912555   0.000000001  -0.000000002
   0.000000001   1.126861115   0.003654870
   0.000000002  -0.002127617   0.987986775

ATOMIC_POSITIONS (crystal)
Fe               0.4999999887        0.5400123258        0.4131863288
Ti               0.0000000054        0.0401176058       -0.0864379930
H                0.5000000058        0.0398700684        0.4132516642



     Writing config-only to output data dir ./TiFeH.save/ :
     XML data file     NEW-OLD atomic charge density approx. for the potential
     New effective cutoffs (rho, wfc): 1778.27  127.04

     Check: negative core charge=   -0.000002

     negative rho (up, down):  9.102E-04 0.000E+00

     total cpu time spent up to now is     5411.0 secs

     per-process dynamical memory:   280.0 Mb

     Self-consistent Calculation

     iteration #  1     ecut=   124.00 Ry     beta= 0.70
     Davidson diagonalization with overlap
     ethr =  1.00E-06,  avg # of iterations =  2.1

     Threshold (ethr) on eigenvalues was too large:
     Diagonalizing with lowered threshold

     Davidson diagonalization with overlap
     ethr =  2.13E-09,  avg # of iterations =  5.9

     negative rho (up, down):  9.103E-04 0.000E+00

     total cpu time spent up to now is     5458.8 secs

     total energy              =    -449.75299726 Ry
     estimated scf accuracy    <       0.00000062 Ry

     iteration #  2     ecut=   124.00 Ry     beta= 0.70
     Davidson diagonalization with overlap
     ethr =  2.13E-09,  avg # of iterations =  3.3

     negative rho (up, down):  9.101E-04 0.000E+00

     total cpu time spent up to now is     5476.9 secs

     total energy              =    -449.75299646 Ry
     estimated scf accuracy    <       0.00001685 Ry

     iteration #  3     ecut=   124.00 Ry     beta= 0.70
     Davidson diagonalization with overlap
     ethr =  2.13E-09,  avg # of iterations =  3.4

     negative rho (up, down):  9.101E-04 0.000E+00

     total cpu time spent up to now is     5495.1 secs

     total energy              =    -449.75299774 Ry
     estimated scf accuracy    <       0.00000128 Ry

     iteration #  4     ecut=   124.00 Ry     beta= 0.70
     Davidson diagonalization with overlap
     ethr =  2.13E-09,  avg # of iterations =  1.1

     negative rho (up, down):  9.101E-04 0.000E+00

     total cpu time spent up to now is     5509.0 secs

     total energy              =    -449.75299781 Ry
     estimated scf accuracy    <          4.0E-09 Ry

     iteration #  5     ecut=   124.00 Ry     beta= 0.70
     Davidson diagonalization with overlap
     ethr =  1.39E-11,  avg # of iterations =  4.5

     negative rho (up, down):  9.101E-04 0.000E+00

     total cpu time spent up to now is     5531.6 secs

     total energy              =    -449.75299782 Ry
     estimated scf accuracy    <          2.9E-10 Ry

     iteration #  6     ecut=   124.00 Ry     beta= 0.70
     Davidson diagonalization with overlap
     ethr =  9.87E-13,  avg # of iterations =  3.6

     negative rho (up, down):  9.101E-04 0.000E+00

     total cpu time spent up to now is     5550.5 secs

     End of self-consistent calculation

     Number of k-points >= 100: set verbosity='high' to print the bands.

     the Fermi energy is    16.2245 ev

!    total energy              =    -449.75299782 Ry
     estimated scf accuracy    <          1.3E-11 Ry
     smearing contrib. (-TS)   =       0.00004509 Ry
     internal energy E=F+TS    =    -449.75304291 Ry

     The total energy is F=E-TS. E is the sum of the following terms:
     one-electron contribution =    -161.18126939 Ry
     hartree contribution      =      95.80813779 Ry
     xc contribution           =     -53.63159287 Ry
     ewald contribution        =    -254.59591516 Ry
     one-center paw contrib.   =     -76.15240329 Ry

     convergence has been achieved in   6 iterations

     negative rho (up, down):  9.101E-04 0.000E+00

     Forces acting on atoms (cartesian axes, Ry/au):

     atom    1 type  1   force =    -0.00000000   -0.00013624    0.00014852
     atom    2 type  2   force =     0.00000000   -0.00005239   -0.00023017
     atom    3 type  3   force =     0.00000000    0.00018863    0.00008165

     Total force =     0.000372     Total SCF correction =     0.000006


     Computing stress (Cartesian axis) and pressure


     negative rho (up, down):  9.101E-04 0.000E+00
          total   stress  (Ry/bohr**3)                   (kbar)     P=        0.14
   0.00000314   0.00000000  -0.00000000            0.46        0.00       -0.00
   0.00000000  -0.00000195  -0.00000318            0.00       -0.29       -0.47
  -0.00000000  -0.00000318   0.00000171           -0.00       -0.47        0.25

     Energy error            =      1.3E-06 Ry
     Gradient error          =      2.3E-04 Ry/Bohr
     Cell gradient error     =      4.7E-01 kbar

     number of scf cycles    =  25
     number of bfgs steps    =  24

     enthalpy           old  =    -449.7529964776 Ry
     enthalpy           new  =    -449.7529978174 Ry

     CASE: enthalpy          _new < enthalpy          _old

     new trust radius        =       0.0006067026 bohr
     new conv_thr            =            1.0E-10 Ry

     new unit-cell volume =    191.36532 a.u.^3 (    28.35742 Ang^3 )
     density =      6.13213 g/cm^3

CELL_PARAMETERS (alat=  5.58242261)
   0.987954799   0.000000001  -0.000000002
   0.000000001   1.126770487   0.003482803
   0.000000002  -0.002322517   0.988142127

ATOMIC_POSITIONS (crystal)
Fe               0.4999999884        0.5399873645        0.4132182329
Ti               0.0000000056        0.0401344480       -0.0865329714
H                0.5000000060        0.0398781875        0.4133147384



     Writing config-only to output data dir ./TiFeH.save/ :
     XML data file     NEW-OLD atomic charge density approx. for the potential
     New effective cutoffs (rho, wfc): 1778.12  127.02

     Check: negative core charge=   -0.000002

     negative rho (up, down):  9.102E-04 0.000E+00

     total cpu time spent up to now is     5556.3 secs

     per-process dynamical memory:   280.0 Mb

     Self-consistent Calculation

     iteration #  1     ecut=   124.00 Ry     beta= 0.70
     Davidson diagonalization with overlap
     ethr =  1.00E-06,  avg # of iterations =  2.0

     Threshold (ethr) on eigenvalues was too large:
     Diagonalizing with lowered threshold

     Davidson diagonalization with overlap
     ethr =  8.87E-10,  avg # of iterations =  5.2

     negative rho (up, down):  9.104E-04 0.000E+00

     total cpu time spent up to now is     5600.4 secs

     total energy              =    -449.75299799 Ry
     estimated scf accuracy    <       0.00000026 Ry

     iteration #  2     ecut=   124.00 Ry     beta= 0.70
     Davidson diagonalization with overlap
     ethr =  8.81E-10,  avg # of iterations =  4.2

     negative rho (up, down):  9.102E-04 0.000E+00

     total cpu time spent up to now is     5619.6 secs

     total energy              =    -449.75299719 Ry
     estimated scf accuracy    <       0.00001686 Ry

     iteration #  3     ecut=   124.00 Ry     beta= 0.70
     Davidson diagonalization with overlap
     ethr =  8.81E-10,  avg # of iterations =  4.0

     negative rho (up, down):  9.102E-04 0.000E+00

     total cpu time spent up to now is     5638.3 secs

     total energy              =    -449.75299818 Ry
     estimated scf accuracy    <       0.00000011 Ry

     iteration #  4     ecut=   124.00 Ry     beta= 0.70
     Davidson diagonalization with overlap
     ethr =  3.78E-10,  avg # of iterations =  1.1

     negative rho (up, down):  9.102E-04 0.000E+00

     total cpu time spent up to now is     5651.5 secs

     total energy              =    -449.75299819 Ry
     estimated scf accuracy    <          1.4E-09 Ry

     iteration #  5     ecut=   124.00 Ry     beta= 0.70
     Davidson diagonalization with overlap
     ethr =  4.94E-12,  avg # of iterations =  4.9

     negative rho (up, down):  9.102E-04 0.000E+00

     total cpu time spent up to now is     5675.2 secs

     total energy              =    -449.75299819 Ry
     estimated scf accuracy    <          1.2E-10 Ry

     iteration #  6     ecut=   124.00 Ry     beta= 0.70
     Davidson diagonalization with overlap
     ethr =  4.28E-13,  avg # of iterations =  3.8

     negative rho (up, down):  9.102E-04 0.000E+00

     total cpu time spent up to now is     5695.8 secs

     End of self-consistent calculation

     Number of k-points >= 100: set verbosity='high' to print the bands.

     the Fermi energy is    16.2229 ev

!    total energy              =    -449.75299819 Ry
     estimated scf accuracy    <          1.9E-11 Ry
     smearing contrib. (-TS)   =       0.00004467 Ry
     internal energy E=F+TS    =    -449.75304286 Ry

     The total energy is F=E-TS. E is the sum of the following terms:
     one-electron contribution =    -161.19855735 Ry
     hartree contribution      =      95.81432135 Ry
     xc contribution           =     -53.63141626 Ry
     ewald contribution        =    -254.58499021 Ry
     one-center paw contrib.   =     -76.15240040 Ry

     convergence has been achieved in   6 iterations

     negative rho (up, down):  9.102E-04 0.000E+00

     Forces acting on atoms (cartesian axes, Ry/au):

     atom    1 type  1   force =     0.00000000   -0.00008621    0.00010248
     atom    2 type  2   force =    -0.00000000   -0.00006370   -0.00013763
     atom    3 type  3   force =    -0.00000000    0.00014991    0.00003515

     Total force =     0.000254     Total SCF correction =     0.000003


     Computing stress (Cartesian axis) and pressure


     negative rho (up, down):  9.102E-04 0.000E+00
          total   stress  (Ry/bohr**3)                   (kbar)     P=       -0.02
   0.00000179  -0.00000000   0.00000000            0.26       -0.00        0.00
  -0.00000000  -0.00000046  -0.00000215           -0.00       -0.07       -0.32
   0.00000000  -0.00000215  -0.00000174            0.00       -0.32       -0.26

     Energy error            =      3.7E-07 Ry
     Gradient error          =      1.5E-04 Ry/Bohr
     Cell gradient error     =      3.2E-01 kbar

     number of scf cycles    =  26
     number of bfgs steps    =  25

     enthalpy           old  =    -449.7529978174 Ry
     enthalpy           new  =    -449.7529981923 Ry

     CASE: enthalpy          _new < enthalpy          _old

     new trust radius        =       0.0007203517 bohr
     new conv_thr            =            1.0E-10 Ry

     new unit-cell volume =    191.38509 a.u.^3 (    28.36034 Ang^3 )
     density =      6.13150 g/cm^3

CELL_PARAMETERS (alat=  5.58242261)
   0.988066889   0.000000001  -0.000000002
   0.000000000   1.126725741   0.003256642
   0.000000002  -0.002576814   0.988171070

ATOMIC_POSITIONS (crystal)
Fe               0.4999999885        0.5399658960        0.4132335512
Ti               0.0000000055        0.0401131857       -0.0866179606
H                0.5000000061        0.0399209182        0.4133844093



     Writing config-only to output data dir ./TiFeH.save/ :
     XML data file     NEW-OLD atomic charge density approx. for the potential
     New effective cutoffs (rho, wfc): 1777.71  126.99

     Check: negative core charge=   -0.000002

     negative rho (up, down):  9.103E-04 0.000E+00

     total cpu time spent up to now is     5701.6 secs

     per-process dynamical memory:   280.0 Mb

     Self-consistent Calculation

     iteration #  1     ecut=   124.00 Ry     beta= 0.70
     Davidson diagonalization with overlap
     ethr =  1.00E-06,  avg # of iterations =  2.0

     Threshold (ethr) on eigenvalues was too large:
     Diagonalizing with lowered threshold

     Davidson diagonalization with overlap
     ethr =  6.17E-10,  avg # of iterations =  5.7

     negative rho (up, down):  9.104E-04 0.000E+00

     total cpu time spent up to now is     5747.4 secs

     total energy              =    -449.75299829 Ry
     estimated scf accuracy    <       0.00000016 Ry

     iteration #  2     ecut=   124.00 Ry     beta= 0.70
     Davidson diagonalization with overlap
     ethr =  5.57E-10,  avg # of iterations =  3.7

     negative rho (up, down):  9.102E-04 0.000E+00

     total cpu time spent up to now is     5765.3 secs

     total energy              =    -449.75299797 Ry
     estimated scf accuracy    <       0.00000665 Ry

     iteration #  3     ecut=   124.00 Ry     beta= 0.70
     Davidson diagonalization with overlap
     ethr =  5.57E-10,  avg # of iterations =  3.7

     negative rho (up, down):  9.103E-04 0.000E+00

     total cpu time spent up to now is     5783.2 secs

     total energy              =    -449.75299841 Ry
     estimated scf accuracy    <       0.00000017 Ry

     iteration #  4     ecut=   124.00 Ry     beta= 0.70
     Davidson diagonalization with overlap
     ethr =  5.57E-10,  avg # of iterations =  1.0

     negative rho (up, down):  9.102E-04 0.000E+00

     total cpu time spent up to now is     5796.4 secs

     total energy              =    -449.75299842 Ry
     estimated scf accuracy    <          1.1E-09 Ry

     iteration #  5     ecut=   124.00 Ry     beta= 0.70
     Davidson diagonalization with overlap
     ethr =  3.66E-12,  avg # of iterations =  4.6

     negative rho (up, down):  9.103E-04 0.000E+00

     total cpu time spent up to now is     5818.7 secs

     End of self-consistent calculation

     Number of k-points >= 100: set verbosity='high' to print the bands.

     the Fermi energy is    16.2214 ev

!    total energy              =    -449.75299842 Ry
     estimated scf accuracy    <          5.8E-11 Ry
     smearing contrib. (-TS)   =       0.00004440 Ry
     internal energy E=F+TS    =    -449.75304282 Ry

     The total energy is F=E-TS. E is the sum of the following terms:
     one-electron contribution =    -161.21302478 Ry
     hartree contribution      =      95.81937505 Ry
     xc contribution           =     -53.63123600 Ry
     ewald contribution        =    -254.57575960 Ry
     one-center paw contrib.   =     -76.15239749 Ry

     convergence has been achieved in   5 iterations

     negative rho (up, down):  9.103E-04 0.000E+00

     Forces acting on atoms (cartesian axes, Ry/au):

     atom    1 type  1   force =    -0.00000000   -0.00001630    0.00007214
     atom    2 type  2   force =     0.00000000   -0.00005465   -0.00005503
     atom    3 type  3   force =     0.00000000    0.00007095   -0.00001711

     Total force =     0.000130     Total SCF correction =     0.000016
     SCF correction compared to forces is large: reduce conv_thr to get better values


     Computing stress (Cartesian axis) and pressure


     negative rho (up, down):  9.103E-04 0.000E+00
          total   stress  (Ry/bohr**3)                   (kbar)     P=       -0.26
  -0.00000135  -0.00000000   0.00000000           -0.20       -0.00        0.00
  -0.00000000  -0.00000052  -0.00000081           -0.00       -0.08       -0.12
   0.00000000  -0.00000081  -0.00000332            0.00       -0.12       -0.49

     Energy error            =      2.3E-07 Ry
     Gradient error          =      7.2E-05 Ry/Bohr
     Cell gradient error     =      4.9E-01 kbar

     number of scf cycles    =  27
     number of bfgs steps    =  26

     enthalpy           old  =    -449.7529981923 Ry
     enthalpy           new  =    -449.7529984191 Ry

     CASE: enthalpy          _new < enthalpy          _old

     new trust radius        =       0.0002984888 bohr
     new conv_thr            =            1.0E-10 Ry

     new unit-cell volume =    191.37380 a.u.^3 (    28.35867 Ang^3 )
     density =      6.13186 g/cm^3

CELL_PARAMETERS (alat=  5.58242261)
   0.988085424   0.000000001  -0.000000002
   0.000000000   1.126696424   0.003171298
   0.000000002  -0.002673209   0.988119850

ATOMIC_POSITIONS (crystal)
Fe               0.4999999883        0.5399594684        0.4132619820
Ti               0.0000000055        0.0400724698       -0.0866401842
H                0.5000000062        0.0399680618        0.4133782022



     Writing config-only to output data dir ./TiFeH.save/ :
     XML data file     NEW-OLD atomic charge density approx. for the potential
     New effective cutoffs (rho, wfc): 1777.65  126.99

     Check: negative core charge=   -0.000002

     negative rho (up, down):  9.103E-04 0.000E+00

     total cpu time spent up to now is     5824.5 secs

     per-process dynamical memory:   280.0 Mb

     Self-consistent Calculation

     iteration #  1     ecut=   124.00 Ry     beta= 0.70
     Davidson diagonalization with overlap
     ethr =  1.00E-06,  avg # of iterations =  2.0

     Threshold (ethr) on eigenvalues was too large:
     Diagonalizing with lowered threshold

     Davidson diagonalization with overlap
     ethr =  1.16E-10,  avg # of iterations =  6.2

     negative rho (up, down):  9.103E-04 0.000E+00

     total cpu time spent up to now is     5872.7 secs

     total energy              =    -449.75299848 Ry
     estimated scf accuracy    <       0.00000002 Ry

     iteration #  2     ecut=   124.00 Ry     beta= 0.70
     Davidson diagonalization with overlap
     ethr =  8.15E-11,  avg # of iterations =  2.0

     negative rho (up, down):  9.103E-04 0.000E+00

     total cpu time spent up to now is     5888.0 secs

     total energy              =    -449.75299849 Ry
     estimated scf accuracy    <          4.8E-09 Ry

     iteration #  3     ecut=   124.00 Ry     beta= 0.70
     Davidson diagonalization with overlap
     ethr =  1.66E-11,  avg # of iterations =  4.0

     negative rho (up, down):  9.103E-04 0.000E+00

     total cpu time spent up to now is     5907.5 secs

     total energy              =    -449.75299848 Ry
     estimated scf accuracy    <       0.00000029 Ry

     iteration #  4     ecut=   124.00 Ry     beta= 0.70
     Davidson diagonalization with overlap
     ethr =  1.66E-11,  avg # of iterations =  3.9

     negative rho (up, down):  9.103E-04 0.000E+00

     total cpu time spent up to now is     5926.0 secs

     total energy              =    -449.75299849 Ry
     estimated scf accuracy    <          9.2E-10 Ry

     iteration #  5     ecut=   124.00 Ry     beta= 0.70
     Davidson diagonalization with overlap
     ethr =  3.19E-12,  avg # of iterations =  1.9

     negative rho (up, down):  9.103E-04 0.000E+00

     total cpu time spent up to now is     5940.4 secs

     End of self-consistent calculation

     Number of k-points >= 100: set verbosity='high' to print the bands.

     the Fermi energy is    16.2226 ev

!    total energy              =    -449.75299849 Ry
     estimated scf accuracy    <          1.8E-11 Ry
     smearing contrib. (-TS)   =       0.00004440 Ry
     internal energy E=F+TS    =    -449.75304290 Ry

     The total energy is F=E-TS. E is the sum of the following terms:
     one-electron contribution =    -161.20532998 Ry
     hartree contribution      =      95.81677420 Ry
     xc contribution           =     -53.63135709 Ry
     ewald contribution        =    -254.58073031 Ry
     one-center paw contrib.   =     -76.15239972 Ry

     convergence has been achieved in   5 iterations

     negative rho (up, down):  9.103E-04 0.000E+00

     Forces acting on atoms (cartesian axes, Ry/au):

     atom    1 type  1   force =     0.00000000    0.00004126    0.00004630
     atom    2 type  2   force =    -0.00000000   -0.00004091   -0.00003180
     atom    3 type  3   force =    -0.00000000   -0.00000036   -0.00001450

     Total force =     0.000082     Total SCF correction =     0.000009
     SCF correction compared to forces is large: reduce conv_thr to get better values


     Computing stress (Cartesian axis) and pressure


     negative rho (up, down):  9.103E-04 0.000E+00
          total   stress  (Ry/bohr**3)                   (kbar)     P=       -0.07
  -0.00000088  -0.00000000  -0.00000000           -0.13       -0.00       -0.00
  -0.00000000   0.00000095  -0.00000031           -0.00        0.14       -0.05
  -0.00000000  -0.00000031  -0.00000159           -0.00       -0.05       -0.23

     Energy error            =      7.5E-08 Ry
     Gradient error          =      4.6E-05 Ry/Bohr
     Cell gradient error     =      2.3E-01 kbar

     number of scf cycles    =  28
     number of bfgs steps    =  27

     enthalpy           old  =    -449.7529984191 Ry
     enthalpy           new  =    -449.7529984938 Ry

     CASE: enthalpy          _new < enthalpy          _old

     new trust radius        =       0.0002402122 bohr
     new conv_thr            =            1.0E-10 Ry

     new unit-cell volume =    191.36661 a.u.^3 (    28.35761 Ang^3 )
     density =      6.13209 g/cm^3

CELL_PARAMETERS (alat=  5.58242261)
   0.988085178   0.000000000  -0.000000002
  -0.000000000   1.126728014   0.003106928
   0.000000002  -0.002745349   0.988055246

ATOMIC_POSITIONS (crystal)
Fe               0.4999999886        0.5399686663        0.4132791179
Ti               0.0000000054        0.0400438087       -0.0866540733
H                0.5000000061        0.0399875250        0.4133749554



     Writing config-only to output data dir ./TiFeH.save/ :
     XML data file     NEW-OLD atomic charge density approx. for the potential
     New effective cutoffs (rho, wfc): 1777.74  127.00

     Check: negative core charge=   -0.000002

     negative rho (up, down):  9.103E-04 0.000E+00

     total cpu time spent up to now is     5946.3 secs

     per-process dynamical memory:   280.0 Mb

     Self-consistent Calculation

     iteration #  1     ecut=   124.00 Ry     beta= 0.70
     Davidson diagonalization with overlap
     ethr =  1.00E-06,  avg # of iterations =  2.0

     Threshold (ethr) on eigenvalues was too large:
     Diagonalizing with lowered threshold

     Davidson diagonalization with overlap
     ethr =  7.99E-11,  avg # of iterations =  6.0

     negative rho (up, down):  9.103E-04 0.000E+00

     total cpu time spent up to now is     5993.0 secs

     total energy              =    -449.75299851 Ry
     estimated scf accuracy    <       0.00000002 Ry

     iteration #  2     ecut=   124.00 Ry     beta= 0.70
     Davidson diagonalization with overlap
     ethr =  6.97E-11,  avg # of iterations =  3.1

     negative rho (up, down):  9.104E-04 0.000E+00

     total cpu time spent up to now is     6010.1 secs

     total energy              =    -449.75299848 Ry
     estimated scf accuracy    <       0.00000050 Ry

     iteration #  3     ecut=   124.00 Ry     beta= 0.70
     Davidson diagonalization with overlap
     ethr =  6.97E-11,  avg # of iterations =  3.4

     negative rho (up, down):  9.103E-04 0.000E+00

     total cpu time spent up to now is     6027.2 secs

     total energy              =    -449.75299852 Ry
     estimated scf accuracy    <       0.00000005 Ry

     iteration #  4     ecut=   124.00 Ry     beta= 0.70
     Davidson diagonalization with overlap
     ethr =  6.97E-11,  avg # of iterations =  1.2

     negative rho (up, down):  9.104E-04 0.000E+00

     total cpu time spent up to now is     6040.6 secs

     total energy              =    -449.75299853 Ry
     estimated scf accuracy    <          1.8E-10 Ry

     iteration #  5     ecut=   124.00 Ry     beta= 0.70
     Davidson diagonalization with overlap
     ethr =  6.34E-13,  avg # of iterations =  4.0

     negative rho (up, down):  9.103E-04 0.000E+00

     total cpu time spent up to now is     6060.1 secs

     End of self-consistent calculation

     Number of k-points >= 100: set verbosity='high' to print the bands.

     the Fermi energy is    16.2230 ev

!    total energy              =    -449.75299853 Ry
     estimated scf accuracy    <          1.2E-11 Ry
     smearing contrib. (-TS)   =       0.00004454 Ry
     internal energy E=F+TS    =    -449.75304306 Ry

     The total energy is F=E-TS. E is the sum of the following terms:
     one-electron contribution =    -161.19992032 Ry
     hartree contribution      =      95.81487404 Ry
     xc contribution           =     -53.63141728 Ry
     ewald contribution        =    -254.58417922 Ry
     one-center paw contrib.   =     -76.15240028 Ry

     convergence has been achieved in   5 iterations

     negative rho (up, down):  9.103E-04 0.000E+00

     Forces acting on atoms (cartesian axes, Ry/au):

     atom    1 type  1   force =     0.00000000    0.00004723    0.00003500
     atom    2 type  2   force =    -0.00000000   -0.00002736   -0.00001799
     atom    3 type  3   force =    -0.00000000   -0.00001988   -0.00001701

     Total force =     0.000072     Total SCF correction =     0.000008
     SCF correction compared to forces is large: reduce conv_thr to get better values


     Computing stress (Cartesian axis) and pressure


     negative rho (up, down):  9.103E-04 0.000E+00
          total   stress  (Ry/bohr**3)                   (kbar)     P=       -0.04
  -0.00000077  -0.00000000   0.00000000           -0.11       -0.00        0.00
  -0.00000000   0.00000034   0.00000007           -0.00        0.05        0.01
   0.00000000   0.00000007  -0.00000030            0.00        0.01       -0.04

     Energy error            =      3.3E-08 Ry
     Gradient error          =      4.7E-05 Ry/Bohr
     Cell gradient error     =      1.1E-01 kbar

     number of scf cycles    =  29
     number of bfgs steps    =  28

     enthalpy           old  =    -449.7529984938 Ry
     enthalpy           new  =    -449.7529985263 Ry

     CASE: enthalpy          _new < enthalpy          _old

     new trust radius        =       0.0001961967 bohr
     new conv_thr            =            1.0E-10 Ry

     new unit-cell volume =    191.35813 a.u.^3 (    28.35635 Ang^3 )
     density =      6.13236 g/cm^3

CELL_PARAMETERS (alat=  5.58242261)
   0.988061388   0.000000000  -0.000000002
  -0.000000000   1.126736664   0.003100440
   0.000000002  -0.002753117   0.988027677

ATOMIC_POSITIONS (crystal)
Fe               0.4999999890        0.5399832763        0.4133105454
Ti               0.0000000051        0.0400182307       -0.0866582335
H                0.5000000059        0.0399984931        0.4133476880



     Writing config-only to output data dir ./TiFeH.save/ :
     XML data file     NEW-OLD atomic charge density approx. for the potential
     New effective cutoffs (rho, wfc): 1777.84  127.01

     Check: negative core charge=   -0.000002

     negative rho (up, down):  9.103E-04 0.000E+00

     total cpu time spent up to now is     6066.0 secs

     per-process dynamical memory:   280.0 Mb

     Self-consistent Calculation

     iteration #  1     ecut=   124.00 Ry     beta= 0.70
     Davidson diagonalization with overlap
     ethr =  1.00E-06,  avg # of iterations =  2.0

     Threshold (ethr) on eigenvalues was too large:
     Diagonalizing with lowered threshold

     Davidson diagonalization with overlap
     ethr =  1.02E-10,  avg # of iterations =  6.1

     negative rho (up, down):  9.103E-04 0.000E+00

     total cpu time spent up to now is     6112.8 secs

     total energy              =    -449.75299852 Ry
     estimated scf accuracy    <       0.00000003 Ry

     iteration #  2     ecut=   124.00 Ry     beta= 0.70
     Davidson diagonalization with overlap
     ethr =  9.53E-11,  avg # of iterations =  4.0

     negative rho (up, down):  9.104E-04 0.000E+00

     total cpu time spent up to now is     6131.6 secs

     total energy              =    -449.75299844 Ry
     estimated scf accuracy    <       0.00000155 Ry

     iteration #  3     ecut=   124.00 Ry     beta= 0.70
     Davidson diagonalization with overlap
     ethr =  9.53E-11,  avg # of iterations =  3.9

     negative rho (up, down):  9.104E-04 0.000E+00

     total cpu time spent up to now is     6150.0 secs

     total energy              =    -449.75299854 Ry
     estimated scf accuracy    <       0.00000002 Ry

     iteration #  4     ecut=   124.00 Ry     beta= 0.70
     Davidson diagonalization with overlap
     ethr =  6.56E-11,  avg # of iterations =  1.1

     negative rho (up, down):  9.104E-04 0.000E+00

     total cpu time spent up to now is     6163.1 secs

     total energy              =    -449.75299854 Ry
     estimated scf accuracy    <          2.5E-10 Ry

     iteration #  5     ecut=   124.00 Ry     beta= 0.70
     Davidson diagonalization with overlap
     ethr =  8.65E-13,  avg # of iterations =  4.1

     negative rho (up, down):  9.104E-04 0.000E+00

     total cpu time spent up to now is     6183.9 secs

     End of self-consistent calculation

     Number of k-points >= 100: set verbosity='high' to print the bands.

     the Fermi energy is    16.2238 ev

!    total energy              =    -449.75299854 Ry
     estimated scf accuracy    <          1.9E-11 Ry
     smearing contrib. (-TS)   =       0.00004462 Ry
     internal energy E=F+TS    =    -449.75304316 Ry

     The total energy is F=E-TS. E is the sum of the following terms:
     one-electron contribution =    -161.19378386 Ry
     hartree contribution      =      95.81271923 Ry
     xc contribution           =     -53.63149284 Ry
     ewald contribution        =    -254.58808418 Ry
     one-center paw contrib.   =     -76.15240150 Ry

     convergence has been achieved in   5 iterations

     negative rho (up, down):  9.104E-04 0.000E+00

     Forces acting on atoms (cartesian axes, Ry/au):

     atom    1 type  1   force =    -0.00000000    0.00003237    0.00001651
     atom    2 type  2   force =     0.00000000   -0.00001256   -0.00001092
     atom    3 type  3   force =     0.00000000   -0.00001981   -0.00000559

     Total force =     0.000045     Total SCF correction =     0.000017
     SCF correction compared to forces is large: reduce conv_thr to get better values


     Computing stress (Cartesian axis) and pressure


     negative rho (up, down):  9.104E-04 0.000E+00
          total   stress  (Ry/bohr**3)                   (kbar)     P=        0.06
   0.00000007  -0.00000000  -0.00000000            0.01       -0.00       -0.00
  -0.00000000   0.00000055   0.00000010           -0.00        0.08        0.01
  -0.00000000   0.00000010   0.00000063           -0.00        0.01        0.09

     Energy error            =      1.3E-08 Ry
     Gradient error          =      3.2E-05 Ry/Bohr
     Cell gradient error     =      9.2E-02 kbar

     bfgs converged in  30 scf cycles and  29 bfgs steps
     (criteria: energy <  1.0E-04 Ry, force <  1.0E-03 Ry/Bohr, cell <  1.0E-01 kbar)

     End of BFGS Geometry Optimization

     Final enthalpy           =    -449.7529985396 Ry

     File ./TiFeH.bfgs deleted, as requested
Begin final coordinates
     new unit-cell volume =    191.35813 a.u.^3 (    28.35635 Ang^3 )
     density =      6.13236 g/cm^3

CELL_PARAMETERS (alat=  5.58242261)
   0.988061388   0.000000000  -0.000000002
  -0.000000000   1.126736664   0.003100440
   0.000000002  -0.002753117   0.988027677

ATOMIC_POSITIONS (crystal)
Fe               0.4999999890        0.5399832763        0.4133105454
Ti               0.0000000051        0.0400182307       -0.0866582335
H                0.5000000059        0.0399984931        0.4133476880
End final coordinates



     Writing config-only to output data dir ./TiFeH.save/ :
     XML data file
     Final scf calculation at the relaxed structure.
     The G-vectors are recalculated for the final unit cell
     Results may differ from those at the preceding step.

     Parallelization info
     --------------------
     sticks:   dense  smooth     PW     G-vecs:    dense   smooth      PW
     Min         299      85     24                14614     2234     349
     Max         300      86     26                14618     2238     351
     Sum        4795    1375    397               233855    35777    5605

     Using Slab Decomposition



     bravais-lattice index     =            0
     lattice parameter (alat)  =       5.5824  a.u.
     unit-cell volume          =     191.3581 (a.u.)^3
     number of atoms/cell      =            3
     number of atomic types    =            3
     number of electrons       =        29.00
     number of Kohn-Sham states=           19
     kinetic-energy cutoff     =     124.0000  Ry
     charge density cutoff     =    1736.0000  Ry
     scf convergence threshold =      1.0E-10
     mixing beta               =       0.7000
     number of iterations used =            8  plain     mixing
     press convergence thresh. =      1.0E-01
     Exchange-correlation= PBE
                           (   1   4   3   4   0   0   0)

     celldm(1)=   5.582423  celldm(2)=   0.000000  celldm(3)=   0.000000
     celldm(4)=   0.000000  celldm(5)=   0.000000  celldm(6)=   0.000000

     crystal axes: (cart. coord. in units of alat)
               a(1) = (   0.988061   0.000000  -0.000000 )  
               a(2) = (  -0.000000   1.126737   0.003100 )  
               a(3) = (   0.000000  -0.002753   0.988028 )  

     reciprocal axes: (cart. coord. in units 2 pi/alat)
               b(1) = (  1.012083  0.000000 -0.000000 )  
               b(2) = ( -0.000000  0.887512  0.002473 )  
               b(3) = (  0.000000 -0.002785  1.012110 )  


     PseudoPot. # 1 for Fe read from file:
     ../../pseudos/Fe.pbe-spn-kjpaw_psl.0.2.1.UPF
     MD5 check sum: e86618425769142926afa95317d90200
     Pseudo is Projector augmented-wave + core cor, Zval = 16.0
     Generated using "atomic" code by A. Dal Corso  v.5.0.99 svn rev. 10869
     Shape of augmentation charge: PSQ
     Using radial grid of 1191 points,  6 beta functions with: 
                l(1) =   0
                l(2) =   0
                l(3) =   1
                l(4) =   1
                l(5) =   2
                l(6) =   2
     Q(r) pseudized with 0 coefficients 


     PseudoPot. # 2 for Ti read from file:
     ../../pseudos/ti_pbe_v1.4.uspp.F.UPF
     MD5 check sum: 88a00a6731bd790ddea75d31a80cb452
     Pseudo is Ultrasoft + core correction, Zval = 12.0
     Generated by new atomic code, or converted to UPF format
     Using radial grid of  851 points,  6 beta functions with: 
                l(1) =   0
                l(2) =   0
                l(3) =   1
                l(4) =   1
                l(5) =   2
                l(6) =   2
     Q(r) pseudized with  6 coefficients,  rinner =    1.000   1.000   1.000
                                                       1.000   1.000

     PseudoPot. # 3 for H  read from file:
     ../../pseudos/H.pbe-kjpaw_psl.1.0.0.UPF
     MD5 check sum: d81a744832360e4a8af0b0b5b123bc2a
     Pseudo is Projector augmented-wave, Zval =  1.0
     Generated using &quot;atomic&quot; code by A. Dal Corso  v.6.3MaX
     Shape of augmentation charge: PSQ
     Using radial grid of  929 points,  2 beta functions with: 
                l(1) =   0
                l(2) =   0
     Q(r) pseudized with 0 coefficients 


     atomic species   valence    mass     pseudopotential
     Fe               16.00    55.84500     Fe( 1.00)
     Ti               12.00    47.86700     Ti( 1.00)
     H                 1.00     1.00784     H ( 1.00)

     No symmetry found



   Cartesian axes

     site n.     atom                  positions (alat units)
         1        Fe     tau(   1) = (   0.4940307   0.6072811   0.4100364  )
         2        Ti     tau(   2) = (   0.0000000   0.0453286  -0.0854967  )
         3        H      tau(   3) = (   0.4940307   0.0439298   0.4085230  )

     number of k points=  1688  Marzari-Vanderbilt smearing, width (Ry)=  0.0050

     Number of k-points >= 100: set verbosity='high' to print them.

     Dense  grid:   233855 G-vectors     FFT dimensions: (  75,  90,  75)

     Smooth grid:    35777 G-vectors     FFT dimensions: (  40,  45,  40)

     Estimated max dynamical RAM per process >     210.67 MB

     Estimated total dynamical RAM >       3.29 GB

     Check: negative core charge=   -0.000001

     Initial potential from superposition of free atoms

     starting charge      27.9995, renormalised to      29.0000

     negative rho (up, down):  1.372E-03 0.000E+00
     Starting wfcs are   24 randomized atomic wfcs
     Checking if some PAW data can be deallocated... 

     total cpu time spent up to now is     6197.6 secs

     per-process dynamical memory:   283.7 Mb

     Self-consistent Calculation

     iteration #  1     ecut=   124.00 Ry     beta= 0.70
     Davidson diagonalization with overlap
     c_bands:  1 eigenvalues not converged
     c_bands:  1 eigenvalues not converged
     c_bands:  1 eigenvalues not converged
     c_bands:  1 eigenvalues not converged
     c_bands:  1 eigenvalues not converged
     c_bands:  1 eigenvalues not converged
     c_bands:  1 eigenvalues not converged
     c_bands:  1 eigenvalues not converged
     c_bands:  1 eigenvalues not converged
     c_bands:  1 eigenvalues not converged
     c_bands:  1 eigenvalues not converged
     c_bands:  1 eigenvalues not converged
     c_bands:  1 eigenvalues not converged
     c_bands:  1 eigenvalues not converged
     c_bands:  1 eigenvalues not converged
     c_bands:  1 eigenvalues not converged
     c_bands:  1 eigenvalues not converged
     c_bands:  1 eigenvalues not converged
     c_bands:  1 eigenvalues not converged
     c_bands:  1 eigenvalues not converged
     c_bands:  1 eigenvalues not converged
     c_bands:  1 eigenvalues not converged
     c_bands:  1 eigenvalues not converged
     c_bands:  1 eigenvalues not converged
     c_bands:  1 eigenvalues not converged
     c_bands:  1 eigenvalues not converged
     c_bands:  1 eigenvalues not converged
     c_bands:  1 eigenvalues not converged
     c_bands:  1 eigenvalues not converged
     c_bands:  1 eigenvalues not converged
     c_bands:  1 eigenvalues not converged
     c_bands:  1 eigenvalues not converged
     c_bands:  1 eigenvalues not converged
     c_bands:  1 eigenvalues not converged
     c_bands:  1 eigenvalues not converged
     c_bands:  1 eigenvalues not converged
     c_bands:  1 eigenvalues not converged
     c_bands:  1 eigenvalues not converged
     c_bands:  1 eigenvalues not converged
     c_bands:  1 eigenvalues not converged
     c_bands:  1 eigenvalues not converged
     c_bands:  1 eigenvalues not converged
     c_bands:  1 eigenvalues not converged
     c_bands:  1 eigenvalues not converged
     c_bands:  1 eigenvalues not converged
     c_bands:  1 eigenvalues not converged
     c_bands:  1 eigenvalues not converged
     c_bands:  1 eigenvalues not converged
     c_bands:  1 eigenvalues not converged
     c_bands:  1 eigenvalues not converged
     c_bands:  1 eigenvalues not converged
     c_bands:  1 eigenvalues not converged
     c_bands:  1 eigenvalues not converged
     c_bands:  1 eigenvalues not converged
     c_bands:  1 eigenvalues not converged
     c_bands:  1 eigenvalues not converged
     c_bands:  1 eigenvalues not converged
     c_bands:  1 eigenvalues not converged
     c_bands:  1 eigenvalues not converged
     c_bands:  1 eigenvalues not converged
     c_bands:  1 eigenvalues not converged
     c_bands:  1 eigenvalues not converged
     c_bands:  1 eigenvalues not converged
     c_bands:  1 eigenvalues not converged
     c_bands:  1 eigenvalues not converged
     c_bands:  2 eigenvalues not converged
     c_bands:  1 eigenvalues not converged
     c_bands:  1 eigenvalues not converged
     c_bands:  1 eigenvalues not converged
     c_bands:  1 eigenvalues not converged
     c_bands:  1 eigenvalues not converged
     c_bands:  1 eigenvalues not converged
     c_bands:  1 eigenvalues not converged
     c_bands:  1 eigenvalues not converged
     c_bands:  1 eigenvalues not converged
     c_bands:  1 eigenvalues not converged
     c_bands:  1 eigenvalues not converged
     c_bands:  1 eigenvalues not converged
     c_bands:  1 eigenvalues not converged
     c_bands:  1 eigenvalues not converged
     c_bands:  1 eigenvalues not converged
     c_bands:  1 eigenvalues not converged
     c_bands:  1 eigenvalues not converged
     c_bands:  1 eigenvalues not converged
     c_bands:  1 eigenvalues not converged
     c_bands:  1 eigenvalues not converged
     c_bands:  1 eigenvalues not converged
     c_bands:  1 eigenvalues not converged
     c_bands:  1 eigenvalues not converged
     c_bands:  1 eigenvalues not converged
     c_bands:  1 eigenvalues not converged
     c_bands:  1 eigenvalues not converged
     c_bands:  1 eigenvalues not converged
     c_bands:  1 eigenvalues not converged
     c_bands:  1 eigenvalues not converged
     c_bands:  1 eigenvalues not converged
     c_bands:  1 eigenvalues not converged
     c_bands:  1 eigenvalues not converged
     c_bands:  1 eigenvalues not converged
     c_bands:  1 eigenvalues not converged
     c_bands:  1 eigenvalues not converged
     c_bands:  1 eigenvalues not converged
     c_bands:  1 eigenvalues not converged
     c_bands:  1 eigenvalues not converged
     c_bands:  1 eigenvalues not converged
     c_bands:  1 eigenvalues not converged
     c_bands:  1 eigenvalues not converged
     c_bands:  1 eigenvalues not converged
     c_bands:  1 eigenvalues not converged
     c_bands:  1 eigenvalues not converged
     c_bands:  1 eigenvalues not converged
     c_bands:  1 eigenvalues not converged
     c_bands:  1 eigenvalues not converged
     c_bands:  1 eigenvalues not converged
     c_bands:  1 eigenvalues not converged
     c_bands:  1 eigenvalues not converged
     c_bands:  1 eigenvalues not converged
     c_bands:  1 eigenvalues not converged
     c_bands:  1 eigenvalues not converged
     c_bands:  1 eigenvalues not converged
     c_bands:  1 eigenvalues not converged
     c_bands:  1 eigenvalues not converged
     c_bands:  1 eigenvalues not converged
     c_bands:  1 eigenvalues not converged
     c_bands:  1 eigenvalues not converged
     c_bands:  1 eigenvalues not converged
     c_bands:  1 eigenvalues not converged
     c_bands:  1 eigenvalues not converged
     c_bands:  1 eigenvalues not converged
     c_bands:  1 eigenvalues not converged
     c_bands:  1 eigenvalues not converged
     c_bands:  1 eigenvalues not converged
     c_bands:  1 eigenvalues not converged
     c_bands:  1 eigenvalues not converged
     c_bands:  1 eigenvalues not converged
     c_bands:  1 eigenvalues not converged
     c_bands:  1 eigenvalues not converged
     c_bands:  1 eigenvalues not converged
     c_bands:  1 eigenvalues not converged
     c_bands:  1 eigenvalues not converged
     c_bands:  1 eigenvalues not converged
     c_bands:  1 eigenvalues not converged
     c_bands:  1 eigenvalues not converged
     c_bands:  1 eigenvalues not converged
     c_bands:  1 eigenvalues not converged
     c_bands:  1 eigenvalues not converged
     c_bands:  1 eigenvalues not converged
     c_bands:  1 eigenvalues not converged
     c_bands:  1 eigenvalues not converged
     c_bands:  1 eigenvalues not converged
     c_bands:  1 eigenvalues not converged
     c_bands:  1 eigenvalues not converged
     c_bands:  1 eigenvalues not converged
     c_bands:  1 eigenvalues not converged
     c_bands:  1 eigenvalues not converged
     c_bands:  1 eigenvalues not converged
     c_bands:  1 eigenvalues not converged
     c_bands:  1 eigenvalues not converged
     c_bands:  1 eigenvalues not converged
     c_bands:  1 eigenvalues not converged
     c_bands:  1 eigenvalues not converged
     c_bands:  1 eigenvalues not converged
     c_bands:  1 eigenvalues not converged
     c_bands:  1 eigenvalues not converged
     c_bands:  1 eigenvalues not converged
     c_bands:  1 eigenvalues not converged
     c_bands:  1 eigenvalues not converged
     c_bands:  1 eigenvalues not converged
     c_bands:  1 eigenvalues not converged
     c_bands:  1 eigenvalues not converged
     c_bands:  1 eigenvalues not converged
     c_bands:  1 eigenvalues not converged
     c_bands:  1 eigenvalues not converged
     c_bands:  1 eigenvalues not converged
     c_bands:  1 eigenvalues not converged
     c_bands:  1 eigenvalues not converged
     c_bands:  1 eigenvalues not converged
     c_bands:  1 eigenvalues not converged
     c_bands:  1 eigenvalues not converged
     c_bands:  1 eigenvalues not converged
     c_bands:  1 eigenvalues not converged
     c_bands:  1 eigenvalues not converged
     c_bands:  1 eigenvalues not converged
     c_bands:  1 eigenvalues not converged
     c_bands:  1 eigenvalues not converged
     c_bands:  1 eigenvalues not converged
     c_bands:  1 eigenvalues not converged
     c_bands:  1 eigenvalues not converged
     c_bands:  1 eigenvalues not converged
     c_bands:  1 eigenvalues not converged
     c_bands:  1 eigenvalues not converged
     c_bands:  1 eigenvalues not converged
     c_bands:  1 eigenvalues not converged
     c_bands:  1 eigenvalues not converged
     c_bands:  1 eigenvalues not converged
     c_bands:  1 eigenvalues not converged
     c_bands:  1 eigenvalues not converged
     c_bands:  2 eigenvalues not converged
     c_bands:  1 eigenvalues not converged
     c_bands:  1 eigenvalues not converged
     c_bands:  1 eigenvalues not converged
     c_bands:  1 eigenvalues not converged
     c_bands:  1 eigenvalues not converged
     c_bands:  1 eigenvalues not converged
     c_bands:  1 eigenvalues not converged
     c_bands:  1 eigenvalues not converged
     c_bands:  1 eigenvalues not converged
     c_bands:  1 eigenvalues not converged
     c_bands:  1 eigenvalues not converged
     c_bands:  1 eigenvalues not converged
     c_bands:  1 eigenvalues not converged
     c_bands:  1 eigenvalues not converged
     c_bands:  1 eigenvalues not converged
     c_bands:  1 eigenvalues not converged
     c_bands:  1 eigenvalues not converged
     c_bands:  1 eigenvalues not converged
     c_bands:  1 eigenvalues not converged
     c_bands:  1 eigenvalues not converged
     c_bands:  1 eigenvalues not converged
     c_bands:  1 eigenvalues not converged
     c_bands:  1 eigenvalues not converged
     c_bands:  1 eigenvalues not converged
     c_bands:  1 eigenvalues not converged
     c_bands:  1 eigenvalues not converged
     c_bands:  1 eigenvalues not converged
     c_bands:  2 eigenvalues not converged
     c_bands:  1 eigenvalues not converged
     c_bands:  1 eigenvalues not converged
     c_bands:  1 eigenvalues not converged
     c_bands:  1 eigenvalues not converged
     c_bands:  1 eigenvalues not converged
     c_bands:  1 eigenvalues not converged
     c_bands:  1 eigenvalues not converged
     c_bands:  2 eigenvalues not converged
     c_bands:  1 eigenvalues not converged
     c_bands:  1 eigenvalues not converged
     c_bands:  1 eigenvalues not converged
     c_bands:  1 eigenvalues not converged
     c_bands:  1 eigenvalues not converged
     c_bands:  1 eigenvalues not converged
     c_bands:  1 eigenvalues not converged
     c_bands:  1 eigenvalues not converged
     c_bands:  1 eigenvalues not converged
     c_bands:  1 eigenvalues not converged
     c_bands:  1 eigenvalues not converged
     c_bands:  1 eigenvalues not converged
     c_bands:  1 eigenvalues not converged
     c_bands:  1 eigenvalues not converged
     c_bands:  1 eigenvalues not converged
     c_bands:  1 eigenvalues not converged
     c_bands:  1 eigenvalues not converged
     c_bands:  1 eigenvalues not converged
     c_bands:  1 eigenvalues not converged
     c_bands:  1 eigenvalues not converged
     c_bands:  1 eigenvalues not converged
     c_bands:  1 eigenvalues not converged
     ethr =  1.00E-06,  avg # of iterations = 16.9

     negative rho (up, down):  1.281E-04 0.000E+00

     total cpu time spent up to now is     6293.9 secs

     total energy              =    -435.02471720 Ry
     estimated scf accuracy    <      18.61456078 Ry

     iteration #  2     ecut=   124.00 Ry     beta= 0.70
     Davidson diagonalization with overlap
     ethr =  1.00E-02,  avg # of iterations =  6.3

     negative rho (up, down):  3.851E-05 0.000E+00

     total cpu time spent up to now is     6330.7 secs

     total energy              =    -449.01448435 Ry
     estimated scf accuracy    <      73.16916345 Ry

     iteration #  3     ecut=   124.00 Ry     beta= 0.70
     Davidson diagonalization with overlap
     ethr =  1.00E-02,  avg # of iterations =  3.1

     negative rho (up, down):  2.168E-04 0.000E+00

     total cpu time spent up to now is     6354.5 secs

     total energy              =    -450.24027390 Ry
     estimated scf accuracy    <      17.65964513 Ry

     iteration #  4     ecut=   124.00 Ry     beta= 0.70
     Davidson diagonalization with overlap
     ethr =  1.00E-02,  avg # of iterations =  2.3

     negative rho (up, down):  2.825E-04 0.000E+00

     total cpu time spent up to now is     6373.0 secs

     total energy              =    -450.42284328 Ry
     estimated scf accuracy    <       6.75260843 Ry

     iteration #  5     ecut=   124.00 Ry     beta= 0.70
     Davidson diagonalization with overlap
     ethr =  1.00E-02,  avg # of iterations =  1.1

     negative rho (up, down):  8.422E-04 0.000E+00

     total cpu time spent up to now is     6388.3 secs

     total energy              =    -449.47452426 Ry
     estimated scf accuracy    <       5.53235242 Ry

     iteration #  6     ecut=   124.00 Ry     beta= 0.70
     Davidson diagonalization with overlap
     ethr =  1.00E-02,  avg # of iterations =  2.6

     negative rho (up, down):  8.578E-04 0.000E+00

     total cpu time spent up to now is     6405.9 secs

     total energy              =    -449.72680961 Ry
     estimated scf accuracy    <       0.31160380 Ry

     iteration #  7     ecut=   124.00 Ry     beta= 0.70
     Davidson diagonalization with overlap
     ethr =  1.07E-03,  avg # of iterations =  3.8

     negative rho (up, down):  6.851E-04 0.000E+00

     total cpu time spent up to now is     6425.7 secs

     total energy              =    -449.78825537 Ry
     estimated scf accuracy    <       0.11582526 Ry

     iteration #  8     ecut=   124.00 Ry     beta= 0.70
     Davidson diagonalization with overlap
     ethr =  3.99E-04,  avg # of iterations =  2.2

     negative rho (up, down):  1.098E-03 0.000E+00

     total cpu time spent up to now is     6442.8 secs

     total energy              =    -449.53188074 Ry
     estimated scf accuracy    <       1.20746157 Ry

     iteration #  9     ecut=   124.00 Ry     beta= 0.70
     Davidson diagonalization with overlap
     ethr =  3.99E-04,  avg # of iterations =  4.8

     negative rho (up, down):  7.030E-04 0.000E+00

     total cpu time spent up to now is     6468.2 secs

     total energy              =    -449.49120413 Ry
     estimated scf accuracy    <       4.35959906 Ry

     iteration # 10     ecut=   124.00 Ry     beta= 0.70
     Davidson diagonalization with overlap
     ethr =  3.99E-04,  avg # of iterations =  3.8

     negative rho (up, down):  6.141E-04 0.000E+00

     total cpu time spent up to now is     6489.9 secs

     total energy              =    -449.79099295 Ry
     estimated scf accuracy    <       0.09232963 Ry

     iteration # 11     ecut=   124.00 Ry     beta= 0.70
     Davidson diagonalization with overlap
     ethr =  3.18E-04,  avg # of iterations =  2.0

     negative rho (up, down):  6.395E-04 0.000E+00

     total cpu time spent up to now is     6506.7 secs

     total energy              =    -449.80389586 Ry
     estimated scf accuracy    <       0.77437001 Ry

     iteration # 12     ecut=   124.00 Ry     beta= 0.70
     Davidson diagonalization with overlap
     ethr =  3.18E-04,  avg # of iterations =  1.0

     negative rho (up, down):  7.079E-04 0.000E+00

     total cpu time spent up to now is     6521.9 secs

     total energy              =    -449.76748498 Ry
     estimated scf accuracy    <       0.66657079 Ry

     iteration # 13     ecut=   124.00 Ry     beta= 0.70
     Davidson diagonalization with overlap
     ethr =  3.18E-04,  avg # of iterations =  1.0

     negative rho (up, down):  7.128E-04 0.000E+00

     total cpu time spent up to now is     6537.1 secs

     total energy              =    -449.77188397 Ry
     estimated scf accuracy    <       0.26928343 Ry

     iteration # 14     ecut=   124.00 Ry     beta= 0.70
     Davidson diagonalization with overlap
     ethr =  3.18E-04,  avg # of iterations =  1.0

     negative rho (up, down):  7.159E-04 0.000E+00

     total cpu time spent up to now is     6552.3 secs

     total energy              =    -449.77184355 Ry
     estimated scf accuracy    <       0.25269458 Ry

     iteration # 15     ecut=   124.00 Ry     beta= 0.70
     Davidson diagonalization with overlap
     ethr =  3.18E-04,  avg # of iterations =  1.0

     negative rho (up, down):  1.203E-03 0.000E+00

     total cpu time spent up to now is     6567.5 secs

     total energy              =    -449.71420746 Ry
     estimated scf accuracy    <       0.24851593 Ry

     iteration # 16     ecut=   124.00 Ry     beta= 0.70
     Davidson diagonalization with overlap
     ethr =  3.18E-04,  avg # of iterations =  3.0

     negative rho (up, down):  1.489E-03 0.000E+00

     total cpu time spent up to now is     6588.5 secs

     total energy              =    -449.81282337 Ry
     estimated scf accuracy    <       0.30068065 Ry

     iteration # 17     ecut=   124.00 Ry     beta= 0.70
     Davidson diagonalization with overlap
     ethr =  3.18E-04,  avg # of iterations =  2.7

     negative rho (up, down):  1.205E-03 0.000E+00

     total cpu time spent up to now is     6607.0 secs

     total energy              =    -449.75998518 Ry
     estimated scf accuracy    <       1.77712083 Ry

     iteration # 18     ecut=   124.00 Ry     beta= 0.70
     Davidson diagonalization with overlap
     ethr =  3.18E-04,  avg # of iterations =  1.2

     negative rho (up, down):  7.646E-04 0.000E+00

     total cpu time spent up to now is     6622.5 secs

     total energy              =    -449.71093381 Ry
     estimated scf accuracy    <       0.44870793 Ry

     iteration # 19     ecut=   124.00 Ry     beta= 0.70
     Davidson diagonalization with overlap
     ethr =  3.18E-04,  avg # of iterations =  2.7

     negative rho (up, down):  8.562E-04 0.000E+00

     total cpu time spent up to now is     6641.1 secs

     total energy              =    -449.75181255 Ry
     estimated scf accuracy    <       0.02952134 Ry

     iteration # 20     ecut=   124.00 Ry     beta= 0.70
     Davidson diagonalization with overlap
     ethr =  1.02E-04,  avg # of iterations =  1.1

     negative rho (up, down):  8.737E-04 0.000E+00

     total cpu time spent up to now is     6656.5 secs

     total energy              =    -449.75302500 Ry
     estimated scf accuracy    <       0.00151613 Ry

     iteration # 21     ecut=   124.00 Ry     beta= 0.70
     Davidson diagonalization with overlap
     ethr =  5.23E-06,  avg # of iterations =  3.2

     negative rho (up, down):  8.752E-04 0.000E+00

     total cpu time spent up to now is     6675.0 secs

     total energy              =    -449.75318927 Ry
     estimated scf accuracy    <       0.00007687 Ry

     iteration # 22     ecut=   124.00 Ry     beta= 0.70
     Davidson diagonalization with overlap
     ethr =  2.65E-07,  avg # of iterations =  3.5

     negative rho (up, down):  8.777E-04 0.000E+00

     total cpu time spent up to now is     6694.6 secs

     total energy              =    -449.75320025 Ry
     estimated scf accuracy    <       0.00011216 Ry

     iteration # 23     ecut=   124.00 Ry     beta= 0.70
     Davidson diagonalization with overlap
     ethr =  2.65E-07,  avg # of iterations =  1.0

     negative rho (up, down):  8.800E-04 0.000E+00

     total cpu time spent up to now is     6709.8 secs

     total energy              =    -449.75319797 Ry
     estimated scf accuracy    <       0.00006862 Ry

     iteration # 24     ecut=   124.00 Ry     beta= 0.70
     Davidson diagonalization with overlap
     ethr =  2.37E-07,  avg # of iterations =  1.0

     negative rho (up, down):  8.812E-04 0.000E+00

     total cpu time spent up to now is     6725.1 secs

     total energy              =    -449.75319881 Ry
     estimated scf accuracy    <       0.00001522 Ry

     iteration # 25     ecut=   124.00 Ry     beta= 0.70
     Davidson diagonalization with overlap
     ethr =  5.25E-08,  avg # of iterations =  1.3

     negative rho (up, down):  8.819E-04 0.000E+00

     total cpu time spent up to now is     6740.6 secs

     total energy              =    -449.75319920 Ry
     estimated scf accuracy    <       0.00000363 Ry

     iteration # 26     ecut=   124.00 Ry     beta= 0.70
     Davidson diagonalization with overlap
     ethr =  1.25E-08,  avg # of iterations =  2.7

     negative rho (up, down):  8.821E-04 0.000E+00

     total cpu time spent up to now is     6758.1 secs

     total energy              =    -449.75319954 Ry
     estimated scf accuracy    <       0.00000026 Ry

     iteration # 27     ecut=   124.00 Ry     beta= 0.70
     Davidson diagonalization with overlap
     ethr =  9.13E-10,  avg # of iterations =  4.7

     negative rho (up, down):  8.822E-04 0.000E+00

     total cpu time spent up to now is     6781.5 secs

     total energy              =    -449.75319976 Ry
     estimated scf accuracy    <          6.8E-09 Ry

     iteration # 28     ecut=   124.00 Ry     beta= 0.70
     Davidson diagonalization with overlap
     ethr =  2.34E-11,  avg # of iterations =  4.2

     negative rho (up, down):  8.822E-04 0.000E+00

     total cpu time spent up to now is     6804.2 secs

     total energy              =    -449.75319977 Ry
     estimated scf accuracy    <       0.00000003 Ry

     iteration # 29     ecut=   124.00 Ry     beta= 0.70
     Davidson diagonalization with overlap
     ethr =  2.34E-11,  avg # of iterations =  1.8

     negative rho (up, down):  8.821E-04 0.000E+00

     total cpu time spent up to now is     6820.7 secs

     total energy              =    -449.75319973 Ry
     estimated scf accuracy    <       0.00000006 Ry

     iteration # 30     ecut=   124.00 Ry     beta= 0.70
     Davidson diagonalization with overlap
     ethr =  2.34E-11,  avg # of iterations =  4.0

     negative rho (up, down):  8.821E-04 0.000E+00

     total cpu time spent up to now is     6844.6 secs

     total energy              =    -449.75319975 Ry
     estimated scf accuracy    <          1.2E-09 Ry

     iteration # 31     ecut=   124.00 Ry     beta= 0.70
     Davidson diagonalization with overlap
     ethr =  4.10E-12,  avg # of iterations =  2.0

     negative rho (up, down):  8.821E-04 0.000E+00

     total cpu time spent up to now is     6862.6 secs

     End of self-consistent calculation

     Number of k-points >= 100: set verbosity='high' to print the bands.

     the Fermi energy is    16.2236 ev

!    total energy              =    -449.75319976 Ry
     estimated scf accuracy    <          3.0E-11 Ry
     smearing contrib. (-TS)   =       0.00004460 Ry
     internal energy E=F+TS    =    -449.75324436 Ry

     The total energy is F=E-TS. E is the sum of the following terms:
     one-electron contribution =    -161.19343578 Ry
     hartree contribution      =      95.81237930 Ry
     xc contribution           =     -53.63166686 Ry
     ewald contribution        =    -254.58808418 Ry
     one-center paw contrib.   =     -76.15243684 Ry

     convergence has been achieved in  31 iterations

     negative rho (up, down):  8.821E-04 0.000E+00

     Forces acting on atoms (cartesian axes, Ry/au):

     atom    1 type  1   force =     0.00000001    0.00002815    0.00001440
     atom    2 type  2   force =    -0.00000000   -0.00001183   -0.00001021
     atom    3 type  3   force =    -0.00000001   -0.00001632   -0.00000419

     Total force =     0.000039     Total SCF correction =     0.000000


     Computing stress (Cartesian axis) and pressure


     negative rho (up, down):  8.821E-04 0.000E+00
          total   stress  (Ry/bohr**3)                   (kbar)     P=       -0.12
  -0.00000090   0.00000000   0.00000000           -0.13        0.00        0.00
   0.00000000  -0.00000124   0.00000010            0.00       -0.18        0.01
   0.00000000   0.00000010  -0.00000035            0.00        0.01       -0.05


     Writing all to output data dir ./TiFeH.save/ :
     XML data file
     init_run     :     15.97s CPU     16.45s WALL (       2 calls)
     electrons    :   6472.97s CPU   6663.51s WALL (      31 calls)
     update_pot   :      2.15s CPU      2.35s WALL (      29 calls)
     forces       :     29.65s CPU     30.49s WALL (      31 calls)
     stress       :    133.30s CPU    135.93s WALL (      31 calls)

     Called by init_run:
     wfcinit      :     14.63s CPU     15.06s WALL (       2 calls)
     potinit      :      0.54s CPU      0.56s WALL (       2 calls)
     hinit0       :      0.50s CPU      0.52s WALL (       2 calls)

     Called by electrons:
     c_bands      :   5775.35s CPU   5937.71s WALL (     297 calls)
     sum_band     :    657.55s CPU    680.31s WALL (     297 calls)
     v_of_rho     :      4.19s CPU      4.74s WALL (     321 calls)
     newd         :     24.91s CPU     28.55s WALL (     321 calls)
     PAW_pot      :     15.49s CPU     17.14s WALL (     350 calls)
     mix_rho      :      0.46s CPU      0.52s WALL (     297 calls)

     Called by c_bands:
     init_us_2    :    101.89s CPU    105.55s WALL ( 1159656 calls)
     cegterg      :   5607.23s CPU   5762.90s WALL (  501336 calls)

     Called by *egterg:
     cdiaghg      :    932.98s CPU    955.91s WALL ( 2321294 calls)
     h_psi        :   3965.34s CPU   4082.65s WALL ( 2385438 calls)
     s_psi        :     89.31s CPU     92.23s WALL ( 2385438 calls)
     g_psi        :     20.06s CPU     20.51s WALL ( 1880726 calls)

     Called by h_psi:
     h_psi:calbec :    148.05s CPU    152.57s WALL ( 2385438 calls)
     vloc_psi     :   3709.22s CPU   3818.86s WALL ( 2385438 calls)
     add_vuspsi   :     91.49s CPU     94.55s WALL ( 2385438 calls)

     General routines
     calbec       :    260.07s CPU    267.59s WALL ( 3825302 calls)
     fft          :     17.62s CPU     18.60s WALL (    4922 calls)
     ffts         :      0.47s CPU      0.49s WALL (     618 calls)
     fftw         :   3541.20s CPU   3643.38s WALL (69910188 calls)
     interpolate  :      0.69s CPU      0.81s WALL (     321 calls)

     Parallel routines

     PWSCF        :   6672.73s CPU   6868.26s WALL


   This run was terminated on:  15:49:45  16Nov2025            

=------------------------------------------------------------------------------=
   JOB DONE.
=------------------------------------------------------------------------------=
