
     Program PWSCF v.7.4 starts on 31Oct2025 at 13:14:22 

     This program is part of the open-source Quantum ESPRESSO suite
     for quantum simulation of materials; please cite
         "P. Giannozzi et al., J. Phys.:Condens. Matter 21 395502 (2009);
         "P. Giannozzi et al., J. Phys.:Condens. Matter 29 465901 (2017);
         "P. Giannozzi et al., J. Chem. Phys. 152 154105 (2020);
          URL http://www.quantum-espresso.org", 
     in publications or presentations arising from this work. More details at
     http://www.quantum-espresso.org/quote

     Parallel version (MPI & OpenMP), running on       8 processor cores
     Number of MPI processes:                 8
     Threads/MPI process:                     1

     MPI processes distributed on     1 nodes
     116044 MiB available memory on the printing compute node when the environment starts

     Reading input from Ni.in
Warning: card / ignored

     Current dimensions of program PWSCF are:
     Max number of different atomic species (ntypx) = 10
     Max number of k-points (npk) =  40000
     Max angular momentum in pseudopotentials (lmaxx) =  4

     IMPORTANT: XC functional enforced from input :
     Exchange-correlation= PBE
                           (   1   4   3   4   0   0   0)
     Any further DFT definition will be discarded
     Please, verify this is what you really want

     Found identity + (  0.0000 -0.5000 -0.5000) symmetry
     This is a supercell, fractional translations are disabled
     Message from routine setup:
     using ibrav=0 with symmetry is DISCOURAGED, use correct ibrav instead

     R & G space division:  proc/nbgrp/npool/nimage =       8
     Subspace diagonalization in iterative solution of the eigenvalue problem:
     a serial algorithm will be used


     Parallelization info
     --------------------
     sticks:   dense  smooth     PW     G-vecs:    dense   smooth      PW
     Min         744     212     61                43258     6579    1027
     Max         745     213     62                43263     6580    1028
     Sum        5957    1701    489               346083    52635    8217

     Using Slab Decomposition



     bravais-lattice index     =            0
     lattice parameter (alat)  =       6.5671  a.u.
     unit-cell volume          =     283.2157 (a.u.)^3
     number of atoms/cell      =            4
     number of atomic types    =            1
     number of electrons       =        72.00
     number of Kohn-Sham states=           43
     kinetic-energy cutoff     =     124.0000  Ry
     charge density cutoff     =    1736.0000  Ry
     scf convergence threshold =      1.0E-08
     mixing beta               =       0.7000
     number of iterations used =            8  plain     mixing
     Exchange-correlation= PBE
                           (   1   4   3   4   0   0   0)

     celldm(1)=   6.567082  celldm(2)=   0.000000  celldm(3)=   0.000000
     celldm(4)=   0.000000  celldm(5)=   0.000000  celldm(6)=   0.000000

     crystal axes: (cart. coord. in units of alat)
               a(1) = (   1.000000   0.000000   0.000000 )  
               a(2) = (   0.000000   1.000000   0.000000 )  
               a(3) = (   0.000000   0.000000   1.000000 )  

     reciprocal axes: (cart. coord. in units 2 pi/alat)
               b(1) = (  1.000000  0.000000  0.000000 )  
               b(2) = (  0.000000  1.000000  0.000000 )  
               b(3) = (  0.000000  0.000000  1.000000 )  


     PseudoPot. # 1 for Ni read from file:
     ../../pseudos/ni_pbe_v1.4.uspp.F.UPF
     MD5 check sum: 1ee80287db30b12d2bc1f57a5b5d6409
     Pseudo is Ultrasoft + core correction, Zval = 18.0
     Generated by new atomic code, or converted to UPF format
     Using radial grid of  865 points,  6 beta functions with: 
                l(1) =   0
                l(2) =   0
                l(3) =   1
                l(4) =   1
                l(5) =   2
                l(6) =   2
     Q(r) pseudized with 10 coefficients,  rinner =    0.980   0.980   0.980
                                                       0.980   0.980

     atomic species   valence    mass     pseudopotential
     Ni               18.00    58.69340     Ni( 1.00)

     Starting magnetic structure 
     atomic species   magnetization
     Ni              0.056

     48 Sym. Ops., with inversion, found



   Cartesian axes

     site n.     atom                  positions (alat units)
         1        Ni     tau(   1) = (   0.0000000   0.0000000   0.0000000  )
         2        Ni     tau(   2) = (   0.0000000   0.5000000   0.5000000  )
         3        Ni     tau(   3) = (   0.5000000   0.0000000   0.5000000  )
         4        Ni     tau(   4) = (   0.5000000   0.5000000   0.0000000  )

     number of k points=   286  Marzari-Vanderbilt smearing, width (Ry)=  0.0050

     Number of k-points >= 100: set verbosity='high' to print them.

     Dense  grid:   346083 G-vectors     FFT dimensions: (  90,  90,  90)

     Smooth grid:    52635 G-vectors     FFT dimensions: (  48,  48,  48)

     Estimated max dynamical RAM per process >     489.39 MB

     Estimated total dynamical RAM >       3.82 GB

     Check: negative core charge=   -0.000005
     Generating pointlists ...
     new r_m :   0.2917 (alat units)  1.9155 (a.u.) for type    1

     Initial potential from superposition of free atoms

     starting charge      64.0000, renormalised to      72.0000
     Starting wfcs are   52 randomized atomic wfcs

     total cpu time spent up to now is       13.6 secs

     per-process dynamical memory:   458.9 Mb

     Self-consistent Calculation

     iteration #  1     ecut=   124.00 Ry     beta= 0.70
     Davidson diagonalization with overlap
     ethr =  1.00E-02,  avg # of iterations =  3.1

     total cpu time spent up to now is       55.4 secs

     total energy              =   -1305.38311419 Ry
     estimated scf accuracy    <     121.11702574 Ry

     total magnetization       =     0.81 Bohr mag/cell
     absolute magnetization    =     0.90 Bohr mag/cell

     iteration #  2     ecut=   124.00 Ry     beta= 0.70
     Davidson diagonalization with overlap
     ethr =  1.00E-02,  avg # of iterations =  3.0

     total cpu time spent up to now is       98.6 secs

     total energy              =   -1361.26219785 Ry
     estimated scf accuracy    <     154.55543390 Ry

     total magnetization       =     0.00 Bohr mag/cell
     absolute magnetization    =     0.05 Bohr mag/cell

     iteration #  3     ecut=   124.00 Ry     beta= 0.70
     Davidson diagonalization with overlap
     ethr =  1.00E-02,  avg # of iterations =  2.0

     total cpu time spent up to now is      135.0 secs

     total energy              =   -1371.79328335 Ry
     estimated scf accuracy    <      11.31313575 Ry

     total magnetization       =     0.73 Bohr mag/cell
     absolute magnetization    =     0.81 Bohr mag/cell

     iteration #  4     ecut=   124.00 Ry     beta= 0.70
     Davidson diagonalization with overlap
     ethr =  1.00E-02,  avg # of iterations =  2.0

     total cpu time spent up to now is      164.7 secs

     total energy              =   -1373.17343268 Ry
     estimated scf accuracy    <       0.21598780 Ry

     total magnetization       =     1.92 Bohr mag/cell
     absolute magnetization    =     2.02 Bohr mag/cell

     iteration #  5     ecut=   124.00 Ry     beta= 0.70
     Davidson diagonalization with overlap
     ethr =  3.00E-04,  avg # of iterations =  2.7

     total cpu time spent up to now is      193.1 secs

     total energy              =   -1373.17077710 Ry
     estimated scf accuracy    <       0.36207803 Ry

     total magnetization       =     2.00 Bohr mag/cell
     absolute magnetization    =     2.14 Bohr mag/cell

     iteration #  6     ecut=   124.00 Ry     beta= 0.70
     Davidson diagonalization with overlap
     ethr =  3.00E-04,  avg # of iterations =  1.1

     total cpu time spent up to now is      217.7 secs

     total energy              =   -1373.06555572 Ry
     estimated scf accuracy    <       0.29998677 Ry

     total magnetization       =     2.02 Bohr mag/cell
     absolute magnetization    =     2.18 Bohr mag/cell

     iteration #  7     ecut=   124.00 Ry     beta= 0.70
     Davidson diagonalization with overlap
     ethr =  3.00E-04,  avg # of iterations =  2.0

     total cpu time spent up to now is      247.8 secs

     total energy              =   -1373.12193511 Ry
     estimated scf accuracy    <       0.00964561 Ry

     total magnetization       =     2.45 Bohr mag/cell
     absolute magnetization    =     2.71 Bohr mag/cell

     iteration #  8     ecut=   124.00 Ry     beta= 0.70
     Davidson diagonalization with overlap
     ethr =  1.34E-05,  avg # of iterations =  1.9

     total cpu time spent up to now is      274.5 secs

     total energy              =   -1373.11873912 Ry
     estimated scf accuracy    <       0.00998668 Ry

     total magnetization       =     2.49 Bohr mag/cell
     absolute magnetization    =     2.79 Bohr mag/cell

     iteration #  9     ecut=   124.00 Ry     beta= 0.70
     Davidson diagonalization with overlap
     ethr =  1.34E-05,  avg # of iterations =  2.0

     total cpu time spent up to now is      304.8 secs

     total energy              =   -1373.12104621 Ry
     estimated scf accuracy    <       0.00049906 Ry

     total magnetization       =     2.53 Bohr mag/cell
     absolute magnetization    =     2.90 Bohr mag/cell

     iteration # 10     ecut=   124.00 Ry     beta= 0.70
     Davidson diagonalization with overlap
     ethr =  6.93E-07,  avg # of iterations =  2.0

     total cpu time spent up to now is      331.5 secs

     total energy              =   -1373.12088638 Ry
     estimated scf accuracy    <       0.00048328 Ry

     total magnetization       =     2.54 Bohr mag/cell
     absolute magnetization    =     2.91 Bohr mag/cell

     iteration # 11     ecut=   124.00 Ry     beta= 0.70
     Davidson diagonalization with overlap
     ethr =  6.71E-07,  avg # of iterations =  2.0

     total cpu time spent up to now is      360.0 secs

     total energy              =   -1373.12096767 Ry
     estimated scf accuracy    <       0.00000092 Ry

     total magnetization       =     2.56 Bohr mag/cell
     absolute magnetization    =     2.94 Bohr mag/cell

     iteration # 12     ecut=   124.00 Ry     beta= 0.70
     Davidson diagonalization with overlap
     ethr =  1.28E-09,  avg # of iterations =  3.0

     total cpu time spent up to now is      395.7 secs

     total energy              =   -1373.12096794 Ry
     estimated scf accuracy    <       0.00000104 Ry

     total magnetization       =     2.56 Bohr mag/cell
     absolute magnetization    =     2.94 Bohr mag/cell

     iteration # 13     ecut=   124.00 Ry     beta= 0.70
     Davidson diagonalization with overlap
     ethr =  1.28E-09,  avg # of iterations =  2.0

     Magnetic moment per site  (integrated on atomic sphere of radius R)
     atom   1 (R=0.292)  charge= 16.6734  magn=  0.6798
     atom   2 (R=0.292)  charge= 16.6734  magn=  0.6798
     atom   3 (R=0.292)  charge= 16.6734  magn=  0.6798
     atom   4 (R=0.292)  charge= 16.6734  magn=  0.6798

     total cpu time spent up to now is      424.3 secs

     End of self-consistent calculation

     Number of k-points >= 100: set verbosity='high' to print the bands.

     the Fermi energy is    18.7391 ev

!    total energy              =   -1373.12096808 Ry
     estimated scf accuracy    <          7.7E-09 Ry
     smearing contrib. (-TS)   =      -0.00011213 Ry
     internal energy E=F+TS    =   -1373.12085595 Ry

     The total energy is F=E-TS. E is the sum of the following terms:
     one-electron contribution =    -748.96305848 Ry
     hartree contribution      =     423.00726691 Ry
     xc contribution           =    -142.35201629 Ry
     ewald contribution        =    -904.81304809 Ry

     total magnetization       =     2.56 Bohr mag/cell
     absolute magnetization    =     2.94 Bohr mag/cell

     convergence has been achieved in  13 iterations

     Forces acting on atoms (cartesian axes, Ry/au):

     atom    1 type  1   force =     0.00000000    0.00000000    0.00000000
     atom    2 type  1   force =     0.00000000    0.00000000    0.00000000
     atom    3 type  1   force =     0.00000000    0.00000000    0.00000000
     atom    4 type  1   force =     0.00000000    0.00000000    0.00000000

     Total force =     0.000000     Total SCF correction =     0.000000


     Computing stress (Cartesian axis) and pressure

          total   stress  (Ry/bohr**3)                   (kbar)     P=       77.38
   0.00052601   0.00000000   0.00000000           77.38        0.00        0.00
   0.00000000   0.00052601   0.00000000            0.00       77.38        0.00
   0.00000000   0.00000000   0.00052601            0.00        0.00       77.38


     Writing all to output data dir ./Ni.save/ :
     XML data file, charge density, pseudopotentials, collected wavefunctions

     init_run     :     12.76s CPU     13.24s WALL (       1 calls)
     electrons    :    402.65s CPU    410.91s WALL (       1 calls)
     forces       :      2.24s CPU      2.36s WALL (       1 calls)
     stress       :      8.30s CPU      8.60s WALL (       1 calls)

     Called by init_run:
     wfcinit      :     11.65s CPU     12.03s WALL (       1 calls)
     potinit      :      0.45s CPU      0.47s WALL (       1 calls)
     hinit0       :      0.41s CPU      0.42s WALL (       1 calls)

     Called by electrons:
     c_bands      :    354.33s CPU    359.61s WALL (      13 calls)
     sum_band     :     44.61s CPU     46.28s WALL (      13 calls)
     v_of_rho     :      1.56s CPU      1.76s WALL (      14 calls)
     newd         :      2.11s CPU      3.06s WALL (      14 calls)
     mix_rho      :      0.15s CPU      0.17s WALL (      13 calls)

     Called by c_bands:
     init_us_2    :      4.80s CPU      4.92s WALL (   16588 calls)
     cegterg      :    342.19s CPU    347.15s WALL (    7436 calls)

     Called by *egterg:
     cdiaghg      :     40.46s CPU     40.76s WALL (   23954 calls)
     h_psi        :    235.32s CPU    239.83s WALL (   24526 calls)
     s_psi        :     11.05s CPU     11.15s WALL (   24526 calls)
     g_psi        :      1.29s CPU      1.31s WALL (   16518 calls)

     Called by h_psi:
     h_psi:calbec :     16.84s CPU     17.11s WALL (   24526 calls)
     vloc_psi     :    204.09s CPU    208.16s WALL (   24526 calls)
     add_vuspsi   :     11.71s CPU     11.82s WALL (   24526 calls)

     General routines
     calbec       :     27.36s CPU     27.77s WALL (   41686 calls)
     fft          :      0.97s CPU      1.16s WALL (     388 calls)
     ffts         :      0.34s CPU      0.34s WALL (      54 calls)
     fftw         :    170.92s CPU    174.14s WALL ( 1960202 calls)
     interpolate  :      0.38s CPU      0.39s WALL (      28 calls)

     Parallel routines

     PWSCF        :    428.00s CPU    470.22s WALL


   This run was terminated on:  13:22:12  31Oct2025            

=------------------------------------------------------------------------------=
   JOB DONE.
=------------------------------------------------------------------------------=
