
     Program PWSCF v.7.4 starts on 30Nov2025 at  2:53: 8 

     This program is part of the open-source Quantum ESPRESSO suite
     for quantum simulation of materials; please cite
         "P. Giannozzi et al., J. Phys.:Condens. Matter 21 395502 (2009);
         "P. Giannozzi et al., J. Phys.:Condens. Matter 29 465901 (2017);
         "P. Giannozzi et al., J. Chem. Phys. 152 154105 (2020);
          URL http://www.quantum-espresso.org", 
     in publications or presentations arising from this work. More details at
     http://www.quantum-espresso.org/quote

     Parallel version (MPI & OpenMP), running on      16 processor cores
     Number of MPI processes:                16
     Threads/MPI process:                     1

     MPI processes distributed on     1 nodes
     212688 MiB available memory on the printing compute node when the environment starts

     Reading input from TiFe2H_3int.in

     Current dimensions of program PWSCF are:
     Max number of different atomic species (ntypx) = 10
     Max number of k-points (npk) =  40000
     Max angular momentum in pseudopotentials (lmaxx) =  4
     file Fe.pbe-spn-kjpaw_psl.0.2.1.UPF: wavefunction(s)  3D renormalized
     file Fe.pbe-spn-kjpaw_psl.0.2.1.UPF: wavefunction(s)  3D renormalized

     IMPORTANT: XC functional enforced from input :
     Exchange-correlation= PBE
                           (   1   4   3   4   0   0   0)
     Any further DFT definition will be discarded
     Please, verify this is what you really want

     Message from routine setup:
     using ibrav=0 with symmetry is DISCOURAGED, use correct ibrav instead

     R & G space division:  proc/nbgrp/npool/nimage =      16
     Subspace diagonalization in iterative solution of the eigenvalue problem:
     a serial algorithm will be used


     Parallelization info
     --------------------
     sticks:   dense  smooth     PW     G-vecs:    dense   smooth      PW
     Min         608     173     48                79166    12081    1780
     Max         609     174     49                79172    12088    1787
     Sum        9733    2773    769              1266735   193329   28507

     Using Slab Decomposition



     bravais-lattice index     =            0
     lattice parameter (alat)  =       9.0235  a.u.
     unit-cell volume          =    1037.0878 (a.u.)^3
     number of atoms/cell      =           15
     number of atomic types    =            4
     number of electrons       =       179.00
     number of Kohn-Sham states=          108
     kinetic-energy cutoff     =     124.0000  Ry
     charge density cutoff     =    1736.0000  Ry
     scf convergence threshold =      1.0E-08
     mixing beta               =       0.2000
     number of iterations used =            8  local-TF  mixing
     energy convergence thresh.=      1.0E-04
     force convergence thresh. =      1.0E-03
     press convergence thresh. =      1.0E-01
     Exchange-correlation= PBE
                           (   1   4   3   4   0   0   0)
     nstep                     =           50


     celldm(1)=   9.023520  celldm(2)=   0.000000  celldm(3)=   0.000000
     celldm(4)=   0.000000  celldm(5)=   0.000000  celldm(6)=   0.000000

     crystal axes: (cart. coord. in units of alat)
               a(1) = (   1.000000   0.000000   0.000000 )  
               a(2) = (  -0.500000   0.866025   0.000000 )  
               a(3) = (   0.000000   0.000000   1.629885 )  

     reciprocal axes: (cart. coord. in units 2 pi/alat)
               b(1) = (  1.000000  0.577350 -0.000000 )  
               b(2) = (  0.000000  1.154701  0.000000 )  
               b(3) = (  0.000000 -0.000000  0.613540 )  


     PseudoPot. # 1 for Fe read from file:
     ../../../pseudos/Fe.pbe-spn-kjpaw_psl.0.2.1.UPF
     MD5 check sum: e86618425769142926afa95317d90200
     Pseudo is Projector augmented-wave + core cor, Zval = 16.0
     Generated using "atomic" code by A. Dal Corso  v.5.0.99 svn rev. 10869
     Shape of augmentation charge: PSQ
     Using radial grid of 1191 points,  6 beta functions with: 
                l(1) =   0
                l(2) =   0
                l(3) =   1
                l(4) =   1
                l(5) =   2
                l(6) =   2
     Q(r) pseudized with 0 coefficients 


     PseudoPot. # 2 for Fe read from file:
     ../../../pseudos/Fe.pbe-spn-kjpaw_psl.0.2.1.UPF
     MD5 check sum: e86618425769142926afa95317d90200
     Pseudo is Projector augmented-wave + core cor, Zval = 16.0
     Generated using "atomic" code by A. Dal Corso  v.5.0.99 svn rev. 10869
     Shape of augmentation charge: PSQ
     Using radial grid of 1191 points,  6 beta functions with: 
                l(1) =   0
                l(2) =   0
                l(3) =   1
                l(4) =   1
                l(5) =   2
                l(6) =   2
     Q(r) pseudized with 0 coefficients 


     PseudoPot. # 3 for Ti read from file:
     ../../../pseudos/ti_pbe_v1.4.uspp.F.UPF
     MD5 check sum: 88a00a6731bd790ddea75d31a80cb452
     Pseudo is Ultrasoft + core correction, Zval = 12.0
     Generated by new atomic code, or converted to UPF format
     Using radial grid of  851 points,  6 beta functions with: 
                l(1) =   0
                l(2) =   0
                l(3) =   1
                l(4) =   1
                l(5) =   2
                l(6) =   2
     Q(r) pseudized with  6 coefficients,  rinner =    1.000   1.000   1.000
                                                       1.000   1.000

     PseudoPot. # 4 for H  read from file:
     ../../../pseudos/H.pbe-rrkjus_psl.1.0.0.UPF
     MD5 check sum: f52b6d4d1c606e5624b1dc7b2218f220
     Pseudo is Ultrasoft, Zval =  1.0
     Generated using "atomic" code by A. Dal Corso  v.5.1
     Using radial grid of  929 points,  2 beta functions with: 
                l(1) =   0
                l(2) =   0
     Q(r) pseudized with 0 coefficients 


     atomic species   valence    mass     pseudopotential
     Fe_1             16.00    55.84500     Fe( 1.00)
     Fe_2             16.00    55.84500     Fe( 1.00)
     Ti               12.00    47.86700     Ti( 1.00)
     H                 1.00     1.00784     H ( 1.00)

     Starting magnetic structure 
     atomic species   magnetization
     Fe_1            0.062
     Fe_2            0.056
     Ti             -0.025
     H               0.585

      4 Sym. Ops., with inversion, found


                                    s                        frac. trans.

      isym =  1     identity                                     

 cryst.   s( 1) = (     1          0          0      )
                  (     0          1          0      )
                  (     0          0          1      )

 cart.    s( 1) = (  1.0000000  0.0000000  0.0000000 )
                  (  0.0000000  1.0000000  0.0000000 )
                  (  0.0000000  0.0000000  1.0000000 )


      isym =  2     180 deg rotation - cryst. axis [1,1,0]       

 cryst.   s( 2) = (     0          1          0      )
                  (     1          0          0      )
                  (     0          0         -1      )

 cart.    s( 2) = ( -0.5000000  0.8660254  0.0000000 )
                  (  0.8660254  0.5000000  0.0000000 )
                  (  0.0000000  0.0000000 -1.0000000 )


      isym =  3     inversion                                    

 cryst.   s( 3) = (    -1          0          0      )
                  (     0         -1          0      )
                  (     0          0         -1      )

 cart.    s( 3) = ( -1.0000000  0.0000000  0.0000000 )
                  (  0.0000000 -1.0000000  0.0000000 )
                  (  0.0000000  0.0000000 -1.0000000 )


      isym =  4     inv. 180 deg rotation - cryst. axis [1,1,0]  

 cryst.   s( 4) = (     0         -1          0      )
                  (    -1          0          0      )
                  (     0          0          1      )

 cart.    s( 4) = (  0.5000000 -0.8660254  0.0000000 )
                  ( -0.8660254 -0.5000000  0.0000000 )
                  (  0.0000000  0.0000000  1.0000000 )


   Cartesian axes

     site n.     atom                  positions (alat units)
         1        Fe_2   tau(   1) = (   0.7463616   0.1464382   0.4074713  )
         2        Fe_2   tau(   2) = (  -0.2463616   0.7195872   1.2224138  )
         3        Fe_2   tau(   3) = (  -0.0000000   0.2928765   1.2224138  )
         4        Fe_2   tau(   4) = (   0.2536385   0.1464382   0.4074713  )
         5        Fe_2   tau(   5) = (   0.5000000   0.5731489   0.4074713  )
         6        Fe_2   tau(   6) = (   0.2463615   0.7195872   1.2224138  )
         7        Fe_1   tau(   7) = (   0.0000000   0.0000000   0.0000000  )
         8        Fe_1   tau(   8) = (   0.0000000   0.0000000   0.8149425  )
         9        Ti     tau(   9) = (   0.5000000   0.2886751   1.5294435  )
        10        Ti     tau(  10) = (  -0.0000000   0.5773503   0.7145010  )
        11        Ti     tau(  11) = (  -0.0000000   0.5773503   0.1004416  )
        12        Ti     tau(  12) = (   0.5000000   0.2886751   0.9153841  )
        13        H      tau(  13) = (  -0.2500000   0.4330127   0.8149425  )
        14        H      tau(  14) = (   0.5000000   0.0000000   0.8149425  )
        15        H      tau(  15) = (   0.2500000   0.4330127   0.0000000  )

   Crystallographic axes

     site n.     atom                  positions (cryst. coord.)
         1        Fe_2   tau(   1) = (  0.8309077  0.1690923  0.2500000  )
         2        Fe_2   tau(   2) = (  0.1690923  0.8309077  0.7500000  )
         3        Fe_2   tau(   3) = (  0.1690923  0.3381846  0.7500000  )
         4        Fe_2   tau(   4) = (  0.3381846  0.1690923  0.2500000  )
         5        Fe_2   tau(   5) = (  0.8309077  0.6618154  0.2500000  )
         6        Fe_2   tau(   6) = (  0.6618154  0.8309077  0.7500000  )
         7        Fe_1   tau(   7) = (  0.0000000  0.0000000  0.0000000  )
         8        Fe_1   tau(   8) = (  0.0000000  0.0000000  0.5000000  )
         9        Ti     tau(   9) = (  0.6666667  0.3333333  0.9383751  )
        10        Ti     tau(  10) = (  0.3333333  0.6666667  0.4383751  )
        11        Ti     tau(  11) = (  0.3333333  0.6666667  0.0616249  )
        12        Ti     tau(  12) = (  0.6666667  0.3333333  0.5616249  )
        13        H      tau(  13) = (  0.0000000  0.5000000  0.5000000  )
        14        H      tau(  14) = (  0.5000000  0.0000000  0.5000000  )
        15        H      tau(  15) = (  0.5000000  0.5000000  0.0000000  )

     number of k points=   930  Marzari-Vanderbilt smearing, width (Ry)=  0.0050
                       cart. coord. in units 2pi/alat
        k(    1) = (   0.0000000   0.0000000   0.0000000), wk =   0.0015152
        k(    2) = (   0.0000000   0.0000000   0.1022567), wk =   0.0030303
        k(    3) = (   0.0000000   0.0000000   0.2045134), wk =   0.0030303
        k(    4) = (   0.0000000   0.0000000  -0.3067701), wk =   0.0015152
        k(    5) = (   0.0000000   0.1049728   0.0000000), wk =   0.0020202
        k(    6) = (   0.0000000   0.1049728   0.1022567), wk =   0.0020202
        k(    7) = (   0.0000000   0.1049728   0.2045134), wk =   0.0020202
        k(    8) = (   0.0000000   0.1049728  -0.3067701), wk =   0.0020202
        k(    9) = (   0.0000000   0.2099456   0.0000000), wk =   0.0020202
        k(   10) = (   0.0000000   0.2099456   0.1022567), wk =   0.0020202
        k(   11) = (   0.0000000   0.2099456   0.2045134), wk =   0.0020202
        k(   12) = (   0.0000000   0.2099456  -0.3067701), wk =   0.0020202
        k(   13) = (   0.0000000   0.3149183   0.0000000), wk =   0.0020202
        k(   14) = (   0.0000000   0.3149183   0.1022567), wk =   0.0020202
        k(   15) = (   0.0000000   0.3149183   0.2045134), wk =   0.0020202
        k(   16) = (   0.0000000   0.3149183  -0.3067701), wk =   0.0020202
        k(   17) = (   0.0000000   0.4198911   0.0000000), wk =   0.0020202
        k(   18) = (   0.0000000   0.4198911   0.1022567), wk =   0.0020202
        k(   19) = (   0.0000000   0.4198911   0.2045134), wk =   0.0020202
        k(   20) = (   0.0000000   0.4198911  -0.3067701), wk =   0.0020202
        k(   21) = (   0.0000000   0.5248639   0.0000000), wk =   0.0020202
        k(   22) = (   0.0000000   0.5248639   0.1022567), wk =   0.0020202
        k(   23) = (   0.0000000   0.5248639   0.2045134), wk =   0.0020202
        k(   24) = (   0.0000000   0.5248639  -0.3067701), wk =   0.0020202
        k(   25) = (   0.1000000   0.0577350   0.0000000), wk =   0.0020202
        k(   26) = (   0.1000000   0.0577350   0.1022567), wk =   0.0020202
        k(   27) = (   0.1000000   0.0577350   0.2045134), wk =   0.0020202
        k(   28) = (   0.1000000   0.0577350  -0.3067701), wk =   0.0020202
        k(   29) = (   0.1000000   0.1627078   0.0000000), wk =   0.0010101
        k(   30) = (   0.1000000   0.1627078   0.1022567), wk =   0.0010101
        k(   31) = (   0.1000000   0.1627078   0.2045134), wk =   0.0010101
        k(   32) = (   0.1000000   0.1627078  -0.3067701), wk =   0.0010101
        k(   33) = (   0.1000000   0.2676806   0.0000000), wk =   0.0010101
        k(   34) = (   0.1000000   0.2676806   0.1022567), wk =   0.0010101
        k(   35) = (   0.1000000   0.2676806   0.2045134), wk =   0.0010101
        k(   36) = (   0.1000000   0.2676806  -0.3067701), wk =   0.0010101
        k(   37) = (   0.1000000   0.3726534   0.0000000), wk =   0.0010101
        k(   38) = (   0.1000000   0.3726534   0.1022567), wk =   0.0010101
        k(   39) = (   0.1000000   0.3726534   0.2045134), wk =   0.0010101
        k(   40) = (   0.1000000   0.3726534  -0.3067701), wk =   0.0010101
        k(   41) = (   0.1000000   0.4776261   0.0000000), wk =   0.0010101
        k(   42) = (   0.1000000   0.4776261   0.1022567), wk =   0.0010101
        k(   43) = (   0.1000000   0.4776261   0.2045134), wk =   0.0010101
        k(   44) = (   0.1000000   0.4776261  -0.3067701), wk =   0.0010101
        k(   45) = (   0.1000000   0.5825989   0.0000000), wk =   0.0010101
        k(   46) = (   0.1000000   0.5825989   0.1022567), wk =   0.0010101
        k(   47) = (   0.1000000   0.5825989   0.2045134), wk =   0.0010101
        k(   48) = (   0.1000000   0.5825989  -0.3067701), wk =   0.0010101
        k(   49) = (   0.1000000  -0.4671289   0.0000000), wk =   0.0010101
        k(   50) = (   0.1000000  -0.4671289   0.1022567), wk =   0.0010101
        k(   51) = (   0.1000000  -0.4671289   0.2045134), wk =   0.0010101
        k(   52) = (   0.1000000  -0.4671289  -0.3067701), wk =   0.0010101
        k(   53) = (   0.1000000  -0.3621561   0.0000000), wk =   0.0010101
        k(   54) = (   0.1000000  -0.3621561   0.1022567), wk =   0.0010101
        k(   55) = (   0.1000000  -0.3621561   0.2045134), wk =   0.0010101
        k(   56) = (   0.1000000  -0.3621561  -0.3067701), wk =   0.0010101
        k(   57) = (   0.1000000  -0.2571833   0.0000000), wk =   0.0010101
        k(   58) = (   0.1000000  -0.2571833   0.1022567), wk =   0.0010101
        k(   59) = (   0.1000000  -0.2571833   0.2045134), wk =   0.0010101
        k(   60) = (   0.1000000  -0.2571833  -0.3067701), wk =   0.0010101
        k(   61) = (   0.1000000  -0.1522105   0.0000000), wk =   0.0010101
        k(   62) = (   0.1000000  -0.1522105   0.1022567), wk =   0.0010101
        k(   63) = (   0.1000000  -0.1522105   0.2045134), wk =   0.0010101
        k(   64) = (   0.1000000  -0.1522105  -0.3067701), wk =   0.0010101
        k(   65) = (   0.1000000  -0.0472377   0.0000000), wk =   0.0010101
        k(   66) = (   0.1000000  -0.0472377   0.1022567), wk =   0.0010101
        k(   67) = (   0.1000000  -0.0472377   0.2045134), wk =   0.0010101
        k(   68) = (   0.1000000  -0.0472377  -0.3067701), wk =   0.0010101
        k(   69) = (   0.2000000   0.1154701   0.0000000), wk =   0.0020202
        k(   70) = (   0.2000000   0.1154701   0.1022567), wk =   0.0020202
        k(   71) = (   0.2000000   0.1154701   0.2045134), wk =   0.0020202
        k(   72) = (   0.2000000   0.1154701  -0.3067701), wk =   0.0020202
        k(   73) = (   0.2000000   0.2204428   0.0000000), wk =   0.0010101
        k(   74) = (   0.2000000   0.2204428   0.1022567), wk =   0.0010101
        k(   75) = (   0.2000000   0.2204428   0.2045134), wk =   0.0010101
        k(   76) = (   0.2000000   0.2204428  -0.3067701), wk =   0.0010101
        k(   77) = (   0.2000000   0.3254156   0.0000000), wk =   0.0010101
        k(   78) = (   0.2000000   0.3254156   0.1022567), wk =   0.0010101
        k(   79) = (   0.2000000   0.3254156   0.2045134), wk =   0.0010101
        k(   80) = (   0.2000000   0.3254156  -0.3067701), wk =   0.0010101
        k(   81) = (   0.2000000   0.4303884   0.0000000), wk =   0.0010101
        k(   82) = (   0.2000000   0.4303884   0.1022567), wk =   0.0010101
        k(   83) = (   0.2000000   0.4303884   0.2045134), wk =   0.0010101
        k(   84) = (   0.2000000   0.4303884  -0.3067701), wk =   0.0010101
        k(   85) = (   0.2000000   0.5353612   0.0000000), wk =   0.0010101
        k(   86) = (   0.2000000   0.5353612   0.1022567), wk =   0.0010101
        k(   87) = (   0.2000000   0.5353612   0.2045134), wk =   0.0010101
        k(   88) = (   0.2000000   0.5353612  -0.3067701), wk =   0.0010101
        k(   89) = (   0.2000000   0.6403339   0.0000000), wk =   0.0010101
        k(   90) = (   0.2000000   0.6403339   0.1022567), wk =   0.0010101
        k(   91) = (   0.2000000   0.6403339   0.2045134), wk =   0.0010101
        k(   92) = (   0.2000000   0.6403339  -0.3067701), wk =   0.0010101
        k(   93) = (   0.2000000  -0.4093938   0.0000000), wk =   0.0010101
        k(   94) = (   0.2000000  -0.4093938   0.1022567), wk =   0.0010101
        k(   95) = (   0.2000000  -0.4093938   0.2045134), wk =   0.0010101
        k(   96) = (   0.2000000  -0.4093938  -0.3067701), wk =   0.0010101
        k(   97) = (   0.2000000  -0.3044211   0.0000000), wk =   0.0010101
        k(   98) = (   0.2000000  -0.3044211   0.1022567), wk =   0.0010101
        k(   99) = (   0.2000000  -0.3044211   0.2045134), wk =   0.0010101
        k(  100) = (   0.2000000  -0.3044211  -0.3067701), wk =   0.0010101
        k(  101) = (   0.2000000  -0.1994483   0.0000000), wk =   0.0010101
        k(  102) = (   0.2000000  -0.1994483   0.1022567), wk =   0.0010101
        k(  103) = (   0.2000000  -0.1994483   0.2045134), wk =   0.0010101
        k(  104) = (   0.2000000  -0.1994483  -0.3067701), wk =   0.0010101
        k(  105) = (   0.2000000  -0.0944755   0.0000000), wk =   0.0010101
        k(  106) = (   0.2000000  -0.0944755   0.1022567), wk =   0.0010101
        k(  107) = (   0.2000000  -0.0944755   0.2045134), wk =   0.0010101
        k(  108) = (   0.2000000  -0.0944755  -0.3067701), wk =   0.0010101
        k(  109) = (   0.2000000   0.0104973   0.0000000), wk =   0.0010101
        k(  110) = (   0.2000000   0.0104973   0.1022567), wk =   0.0010101
        k(  111) = (   0.2000000   0.0104973   0.2045134), wk =   0.0010101
        k(  112) = (   0.2000000   0.0104973  -0.3067701), wk =   0.0010101
        k(  113) = (   0.3000000   0.1732051   0.0000000), wk =   0.0020202
        k(  114) = (   0.3000000   0.1732051   0.1022567), wk =   0.0020202
        k(  115) = (   0.3000000   0.1732051   0.2045134), wk =   0.0020202
        k(  116) = (   0.3000000   0.1732051  -0.3067701), wk =   0.0020202
        k(  117) = (   0.3000000   0.2781779   0.0000000), wk =   0.0010101
        k(  118) = (   0.3000000   0.2781779   0.1022567), wk =   0.0010101
        k(  119) = (   0.3000000   0.2781779   0.2045134), wk =   0.0010101
        k(  120) = (   0.3000000   0.2781779  -0.3067701), wk =   0.0010101
        k(  121) = (   0.3000000   0.3831506   0.0000000), wk =   0.0010101
        k(  122) = (   0.3000000   0.3831506   0.1022567), wk =   0.0010101
        k(  123) = (   0.3000000   0.3831506   0.2045134), wk =   0.0010101
        k(  124) = (   0.3000000   0.3831506  -0.3067701), wk =   0.0010101
        k(  125) = (   0.3000000   0.4881234   0.0000000), wk =   0.0010101
        k(  126) = (   0.3000000   0.4881234   0.1022567), wk =   0.0010101
        k(  127) = (   0.3000000   0.4881234   0.2045134), wk =   0.0010101
        k(  128) = (   0.3000000   0.4881234  -0.3067701), wk =   0.0010101
        k(  129) = (   0.3000000   0.5930962   0.0000000), wk =   0.0010101
        k(  130) = (   0.3000000   0.5930962   0.1022567), wk =   0.0010101
        k(  131) = (   0.3000000   0.5930962   0.2045134), wk =   0.0010101
        k(  132) = (   0.3000000   0.5930962  -0.3067701), wk =   0.0010101
        k(  133) = (   0.3000000   0.6980690   0.0000000), wk =   0.0010101
        k(  134) = (   0.3000000   0.6980690   0.1022567), wk =   0.0010101
        k(  135) = (   0.3000000   0.6980690   0.2045134), wk =   0.0010101
        k(  136) = (   0.3000000   0.6980690  -0.3067701), wk =   0.0010101
        k(  137) = (   0.3000000  -0.3516588   0.0000000), wk =   0.0010101
        k(  138) = (   0.3000000  -0.3516588   0.1022567), wk =   0.0010101
        k(  139) = (   0.3000000  -0.3516588   0.2045134), wk =   0.0010101
        k(  140) = (   0.3000000  -0.3516588  -0.3067701), wk =   0.0010101
        k(  141) = (   0.3000000  -0.2466860   0.0000000), wk =   0.0010101
        k(  142) = (   0.3000000  -0.2466860   0.1022567), wk =   0.0010101
        k(  143) = (   0.3000000  -0.2466860   0.2045134), wk =   0.0010101
        k(  144) = (   0.3000000  -0.2466860  -0.3067701), wk =   0.0010101
        k(  145) = (   0.3000000  -0.1417132   0.0000000), wk =   0.0010101
        k(  146) = (   0.3000000  -0.1417132   0.1022567), wk =   0.0010101
        k(  147) = (   0.3000000  -0.1417132   0.2045134), wk =   0.0010101
        k(  148) = (   0.3000000  -0.1417132  -0.3067701), wk =   0.0010101
        k(  149) = (   0.3000000  -0.0367405   0.0000000), wk =   0.0010101
        k(  150) = (   0.3000000  -0.0367405   0.1022567), wk =   0.0010101
        k(  151) = (   0.3000000  -0.0367405   0.2045134), wk =   0.0010101
        k(  152) = (   0.3000000  -0.0367405  -0.3067701), wk =   0.0010101
        k(  153) = (   0.3000000   0.0682323   0.0000000), wk =   0.0010101
        k(  154) = (   0.3000000   0.0682323   0.1022567), wk =   0.0010101
        k(  155) = (   0.3000000   0.0682323   0.2045134), wk =   0.0010101
        k(  156) = (   0.3000000   0.0682323  -0.3067701), wk =   0.0010101
        k(  157) = (   0.4000000   0.2309401   0.0000000), wk =   0.0020202
        k(  158) = (   0.4000000   0.2309401   0.1022567), wk =   0.0020202
        k(  159) = (   0.4000000   0.2309401   0.2045134), wk =   0.0020202
        k(  160) = (   0.4000000   0.2309401  -0.3067701), wk =   0.0020202
        k(  161) = (   0.4000000   0.3359129   0.0000000), wk =   0.0010101
        k(  162) = (   0.4000000   0.3359129   0.1022567), wk =   0.0010101
        k(  163) = (   0.4000000   0.3359129   0.2045134), wk =   0.0010101
        k(  164) = (   0.4000000   0.3359129  -0.3067701), wk =   0.0010101
        k(  165) = (   0.4000000   0.4408857   0.0000000), wk =   0.0010101
        k(  166) = (   0.4000000   0.4408857   0.1022567), wk =   0.0010101
        k(  167) = (   0.4000000   0.4408857   0.2045134), wk =   0.0010101
        k(  168) = (   0.4000000   0.4408857  -0.3067701), wk =   0.0010101
        k(  169) = (   0.4000000   0.5458584   0.0000000), wk =   0.0010101
        k(  170) = (   0.4000000   0.5458584   0.1022567), wk =   0.0010101
        k(  171) = (   0.4000000   0.5458584   0.2045134), wk =   0.0010101
        k(  172) = (   0.4000000   0.5458584  -0.3067701), wk =   0.0010101
        k(  173) = (   0.4000000   0.6508312   0.0000000), wk =   0.0010101
        k(  174) = (   0.4000000   0.6508312   0.1022567), wk =   0.0010101
        k(  175) = (   0.4000000   0.6508312   0.2045134), wk =   0.0010101
        k(  176) = (   0.4000000   0.6508312  -0.3067701), wk =   0.0010101
        k(  177) = (   0.4000000   0.7558040   0.0000000), wk =   0.0010101
        k(  178) = (   0.4000000   0.7558040   0.1022567), wk =   0.0010101
        k(  179) = (   0.4000000   0.7558040   0.2045134), wk =   0.0010101
        k(  180) = (   0.4000000   0.7558040  -0.3067701), wk =   0.0010101
        k(  181) = (   0.4000000  -0.2939238   0.0000000), wk =   0.0010101
        k(  182) = (   0.4000000  -0.2939238   0.1022567), wk =   0.0010101
        k(  183) = (   0.4000000  -0.2939238   0.2045134), wk =   0.0010101
        k(  184) = (   0.4000000  -0.2939238  -0.3067701), wk =   0.0010101
        k(  185) = (   0.4000000  -0.1889510   0.0000000), wk =   0.0010101
        k(  186) = (   0.4000000  -0.1889510   0.1022567), wk =   0.0010101
        k(  187) = (   0.4000000  -0.1889510   0.2045134), wk =   0.0010101
        k(  188) = (   0.4000000  -0.1889510  -0.3067701), wk =   0.0010101
        k(  189) = (   0.4000000  -0.0839782   0.0000000), wk =   0.0010101
        k(  190) = (   0.4000000  -0.0839782   0.1022567), wk =   0.0010101
        k(  191) = (   0.4000000  -0.0839782   0.2045134), wk =   0.0010101
        k(  192) = (   0.4000000  -0.0839782  -0.3067701), wk =   0.0010101
        k(  193) = (   0.4000000   0.0209946   0.0000000), wk =   0.0010101
        k(  194) = (   0.4000000   0.0209946   0.1022567), wk =   0.0010101
        k(  195) = (   0.4000000   0.0209946   0.2045134), wk =   0.0010101
        k(  196) = (   0.4000000   0.0209946  -0.3067701), wk =   0.0010101
        k(  197) = (   0.4000000   0.1259673   0.0000000), wk =   0.0010101
        k(  198) = (   0.4000000   0.1259673   0.1022567), wk =   0.0010101
        k(  199) = (   0.4000000   0.1259673   0.2045134), wk =   0.0010101
        k(  200) = (   0.4000000   0.1259673  -0.3067701), wk =   0.0010101
        k(  201) = (  -0.5000000  -0.2886751   0.0000000), wk =   0.0010101
        k(  202) = (  -0.5000000  -0.2886751   0.1022567), wk =   0.0020202
        k(  203) = (  -0.5000000  -0.2886751   0.2045134), wk =   0.0020202
        k(  204) = (  -0.5000000  -0.2886751  -0.3067701), wk =   0.0010101
        k(  205) = (  -0.5000000  -0.1837024   0.0000000), wk =   0.0010101
        k(  206) = (  -0.5000000  -0.1837024   0.1022567), wk =   0.0010101
        k(  207) = (  -0.5000000  -0.1837024   0.2045134), wk =   0.0010101
        k(  208) = (  -0.5000000  -0.1837024  -0.3067701), wk =   0.0010101
        k(  209) = (  -0.5000000  -0.0787296   0.0000000), wk =   0.0010101
        k(  210) = (  -0.5000000  -0.0787296   0.1022567), wk =   0.0010101
        k(  211) = (  -0.5000000  -0.0787296   0.2045134), wk =   0.0010101
        k(  212) = (  -0.5000000  -0.0787296  -0.3067701), wk =   0.0010101
        k(  213) = (  -0.5000000   0.0262432   0.0000000), wk =   0.0010101
        k(  214) = (  -0.5000000   0.0262432   0.1022567), wk =   0.0010101
        k(  215) = (  -0.5000000   0.0262432   0.2045134), wk =   0.0010101
        k(  216) = (  -0.5000000   0.0262432  -0.3067701), wk =   0.0010101
        k(  217) = (  -0.5000000   0.1312160   0.0000000), wk =   0.0010101
        k(  218) = (  -0.5000000   0.1312160   0.1022567), wk =   0.0010101
        k(  219) = (  -0.5000000   0.1312160   0.2045134), wk =   0.0010101
        k(  220) = (  -0.5000000   0.1312160  -0.3067701), wk =   0.0010101
        k(  221) = (  -0.5000000   0.2361887   0.0000000), wk =   0.0010101
        k(  222) = (  -0.5000000   0.2361887   0.1022567), wk =   0.0010101
        k(  223) = (  -0.5000000   0.2361887   0.2045134), wk =   0.0010101
        k(  224) = (  -0.5000000   0.2361887  -0.3067701), wk =   0.0010101
        k(  225) = (  -0.0909091   0.0524864   0.0000000), wk =   0.0010101
        k(  226) = (  -0.0909091   0.0524864   0.1022567), wk =   0.0010101
        k(  227) = (   0.0909091   0.0524864   0.1022567), wk =   0.0020202
        k(  228) = (   0.0909091  -0.0524864   0.1022567), wk =   0.0010101
        k(  229) = (  -0.0909091   0.0524864   0.2045134), wk =   0.0010101
        k(  230) = (   0.0909091   0.0524864   0.2045134), wk =   0.0020202
        k(  231) = (   0.0909091  -0.0524864   0.2045134), wk =   0.0010101
        k(  232) = (  -0.0909091   0.0524864  -0.3067701), wk =   0.0010101
        k(  233) = (  -0.1818182   0.1049728   0.0000000), wk =   0.0010101
        k(  234) = (  -0.1818182   0.1049728   0.1022567), wk =   0.0010101
        k(  235) = (   0.1818182   0.1049728   0.1022567), wk =   0.0020202
        k(  236) = (   0.1818182  -0.1049728   0.1022567), wk =   0.0010101
        k(  237) = (  -0.1818182   0.1049728   0.2045134), wk =   0.0010101
        k(  238) = (   0.1818182   0.1049728   0.2045134), wk =   0.0020202
        k(  239) = (   0.1818182  -0.1049728   0.2045134), wk =   0.0010101
        k(  240) = (  -0.1818182   0.1049728  -0.3067701), wk =   0.0010101
        k(  241) = (  -0.2727273   0.1574592   0.0000000), wk =   0.0010101
        k(  242) = (  -0.2727273   0.1574592   0.1022567), wk =   0.0010101
        k(  243) = (   0.2727273   0.1574592   0.1022567), wk =   0.0020202
        k(  244) = (   0.2727273  -0.1574592   0.1022567), wk =   0.0010101
        k(  245) = (  -0.2727273   0.1574592   0.2045134), wk =   0.0010101
        k(  246) = (   0.2727273   0.1574592   0.2045134), wk =   0.0020202
        k(  247) = (   0.2727273  -0.1574592   0.2045134), wk =   0.0010101
        k(  248) = (  -0.2727273   0.1574592  -0.3067701), wk =   0.0010101
        k(  249) = (  -0.3636364   0.2099456   0.0000000), wk =   0.0010101
        k(  250) = (  -0.3636364   0.2099456   0.1022567), wk =   0.0010101
        k(  251) = (   0.3636364   0.2099456   0.1022567), wk =   0.0020202
        k(  252) = (   0.3636364  -0.2099456   0.1022567), wk =   0.0010101
        k(  253) = (  -0.3636364   0.2099456   0.2045134), wk =   0.0010101
        k(  254) = (   0.3636364   0.2099456   0.2045134), wk =   0.0020202
        k(  255) = (   0.3636364  -0.2099456   0.2045134), wk =   0.0010101
        k(  256) = (  -0.3636364   0.2099456  -0.3067701), wk =   0.0010101
        k(  257) = (  -0.4545455   0.2624319   0.0000000), wk =   0.0010101
        k(  258) = (  -0.4545455   0.2624319   0.1022567), wk =   0.0010101
        k(  259) = (   0.4545455   0.2624319   0.1022567), wk =   0.0020202
        k(  260) = (   0.4545455  -0.2624319   0.1022567), wk =   0.0010101
        k(  261) = (  -0.4545455   0.2624319   0.2045134), wk =   0.0010101
        k(  262) = (   0.4545455   0.2624319   0.2045134), wk =   0.0020202
        k(  263) = (   0.4545455  -0.2624319   0.2045134), wk =   0.0010101
        k(  264) = (  -0.4545455   0.2624319  -0.3067701), wk =   0.0010101
        k(  265) = (   0.1000000  -0.0577350   0.0000000), wk =   0.0010101
        k(  266) = (   0.0000000   0.1154701   0.1022567), wk =   0.0020202
        k(  267) = (   0.1000000  -0.0577350   0.1022567), wk =   0.0010101
        k(  268) = (  -0.1000000   0.0577350   0.1022567), wk =   0.0010101
        k(  269) = (   0.0000000   0.1154701   0.2045134), wk =   0.0020202
        k(  270) = (   0.1000000  -0.0577350   0.2045134), wk =   0.0010101
        k(  271) = (  -0.1000000   0.0577350   0.2045134), wk =   0.0010101
        k(  272) = (   0.1000000  -0.0577350  -0.3067701), wk =   0.0010101
        k(  273) = (  -0.0909091   0.1679564   0.0000000), wk =   0.0010101
        k(  274) = (   0.1909091  -0.0052486   0.0000000), wk =   0.0010101
        k(  275) = (  -0.0909091   0.1679564   0.1022567), wk =   0.0010101
        k(  276) = (   0.1909091  -0.0052486   0.1022567), wk =   0.0010101
        k(  277) = (  -0.1909091   0.0052486   0.1022567), wk =   0.0010101
        k(  278) = (   0.0909091  -0.1679564   0.1022567), wk =   0.0010101
        k(  279) = (  -0.0909091  -0.1679564  -0.1022567), wk =   0.0010101
        k(  280) = (  -0.0909091   0.1679564   0.2045134), wk =   0.0010101
        k(  281) = (   0.1909091  -0.0052486   0.2045134), wk =   0.0010101
        k(  282) = (  -0.1909091   0.0052486   0.2045134), wk =   0.0010101
        k(  283) = (   0.0909091  -0.1679564   0.2045134), wk =   0.0010101
        k(  284) = (  -0.0909091  -0.1679564  -0.2045134), wk =   0.0010101
        k(  285) = (  -0.0909091   0.1679564  -0.3067701), wk =   0.0010101
        k(  286) = (   0.1909091  -0.0052486  -0.3067701), wk =   0.0010101
        k(  287) = (  -0.1818182   0.2204428   0.0000000), wk =   0.0010101
        k(  288) = (   0.2818182   0.0472377   0.0000000), wk =   0.0010101
        k(  289) = (  -0.1818182   0.2204428   0.1022567), wk =   0.0010101
        k(  290) = (   0.2818182   0.0472377   0.1022567), wk =   0.0010101
        k(  291) = (  -0.2818182  -0.0472377   0.1022567), wk =   0.0010101
        k(  292) = (   0.1818182  -0.2204428   0.1022567), wk =   0.0010101
        k(  293) = (  -0.1818182  -0.2204428  -0.1022567), wk =   0.0010101
        k(  294) = (  -0.1818182   0.2204428   0.2045134), wk =   0.0010101
        k(  295) = (   0.2818182   0.0472377   0.2045134), wk =   0.0010101
        k(  296) = (  -0.2818182  -0.0472377   0.2045134), wk =   0.0010101
        k(  297) = (   0.1818182  -0.2204428   0.2045134), wk =   0.0010101
        k(  298) = (  -0.1818182  -0.2204428  -0.2045134), wk =   0.0010101
        k(  299) = (  -0.1818182   0.2204428  -0.3067701), wk =   0.0010101
        k(  300) = (   0.2818182   0.0472377  -0.3067701), wk =   0.0010101
        k(  301) = (  -0.2727273   0.2729292   0.0000000), wk =   0.0010101
        k(  302) = (   0.3727273   0.0997241   0.0000000), wk =   0.0010101
        k(  303) = (  -0.2727273   0.2729292   0.1022567), wk =   0.0010101
        k(  304) = (   0.3727273   0.0997241   0.1022567), wk =   0.0010101
        k(  305) = (  -0.3727273  -0.0997241   0.1022567), wk =   0.0010101
        k(  306) = (   0.2727273  -0.2729292   0.1022567), wk =   0.0010101
        k(  307) = (  -0.2727273  -0.2729292  -0.1022567), wk =   0.0010101
        k(  308) = (  -0.2727273   0.2729292   0.2045134), wk =   0.0010101
        k(  309) = (   0.3727273   0.0997241   0.2045134), wk =   0.0010101
        k(  310) = (  -0.3727273  -0.0997241   0.2045134), wk =   0.0010101
        k(  311) = (   0.2727273  -0.2729292   0.2045134), wk =   0.0010101
        k(  312) = (  -0.2727273  -0.2729292  -0.2045134), wk =   0.0010101
        k(  313) = (  -0.2727273   0.2729292  -0.3067701), wk =   0.0010101
        k(  314) = (   0.3727273   0.0997241  -0.3067701), wk =   0.0010101
        k(  315) = (  -0.3636364   0.3254156   0.0000000), wk =   0.0010101
        k(  316) = (   0.4636364   0.1522105   0.0000000), wk =   0.0010101
        k(  317) = (  -0.3636364   0.3254156   0.1022567), wk =   0.0010101
        k(  318) = (   0.4636364   0.1522105   0.1022567), wk =   0.0010101
        k(  319) = (  -0.4636364  -0.1522105   0.1022567), wk =   0.0010101
        k(  320) = (   0.3636364  -0.3254156   0.1022567), wk =   0.0010101
        k(  321) = (  -0.3636364  -0.3254156  -0.1022567), wk =   0.0010101
        k(  322) = (  -0.3636364   0.3254156   0.2045134), wk =   0.0010101
        k(  323) = (   0.4636364   0.1522105   0.2045134), wk =   0.0010101
        k(  324) = (  -0.4636364  -0.1522105   0.2045134), wk =   0.0010101
        k(  325) = (   0.3636364  -0.3254156   0.2045134), wk =   0.0010101
        k(  326) = (  -0.3636364  -0.3254156  -0.2045134), wk =   0.0010101
        k(  327) = (  -0.3636364   0.3254156  -0.3067701), wk =   0.0010101
        k(  328) = (   0.4636364   0.1522105  -0.3067701), wk =   0.0010101
        k(  329) = (  -0.4545455   0.3779020   0.0000000), wk =   0.0010101
        k(  330) = (   0.5545455   0.2046969   0.0000000), wk =   0.0010101
        k(  331) = (  -0.4545455   0.3779020   0.1022567), wk =   0.0010101
        k(  332) = (   0.5545455   0.2046969   0.1022567), wk =   0.0010101
        k(  333) = (  -0.5545455  -0.2046969   0.1022567), wk =   0.0010101
        k(  334) = (   0.4545455  -0.3779020   0.1022567), wk =   0.0010101
        k(  335) = (  -0.4545455  -0.3779020  -0.1022567), wk =   0.0010101
        k(  336) = (  -0.4545455   0.3779020   0.2045134), wk =   0.0010101
        k(  337) = (   0.5545455   0.2046969   0.2045134), wk =   0.0010101
        k(  338) = (  -0.5545455  -0.2046969   0.2045134), wk =   0.0010101
        k(  339) = (   0.4545455  -0.3779020   0.2045134), wk =   0.0010101
        k(  340) = (  -0.4545455  -0.3779020  -0.2045134), wk =   0.0010101
        k(  341) = (  -0.4545455   0.3779020  -0.3067701), wk =   0.0010101
        k(  342) = (   0.5545455   0.2046969  -0.3067701), wk =   0.0010101
        k(  343) = (   0.4545455  -0.1469619   0.0000000), wk =   0.0010101
        k(  344) = (  -0.3545455  -0.3201670   0.0000000), wk =   0.0010101
        k(  345) = (   0.4545455  -0.1469619   0.1022567), wk =   0.0010101
        k(  346) = (  -0.3545455  -0.3201670   0.1022567), wk =   0.0010101
        k(  347) = (   0.3545455   0.3201670   0.1022567), wk =   0.0010101
        k(  348) = (  -0.4545455   0.1469619   0.1022567), wk =   0.0010101
        k(  349) = (   0.4545455   0.1469619  -0.1022567), wk =   0.0010101
        k(  350) = (   0.4545455  -0.1469619   0.2045134), wk =   0.0010101
        k(  351) = (  -0.3545455  -0.3201670   0.2045134), wk =   0.0010101
        k(  352) = (   0.3545455   0.3201670   0.2045134), wk =   0.0010101
        k(  353) = (  -0.4545455   0.1469619   0.2045134), wk =   0.0010101
        k(  354) = (   0.4545455   0.1469619  -0.2045134), wk =   0.0010101
        k(  355) = (   0.4545455  -0.1469619  -0.3067701), wk =   0.0010101
        k(  356) = (  -0.3545455  -0.3201670  -0.3067701), wk =   0.0010101
        k(  357) = (   0.3636364  -0.0944755   0.0000000), wk =   0.0010101
        k(  358) = (  -0.2636364  -0.2676806   0.0000000), wk =   0.0010101
        k(  359) = (   0.3636364  -0.0944755   0.1022567), wk =   0.0010101
        k(  360) = (  -0.2636364  -0.2676806   0.1022567), wk =   0.0010101
        k(  361) = (   0.2636364   0.2676806   0.1022567), wk =   0.0010101
        k(  362) = (  -0.3636364   0.0944755   0.1022567), wk =   0.0010101
        k(  363) = (   0.3636364   0.0944755  -0.1022567), wk =   0.0010101
        k(  364) = (   0.3636364  -0.0944755   0.2045134), wk =   0.0010101
        k(  365) = (  -0.2636364  -0.2676806   0.2045134), wk =   0.0010101
        k(  366) = (   0.2636364   0.2676806   0.2045134), wk =   0.0010101
        k(  367) = (  -0.3636364   0.0944755   0.2045134), wk =   0.0010101
        k(  368) = (   0.3636364   0.0944755  -0.2045134), wk =   0.0010101
        k(  369) = (   0.3636364  -0.0944755  -0.3067701), wk =   0.0010101
        k(  370) = (  -0.2636364  -0.2676806  -0.3067701), wk =   0.0010101
        k(  371) = (   0.2727273  -0.0419891   0.0000000), wk =   0.0010101
        k(  372) = (  -0.1727273  -0.2151942   0.0000000), wk =   0.0010101
        k(  373) = (   0.2727273  -0.0419891   0.1022567), wk =   0.0010101
        k(  374) = (  -0.1727273  -0.2151942   0.1022567), wk =   0.0010101
        k(  375) = (   0.1727273   0.2151942   0.1022567), wk =   0.0010101
        k(  376) = (  -0.2727273   0.0419891   0.1022567), wk =   0.0010101
        k(  377) = (   0.2727273   0.0419891  -0.1022567), wk =   0.0010101
        k(  378) = (   0.2727273  -0.0419891   0.2045134), wk =   0.0010101
        k(  379) = (  -0.1727273  -0.2151942   0.2045134), wk =   0.0010101
        k(  380) = (   0.1727273   0.2151942   0.2045134), wk =   0.0010101
        k(  381) = (  -0.2727273   0.0419891   0.2045134), wk =   0.0010101
        k(  382) = (   0.2727273   0.0419891  -0.2045134), wk =   0.0010101
        k(  383) = (   0.2727273  -0.0419891  -0.3067701), wk =   0.0010101
        k(  384) = (  -0.1727273  -0.2151942  -0.3067701), wk =   0.0010101
        k(  385) = (   0.1818182   0.0104973   0.0000000), wk =   0.0010101
        k(  386) = (  -0.0818182  -0.1627078   0.0000000), wk =   0.0010101
        k(  387) = (   0.1818182   0.0104973   0.1022567), wk =   0.0010101
        k(  388) = (  -0.0818182  -0.1627078   0.1022567), wk =   0.0010101
        k(  389) = (   0.0818182   0.1627078   0.1022567), wk =   0.0010101
        k(  390) = (  -0.1818182  -0.0104973   0.1022567), wk =   0.0010101
        k(  391) = (   0.1818182  -0.0104973  -0.1022567), wk =   0.0010101
        k(  392) = (   0.1818182   0.0104973   0.2045134), wk =   0.0010101
        k(  393) = (  -0.0818182  -0.1627078   0.2045134), wk =   0.0010101
        k(  394) = (   0.0818182   0.1627078   0.2045134), wk =   0.0010101
        k(  395) = (  -0.1818182  -0.0104973   0.2045134), wk =   0.0010101
        k(  396) = (   0.1818182  -0.0104973  -0.2045134), wk =   0.0010101
        k(  397) = (   0.1818182   0.0104973  -0.3067701), wk =   0.0010101
        k(  398) = (  -0.0818182  -0.1627078  -0.3067701), wk =   0.0010101
        k(  399) = (   0.0909091   0.0629837   0.0000000), wk =   0.0010101
        k(  400) = (   0.0090909  -0.1102214   0.0000000), wk =   0.0010101
        k(  401) = (   0.0909091   0.0629837   0.1022567), wk =   0.0010101
        k(  402) = (   0.0090909  -0.1102214   0.1022567), wk =   0.0010101
        k(  403) = (  -0.0090909   0.1102214   0.1022567), wk =   0.0010101
        k(  404) = (  -0.0909091  -0.0629837   0.1022567), wk =   0.0010101
        k(  405) = (   0.0909091  -0.0629837  -0.1022567), wk =   0.0010101
        k(  406) = (   0.0909091   0.0629837   0.2045134), wk =   0.0010101
        k(  407) = (   0.0090909  -0.1102214   0.2045134), wk =   0.0010101
        k(  408) = (  -0.0090909   0.1102214   0.2045134), wk =   0.0010101
        k(  409) = (  -0.0909091  -0.0629837   0.2045134), wk =   0.0010101
        k(  410) = (   0.0909091  -0.0629837  -0.2045134), wk =   0.0010101
        k(  411) = (   0.0909091   0.0629837  -0.3067701), wk =   0.0010101
        k(  412) = (   0.0090909  -0.1102214  -0.3067701), wk =   0.0010101
        k(  413) = (   0.2000000  -0.1154701   0.0000000), wk =   0.0010101
        k(  414) = (   0.0000000   0.2309401   0.1022567), wk =   0.0020202
        k(  415) = (   0.2000000  -0.1154701   0.1022567), wk =   0.0010101
        k(  416) = (  -0.2000000   0.1154701   0.1022567), wk =   0.0010101
        k(  417) = (   0.0000000   0.2309401   0.2045134), wk =   0.0020202
        k(  418) = (   0.2000000  -0.1154701   0.2045134), wk =   0.0010101
        k(  419) = (  -0.2000000   0.1154701   0.2045134), wk =   0.0010101
        k(  420) = (   0.2000000  -0.1154701  -0.3067701), wk =   0.0010101
        k(  421) = (  -0.0909091   0.2834265   0.0000000), wk =   0.0010101
        k(  422) = (   0.2909091  -0.0629837   0.0000000), wk =   0.0010101
        k(  423) = (  -0.0909091   0.2834265   0.1022567), wk =   0.0010101
        k(  424) = (   0.2909091  -0.0629837   0.1022567), wk =   0.0010101
        k(  425) = (  -0.2909091   0.0629837   0.1022567), wk =   0.0010101
        k(  426) = (   0.0909091  -0.2834265   0.1022567), wk =   0.0010101
        k(  427) = (  -0.0909091  -0.2834265  -0.1022567), wk =   0.0010101
        k(  428) = (  -0.0909091   0.2834265   0.2045134), wk =   0.0010101
        k(  429) = (   0.2909091  -0.0629837   0.2045134), wk =   0.0010101
        k(  430) = (  -0.2909091   0.0629837   0.2045134), wk =   0.0010101
        k(  431) = (   0.0909091  -0.2834265   0.2045134), wk =   0.0010101
        k(  432) = (  -0.0909091  -0.2834265  -0.2045134), wk =   0.0010101
        k(  433) = (  -0.0909091   0.2834265  -0.3067701), wk =   0.0010101
        k(  434) = (   0.2909091  -0.0629837  -0.3067701), wk =   0.0010101
        k(  435) = (  -0.1818182   0.3359129   0.0000000), wk =   0.0010101
        k(  436) = (   0.3818182  -0.0104973   0.0000000), wk =   0.0010101
        k(  437) = (  -0.1818182   0.3359129   0.1022567), wk =   0.0010101
        k(  438) = (   0.3818182  -0.0104973   0.1022567), wk =   0.0010101
        k(  439) = (  -0.3818182   0.0104973   0.1022567), wk =   0.0010101
        k(  440) = (   0.1818182  -0.3359129   0.1022567), wk =   0.0010101
        k(  441) = (  -0.1818182  -0.3359129  -0.1022567), wk =   0.0010101
        k(  442) = (  -0.1818182   0.3359129   0.2045134), wk =   0.0010101
        k(  443) = (   0.3818182  -0.0104973   0.2045134), wk =   0.0010101
        k(  444) = (  -0.3818182   0.0104973   0.2045134), wk =   0.0010101
        k(  445) = (   0.1818182  -0.3359129   0.2045134), wk =   0.0010101
        k(  446) = (  -0.1818182  -0.3359129  -0.2045134), wk =   0.0010101
        k(  447) = (  -0.1818182   0.3359129  -0.3067701), wk =   0.0010101
        k(  448) = (   0.3818182  -0.0104973  -0.3067701), wk =   0.0010101
        k(  449) = (  -0.2727273   0.3883993   0.0000000), wk =   0.0010101
        k(  450) = (   0.4727273   0.0419891   0.0000000), wk =   0.0010101
        k(  451) = (  -0.2727273   0.3883993   0.1022567), wk =   0.0010101
        k(  452) = (   0.4727273   0.0419891   0.1022567), wk =   0.0010101
        k(  453) = (  -0.4727273  -0.0419891   0.1022567), wk =   0.0010101
        k(  454) = (   0.2727273  -0.3883993   0.1022567), wk =   0.0010101
        k(  455) = (  -0.2727273  -0.3883993  -0.1022567), wk =   0.0010101
        k(  456) = (  -0.2727273   0.3883993   0.2045134), wk =   0.0010101
        k(  457) = (   0.4727273   0.0419891   0.2045134), wk =   0.0010101
        k(  458) = (  -0.4727273  -0.0419891   0.2045134), wk =   0.0010101
        k(  459) = (   0.2727273  -0.3883993   0.2045134), wk =   0.0010101
        k(  460) = (  -0.2727273  -0.3883993  -0.2045134), wk =   0.0010101
        k(  461) = (  -0.2727273   0.3883993  -0.3067701), wk =   0.0010101
        k(  462) = (   0.4727273   0.0419891  -0.3067701), wk =   0.0010101
        k(  463) = (  -0.3636364   0.4408857   0.0000000), wk =   0.0010101
        k(  464) = (   0.5636364   0.0944755   0.0000000), wk =   0.0010101
        k(  465) = (  -0.3636364   0.4408857   0.1022567), wk =   0.0010101
        k(  466) = (   0.5636364   0.0944755   0.1022567), wk =   0.0010101
        k(  467) = (  -0.5636364  -0.0944755   0.1022567), wk =   0.0010101
        k(  468) = (   0.3636364  -0.4408857   0.1022567), wk =   0.0010101
        k(  469) = (  -0.3636364  -0.4408857  -0.1022567), wk =   0.0010101
        k(  470) = (  -0.3636364   0.4408857   0.2045134), wk =   0.0010101
        k(  471) = (   0.5636364   0.0944755   0.2045134), wk =   0.0010101
        k(  472) = (  -0.5636364  -0.0944755   0.2045134), wk =   0.0010101
        k(  473) = (   0.3636364  -0.4408857   0.2045134), wk =   0.0010101
        k(  474) = (  -0.3636364  -0.4408857  -0.2045134), wk =   0.0010101
        k(  475) = (  -0.3636364   0.4408857  -0.3067701), wk =   0.0010101
        k(  476) = (   0.5636364   0.0944755  -0.3067701), wk =   0.0010101
        k(  477) = (  -0.4545455   0.4933720   0.0000000), wk =   0.0010101
        k(  478) = (   0.6545455   0.1469619   0.0000000), wk =   0.0010101
        k(  479) = (  -0.4545455   0.4933720   0.1022567), wk =   0.0010101
        k(  480) = (   0.6545455   0.1469619   0.1022567), wk =   0.0010101
        k(  481) = (  -0.6545455  -0.1469619   0.1022567), wk =   0.0010101
        k(  482) = (   0.4545455  -0.4933720   0.1022567), wk =   0.0010101
        k(  483) = (  -0.4545455  -0.4933720  -0.1022567), wk =   0.0010101
        k(  484) = (  -0.4545455   0.4933720   0.2045134), wk =   0.0010101
        k(  485) = (   0.6545455   0.1469619   0.2045134), wk =   0.0010101
        k(  486) = (  -0.6545455  -0.1469619   0.2045134), wk =   0.0010101
        k(  487) = (   0.4545455  -0.4933720   0.2045134), wk =   0.0010101
        k(  488) = (  -0.4545455  -0.4933720  -0.2045134), wk =   0.0010101
        k(  489) = (  -0.4545455   0.4933720  -0.3067701), wk =   0.0010101
        k(  490) = (   0.6545455   0.1469619  -0.3067701), wk =   0.0010101
        k(  491) = (   0.4545455  -0.0314918   0.0000000), wk =   0.0010101
        k(  492) = (  -0.2545455  -0.3779020   0.0000000), wk =   0.0010101
        k(  493) = (   0.4545455  -0.0314918   0.1022567), wk =   0.0010101
        k(  494) = (  -0.2545455  -0.3779020   0.1022567), wk =   0.0010101
        k(  495) = (   0.2545455   0.3779020   0.1022567), wk =   0.0010101
        k(  496) = (  -0.4545455   0.0314918   0.1022567), wk =   0.0010101
        k(  497) = (   0.4545455   0.0314918  -0.1022567), wk =   0.0010101
        k(  498) = (   0.4545455  -0.0314918   0.2045134), wk =   0.0010101
        k(  499) = (  -0.2545455  -0.3779020   0.2045134), wk =   0.0010101
        k(  500) = (   0.2545455   0.3779020   0.2045134), wk =   0.0010101
        k(  501) = (  -0.4545455   0.0314918   0.2045134), wk =   0.0010101
        k(  502) = (   0.4545455   0.0314918  -0.2045134), wk =   0.0010101
        k(  503) = (   0.4545455  -0.0314918  -0.3067701), wk =   0.0010101
        k(  504) = (  -0.2545455  -0.3779020  -0.3067701), wk =   0.0010101
        k(  505) = (   0.3636364   0.0209946   0.0000000), wk =   0.0010101
        k(  506) = (  -0.1636364  -0.3254156   0.0000000), wk =   0.0010101
        k(  507) = (   0.3636364   0.0209946   0.1022567), wk =   0.0010101
        k(  508) = (  -0.1636364  -0.3254156   0.1022567), wk =   0.0010101
        k(  509) = (   0.1636364   0.3254156   0.1022567), wk =   0.0010101
        k(  510) = (  -0.3636364  -0.0209946   0.1022567), wk =   0.0010101
        k(  511) = (   0.3636364  -0.0209946  -0.1022567), wk =   0.0010101
        k(  512) = (   0.3636364   0.0209946   0.2045134), wk =   0.0010101
        k(  513) = (  -0.1636364  -0.3254156   0.2045134), wk =   0.0010101
        k(  514) = (   0.1636364   0.3254156   0.2045134), wk =   0.0010101
        k(  515) = (  -0.3636364  -0.0209946   0.2045134), wk =   0.0010101
        k(  516) = (   0.3636364  -0.0209946  -0.2045134), wk =   0.0010101
        k(  517) = (   0.3636364   0.0209946  -0.3067701), wk =   0.0010101
        k(  518) = (  -0.1636364  -0.3254156  -0.3067701), wk =   0.0010101
        k(  519) = (   0.2727273   0.0734809   0.0000000), wk =   0.0010101
        k(  520) = (  -0.0727273  -0.2729292   0.0000000), wk =   0.0010101
        k(  521) = (   0.2727273   0.0734809   0.1022567), wk =   0.0010101
        k(  522) = (  -0.0727273  -0.2729292   0.1022567), wk =   0.0010101
        k(  523) = (   0.0727273   0.2729292   0.1022567), wk =   0.0010101
        k(  524) = (  -0.2727273  -0.0734809   0.1022567), wk =   0.0010101
        k(  525) = (   0.2727273  -0.0734809  -0.1022567), wk =   0.0010101
        k(  526) = (   0.2727273   0.0734809   0.2045134), wk =   0.0010101
        k(  527) = (  -0.0727273  -0.2729292   0.2045134), wk =   0.0010101
        k(  528) = (   0.0727273   0.2729292   0.2045134), wk =   0.0010101
        k(  529) = (  -0.2727273  -0.0734809   0.2045134), wk =   0.0010101
        k(  530) = (   0.2727273  -0.0734809  -0.2045134), wk =   0.0010101
        k(  531) = (   0.2727273   0.0734809  -0.3067701), wk =   0.0010101
        k(  532) = (  -0.0727273  -0.2729292  -0.3067701), wk =   0.0010101
        k(  533) = (   0.1818182   0.1259673   0.0000000), wk =   0.0010101
        k(  534) = (   0.0181818  -0.2204428   0.0000000), wk =   0.0010101
        k(  535) = (   0.1818182   0.1259673   0.1022567), wk =   0.0010101
        k(  536) = (   0.0181818  -0.2204428   0.1022567), wk =   0.0010101
        k(  537) = (  -0.0181818   0.2204428   0.1022567), wk =   0.0010101
        k(  538) = (  -0.1818182  -0.1259673   0.1022567), wk =   0.0010101
        k(  539) = (   0.1818182  -0.1259673  -0.1022567), wk =   0.0010101
        k(  540) = (   0.1818182   0.1259673   0.2045134), wk =   0.0010101
        k(  541) = (   0.0181818  -0.2204428   0.2045134), wk =   0.0010101
        k(  542) = (  -0.0181818   0.2204428   0.2045134), wk =   0.0010101
        k(  543) = (  -0.1818182  -0.1259673   0.2045134), wk =   0.0010101
        k(  544) = (   0.1818182  -0.1259673  -0.2045134), wk =   0.0010101
        k(  545) = (   0.1818182   0.1259673  -0.3067701), wk =   0.0010101
        k(  546) = (   0.0181818  -0.2204428  -0.3067701), wk =   0.0010101
        k(  547) = (   0.0909091   0.1784537   0.0000000), wk =   0.0010101
        k(  548) = (   0.1090909  -0.1679564   0.0000000), wk =   0.0010101
        k(  549) = (   0.0909091   0.1784537   0.1022567), wk =   0.0010101
        k(  550) = (   0.1090909  -0.1679564   0.1022567), wk =   0.0010101
        k(  551) = (  -0.1090909   0.1679564   0.1022567), wk =   0.0010101
        k(  552) = (  -0.0909091  -0.1784537   0.1022567), wk =   0.0010101
        k(  553) = (   0.0909091  -0.1784537  -0.1022567), wk =   0.0010101
        k(  554) = (   0.0909091   0.1784537   0.2045134), wk =   0.0010101
        k(  555) = (   0.1090909  -0.1679564   0.2045134), wk =   0.0010101
        k(  556) = (  -0.1090909   0.1679564   0.2045134), wk =   0.0010101
        k(  557) = (  -0.0909091  -0.1784537   0.2045134), wk =   0.0010101
        k(  558) = (   0.0909091  -0.1784537  -0.2045134), wk =   0.0010101
        k(  559) = (   0.0909091   0.1784537  -0.3067701), wk =   0.0010101
        k(  560) = (   0.1090909  -0.1679564  -0.3067701), wk =   0.0010101
        k(  561) = (   0.3000000  -0.1732051   0.0000000), wk =   0.0010101
        k(  562) = (   0.0000000   0.3464102   0.1022567), wk =   0.0020202
        k(  563) = (   0.3000000  -0.1732051   0.1022567), wk =   0.0010101
        k(  564) = (  -0.3000000   0.1732051   0.1022567), wk =   0.0010101
        k(  565) = (   0.0000000   0.3464102   0.2045134), wk =   0.0020202
        k(  566) = (   0.3000000  -0.1732051   0.2045134), wk =   0.0010101
        k(  567) = (  -0.3000000   0.1732051   0.2045134), wk =   0.0010101
        k(  568) = (   0.3000000  -0.1732051  -0.3067701), wk =   0.0010101
        k(  569) = (  -0.0909091   0.3988965   0.0000000), wk =   0.0010101
        k(  570) = (   0.3909091  -0.1207187   0.0000000), wk =   0.0010101
        k(  571) = (  -0.0909091   0.3988965   0.1022567), wk =   0.0010101
        k(  572) = (   0.3909091  -0.1207187   0.1022567), wk =   0.0010101
        k(  573) = (  -0.3909091   0.1207187   0.1022567), wk =   0.0010101
        k(  574) = (   0.0909091  -0.3988965   0.1022567), wk =   0.0010101
        k(  575) = (  -0.0909091  -0.3988965  -0.1022567), wk =   0.0010101
        k(  576) = (  -0.0909091   0.3988965   0.2045134), wk =   0.0010101
        k(  577) = (   0.3909091  -0.1207187   0.2045134), wk =   0.0010101
        k(  578) = (  -0.3909091   0.1207187   0.2045134), wk =   0.0010101
        k(  579) = (   0.0909091  -0.3988965   0.2045134), wk =   0.0010101
        k(  580) = (  -0.0909091  -0.3988965  -0.2045134), wk =   0.0010101
        k(  581) = (  -0.0909091   0.3988965  -0.3067701), wk =   0.0010101
        k(  582) = (   0.3909091  -0.1207187  -0.3067701), wk =   0.0010101
        k(  583) = (  -0.1818182   0.4513829   0.0000000), wk =   0.0010101
        k(  584) = (   0.4818182  -0.0682323   0.0000000), wk =   0.0010101
        k(  585) = (  -0.1818182   0.4513829   0.1022567), wk =   0.0010101
        k(  586) = (   0.4818182  -0.0682323   0.1022567), wk =   0.0010101
        k(  587) = (  -0.4818182   0.0682323   0.1022567), wk =   0.0010101
        k(  588) = (   0.1818182  -0.4513829   0.1022567), wk =   0.0010101
        k(  589) = (  -0.1818182  -0.4513829  -0.1022567), wk =   0.0010101
        k(  590) = (  -0.1818182   0.4513829   0.2045134), wk =   0.0010101
        k(  591) = (   0.4818182  -0.0682323   0.2045134), wk =   0.0010101
        k(  592) = (  -0.4818182   0.0682323   0.2045134), wk =   0.0010101
        k(  593) = (   0.1818182  -0.4513829   0.2045134), wk =   0.0010101
        k(  594) = (  -0.1818182  -0.4513829  -0.2045134), wk =   0.0010101
        k(  595) = (  -0.1818182   0.4513829  -0.3067701), wk =   0.0010101
        k(  596) = (   0.4818182  -0.0682323  -0.3067701), wk =   0.0010101
        k(  597) = (  -0.2727273   0.5038693   0.0000000), wk =   0.0010101
        k(  598) = (   0.5727273  -0.0157459   0.0000000), wk =   0.0010101
        k(  599) = (  -0.2727273   0.5038693   0.1022567), wk =   0.0010101
        k(  600) = (   0.5727273  -0.0157459   0.1022567), wk =   0.0010101
        k(  601) = (  -0.5727273   0.0157459   0.1022567), wk =   0.0010101
        k(  602) = (   0.2727273  -0.5038693   0.1022567), wk =   0.0010101
        k(  603) = (  -0.2727273  -0.5038693  -0.1022567), wk =   0.0010101
        k(  604) = (  -0.2727273   0.5038693   0.2045134), wk =   0.0010101
        k(  605) = (   0.5727273  -0.0157459   0.2045134), wk =   0.0010101
        k(  606) = (  -0.5727273   0.0157459   0.2045134), wk =   0.0010101
        k(  607) = (   0.2727273  -0.5038693   0.2045134), wk =   0.0010101
        k(  608) = (  -0.2727273  -0.5038693  -0.2045134), wk =   0.0010101
        k(  609) = (  -0.2727273   0.5038693  -0.3067701), wk =   0.0010101
        k(  610) = (   0.5727273  -0.0157459  -0.3067701), wk =   0.0010101
        k(  611) = (  -0.3636364   0.5563557   0.0000000), wk =   0.0010101
        k(  612) = (   0.6636364   0.0367405   0.0000000), wk =   0.0010101
        k(  613) = (  -0.3636364   0.5563557   0.1022567), wk =   0.0010101
        k(  614) = (   0.6636364   0.0367405   0.1022567), wk =   0.0010101
        k(  615) = (  -0.6636364  -0.0367405   0.1022567), wk =   0.0010101
        k(  616) = (   0.3636364  -0.5563557   0.1022567), wk =   0.0010101
        k(  617) = (  -0.3636364  -0.5563557  -0.1022567), wk =   0.0010101
        k(  618) = (  -0.3636364   0.5563557   0.2045134), wk =   0.0010101
        k(  619) = (   0.6636364   0.0367405   0.2045134), wk =   0.0010101
        k(  620) = (  -0.6636364  -0.0367405   0.2045134), wk =   0.0010101
        k(  621) = (   0.3636364  -0.5563557   0.2045134), wk =   0.0010101
        k(  622) = (  -0.3636364  -0.5563557  -0.2045134), wk =   0.0010101
        k(  623) = (  -0.3636364   0.5563557  -0.3067701), wk =   0.0010101
        k(  624) = (   0.6636364   0.0367405  -0.3067701), wk =   0.0010101
        k(  625) = (  -0.4545455   0.6088421   0.0000000), wk =   0.0010101
        k(  626) = (   0.7545455   0.0892269   0.0000000), wk =   0.0010101
        k(  627) = (  -0.4545455   0.6088421   0.1022567), wk =   0.0010101
        k(  628) = (   0.7545455   0.0892269   0.1022567), wk =   0.0010101
        k(  629) = (  -0.7545455  -0.0892269   0.1022567), wk =   0.0010101
        k(  630) = (   0.4545455  -0.6088421   0.1022567), wk =   0.0010101
        k(  631) = (  -0.4545455  -0.6088421  -0.1022567), wk =   0.0010101
        k(  632) = (  -0.4545455   0.6088421   0.2045134), wk =   0.0010101
        k(  633) = (   0.7545455   0.0892269   0.2045134), wk =   0.0010101
        k(  634) = (  -0.7545455  -0.0892269   0.2045134), wk =   0.0010101
        k(  635) = (   0.4545455  -0.6088421   0.2045134), wk =   0.0010101
        k(  636) = (  -0.4545455  -0.6088421  -0.2045134), wk =   0.0010101
        k(  637) = (  -0.4545455   0.6088421  -0.3067701), wk =   0.0010101
        k(  638) = (   0.7545455   0.0892269  -0.3067701), wk =   0.0010101
        k(  639) = (   0.4545455   0.0839782   0.0000000), wk =   0.0010101
        k(  640) = (  -0.1545455  -0.4356370   0.0000000), wk =   0.0010101
        k(  641) = (   0.4545455   0.0839782   0.1022567), wk =   0.0010101
        k(  642) = (  -0.1545455  -0.4356370   0.1022567), wk =   0.0010101
        k(  643) = (   0.1545455   0.4356370   0.1022567), wk =   0.0010101
        k(  644) = (  -0.4545455  -0.0839782   0.1022567), wk =   0.0010101
        k(  645) = (   0.4545455  -0.0839782  -0.1022567), wk =   0.0010101
        k(  646) = (   0.4545455   0.0839782   0.2045134), wk =   0.0010101
        k(  647) = (  -0.1545455  -0.4356370   0.2045134), wk =   0.0010101
        k(  648) = (   0.1545455   0.4356370   0.2045134), wk =   0.0010101
        k(  649) = (  -0.4545455  -0.0839782   0.2045134), wk =   0.0010101
        k(  650) = (   0.4545455  -0.0839782  -0.2045134), wk =   0.0010101
        k(  651) = (   0.4545455   0.0839782  -0.3067701), wk =   0.0010101
        k(  652) = (  -0.1545455  -0.4356370  -0.3067701), wk =   0.0010101
        k(  653) = (   0.3636364   0.1364646   0.0000000), wk =   0.0010101
        k(  654) = (  -0.0636364  -0.3831506   0.0000000), wk =   0.0010101
        k(  655) = (   0.3636364   0.1364646   0.1022567), wk =   0.0010101
        k(  656) = (  -0.0636364  -0.3831506   0.1022567), wk =   0.0010101
        k(  657) = (   0.0636364   0.3831506   0.1022567), wk =   0.0010101
        k(  658) = (  -0.3636364  -0.1364646   0.1022567), wk =   0.0010101
        k(  659) = (   0.3636364  -0.1364646  -0.1022567), wk =   0.0010101
        k(  660) = (   0.3636364   0.1364646   0.2045134), wk =   0.0010101
        k(  661) = (  -0.0636364  -0.3831506   0.2045134), wk =   0.0010101
        k(  662) = (   0.0636364   0.3831506   0.2045134), wk =   0.0010101
        k(  663) = (  -0.3636364  -0.1364646   0.2045134), wk =   0.0010101
        k(  664) = (   0.3636364  -0.1364646  -0.2045134), wk =   0.0010101
        k(  665) = (   0.3636364   0.1364646  -0.3067701), wk =   0.0010101
        k(  666) = (  -0.0636364  -0.3831506  -0.3067701), wk =   0.0010101
        k(  667) = (   0.2727273   0.1889510   0.0000000), wk =   0.0010101
        k(  668) = (   0.0272727  -0.3306642   0.0000000), wk =   0.0010101
        k(  669) = (   0.2727273   0.1889510   0.1022567), wk =   0.0010101
        k(  670) = (   0.0272727  -0.3306642   0.1022567), wk =   0.0010101
        k(  671) = (  -0.0272727   0.3306642   0.1022567), wk =   0.0010101
        k(  672) = (  -0.2727273  -0.1889510   0.1022567), wk =   0.0010101
        k(  673) = (   0.2727273  -0.1889510  -0.1022567), wk =   0.0010101
        k(  674) = (   0.2727273   0.1889510   0.2045134), wk =   0.0010101
        k(  675) = (   0.0272727  -0.3306642   0.2045134), wk =   0.0010101
        k(  676) = (  -0.0272727   0.3306642   0.2045134), wk =   0.0010101
        k(  677) = (  -0.2727273  -0.1889510   0.2045134), wk =   0.0010101
        k(  678) = (   0.2727273  -0.1889510  -0.2045134), wk =   0.0010101
        k(  679) = (   0.2727273   0.1889510  -0.3067701), wk =   0.0010101
        k(  680) = (   0.0272727  -0.3306642  -0.3067701), wk =   0.0010101
        k(  681) = (   0.1818182   0.2414374   0.0000000), wk =   0.0010101
        k(  682) = (   0.1181818  -0.2781779   0.0000000), wk =   0.0010101
        k(  683) = (   0.1818182   0.2414374   0.1022567), wk =   0.0010101
        k(  684) = (   0.1181818  -0.2781779   0.1022567), wk =   0.0010101
        k(  685) = (  -0.1181818   0.2781779   0.1022567), wk =   0.0010101
        k(  686) = (  -0.1818182  -0.2414374   0.1022567), wk =   0.0010101
        k(  687) = (   0.1818182  -0.2414374  -0.1022567), wk =   0.0010101
        k(  688) = (   0.1818182   0.2414374   0.2045134), wk =   0.0010101
        k(  689) = (   0.1181818  -0.2781779   0.2045134), wk =   0.0010101
        k(  690) = (  -0.1181818   0.2781779   0.2045134), wk =   0.0010101
        k(  691) = (  -0.1818182  -0.2414374   0.2045134), wk =   0.0010101
        k(  692) = (   0.1818182  -0.2414374  -0.2045134), wk =   0.0010101
        k(  693) = (   0.1818182   0.2414374  -0.3067701), wk =   0.0010101
        k(  694) = (   0.1181818  -0.2781779  -0.3067701), wk =   0.0010101
        k(  695) = (   0.0909091   0.2939238   0.0000000), wk =   0.0010101
        k(  696) = (   0.2090909  -0.2256915   0.0000000), wk =   0.0010101
        k(  697) = (   0.0909091   0.2939238   0.1022567), wk =   0.0010101
        k(  698) = (   0.2090909  -0.2256915   0.1022567), wk =   0.0010101
        k(  699) = (  -0.2090909   0.2256915   0.1022567), wk =   0.0010101
        k(  700) = (  -0.0909091  -0.2939238   0.1022567), wk =   0.0010101
        k(  701) = (   0.0909091  -0.2939238  -0.1022567), wk =   0.0010101
        k(  702) = (   0.0909091   0.2939238   0.2045134), wk =   0.0010101
        k(  703) = (   0.2090909  -0.2256915   0.2045134), wk =   0.0010101
        k(  704) = (  -0.2090909   0.2256915   0.2045134), wk =   0.0010101
        k(  705) = (  -0.0909091  -0.2939238   0.2045134), wk =   0.0010101
        k(  706) = (   0.0909091  -0.2939238  -0.2045134), wk =   0.0010101
        k(  707) = (   0.0909091   0.2939238  -0.3067701), wk =   0.0010101
        k(  708) = (   0.2090909  -0.2256915  -0.3067701), wk =   0.0010101
        k(  709) = (   0.4000000  -0.2309401   0.0000000), wk =   0.0010101
        k(  710) = (   0.0000000   0.4618802   0.1022567), wk =   0.0020202
        k(  711) = (   0.4000000  -0.2309401   0.1022567), wk =   0.0010101
        k(  712) = (  -0.4000000   0.2309401   0.1022567), wk =   0.0010101
        k(  713) = (   0.0000000   0.4618802   0.2045134), wk =   0.0020202
        k(  714) = (   0.4000000  -0.2309401   0.2045134), wk =   0.0010101
        k(  715) = (  -0.4000000   0.2309401   0.2045134), wk =   0.0010101
        k(  716) = (   0.4000000  -0.2309401  -0.3067701), wk =   0.0010101
        k(  717) = (  -0.0909091   0.5143666   0.0000000), wk =   0.0010101
        k(  718) = (   0.4909091  -0.1784537   0.0000000), wk =   0.0010101
        k(  719) = (  -0.0909091   0.5143666   0.1022567), wk =   0.0010101
        k(  720) = (   0.4909091  -0.1784537   0.1022567), wk =   0.0010101
        k(  721) = (  -0.4909091   0.1784537   0.1022567), wk =   0.0010101
        k(  722) = (   0.0909091  -0.5143666   0.1022567), wk =   0.0010101
        k(  723) = (  -0.0909091  -0.5143666  -0.1022567), wk =   0.0010101
        k(  724) = (  -0.0909091   0.5143666   0.2045134), wk =   0.0010101
        k(  725) = (   0.4909091  -0.1784537   0.2045134), wk =   0.0010101
        k(  726) = (  -0.4909091   0.1784537   0.2045134), wk =   0.0010101
        k(  727) = (   0.0909091  -0.5143666   0.2045134), wk =   0.0010101
        k(  728) = (  -0.0909091  -0.5143666  -0.2045134), wk =   0.0010101
        k(  729) = (  -0.0909091   0.5143666  -0.3067701), wk =   0.0010101
        k(  730) = (   0.4909091  -0.1784537  -0.3067701), wk =   0.0010101
        k(  731) = (  -0.1818182   0.5668530   0.0000000), wk =   0.0010101
        k(  732) = (   0.5818182  -0.1259673   0.0000000), wk =   0.0010101
        k(  733) = (  -0.1818182   0.5668530   0.1022567), wk =   0.0010101
        k(  734) = (   0.5818182  -0.1259673   0.1022567), wk =   0.0010101
        k(  735) = (  -0.5818182   0.1259673   0.1022567), wk =   0.0010101
        k(  736) = (   0.1818182  -0.5668530   0.1022567), wk =   0.0010101
        k(  737) = (  -0.1818182  -0.5668530  -0.1022567), wk =   0.0010101
        k(  738) = (  -0.1818182   0.5668530   0.2045134), wk =   0.0010101
        k(  739) = (   0.5818182  -0.1259673   0.2045134), wk =   0.0010101
        k(  740) = (  -0.5818182   0.1259673   0.2045134), wk =   0.0010101
        k(  741) = (   0.1818182  -0.5668530   0.2045134), wk =   0.0010101
        k(  742) = (  -0.1818182  -0.5668530  -0.2045134), wk =   0.0010101
        k(  743) = (  -0.1818182   0.5668530  -0.3067701), wk =   0.0010101
        k(  744) = (   0.5818182  -0.1259673  -0.3067701), wk =   0.0010101
        k(  745) = (  -0.2727273   0.6193394   0.0000000), wk =   0.0010101
        k(  746) = (   0.6727273  -0.0734809   0.0000000), wk =   0.0010101
        k(  747) = (  -0.2727273   0.6193394   0.1022567), wk =   0.0010101
        k(  748) = (   0.6727273  -0.0734809   0.1022567), wk =   0.0010101
        k(  749) = (  -0.6727273   0.0734809   0.1022567), wk =   0.0010101
        k(  750) = (   0.2727273  -0.6193394   0.1022567), wk =   0.0010101
        k(  751) = (  -0.2727273  -0.6193394  -0.1022567), wk =   0.0010101
        k(  752) = (  -0.2727273   0.6193394   0.2045134), wk =   0.0010101
        k(  753) = (   0.6727273  -0.0734809   0.2045134), wk =   0.0010101
        k(  754) = (  -0.6727273   0.0734809   0.2045134), wk =   0.0010101
        k(  755) = (   0.2727273  -0.6193394   0.2045134), wk =   0.0010101
        k(  756) = (  -0.2727273  -0.6193394  -0.2045134), wk =   0.0010101
        k(  757) = (  -0.2727273   0.6193394  -0.3067701), wk =   0.0010101
        k(  758) = (   0.6727273  -0.0734809  -0.3067701), wk =   0.0010101
        k(  759) = (  -0.3636364   0.6718258   0.0000000), wk =   0.0010101
        k(  760) = (   0.7636364  -0.0209946   0.0000000), wk =   0.0010101
        k(  761) = (  -0.3636364   0.6718258   0.1022567), wk =   0.0010101
        k(  762) = (   0.7636364  -0.0209946   0.1022567), wk =   0.0010101
        k(  763) = (  -0.7636364   0.0209946   0.1022567), wk =   0.0010101
        k(  764) = (   0.3636364  -0.6718258   0.1022567), wk =   0.0010101
        k(  765) = (  -0.3636364  -0.6718258  -0.1022567), wk =   0.0010101
        k(  766) = (  -0.3636364   0.6718258   0.2045134), wk =   0.0010101
        k(  767) = (   0.7636364  -0.0209946   0.2045134), wk =   0.0010101
        k(  768) = (  -0.7636364   0.0209946   0.2045134), wk =   0.0010101
        k(  769) = (   0.3636364  -0.6718258   0.2045134), wk =   0.0010101
        k(  770) = (  -0.3636364  -0.6718258  -0.2045134), wk =   0.0010101
        k(  771) = (  -0.3636364   0.6718258  -0.3067701), wk =   0.0010101
        k(  772) = (   0.7636364  -0.0209946  -0.3067701), wk =   0.0010101
        k(  773) = (  -0.4545455   0.7243122   0.0000000), wk =   0.0010101
        k(  774) = (   0.8545455   0.0314918   0.0000000), wk =   0.0010101
        k(  775) = (  -0.4545455   0.7243122   0.1022567), wk =   0.0010101
        k(  776) = (   0.8545455   0.0314918   0.1022567), wk =   0.0010101
        k(  777) = (  -0.8545455  -0.0314918   0.1022567), wk =   0.0010101
        k(  778) = (   0.4545455  -0.7243122   0.1022567), wk =   0.0010101
        k(  779) = (  -0.4545455  -0.7243122  -0.1022567), wk =   0.0010101
        k(  780) = (  -0.4545455   0.7243122   0.2045134), wk =   0.0010101
        k(  781) = (   0.8545455   0.0314918   0.2045134), wk =   0.0010101
        k(  782) = (  -0.8545455  -0.0314918   0.2045134), wk =   0.0010101
        k(  783) = (   0.4545455  -0.7243122   0.2045134), wk =   0.0010101
        k(  784) = (  -0.4545455  -0.7243122  -0.2045134), wk =   0.0010101
        k(  785) = (  -0.4545455   0.7243122  -0.3067701), wk =   0.0010101
        k(  786) = (   0.8545455   0.0314918  -0.3067701), wk =   0.0010101
        k(  787) = (   0.4545455   0.1994483   0.0000000), wk =   0.0010101
        k(  788) = (  -0.0545455  -0.4933720   0.0000000), wk =   0.0010101
        k(  789) = (   0.4545455   0.1994483   0.1022567), wk =   0.0010101
        k(  790) = (  -0.0545455  -0.4933720   0.1022567), wk =   0.0010101
        k(  791) = (   0.0545455   0.4933720   0.1022567), wk =   0.0010101
        k(  792) = (  -0.4545455  -0.1994483   0.1022567), wk =   0.0010101
        k(  793) = (   0.4545455  -0.1994483  -0.1022567), wk =   0.0010101
        k(  794) = (   0.4545455   0.1994483   0.2045134), wk =   0.0010101
        k(  795) = (  -0.0545455  -0.4933720   0.2045134), wk =   0.0010101
        k(  796) = (   0.0545455   0.4933720   0.2045134), wk =   0.0010101
        k(  797) = (  -0.4545455  -0.1994483   0.2045134), wk =   0.0010101
        k(  798) = (   0.4545455  -0.1994483  -0.2045134), wk =   0.0010101
        k(  799) = (   0.4545455   0.1994483  -0.3067701), wk =   0.0010101
        k(  800) = (  -0.0545455  -0.4933720  -0.3067701), wk =   0.0010101
        k(  801) = (   0.3636364   0.2519347   0.0000000), wk =   0.0010101
        k(  802) = (   0.0363636  -0.4408857   0.0000000), wk =   0.0010101
        k(  803) = (   0.3636364   0.2519347   0.1022567), wk =   0.0010101
        k(  804) = (   0.0363636  -0.4408857   0.1022567), wk =   0.0010101
        k(  805) = (  -0.0363636   0.4408857   0.1022567), wk =   0.0010101
        k(  806) = (  -0.3636364  -0.2519347   0.1022567), wk =   0.0010101
        k(  807) = (   0.3636364  -0.2519347  -0.1022567), wk =   0.0010101
        k(  808) = (   0.3636364   0.2519347   0.2045134), wk =   0.0010101
        k(  809) = (   0.0363636  -0.4408857   0.2045134), wk =   0.0010101
        k(  810) = (  -0.0363636   0.4408857   0.2045134), wk =   0.0010101
        k(  811) = (  -0.3636364  -0.2519347   0.2045134), wk =   0.0010101
        k(  812) = (   0.3636364  -0.2519347  -0.2045134), wk =   0.0010101
        k(  813) = (   0.3636364   0.2519347  -0.3067701), wk =   0.0010101
        k(  814) = (   0.0363636  -0.4408857  -0.3067701), wk =   0.0010101
        k(  815) = (   0.2727273   0.3044211   0.0000000), wk =   0.0010101
        k(  816) = (   0.1272727  -0.3883993   0.0000000), wk =   0.0010101
        k(  817) = (   0.2727273   0.3044211   0.1022567), wk =   0.0010101
        k(  818) = (   0.1272727  -0.3883993   0.1022567), wk =   0.0010101
        k(  819) = (  -0.1272727   0.3883993   0.1022567), wk =   0.0010101
        k(  820) = (  -0.2727273  -0.3044211   0.1022567), wk =   0.0010101
        k(  821) = (   0.2727273  -0.3044211  -0.1022567), wk =   0.0010101
        k(  822) = (   0.2727273   0.3044211   0.2045134), wk =   0.0010101
        k(  823) = (   0.1272727  -0.3883993   0.2045134), wk =   0.0010101
        k(  824) = (  -0.1272727   0.3883993   0.2045134), wk =   0.0010101
        k(  825) = (  -0.2727273  -0.3044211   0.2045134), wk =   0.0010101
        k(  826) = (   0.2727273  -0.3044211  -0.2045134), wk =   0.0010101
        k(  827) = (   0.2727273   0.3044211  -0.3067701), wk =   0.0010101
        k(  828) = (   0.1272727  -0.3883993  -0.3067701), wk =   0.0010101
        k(  829) = (   0.1818182   0.3569074   0.0000000), wk =   0.0010101
        k(  830) = (   0.2181818  -0.3359129   0.0000000), wk =   0.0010101
        k(  831) = (   0.1818182   0.3569074   0.1022567), wk =   0.0010101
        k(  832) = (   0.2181818  -0.3359129   0.1022567), wk =   0.0010101
        k(  833) = (  -0.2181818   0.3359129   0.1022567), wk =   0.0010101
        k(  834) = (  -0.1818182  -0.3569074   0.1022567), wk =   0.0010101
        k(  835) = (   0.1818182  -0.3569074  -0.1022567), wk =   0.0010101
        k(  836) = (   0.1818182   0.3569074   0.2045134), wk =   0.0010101
        k(  837) = (   0.2181818  -0.3359129   0.2045134), wk =   0.0010101
        k(  838) = (  -0.2181818   0.3359129   0.2045134), wk =   0.0010101
        k(  839) = (  -0.1818182  -0.3569074   0.2045134), wk =   0.0010101
        k(  840) = (   0.1818182  -0.3569074  -0.2045134), wk =   0.0010101
        k(  841) = (   0.1818182   0.3569074  -0.3067701), wk =   0.0010101
        k(  842) = (   0.2181818  -0.3359129  -0.3067701), wk =   0.0010101
        k(  843) = (   0.0909091   0.4093938   0.0000000), wk =   0.0010101
        k(  844) = (   0.3090909  -0.2834265   0.0000000), wk =   0.0010101
        k(  845) = (   0.0909091   0.4093938   0.1022567), wk =   0.0010101
        k(  846) = (   0.3090909  -0.2834265   0.1022567), wk =   0.0010101
        k(  847) = (  -0.3090909   0.2834265   0.1022567), wk =   0.0010101
        k(  848) = (  -0.0909091  -0.4093938   0.1022567), wk =   0.0010101
        k(  849) = (   0.0909091  -0.4093938  -0.1022567), wk =   0.0010101
        k(  850) = (   0.0909091   0.4093938   0.2045134), wk =   0.0010101
        k(  851) = (   0.3090909  -0.2834265   0.2045134), wk =   0.0010101
        k(  852) = (  -0.3090909   0.2834265   0.2045134), wk =   0.0010101
        k(  853) = (  -0.0909091  -0.4093938   0.2045134), wk =   0.0010101
        k(  854) = (   0.0909091  -0.4093938  -0.2045134), wk =   0.0010101
        k(  855) = (   0.0909091   0.4093938  -0.3067701), wk =   0.0010101
        k(  856) = (   0.3090909  -0.2834265  -0.3067701), wk =   0.0010101
        k(  857) = (  -0.5000000   0.2886751   0.0000000), wk =   0.0005051
        k(  858) = (  -0.5000000   0.2886751   0.1022567), wk =   0.0010101
        k(  859) = (  -0.5000000   0.2886751   0.2045134), wk =   0.0010101
        k(  860) = (  -0.5000000   0.2886751  -0.3067701), wk =   0.0005051
        k(  861) = (  -0.0909091  -0.5248639   0.0000000), wk =   0.0010101
        k(  862) = (  -0.4090909   0.3411615   0.0000000), wk =   0.0010101
        k(  863) = (  -0.0909091  -0.5248639   0.1022567), wk =   0.0010101
        k(  864) = (  -0.4090909   0.3411615   0.1022567), wk =   0.0010101
        k(  865) = (   0.4090909  -0.3411615   0.1022567), wk =   0.0010101
        k(  866) = (   0.0909091   0.5248639   0.1022567), wk =   0.0010101
        k(  867) = (  -0.0909091   0.5248639  -0.1022567), wk =   0.0010101
        k(  868) = (  -0.0909091  -0.5248639   0.2045134), wk =   0.0010101
        k(  869) = (  -0.4090909   0.3411615   0.2045134), wk =   0.0010101
        k(  870) = (   0.4090909  -0.3411615   0.2045134), wk =   0.0010101
        k(  871) = (   0.0909091   0.5248639   0.2045134), wk =   0.0010101
        k(  872) = (  -0.0909091   0.5248639  -0.2045134), wk =   0.0010101
        k(  873) = (  -0.0909091  -0.5248639  -0.3067701), wk =   0.0010101
        k(  874) = (  -0.4090909   0.3411615  -0.3067701), wk =   0.0010101
        k(  875) = (  -0.1818182  -0.4723775   0.0000000), wk =   0.0010101
        k(  876) = (  -0.3181818   0.3936479   0.0000000), wk =   0.0010101
        k(  877) = (  -0.1818182  -0.4723775   0.1022567), wk =   0.0010101
        k(  878) = (  -0.3181818   0.3936479   0.1022567), wk =   0.0010101
        k(  879) = (   0.3181818  -0.3936479   0.1022567), wk =   0.0010101
        k(  880) = (   0.1818182   0.4723775   0.1022567), wk =   0.0010101
        k(  881) = (  -0.1818182   0.4723775  -0.1022567), wk =   0.0010101
        k(  882) = (  -0.1818182  -0.4723775   0.2045134), wk =   0.0010101
        k(  883) = (  -0.3181818   0.3936479   0.2045134), wk =   0.0010101
        k(  884) = (   0.3181818  -0.3936479   0.2045134), wk =   0.0010101
        k(  885) = (   0.1818182   0.4723775   0.2045134), wk =   0.0010101
        k(  886) = (  -0.1818182   0.4723775  -0.2045134), wk =   0.0010101
        k(  887) = (  -0.1818182  -0.4723775  -0.3067701), wk =   0.0010101
        k(  888) = (  -0.3181818   0.3936479  -0.3067701), wk =   0.0010101
        k(  889) = (  -0.2727273  -0.4198911   0.0000000), wk =   0.0010101
        k(  890) = (  -0.2272727   0.4461343   0.0000000), wk =   0.0010101
        k(  891) = (  -0.2727273  -0.4198911   0.1022567), wk =   0.0010101
        k(  892) = (  -0.2272727   0.4461343   0.1022567), wk =   0.0010101
        k(  893) = (   0.2272727  -0.4461343   0.1022567), wk =   0.0010101
        k(  894) = (   0.2727273   0.4198911   0.1022567), wk =   0.0010101
        k(  895) = (  -0.2727273   0.4198911  -0.1022567), wk =   0.0010101
        k(  896) = (  -0.2727273  -0.4198911   0.2045134), wk =   0.0010101
        k(  897) = (  -0.2272727   0.4461343   0.2045134), wk =   0.0010101
        k(  898) = (   0.2272727  -0.4461343   0.2045134), wk =   0.0010101
        k(  899) = (   0.2727273   0.4198911   0.2045134), wk =   0.0010101
        k(  900) = (  -0.2727273   0.4198911  -0.2045134), wk =   0.0010101
        k(  901) = (  -0.2727273  -0.4198911  -0.3067701), wk =   0.0010101
        k(  902) = (  -0.2272727   0.4461343  -0.3067701), wk =   0.0010101
        k(  903) = (  -0.3636364  -0.3674047   0.0000000), wk =   0.0010101
        k(  904) = (  -0.1363636   0.4986207   0.0000000), wk =   0.0010101
        k(  905) = (  -0.3636364  -0.3674047   0.1022567), wk =   0.0010101
        k(  906) = (  -0.1363636   0.4986207   0.1022567), wk =   0.0010101
        k(  907) = (   0.1363636  -0.4986207   0.1022567), wk =   0.0010101
        k(  908) = (   0.3636364   0.3674047   0.1022567), wk =   0.0010101
        k(  909) = (  -0.3636364   0.3674047  -0.1022567), wk =   0.0010101
        k(  910) = (  -0.3636364  -0.3674047   0.2045134), wk =   0.0010101
        k(  911) = (  -0.1363636   0.4986207   0.2045134), wk =   0.0010101
        k(  912) = (   0.1363636  -0.4986207   0.2045134), wk =   0.0010101
        k(  913) = (   0.3636364   0.3674047   0.2045134), wk =   0.0010101
        k(  914) = (  -0.3636364   0.3674047  -0.2045134), wk =   0.0010101
        k(  915) = (  -0.3636364  -0.3674047  -0.3067701), wk =   0.0010101
        k(  916) = (  -0.1363636   0.4986207  -0.3067701), wk =   0.0010101
        k(  917) = (  -0.4545455  -0.3149183   0.0000000), wk =   0.0010101
        k(  918) = (  -0.0454545   0.5511071   0.0000000), wk =   0.0010101
        k(  919) = (  -0.4545455  -0.3149183   0.1022567), wk =   0.0010101
        k(  920) = (  -0.0454545   0.5511071   0.1022567), wk =   0.0010101
        k(  921) = (   0.0454545  -0.5511071   0.1022567), wk =   0.0010101
        k(  922) = (   0.4545455   0.3149183   0.1022567), wk =   0.0010101
        k(  923) = (  -0.4545455   0.3149183  -0.1022567), wk =   0.0010101
        k(  924) = (  -0.4545455  -0.3149183   0.2045134), wk =   0.0010101
        k(  925) = (  -0.0454545   0.5511071   0.2045134), wk =   0.0010101
        k(  926) = (   0.0454545  -0.5511071   0.2045134), wk =   0.0010101
        k(  927) = (   0.4545455   0.3149183   0.2045134), wk =   0.0010101
        k(  928) = (  -0.4545455   0.3149183  -0.2045134), wk =   0.0010101
        k(  929) = (  -0.4545455  -0.3149183  -0.3067701), wk =   0.0010101
        k(  930) = (  -0.0454545   0.5511071  -0.3067701), wk =   0.0010101

                       cryst. coord.
        k(    1) = (   0.0000000   0.0000000   0.0000000), wk =   0.0015152
        k(    2) = (   0.0000000   0.0000000   0.1666667), wk =   0.0030303
        k(    3) = (   0.0000000   0.0000000   0.3333333), wk =   0.0030303
        k(    4) = (   0.0000000   0.0000000  -0.5000000), wk =   0.0015152
        k(    5) = (   0.0000000   0.0909091   0.0000000), wk =   0.0020202
        k(    6) = (   0.0000000   0.0909091   0.1666667), wk =   0.0020202
        k(    7) = (   0.0000000   0.0909091   0.3333333), wk =   0.0020202
        k(    8) = (   0.0000000   0.0909091  -0.5000000), wk =   0.0020202
        k(    9) = (   0.0000000   0.1818182   0.0000000), wk =   0.0020202
        k(   10) = (   0.0000000   0.1818182   0.1666667), wk =   0.0020202
        k(   11) = (   0.0000000   0.1818182   0.3333333), wk =   0.0020202
        k(   12) = (   0.0000000   0.1818182  -0.5000000), wk =   0.0020202
        k(   13) = (   0.0000000   0.2727273   0.0000000), wk =   0.0020202
        k(   14) = (   0.0000000   0.2727273   0.1666667), wk =   0.0020202
        k(   15) = (   0.0000000   0.2727273   0.3333333), wk =   0.0020202
        k(   16) = (   0.0000000   0.2727273  -0.5000000), wk =   0.0020202
        k(   17) = (   0.0000000   0.3636364   0.0000000), wk =   0.0020202
        k(   18) = (   0.0000000   0.3636364   0.1666667), wk =   0.0020202
        k(   19) = (   0.0000000   0.3636364   0.3333333), wk =   0.0020202
        k(   20) = (   0.0000000   0.3636364  -0.5000000), wk =   0.0020202
        k(   21) = (   0.0000000   0.4545455   0.0000000), wk =   0.0020202
        k(   22) = (   0.0000000   0.4545455   0.1666667), wk =   0.0020202
        k(   23) = (   0.0000000   0.4545455   0.3333333), wk =   0.0020202
        k(   24) = (   0.0000000   0.4545455  -0.5000000), wk =   0.0020202
        k(   25) = (   0.1000000   0.0000000   0.0000000), wk =   0.0020202
        k(   26) = (   0.1000000   0.0000000   0.1666667), wk =   0.0020202
        k(   27) = (   0.1000000   0.0000000   0.3333333), wk =   0.0020202
        k(   28) = (   0.1000000   0.0000000  -0.5000000), wk =   0.0020202
        k(   29) = (   0.1000000   0.0909091   0.0000000), wk =   0.0010101
        k(   30) = (   0.1000000   0.0909091   0.1666667), wk =   0.0010101
        k(   31) = (   0.1000000   0.0909091   0.3333333), wk =   0.0010101
        k(   32) = (   0.1000000   0.0909091  -0.5000000), wk =   0.0010101
        k(   33) = (   0.1000000   0.1818182   0.0000000), wk =   0.0010101
        k(   34) = (   0.1000000   0.1818182   0.1666667), wk =   0.0010101
        k(   35) = (   0.1000000   0.1818182   0.3333333), wk =   0.0010101
        k(   36) = (   0.1000000   0.1818182  -0.5000000), wk =   0.0010101
        k(   37) = (   0.1000000   0.2727273   0.0000000), wk =   0.0010101
        k(   38) = (   0.1000000   0.2727273   0.1666667), wk =   0.0010101
        k(   39) = (   0.1000000   0.2727273   0.3333333), wk =   0.0010101
        k(   40) = (   0.1000000   0.2727273  -0.5000000), wk =   0.0010101
        k(   41) = (   0.1000000   0.3636364   0.0000000), wk =   0.0010101
        k(   42) = (   0.1000000   0.3636364   0.1666667), wk =   0.0010101
        k(   43) = (   0.1000000   0.3636364   0.3333333), wk =   0.0010101
        k(   44) = (   0.1000000   0.3636364  -0.5000000), wk =   0.0010101
        k(   45) = (   0.1000000   0.4545455   0.0000000), wk =   0.0010101
        k(   46) = (   0.1000000   0.4545455   0.1666667), wk =   0.0010101
        k(   47) = (   0.1000000   0.4545455   0.3333333), wk =   0.0010101
        k(   48) = (   0.1000000   0.4545455  -0.5000000), wk =   0.0010101
        k(   49) = (   0.1000000  -0.4545455   0.0000000), wk =   0.0010101
        k(   50) = (   0.1000000  -0.4545455   0.1666667), wk =   0.0010101
        k(   51) = (   0.1000000  -0.4545455   0.3333333), wk =   0.0010101
        k(   52) = (   0.1000000  -0.4545455  -0.5000000), wk =   0.0010101
        k(   53) = (   0.1000000  -0.3636364   0.0000000), wk =   0.0010101
        k(   54) = (   0.1000000  -0.3636364   0.1666667), wk =   0.0010101
        k(   55) = (   0.1000000  -0.3636364   0.3333333), wk =   0.0010101
        k(   56) = (   0.1000000  -0.3636364  -0.5000000), wk =   0.0010101
        k(   57) = (   0.1000000  -0.2727273   0.0000000), wk =   0.0010101
        k(   58) = (   0.1000000  -0.2727273   0.1666667), wk =   0.0010101
        k(   59) = (   0.1000000  -0.2727273   0.3333333), wk =   0.0010101
        k(   60) = (   0.1000000  -0.2727273  -0.5000000), wk =   0.0010101
        k(   61) = (   0.1000000  -0.1818182   0.0000000), wk =   0.0010101
        k(   62) = (   0.1000000  -0.1818182   0.1666667), wk =   0.0010101
        k(   63) = (   0.1000000  -0.1818182   0.3333333), wk =   0.0010101
        k(   64) = (   0.1000000  -0.1818182  -0.5000000), wk =   0.0010101
        k(   65) = (   0.1000000  -0.0909091   0.0000000), wk =   0.0010101
        k(   66) = (   0.1000000  -0.0909091   0.1666667), wk =   0.0010101
        k(   67) = (   0.1000000  -0.0909091   0.3333333), wk =   0.0010101
        k(   68) = (   0.1000000  -0.0909091  -0.5000000), wk =   0.0010101
        k(   69) = (   0.2000000   0.0000000   0.0000000), wk =   0.0020202
        k(   70) = (   0.2000000   0.0000000   0.1666667), wk =   0.0020202
        k(   71) = (   0.2000000   0.0000000   0.3333333), wk =   0.0020202
        k(   72) = (   0.2000000   0.0000000  -0.5000000), wk =   0.0020202
        k(   73) = (   0.2000000   0.0909091   0.0000000), wk =   0.0010101
        k(   74) = (   0.2000000   0.0909091   0.1666667), wk =   0.0010101
        k(   75) = (   0.2000000   0.0909091   0.3333333), wk =   0.0010101
        k(   76) = (   0.2000000   0.0909091  -0.5000000), wk =   0.0010101
        k(   77) = (   0.2000000   0.1818182   0.0000000), wk =   0.0010101
        k(   78) = (   0.2000000   0.1818182   0.1666667), wk =   0.0010101
        k(   79) = (   0.2000000   0.1818182   0.3333333), wk =   0.0010101
        k(   80) = (   0.2000000   0.1818182  -0.5000000), wk =   0.0010101
        k(   81) = (   0.2000000   0.2727273   0.0000000), wk =   0.0010101
        k(   82) = (   0.2000000   0.2727273   0.1666667), wk =   0.0010101
        k(   83) = (   0.2000000   0.2727273   0.3333333), wk =   0.0010101
        k(   84) = (   0.2000000   0.2727273  -0.5000000), wk =   0.0010101
        k(   85) = (   0.2000000   0.3636364   0.0000000), wk =   0.0010101
        k(   86) = (   0.2000000   0.3636364   0.1666667), wk =   0.0010101
        k(   87) = (   0.2000000   0.3636364   0.3333333), wk =   0.0010101
        k(   88) = (   0.2000000   0.3636364  -0.5000000), wk =   0.0010101
        k(   89) = (   0.2000000   0.4545455   0.0000000), wk =   0.0010101
        k(   90) = (   0.2000000   0.4545455   0.1666667), wk =   0.0010101
        k(   91) = (   0.2000000   0.4545455   0.3333333), wk =   0.0010101
        k(   92) = (   0.2000000   0.4545455  -0.5000000), wk =   0.0010101
        k(   93) = (   0.2000000  -0.4545455   0.0000000), wk =   0.0010101
        k(   94) = (   0.2000000  -0.4545455   0.1666667), wk =   0.0010101
        k(   95) = (   0.2000000  -0.4545455   0.3333333), wk =   0.0010101
        k(   96) = (   0.2000000  -0.4545455  -0.5000000), wk =   0.0010101
        k(   97) = (   0.2000000  -0.3636364   0.0000000), wk =   0.0010101
        k(   98) = (   0.2000000  -0.3636364   0.1666667), wk =   0.0010101
        k(   99) = (   0.2000000  -0.3636364   0.3333333), wk =   0.0010101
        k(  100) = (   0.2000000  -0.3636364  -0.5000000), wk =   0.0010101
        k(  101) = (   0.2000000  -0.2727273   0.0000000), wk =   0.0010101
        k(  102) = (   0.2000000  -0.2727273   0.1666667), wk =   0.0010101
        k(  103) = (   0.2000000  -0.2727273   0.3333333), wk =   0.0010101
        k(  104) = (   0.2000000  -0.2727273  -0.5000000), wk =   0.0010101
        k(  105) = (   0.2000000  -0.1818182   0.0000000), wk =   0.0010101
        k(  106) = (   0.2000000  -0.1818182   0.1666667), wk =   0.0010101
        k(  107) = (   0.2000000  -0.1818182   0.3333333), wk =   0.0010101
        k(  108) = (   0.2000000  -0.1818182  -0.5000000), wk =   0.0010101
        k(  109) = (   0.2000000  -0.0909091   0.0000000), wk =   0.0010101
        k(  110) = (   0.2000000  -0.0909091   0.1666667), wk =   0.0010101
        k(  111) = (   0.2000000  -0.0909091   0.3333333), wk =   0.0010101
        k(  112) = (   0.2000000  -0.0909091  -0.5000000), wk =   0.0010101
        k(  113) = (   0.3000000   0.0000000   0.0000000), wk =   0.0020202
        k(  114) = (   0.3000000   0.0000000   0.1666667), wk =   0.0020202
        k(  115) = (   0.3000000   0.0000000   0.3333333), wk =   0.0020202
        k(  116) = (   0.3000000   0.0000000  -0.5000000), wk =   0.0020202
        k(  117) = (   0.3000000   0.0909091   0.0000000), wk =   0.0010101
        k(  118) = (   0.3000000   0.0909091   0.1666667), wk =   0.0010101
        k(  119) = (   0.3000000   0.0909091   0.3333333), wk =   0.0010101
        k(  120) = (   0.3000000   0.0909091  -0.5000000), wk =   0.0010101
        k(  121) = (   0.3000000   0.1818182   0.0000000), wk =   0.0010101
        k(  122) = (   0.3000000   0.1818182   0.1666667), wk =   0.0010101
        k(  123) = (   0.3000000   0.1818182   0.3333333), wk =   0.0010101
        k(  124) = (   0.3000000   0.1818182  -0.5000000), wk =   0.0010101
        k(  125) = (   0.3000000   0.2727273   0.0000000), wk =   0.0010101
        k(  126) = (   0.3000000   0.2727273   0.1666667), wk =   0.0010101
        k(  127) = (   0.3000000   0.2727273   0.3333333), wk =   0.0010101
        k(  128) = (   0.3000000   0.2727273  -0.5000000), wk =   0.0010101
        k(  129) = (   0.3000000   0.3636364   0.0000000), wk =   0.0010101
        k(  130) = (   0.3000000   0.3636364   0.1666667), wk =   0.0010101
        k(  131) = (   0.3000000   0.3636364   0.3333333), wk =   0.0010101
        k(  132) = (   0.3000000   0.3636364  -0.5000000), wk =   0.0010101
        k(  133) = (   0.3000000   0.4545455   0.0000000), wk =   0.0010101
        k(  134) = (   0.3000000   0.4545455   0.1666667), wk =   0.0010101
        k(  135) = (   0.3000000   0.4545455   0.3333333), wk =   0.0010101
        k(  136) = (   0.3000000   0.4545455  -0.5000000), wk =   0.0010101
        k(  137) = (   0.3000000  -0.4545455   0.0000000), wk =   0.0010101
        k(  138) = (   0.3000000  -0.4545455   0.1666667), wk =   0.0010101
        k(  139) = (   0.3000000  -0.4545455   0.3333333), wk =   0.0010101
        k(  140) = (   0.3000000  -0.4545455  -0.5000000), wk =   0.0010101
        k(  141) = (   0.3000000  -0.3636364   0.0000000), wk =   0.0010101
        k(  142) = (   0.3000000  -0.3636364   0.1666667), wk =   0.0010101
        k(  143) = (   0.3000000  -0.3636364   0.3333333), wk =   0.0010101
        k(  144) = (   0.3000000  -0.3636364  -0.5000000), wk =   0.0010101
        k(  145) = (   0.3000000  -0.2727273   0.0000000), wk =   0.0010101
        k(  146) = (   0.3000000  -0.2727273   0.1666667), wk =   0.0010101
        k(  147) = (   0.3000000  -0.2727273   0.3333333), wk =   0.0010101
        k(  148) = (   0.3000000  -0.2727273  -0.5000000), wk =   0.0010101
        k(  149) = (   0.3000000  -0.1818182   0.0000000), wk =   0.0010101
        k(  150) = (   0.3000000  -0.1818182   0.1666667), wk =   0.0010101
        k(  151) = (   0.3000000  -0.1818182   0.3333333), wk =   0.0010101
        k(  152) = (   0.3000000  -0.1818182  -0.5000000), wk =   0.0010101
        k(  153) = (   0.3000000  -0.0909091   0.0000000), wk =   0.0010101
        k(  154) = (   0.3000000  -0.0909091   0.1666667), wk =   0.0010101
        k(  155) = (   0.3000000  -0.0909091   0.3333333), wk =   0.0010101
        k(  156) = (   0.3000000  -0.0909091  -0.5000000), wk =   0.0010101
        k(  157) = (   0.4000000   0.0000000   0.0000000), wk =   0.0020202
        k(  158) = (   0.4000000   0.0000000   0.1666667), wk =   0.0020202
        k(  159) = (   0.4000000   0.0000000   0.3333333), wk =   0.0020202
        k(  160) = (   0.4000000   0.0000000  -0.5000000), wk =   0.0020202
        k(  161) = (   0.4000000   0.0909091   0.0000000), wk =   0.0010101
        k(  162) = (   0.4000000   0.0909091   0.1666667), wk =   0.0010101
        k(  163) = (   0.4000000   0.0909091   0.3333333), wk =   0.0010101
        k(  164) = (   0.4000000   0.0909091  -0.5000000), wk =   0.0010101
        k(  165) = (   0.4000000   0.1818182   0.0000000), wk =   0.0010101
        k(  166) = (   0.4000000   0.1818182   0.1666667), wk =   0.0010101
        k(  167) = (   0.4000000   0.1818182   0.3333333), wk =   0.0010101
        k(  168) = (   0.4000000   0.1818182  -0.5000000), wk =   0.0010101
        k(  169) = (   0.4000000   0.2727273   0.0000000), wk =   0.0010101
        k(  170) = (   0.4000000   0.2727273   0.1666667), wk =   0.0010101
        k(  171) = (   0.4000000   0.2727273   0.3333333), wk =   0.0010101
        k(  172) = (   0.4000000   0.2727273  -0.5000000), wk =   0.0010101
        k(  173) = (   0.4000000   0.3636364   0.0000000), wk =   0.0010101
        k(  174) = (   0.4000000   0.3636364   0.1666667), wk =   0.0010101
        k(  175) = (   0.4000000   0.3636364   0.3333333), wk =   0.0010101
        k(  176) = (   0.4000000   0.3636364  -0.5000000), wk =   0.0010101
        k(  177) = (   0.4000000   0.4545455   0.0000000), wk =   0.0010101
        k(  178) = (   0.4000000   0.4545455   0.1666667), wk =   0.0010101
        k(  179) = (   0.4000000   0.4545455   0.3333333), wk =   0.0010101
        k(  180) = (   0.4000000   0.4545455  -0.5000000), wk =   0.0010101
        k(  181) = (   0.4000000  -0.4545455   0.0000000), wk =   0.0010101
        k(  182) = (   0.4000000  -0.4545455   0.1666667), wk =   0.0010101
        k(  183) = (   0.4000000  -0.4545455   0.3333333), wk =   0.0010101
        k(  184) = (   0.4000000  -0.4545455  -0.5000000), wk =   0.0010101
        k(  185) = (   0.4000000  -0.3636364   0.0000000), wk =   0.0010101
        k(  186) = (   0.4000000  -0.3636364   0.1666667), wk =   0.0010101
        k(  187) = (   0.4000000  -0.3636364   0.3333333), wk =   0.0010101
        k(  188) = (   0.4000000  -0.3636364  -0.5000000), wk =   0.0010101
        k(  189) = (   0.4000000  -0.2727273   0.0000000), wk =   0.0010101
        k(  190) = (   0.4000000  -0.2727273   0.1666667), wk =   0.0010101
        k(  191) = (   0.4000000  -0.2727273   0.3333333), wk =   0.0010101
        k(  192) = (   0.4000000  -0.2727273  -0.5000000), wk =   0.0010101
        k(  193) = (   0.4000000  -0.1818182   0.0000000), wk =   0.0010101
        k(  194) = (   0.4000000  -0.1818182   0.1666667), wk =   0.0010101
        k(  195) = (   0.4000000  -0.1818182   0.3333333), wk =   0.0010101
        k(  196) = (   0.4000000  -0.1818182  -0.5000000), wk =   0.0010101
        k(  197) = (   0.4000000  -0.0909091   0.0000000), wk =   0.0010101
        k(  198) = (   0.4000000  -0.0909091   0.1666667), wk =   0.0010101
        k(  199) = (   0.4000000  -0.0909091   0.3333333), wk =   0.0010101
        k(  200) = (   0.4000000  -0.0909091  -0.5000000), wk =   0.0010101
        k(  201) = (  -0.5000000   0.0000000   0.0000000), wk =   0.0010101
        k(  202) = (  -0.5000000   0.0000000   0.1666667), wk =   0.0020202
        k(  203) = (  -0.5000000   0.0000000   0.3333333), wk =   0.0020202
        k(  204) = (  -0.5000000   0.0000000  -0.5000000), wk =   0.0010101
        k(  205) = (  -0.5000000   0.0909091   0.0000000), wk =   0.0010101
        k(  206) = (  -0.5000000   0.0909091   0.1666667), wk =   0.0010101
        k(  207) = (  -0.5000000   0.0909091   0.3333333), wk =   0.0010101
        k(  208) = (  -0.5000000   0.0909091  -0.5000000), wk =   0.0010101
        k(  209) = (  -0.5000000   0.1818182   0.0000000), wk =   0.0010101
        k(  210) = (  -0.5000000   0.1818182   0.1666667), wk =   0.0010101
        k(  211) = (  -0.5000000   0.1818182   0.3333333), wk =   0.0010101
        k(  212) = (  -0.5000000   0.1818182  -0.5000000), wk =   0.0010101
        k(  213) = (  -0.5000000   0.2727273   0.0000000), wk =   0.0010101
        k(  214) = (  -0.5000000   0.2727273   0.1666667), wk =   0.0010101
        k(  215) = (  -0.5000000   0.2727273   0.3333333), wk =   0.0010101
        k(  216) = (  -0.5000000   0.2727273  -0.5000000), wk =   0.0010101
        k(  217) = (  -0.5000000   0.3636364   0.0000000), wk =   0.0010101
        k(  218) = (  -0.5000000   0.3636364   0.1666667), wk =   0.0010101
        k(  219) = (  -0.5000000   0.3636364   0.3333333), wk =   0.0010101
        k(  220) = (  -0.5000000   0.3636364  -0.5000000), wk =   0.0010101
        k(  221) = (  -0.5000000   0.4545455   0.0000000), wk =   0.0010101
        k(  222) = (  -0.5000000   0.4545455   0.1666667), wk =   0.0010101
        k(  223) = (  -0.5000000   0.4545455   0.3333333), wk =   0.0010101
        k(  224) = (  -0.5000000   0.4545455  -0.5000000), wk =   0.0010101
        k(  225) = (  -0.0909091   0.0909091   0.0000000), wk =   0.0010101
        k(  226) = (  -0.0909091   0.0909091   0.1666667), wk =   0.0010101
        k(  227) = (   0.0909091   0.0000000   0.1666667), wk =   0.0020202
        k(  228) = (   0.0909091  -0.0909091   0.1666667), wk =   0.0010101
        k(  229) = (  -0.0909091   0.0909091   0.3333333), wk =   0.0010101
        k(  230) = (   0.0909091   0.0000000   0.3333333), wk =   0.0020202
        k(  231) = (   0.0909091  -0.0909091   0.3333333), wk =   0.0010101
        k(  232) = (  -0.0909091   0.0909091  -0.5000000), wk =   0.0010101
        k(  233) = (  -0.1818182   0.1818182   0.0000000), wk =   0.0010101
        k(  234) = (  -0.1818182   0.1818182   0.1666667), wk =   0.0010101
        k(  235) = (   0.1818182   0.0000000   0.1666667), wk =   0.0020202
        k(  236) = (   0.1818182  -0.1818182   0.1666667), wk =   0.0010101
        k(  237) = (  -0.1818182   0.1818182   0.3333333), wk =   0.0010101
        k(  238) = (   0.1818182   0.0000000   0.3333333), wk =   0.0020202
        k(  239) = (   0.1818182  -0.1818182   0.3333333), wk =   0.0010101
        k(  240) = (  -0.1818182   0.1818182  -0.5000000), wk =   0.0010101
        k(  241) = (  -0.2727273   0.2727273   0.0000000), wk =   0.0010101
        k(  242) = (  -0.2727273   0.2727273   0.1666667), wk =   0.0010101
        k(  243) = (   0.2727273   0.0000000   0.1666667), wk =   0.0020202
        k(  244) = (   0.2727273  -0.2727273   0.1666667), wk =   0.0010101
        k(  245) = (  -0.2727273   0.2727273   0.3333333), wk =   0.0010101
        k(  246) = (   0.2727273   0.0000000   0.3333333), wk =   0.0020202
        k(  247) = (   0.2727273  -0.2727273   0.3333333), wk =   0.0010101
        k(  248) = (  -0.2727273   0.2727273  -0.5000000), wk =   0.0010101
        k(  249) = (  -0.3636364   0.3636364   0.0000000), wk =   0.0010101
        k(  250) = (  -0.3636364   0.3636364   0.1666667), wk =   0.0010101
        k(  251) = (   0.3636364   0.0000000   0.1666667), wk =   0.0020202
        k(  252) = (   0.3636364  -0.3636364   0.1666667), wk =   0.0010101
        k(  253) = (  -0.3636364   0.3636364   0.3333333), wk =   0.0010101
        k(  254) = (   0.3636364   0.0000000   0.3333333), wk =   0.0020202
        k(  255) = (   0.3636364  -0.3636364   0.3333333), wk =   0.0010101
        k(  256) = (  -0.3636364   0.3636364  -0.5000000), wk =   0.0010101
        k(  257) = (  -0.4545455   0.4545455   0.0000000), wk =   0.0010101
        k(  258) = (  -0.4545455   0.4545455   0.1666667), wk =   0.0010101
        k(  259) = (   0.4545455   0.0000000   0.1666667), wk =   0.0020202
        k(  260) = (   0.4545455  -0.4545455   0.1666667), wk =   0.0010101
        k(  261) = (  -0.4545455   0.4545455   0.3333333), wk =   0.0010101
        k(  262) = (   0.4545455   0.0000000   0.3333333), wk =   0.0020202
        k(  263) = (   0.4545455  -0.4545455   0.3333333), wk =   0.0010101
        k(  264) = (  -0.4545455   0.4545455  -0.5000000), wk =   0.0010101
        k(  265) = (   0.1000000  -0.1000000   0.0000000), wk =   0.0010101
        k(  266) = (   0.0000000   0.1000000   0.1666667), wk =   0.0020202
        k(  267) = (   0.1000000  -0.1000000   0.1666667), wk =   0.0010101
        k(  268) = (  -0.1000000   0.1000000   0.1666667), wk =   0.0010101
        k(  269) = (   0.0000000   0.1000000   0.3333333), wk =   0.0020202
        k(  270) = (   0.1000000  -0.1000000   0.3333333), wk =   0.0010101
        k(  271) = (  -0.1000000   0.1000000   0.3333333), wk =   0.0010101
        k(  272) = (   0.1000000  -0.1000000  -0.5000000), wk =   0.0010101
        k(  273) = (  -0.0909091   0.1909091   0.0000000), wk =   0.0010101
        k(  274) = (   0.1909091  -0.1000000   0.0000000), wk =   0.0010101
        k(  275) = (  -0.0909091   0.1909091   0.1666667), wk =   0.0010101
        k(  276) = (   0.1909091  -0.1000000   0.1666667), wk =   0.0010101
        k(  277) = (  -0.1909091   0.1000000   0.1666667), wk =   0.0010101
        k(  278) = (   0.0909091  -0.1909091   0.1666667), wk =   0.0010101
        k(  279) = (  -0.0909091  -0.1000000  -0.1666667), wk =   0.0010101
        k(  280) = (  -0.0909091   0.1909091   0.3333333), wk =   0.0010101
        k(  281) = (   0.1909091  -0.1000000   0.3333333), wk =   0.0010101
        k(  282) = (  -0.1909091   0.1000000   0.3333333), wk =   0.0010101
        k(  283) = (   0.0909091  -0.1909091   0.3333333), wk =   0.0010101
        k(  284) = (  -0.0909091  -0.1000000  -0.3333333), wk =   0.0010101
        k(  285) = (  -0.0909091   0.1909091  -0.5000000), wk =   0.0010101
        k(  286) = (   0.1909091  -0.1000000  -0.5000000), wk =   0.0010101
        k(  287) = (  -0.1818182   0.2818182   0.0000000), wk =   0.0010101
        k(  288) = (   0.2818182  -0.1000000   0.0000000), wk =   0.0010101
        k(  289) = (  -0.1818182   0.2818182   0.1666667), wk =   0.0010101
        k(  290) = (   0.2818182  -0.1000000   0.1666667), wk =   0.0010101
        k(  291) = (  -0.2818182   0.1000000   0.1666667), wk =   0.0010101
        k(  292) = (   0.1818182  -0.2818182   0.1666667), wk =   0.0010101
        k(  293) = (  -0.1818182  -0.1000000  -0.1666667), wk =   0.0010101
        k(  294) = (  -0.1818182   0.2818182   0.3333333), wk =   0.0010101
        k(  295) = (   0.2818182  -0.1000000   0.3333333), wk =   0.0010101
        k(  296) = (  -0.2818182   0.1000000   0.3333333), wk =   0.0010101
        k(  297) = (   0.1818182  -0.2818182   0.3333333), wk =   0.0010101
        k(  298) = (  -0.1818182  -0.1000000  -0.3333333), wk =   0.0010101
        k(  299) = (  -0.1818182   0.2818182  -0.5000000), wk =   0.0010101
        k(  300) = (   0.2818182  -0.1000000  -0.5000000), wk =   0.0010101
        k(  301) = (  -0.2727273   0.3727273   0.0000000), wk =   0.0010101
        k(  302) = (   0.3727273  -0.1000000   0.0000000), wk =   0.0010101
        k(  303) = (  -0.2727273   0.3727273   0.1666667), wk =   0.0010101
        k(  304) = (   0.3727273  -0.1000000   0.1666667), wk =   0.0010101
        k(  305) = (  -0.3727273   0.1000000   0.1666667), wk =   0.0010101
        k(  306) = (   0.2727273  -0.3727273   0.1666667), wk =   0.0010101
        k(  307) = (  -0.2727273  -0.1000000  -0.1666667), wk =   0.0010101
        k(  308) = (  -0.2727273   0.3727273   0.3333333), wk =   0.0010101
        k(  309) = (   0.3727273  -0.1000000   0.3333333), wk =   0.0010101
        k(  310) = (  -0.3727273   0.1000000   0.3333333), wk =   0.0010101
        k(  311) = (   0.2727273  -0.3727273   0.3333333), wk =   0.0010101
        k(  312) = (  -0.2727273  -0.1000000  -0.3333333), wk =   0.0010101
        k(  313) = (  -0.2727273   0.3727273  -0.5000000), wk =   0.0010101
        k(  314) = (   0.3727273  -0.1000000  -0.5000000), wk =   0.0010101
        k(  315) = (  -0.3636364   0.4636364   0.0000000), wk =   0.0010101
        k(  316) = (   0.4636364  -0.1000000   0.0000000), wk =   0.0010101
        k(  317) = (  -0.3636364   0.4636364   0.1666667), wk =   0.0010101
        k(  318) = (   0.4636364  -0.1000000   0.1666667), wk =   0.0010101
        k(  319) = (  -0.4636364   0.1000000   0.1666667), wk =   0.0010101
        k(  320) = (   0.3636364  -0.4636364   0.1666667), wk =   0.0010101
        k(  321) = (  -0.3636364  -0.1000000  -0.1666667), wk =   0.0010101
        k(  322) = (  -0.3636364   0.4636364   0.3333333), wk =   0.0010101
        k(  323) = (   0.4636364  -0.1000000   0.3333333), wk =   0.0010101
        k(  324) = (  -0.4636364   0.1000000   0.3333333), wk =   0.0010101
        k(  325) = (   0.3636364  -0.4636364   0.3333333), wk =   0.0010101
        k(  326) = (  -0.3636364  -0.1000000  -0.3333333), wk =   0.0010101
        k(  327) = (  -0.3636364   0.4636364  -0.5000000), wk =   0.0010101
        k(  328) = (   0.4636364  -0.1000000  -0.5000000), wk =   0.0010101
        k(  329) = (  -0.4545455   0.5545455   0.0000000), wk =   0.0010101
        k(  330) = (   0.5545455  -0.1000000   0.0000000), wk =   0.0010101
        k(  331) = (  -0.4545455   0.5545455   0.1666667), wk =   0.0010101
        k(  332) = (   0.5545455  -0.1000000   0.1666667), wk =   0.0010101
        k(  333) = (  -0.5545455   0.1000000   0.1666667), wk =   0.0010101
        k(  334) = (   0.4545455  -0.5545455   0.1666667), wk =   0.0010101
        k(  335) = (  -0.4545455  -0.1000000  -0.1666667), wk =   0.0010101
        k(  336) = (  -0.4545455   0.5545455   0.3333333), wk =   0.0010101
        k(  337) = (   0.5545455  -0.1000000   0.3333333), wk =   0.0010101
        k(  338) = (  -0.5545455   0.1000000   0.3333333), wk =   0.0010101
        k(  339) = (   0.4545455  -0.5545455   0.3333333), wk =   0.0010101
        k(  340) = (  -0.4545455  -0.1000000  -0.3333333), wk =   0.0010101
        k(  341) = (  -0.4545455   0.5545455  -0.5000000), wk =   0.0010101
        k(  342) = (   0.5545455  -0.1000000  -0.5000000), wk =   0.0010101
        k(  343) = (   0.4545455  -0.3545455   0.0000000), wk =   0.0010101
        k(  344) = (  -0.3545455  -0.1000000   0.0000000), wk =   0.0010101
        k(  345) = (   0.4545455  -0.3545455   0.1666667), wk =   0.0010101
        k(  346) = (  -0.3545455  -0.1000000   0.1666667), wk =   0.0010101
        k(  347) = (   0.3545455   0.1000000   0.1666667), wk =   0.0010101
        k(  348) = (  -0.4545455   0.3545455   0.1666667), wk =   0.0010101
        k(  349) = (   0.4545455  -0.1000000  -0.1666667), wk =   0.0010101
        k(  350) = (   0.4545455  -0.3545455   0.3333333), wk =   0.0010101
        k(  351) = (  -0.3545455  -0.1000000   0.3333333), wk =   0.0010101
        k(  352) = (   0.3545455   0.1000000   0.3333333), wk =   0.0010101
        k(  353) = (  -0.4545455   0.3545455   0.3333333), wk =   0.0010101
        k(  354) = (   0.4545455  -0.1000000  -0.3333333), wk =   0.0010101
        k(  355) = (   0.4545455  -0.3545455  -0.5000000), wk =   0.0010101
        k(  356) = (  -0.3545455  -0.1000000  -0.5000000), wk =   0.0010101
        k(  357) = (   0.3636364  -0.2636364   0.0000000), wk =   0.0010101
        k(  358) = (  -0.2636364  -0.1000000   0.0000000), wk =   0.0010101
        k(  359) = (   0.3636364  -0.2636364   0.1666667), wk =   0.0010101
        k(  360) = (  -0.2636364  -0.1000000   0.1666667), wk =   0.0010101
        k(  361) = (   0.2636364   0.1000000   0.1666667), wk =   0.0010101
        k(  362) = (  -0.3636364   0.2636364   0.1666667), wk =   0.0010101
        k(  363) = (   0.3636364  -0.1000000  -0.1666667), wk =   0.0010101
        k(  364) = (   0.3636364  -0.2636364   0.3333333), wk =   0.0010101
        k(  365) = (  -0.2636364  -0.1000000   0.3333333), wk =   0.0010101
        k(  366) = (   0.2636364   0.1000000   0.3333333), wk =   0.0010101
        k(  367) = (  -0.3636364   0.2636364   0.3333333), wk =   0.0010101
        k(  368) = (   0.3636364  -0.1000000  -0.3333333), wk =   0.0010101
        k(  369) = (   0.3636364  -0.2636364  -0.5000000), wk =   0.0010101
        k(  370) = (  -0.2636364  -0.1000000  -0.5000000), wk =   0.0010101
        k(  371) = (   0.2727273  -0.1727273   0.0000000), wk =   0.0010101
        k(  372) = (  -0.1727273  -0.1000000   0.0000000), wk =   0.0010101
        k(  373) = (   0.2727273  -0.1727273   0.1666667), wk =   0.0010101
        k(  374) = (  -0.1727273  -0.1000000   0.1666667), wk =   0.0010101
        k(  375) = (   0.1727273   0.1000000   0.1666667), wk =   0.0010101
        k(  376) = (  -0.2727273   0.1727273   0.1666667), wk =   0.0010101
        k(  377) = (   0.2727273  -0.1000000  -0.1666667), wk =   0.0010101
        k(  378) = (   0.2727273  -0.1727273   0.3333333), wk =   0.0010101
        k(  379) = (  -0.1727273  -0.1000000   0.3333333), wk =   0.0010101
        k(  380) = (   0.1727273   0.1000000   0.3333333), wk =   0.0010101
        k(  381) = (  -0.2727273   0.1727273   0.3333333), wk =   0.0010101
        k(  382) = (   0.2727273  -0.1000000  -0.3333333), wk =   0.0010101
        k(  383) = (   0.2727273  -0.1727273  -0.5000000), wk =   0.0010101
        k(  384) = (  -0.1727273  -0.1000000  -0.5000000), wk =   0.0010101
        k(  385) = (   0.1818182  -0.0818182   0.0000000), wk =   0.0010101
        k(  386) = (  -0.0818182  -0.1000000   0.0000000), wk =   0.0010101
        k(  387) = (   0.1818182  -0.0818182   0.1666667), wk =   0.0010101
        k(  388) = (  -0.0818182  -0.1000000   0.1666667), wk =   0.0010101
        k(  389) = (   0.0818182   0.1000000   0.1666667), wk =   0.0010101
        k(  390) = (  -0.1818182   0.0818182   0.1666667), wk =   0.0010101
        k(  391) = (   0.1818182  -0.1000000  -0.1666667), wk =   0.0010101
        k(  392) = (   0.1818182  -0.0818182   0.3333333), wk =   0.0010101
        k(  393) = (  -0.0818182  -0.1000000   0.3333333), wk =   0.0010101
        k(  394) = (   0.0818182   0.1000000   0.3333333), wk =   0.0010101
        k(  395) = (  -0.1818182   0.0818182   0.3333333), wk =   0.0010101
        k(  396) = (   0.1818182  -0.1000000  -0.3333333), wk =   0.0010101
        k(  397) = (   0.1818182  -0.0818182  -0.5000000), wk =   0.0010101
        k(  398) = (  -0.0818182  -0.1000000  -0.5000000), wk =   0.0010101
        k(  399) = (   0.0909091   0.0090909   0.0000000), wk =   0.0010101
        k(  400) = (   0.0090909  -0.1000000   0.0000000), wk =   0.0010101
        k(  401) = (   0.0909091   0.0090909   0.1666667), wk =   0.0010101
        k(  402) = (   0.0090909  -0.1000000   0.1666667), wk =   0.0010101
        k(  403) = (  -0.0090909   0.1000000   0.1666667), wk =   0.0010101
        k(  404) = (  -0.0909091  -0.0090909   0.1666667), wk =   0.0010101
        k(  405) = (   0.0909091  -0.1000000  -0.1666667), wk =   0.0010101
        k(  406) = (   0.0909091   0.0090909   0.3333333), wk =   0.0010101
        k(  407) = (   0.0090909  -0.1000000   0.3333333), wk =   0.0010101
        k(  408) = (  -0.0090909   0.1000000   0.3333333), wk =   0.0010101
        k(  409) = (  -0.0909091  -0.0090909   0.3333333), wk =   0.0010101
        k(  410) = (   0.0909091  -0.1000000  -0.3333333), wk =   0.0010101
        k(  411) = (   0.0909091   0.0090909  -0.5000000), wk =   0.0010101
        k(  412) = (   0.0090909  -0.1000000  -0.5000000), wk =   0.0010101
        k(  413) = (   0.2000000  -0.2000000   0.0000000), wk =   0.0010101
        k(  414) = (   0.0000000   0.2000000   0.1666667), wk =   0.0020202
        k(  415) = (   0.2000000  -0.2000000   0.1666667), wk =   0.0010101
        k(  416) = (  -0.2000000   0.2000000   0.1666667), wk =   0.0010101
        k(  417) = (   0.0000000   0.2000000   0.3333333), wk =   0.0020202
        k(  418) = (   0.2000000  -0.2000000   0.3333333), wk =   0.0010101
        k(  419) = (  -0.2000000   0.2000000   0.3333333), wk =   0.0010101
        k(  420) = (   0.2000000  -0.2000000  -0.5000000), wk =   0.0010101
        k(  421) = (  -0.0909091   0.2909091   0.0000000), wk =   0.0010101
        k(  422) = (   0.2909091  -0.2000000   0.0000000), wk =   0.0010101
        k(  423) = (  -0.0909091   0.2909091   0.1666667), wk =   0.0010101
        k(  424) = (   0.2909091  -0.2000000   0.1666667), wk =   0.0010101
        k(  425) = (  -0.2909091   0.2000000   0.1666667), wk =   0.0010101
        k(  426) = (   0.0909091  -0.2909091   0.1666667), wk =   0.0010101
        k(  427) = (  -0.0909091  -0.2000000  -0.1666667), wk =   0.0010101
        k(  428) = (  -0.0909091   0.2909091   0.3333333), wk =   0.0010101
        k(  429) = (   0.2909091  -0.2000000   0.3333333), wk =   0.0010101
        k(  430) = (  -0.2909091   0.2000000   0.3333333), wk =   0.0010101
        k(  431) = (   0.0909091  -0.2909091   0.3333333), wk =   0.0010101
        k(  432) = (  -0.0909091  -0.2000000  -0.3333333), wk =   0.0010101
        k(  433) = (  -0.0909091   0.2909091  -0.5000000), wk =   0.0010101
        k(  434) = (   0.2909091  -0.2000000  -0.5000000), wk =   0.0010101
        k(  435) = (  -0.1818182   0.3818182   0.0000000), wk =   0.0010101
        k(  436) = (   0.3818182  -0.2000000   0.0000000), wk =   0.0010101
        k(  437) = (  -0.1818182   0.3818182   0.1666667), wk =   0.0010101
        k(  438) = (   0.3818182  -0.2000000   0.1666667), wk =   0.0010101
        k(  439) = (  -0.3818182   0.2000000   0.1666667), wk =   0.0010101
        k(  440) = (   0.1818182  -0.3818182   0.1666667), wk =   0.0010101
        k(  441) = (  -0.1818182  -0.2000000  -0.1666667), wk =   0.0010101
        k(  442) = (  -0.1818182   0.3818182   0.3333333), wk =   0.0010101
        k(  443) = (   0.3818182  -0.2000000   0.3333333), wk =   0.0010101
        k(  444) = (  -0.3818182   0.2000000   0.3333333), wk =   0.0010101
        k(  445) = (   0.1818182  -0.3818182   0.3333333), wk =   0.0010101
        k(  446) = (  -0.1818182  -0.2000000  -0.3333333), wk =   0.0010101
        k(  447) = (  -0.1818182   0.3818182  -0.5000000), wk =   0.0010101
        k(  448) = (   0.3818182  -0.2000000  -0.5000000), wk =   0.0010101
        k(  449) = (  -0.2727273   0.4727273   0.0000000), wk =   0.0010101
        k(  450) = (   0.4727273  -0.2000000   0.0000000), wk =   0.0010101
        k(  451) = (  -0.2727273   0.4727273   0.1666667), wk =   0.0010101
        k(  452) = (   0.4727273  -0.2000000   0.1666667), wk =   0.0010101
        k(  453) = (  -0.4727273   0.2000000   0.1666667), wk =   0.0010101
        k(  454) = (   0.2727273  -0.4727273   0.1666667), wk =   0.0010101
        k(  455) = (  -0.2727273  -0.2000000  -0.1666667), wk =   0.0010101
        k(  456) = (  -0.2727273   0.4727273   0.3333333), wk =   0.0010101
        k(  457) = (   0.4727273  -0.2000000   0.3333333), wk =   0.0010101
        k(  458) = (  -0.4727273   0.2000000   0.3333333), wk =   0.0010101
        k(  459) = (   0.2727273  -0.4727273   0.3333333), wk =   0.0010101
        k(  460) = (  -0.2727273  -0.2000000  -0.3333333), wk =   0.0010101
        k(  461) = (  -0.2727273   0.4727273  -0.5000000), wk =   0.0010101
        k(  462) = (   0.4727273  -0.2000000  -0.5000000), wk =   0.0010101
        k(  463) = (  -0.3636364   0.5636364   0.0000000), wk =   0.0010101
        k(  464) = (   0.5636364  -0.2000000   0.0000000), wk =   0.0010101
        k(  465) = (  -0.3636364   0.5636364   0.1666667), wk =   0.0010101
        k(  466) = (   0.5636364  -0.2000000   0.1666667), wk =   0.0010101
        k(  467) = (  -0.5636364   0.2000000   0.1666667), wk =   0.0010101
        k(  468) = (   0.3636364  -0.5636364   0.1666667), wk =   0.0010101
        k(  469) = (  -0.3636364  -0.2000000  -0.1666667), wk =   0.0010101
        k(  470) = (  -0.3636364   0.5636364   0.3333333), wk =   0.0010101
        k(  471) = (   0.5636364  -0.2000000   0.3333333), wk =   0.0010101
        k(  472) = (  -0.5636364   0.2000000   0.3333333), wk =   0.0010101
        k(  473) = (   0.3636364  -0.5636364   0.3333333), wk =   0.0010101
        k(  474) = (  -0.3636364  -0.2000000  -0.3333333), wk =   0.0010101
        k(  475) = (  -0.3636364   0.5636364  -0.5000000), wk =   0.0010101
        k(  476) = (   0.5636364  -0.2000000  -0.5000000), wk =   0.0010101
        k(  477) = (  -0.4545455   0.6545455   0.0000000), wk =   0.0010101
        k(  478) = (   0.6545455  -0.2000000   0.0000000), wk =   0.0010101
        k(  479) = (  -0.4545455   0.6545455   0.1666667), wk =   0.0010101
        k(  480) = (   0.6545455  -0.2000000   0.1666667), wk =   0.0010101
        k(  481) = (  -0.6545455   0.2000000   0.1666667), wk =   0.0010101
        k(  482) = (   0.4545455  -0.6545455   0.1666667), wk =   0.0010101
        k(  483) = (  -0.4545455  -0.2000000  -0.1666667), wk =   0.0010101
        k(  484) = (  -0.4545455   0.6545455   0.3333333), wk =   0.0010101
        k(  485) = (   0.6545455  -0.2000000   0.3333333), wk =   0.0010101
        k(  486) = (  -0.6545455   0.2000000   0.3333333), wk =   0.0010101
        k(  487) = (   0.4545455  -0.6545455   0.3333333), wk =   0.0010101
        k(  488) = (  -0.4545455  -0.2000000  -0.3333333), wk =   0.0010101
        k(  489) = (  -0.4545455   0.6545455  -0.5000000), wk =   0.0010101
        k(  490) = (   0.6545455  -0.2000000  -0.5000000), wk =   0.0010101
        k(  491) = (   0.4545455  -0.2545455   0.0000000), wk =   0.0010101
        k(  492) = (  -0.2545455  -0.2000000   0.0000000), wk =   0.0010101
        k(  493) = (   0.4545455  -0.2545455   0.1666667), wk =   0.0010101
        k(  494) = (  -0.2545455  -0.2000000   0.1666667), wk =   0.0010101
        k(  495) = (   0.2545455   0.2000000   0.1666667), wk =   0.0010101
        k(  496) = (  -0.4545455   0.2545455   0.1666667), wk =   0.0010101
        k(  497) = (   0.4545455  -0.2000000  -0.1666667), wk =   0.0010101
        k(  498) = (   0.4545455  -0.2545455   0.3333333), wk =   0.0010101
        k(  499) = (  -0.2545455  -0.2000000   0.3333333), wk =   0.0010101
        k(  500) = (   0.2545455   0.2000000   0.3333333), wk =   0.0010101
        k(  501) = (  -0.4545455   0.2545455   0.3333333), wk =   0.0010101
        k(  502) = (   0.4545455  -0.2000000  -0.3333333), wk =   0.0010101
        k(  503) = (   0.4545455  -0.2545455  -0.5000000), wk =   0.0010101
        k(  504) = (  -0.2545455  -0.2000000  -0.5000000), wk =   0.0010101
        k(  505) = (   0.3636364  -0.1636364   0.0000000), wk =   0.0010101
        k(  506) = (  -0.1636364  -0.2000000   0.0000000), wk =   0.0010101
        k(  507) = (   0.3636364  -0.1636364   0.1666667), wk =   0.0010101
        k(  508) = (  -0.1636364  -0.2000000   0.1666667), wk =   0.0010101
        k(  509) = (   0.1636364   0.2000000   0.1666667), wk =   0.0010101
        k(  510) = (  -0.3636364   0.1636364   0.1666667), wk =   0.0010101
        k(  511) = (   0.3636364  -0.2000000  -0.1666667), wk =   0.0010101
        k(  512) = (   0.3636364  -0.1636364   0.3333333), wk =   0.0010101
        k(  513) = (  -0.1636364  -0.2000000   0.3333333), wk =   0.0010101
        k(  514) = (   0.1636364   0.2000000   0.3333333), wk =   0.0010101
        k(  515) = (  -0.3636364   0.1636364   0.3333333), wk =   0.0010101
        k(  516) = (   0.3636364  -0.2000000  -0.3333333), wk =   0.0010101
        k(  517) = (   0.3636364  -0.1636364  -0.5000000), wk =   0.0010101
        k(  518) = (  -0.1636364  -0.2000000  -0.5000000), wk =   0.0010101
        k(  519) = (   0.2727273  -0.0727273   0.0000000), wk =   0.0010101
        k(  520) = (  -0.0727273  -0.2000000   0.0000000), wk =   0.0010101
        k(  521) = (   0.2727273  -0.0727273   0.1666667), wk =   0.0010101
        k(  522) = (  -0.0727273  -0.2000000   0.1666667), wk =   0.0010101
        k(  523) = (   0.0727273   0.2000000   0.1666667), wk =   0.0010101
        k(  524) = (  -0.2727273   0.0727273   0.1666667), wk =   0.0010101
        k(  525) = (   0.2727273  -0.2000000  -0.1666667), wk =   0.0010101
        k(  526) = (   0.2727273  -0.0727273   0.3333333), wk =   0.0010101
        k(  527) = (  -0.0727273  -0.2000000   0.3333333), wk =   0.0010101
        k(  528) = (   0.0727273   0.2000000   0.3333333), wk =   0.0010101
        k(  529) = (  -0.2727273   0.0727273   0.3333333), wk =   0.0010101
        k(  530) = (   0.2727273  -0.2000000  -0.3333333), wk =   0.0010101
        k(  531) = (   0.2727273  -0.0727273  -0.5000000), wk =   0.0010101
        k(  532) = (  -0.0727273  -0.2000000  -0.5000000), wk =   0.0010101
        k(  533) = (   0.1818182   0.0181818   0.0000000), wk =   0.0010101
        k(  534) = (   0.0181818  -0.2000000   0.0000000), wk =   0.0010101
        k(  535) = (   0.1818182   0.0181818   0.1666667), wk =   0.0010101
        k(  536) = (   0.0181818  -0.2000000   0.1666667), wk =   0.0010101
        k(  537) = (  -0.0181818   0.2000000   0.1666667), wk =   0.0010101
        k(  538) = (  -0.1818182  -0.0181818   0.1666667), wk =   0.0010101
        k(  539) = (   0.1818182  -0.2000000  -0.1666667), wk =   0.0010101
        k(  540) = (   0.1818182   0.0181818   0.3333333), wk =   0.0010101
        k(  541) = (   0.0181818  -0.2000000   0.3333333), wk =   0.0010101
        k(  542) = (  -0.0181818   0.2000000   0.3333333), wk =   0.0010101
        k(  543) = (  -0.1818182  -0.0181818   0.3333333), wk =   0.0010101
        k(  544) = (   0.1818182  -0.2000000  -0.3333333), wk =   0.0010101
        k(  545) = (   0.1818182   0.0181818  -0.5000000), wk =   0.0010101
        k(  546) = (   0.0181818  -0.2000000  -0.5000000), wk =   0.0010101
        k(  547) = (   0.0909091   0.1090909   0.0000000), wk =   0.0010101
        k(  548) = (   0.1090909  -0.2000000   0.0000000), wk =   0.0010101
        k(  549) = (   0.0909091   0.1090909   0.1666667), wk =   0.0010101
        k(  550) = (   0.1090909  -0.2000000   0.1666667), wk =   0.0010101
        k(  551) = (  -0.1090909   0.2000000   0.1666667), wk =   0.0010101
        k(  552) = (  -0.0909091  -0.1090909   0.1666667), wk =   0.0010101
        k(  553) = (   0.0909091  -0.2000000  -0.1666667), wk =   0.0010101
        k(  554) = (   0.0909091   0.1090909   0.3333333), wk =   0.0010101
        k(  555) = (   0.1090909  -0.2000000   0.3333333), wk =   0.0010101
        k(  556) = (  -0.1090909   0.2000000   0.3333333), wk =   0.0010101
        k(  557) = (  -0.0909091  -0.1090909   0.3333333), wk =   0.0010101
        k(  558) = (   0.0909091  -0.2000000  -0.3333333), wk =   0.0010101
        k(  559) = (   0.0909091   0.1090909  -0.5000000), wk =   0.0010101
        k(  560) = (   0.1090909  -0.2000000  -0.5000000), wk =   0.0010101
        k(  561) = (   0.3000000  -0.3000000   0.0000000), wk =   0.0010101
        k(  562) = (   0.0000000   0.3000000   0.1666667), wk =   0.0020202
        k(  563) = (   0.3000000  -0.3000000   0.1666667), wk =   0.0010101
        k(  564) = (  -0.3000000   0.3000000   0.1666667), wk =   0.0010101
        k(  565) = (   0.0000000   0.3000000   0.3333333), wk =   0.0020202
        k(  566) = (   0.3000000  -0.3000000   0.3333333), wk =   0.0010101
        k(  567) = (  -0.3000000   0.3000000   0.3333333), wk =   0.0010101
        k(  568) = (   0.3000000  -0.3000000  -0.5000000), wk =   0.0010101
        k(  569) = (  -0.0909091   0.3909091   0.0000000), wk =   0.0010101
        k(  570) = (   0.3909091  -0.3000000   0.0000000), wk =   0.0010101
        k(  571) = (  -0.0909091   0.3909091   0.1666667), wk =   0.0010101
        k(  572) = (   0.3909091  -0.3000000   0.1666667), wk =   0.0010101
        k(  573) = (  -0.3909091   0.3000000   0.1666667), wk =   0.0010101
        k(  574) = (   0.0909091  -0.3909091   0.1666667), wk =   0.0010101
        k(  575) = (  -0.0909091  -0.3000000  -0.1666667), wk =   0.0010101
        k(  576) = (  -0.0909091   0.3909091   0.3333333), wk =   0.0010101
        k(  577) = (   0.3909091  -0.3000000   0.3333333), wk =   0.0010101
        k(  578) = (  -0.3909091   0.3000000   0.3333333), wk =   0.0010101
        k(  579) = (   0.0909091  -0.3909091   0.3333333), wk =   0.0010101
        k(  580) = (  -0.0909091  -0.3000000  -0.3333333), wk =   0.0010101
        k(  581) = (  -0.0909091   0.3909091  -0.5000000), wk =   0.0010101
        k(  582) = (   0.3909091  -0.3000000  -0.5000000), wk =   0.0010101
        k(  583) = (  -0.1818182   0.4818182   0.0000000), wk =   0.0010101
        k(  584) = (   0.4818182  -0.3000000   0.0000000), wk =   0.0010101
        k(  585) = (  -0.1818182   0.4818182   0.1666667), wk =   0.0010101
        k(  586) = (   0.4818182  -0.3000000   0.1666667), wk =   0.0010101
        k(  587) = (  -0.4818182   0.3000000   0.1666667), wk =   0.0010101
        k(  588) = (   0.1818182  -0.4818182   0.1666667), wk =   0.0010101
        k(  589) = (  -0.1818182  -0.3000000  -0.1666667), wk =   0.0010101
        k(  590) = (  -0.1818182   0.4818182   0.3333333), wk =   0.0010101
        k(  591) = (   0.4818182  -0.3000000   0.3333333), wk =   0.0010101
        k(  592) = (  -0.4818182   0.3000000   0.3333333), wk =   0.0010101
        k(  593) = (   0.1818182  -0.4818182   0.3333333), wk =   0.0010101
        k(  594) = (  -0.1818182  -0.3000000  -0.3333333), wk =   0.0010101
        k(  595) = (  -0.1818182   0.4818182  -0.5000000), wk =   0.0010101
        k(  596) = (   0.4818182  -0.3000000  -0.5000000), wk =   0.0010101
        k(  597) = (  -0.2727273   0.5727273   0.0000000), wk =   0.0010101
        k(  598) = (   0.5727273  -0.3000000   0.0000000), wk =   0.0010101
        k(  599) = (  -0.2727273   0.5727273   0.1666667), wk =   0.0010101
        k(  600) = (   0.5727273  -0.3000000   0.1666667), wk =   0.0010101
        k(  601) = (  -0.5727273   0.3000000   0.1666667), wk =   0.0010101
        k(  602) = (   0.2727273  -0.5727273   0.1666667), wk =   0.0010101
        k(  603) = (  -0.2727273  -0.3000000  -0.1666667), wk =   0.0010101
        k(  604) = (  -0.2727273   0.5727273   0.3333333), wk =   0.0010101
        k(  605) = (   0.5727273  -0.3000000   0.3333333), wk =   0.0010101
        k(  606) = (  -0.5727273   0.3000000   0.3333333), wk =   0.0010101
        k(  607) = (   0.2727273  -0.5727273   0.3333333), wk =   0.0010101
        k(  608) = (  -0.2727273  -0.3000000  -0.3333333), wk =   0.0010101
        k(  609) = (  -0.2727273   0.5727273  -0.5000000), wk =   0.0010101
        k(  610) = (   0.5727273  -0.3000000  -0.5000000), wk =   0.0010101
        k(  611) = (  -0.3636364   0.6636364   0.0000000), wk =   0.0010101
        k(  612) = (   0.6636364  -0.3000000   0.0000000), wk =   0.0010101
        k(  613) = (  -0.3636364   0.6636364   0.1666667), wk =   0.0010101
        k(  614) = (   0.6636364  -0.3000000   0.1666667), wk =   0.0010101
        k(  615) = (  -0.6636364   0.3000000   0.1666667), wk =   0.0010101
        k(  616) = (   0.3636364  -0.6636364   0.1666667), wk =   0.0010101
        k(  617) = (  -0.3636364  -0.3000000  -0.1666667), wk =   0.0010101
        k(  618) = (  -0.3636364   0.6636364   0.3333333), wk =   0.0010101
        k(  619) = (   0.6636364  -0.3000000   0.3333333), wk =   0.0010101
        k(  620) = (  -0.6636364   0.3000000   0.3333333), wk =   0.0010101
        k(  621) = (   0.3636364  -0.6636364   0.3333333), wk =   0.0010101
        k(  622) = (  -0.3636364  -0.3000000  -0.3333333), wk =   0.0010101
        k(  623) = (  -0.3636364   0.6636364  -0.5000000), wk =   0.0010101
        k(  624) = (   0.6636364  -0.3000000  -0.5000000), wk =   0.0010101
        k(  625) = (  -0.4545455   0.7545455   0.0000000), wk =   0.0010101
        k(  626) = (   0.7545455  -0.3000000   0.0000000), wk =   0.0010101
        k(  627) = (  -0.4545455   0.7545455   0.1666667), wk =   0.0010101
        k(  628) = (   0.7545455  -0.3000000   0.1666667), wk =   0.0010101
        k(  629) = (  -0.7545455   0.3000000   0.1666667), wk =   0.0010101
        k(  630) = (   0.4545455  -0.7545455   0.1666667), wk =   0.0010101
        k(  631) = (  -0.4545455  -0.3000000  -0.1666667), wk =   0.0010101
        k(  632) = (  -0.4545455   0.7545455   0.3333333), wk =   0.0010101
        k(  633) = (   0.7545455  -0.3000000   0.3333333), wk =   0.0010101
        k(  634) = (  -0.7545455   0.3000000   0.3333333), wk =   0.0010101
        k(  635) = (   0.4545455  -0.7545455   0.3333333), wk =   0.0010101
        k(  636) = (  -0.4545455  -0.3000000  -0.3333333), wk =   0.0010101
        k(  637) = (  -0.4545455   0.7545455  -0.5000000), wk =   0.0010101
        k(  638) = (   0.7545455  -0.3000000  -0.5000000), wk =   0.0010101
        k(  639) = (   0.4545455  -0.1545455   0.0000000), wk =   0.0010101
        k(  640) = (  -0.1545455  -0.3000000   0.0000000), wk =   0.0010101
        k(  641) = (   0.4545455  -0.1545455   0.1666667), wk =   0.0010101
        k(  642) = (  -0.1545455  -0.3000000   0.1666667), wk =   0.0010101
        k(  643) = (   0.1545455   0.3000000   0.1666667), wk =   0.0010101
        k(  644) = (  -0.4545455   0.1545455   0.1666667), wk =   0.0010101
        k(  645) = (   0.4545455  -0.3000000  -0.1666667), wk =   0.0010101
        k(  646) = (   0.4545455  -0.1545455   0.3333333), wk =   0.0010101
        k(  647) = (  -0.1545455  -0.3000000   0.3333333), wk =   0.0010101
        k(  648) = (   0.1545455   0.3000000   0.3333333), wk =   0.0010101
        k(  649) = (  -0.4545455   0.1545455   0.3333333), wk =   0.0010101
        k(  650) = (   0.4545455  -0.3000000  -0.3333333), wk =   0.0010101
        k(  651) = (   0.4545455  -0.1545455  -0.5000000), wk =   0.0010101
        k(  652) = (  -0.1545455  -0.3000000  -0.5000000), wk =   0.0010101
        k(  653) = (   0.3636364  -0.0636364   0.0000000), wk =   0.0010101
        k(  654) = (  -0.0636364  -0.3000000   0.0000000), wk =   0.0010101
        k(  655) = (   0.3636364  -0.0636364   0.1666667), wk =   0.0010101
        k(  656) = (  -0.0636364  -0.3000000   0.1666667), wk =   0.0010101
        k(  657) = (   0.0636364   0.3000000   0.1666667), wk =   0.0010101
        k(  658) = (  -0.3636364   0.0636364   0.1666667), wk =   0.0010101
        k(  659) = (   0.3636364  -0.3000000  -0.1666667), wk =   0.0010101
        k(  660) = (   0.3636364  -0.0636364   0.3333333), wk =   0.0010101
        k(  661) = (  -0.0636364  -0.3000000   0.3333333), wk =   0.0010101
        k(  662) = (   0.0636364   0.3000000   0.3333333), wk =   0.0010101
        k(  663) = (  -0.3636364   0.0636364   0.3333333), wk =   0.0010101
        k(  664) = (   0.3636364  -0.3000000  -0.3333333), wk =   0.0010101
        k(  665) = (   0.3636364  -0.0636364  -0.5000000), wk =   0.0010101
        k(  666) = (  -0.0636364  -0.3000000  -0.5000000), wk =   0.0010101
        k(  667) = (   0.2727273   0.0272727   0.0000000), wk =   0.0010101
        k(  668) = (   0.0272727  -0.3000000   0.0000000), wk =   0.0010101
        k(  669) = (   0.2727273   0.0272727   0.1666667), wk =   0.0010101
        k(  670) = (   0.0272727  -0.3000000   0.1666667), wk =   0.0010101
        k(  671) = (  -0.0272727   0.3000000   0.1666667), wk =   0.0010101
        k(  672) = (  -0.2727273  -0.0272727   0.1666667), wk =   0.0010101
        k(  673) = (   0.2727273  -0.3000000  -0.1666667), wk =   0.0010101
        k(  674) = (   0.2727273   0.0272727   0.3333333), wk =   0.0010101
        k(  675) = (   0.0272727  -0.3000000   0.3333333), wk =   0.0010101
        k(  676) = (  -0.0272727   0.3000000   0.3333333), wk =   0.0010101
        k(  677) = (  -0.2727273  -0.0272727   0.3333333), wk =   0.0010101
        k(  678) = (   0.2727273  -0.3000000  -0.3333333), wk =   0.0010101
        k(  679) = (   0.2727273   0.0272727  -0.5000000), wk =   0.0010101
        k(  680) = (   0.0272727  -0.3000000  -0.5000000), wk =   0.0010101
        k(  681) = (   0.1818182   0.1181818   0.0000000), wk =   0.0010101
        k(  682) = (   0.1181818  -0.3000000   0.0000000), wk =   0.0010101
        k(  683) = (   0.1818182   0.1181818   0.1666667), wk =   0.0010101
        k(  684) = (   0.1181818  -0.3000000   0.1666667), wk =   0.0010101
        k(  685) = (  -0.1181818   0.3000000   0.1666667), wk =   0.0010101
        k(  686) = (  -0.1818182  -0.1181818   0.1666667), wk =   0.0010101
        k(  687) = (   0.1818182  -0.3000000  -0.1666667), wk =   0.0010101
        k(  688) = (   0.1818182   0.1181818   0.3333333), wk =   0.0010101
        k(  689) = (   0.1181818  -0.3000000   0.3333333), wk =   0.0010101
        k(  690) = (  -0.1181818   0.3000000   0.3333333), wk =   0.0010101
        k(  691) = (  -0.1818182  -0.1181818   0.3333333), wk =   0.0010101
        k(  692) = (   0.1818182  -0.3000000  -0.3333333), wk =   0.0010101
        k(  693) = (   0.1818182   0.1181818  -0.5000000), wk =   0.0010101
        k(  694) = (   0.1181818  -0.3000000  -0.5000000), wk =   0.0010101
        k(  695) = (   0.0909091   0.2090909   0.0000000), wk =   0.0010101
        k(  696) = (   0.2090909  -0.3000000   0.0000000), wk =   0.0010101
        k(  697) = (   0.0909091   0.2090909   0.1666667), wk =   0.0010101
        k(  698) = (   0.2090909  -0.3000000   0.1666667), wk =   0.0010101
        k(  699) = (  -0.2090909   0.3000000   0.1666667), wk =   0.0010101
        k(  700) = (  -0.0909091  -0.2090909   0.1666667), wk =   0.0010101
        k(  701) = (   0.0909091  -0.3000000  -0.1666667), wk =   0.0010101
        k(  702) = (   0.0909091   0.2090909   0.3333333), wk =   0.0010101
        k(  703) = (   0.2090909  -0.3000000   0.3333333), wk =   0.0010101
        k(  704) = (  -0.2090909   0.3000000   0.3333333), wk =   0.0010101
        k(  705) = (  -0.0909091  -0.2090909   0.3333333), wk =   0.0010101
        k(  706) = (   0.0909091  -0.3000000  -0.3333333), wk =   0.0010101
        k(  707) = (   0.0909091   0.2090909  -0.5000000), wk =   0.0010101
        k(  708) = (   0.2090909  -0.3000000  -0.5000000), wk =   0.0010101
        k(  709) = (   0.4000000  -0.4000000   0.0000000), wk =   0.0010101
        k(  710) = (   0.0000000   0.4000000   0.1666667), wk =   0.0020202
        k(  711) = (   0.4000000  -0.4000000   0.1666667), wk =   0.0010101
        k(  712) = (  -0.4000000   0.4000000   0.1666667), wk =   0.0010101
        k(  713) = (   0.0000000   0.4000000   0.3333333), wk =   0.0020202
        k(  714) = (   0.4000000  -0.4000000   0.3333333), wk =   0.0010101
        k(  715) = (  -0.4000000   0.4000000   0.3333333), wk =   0.0010101
        k(  716) = (   0.4000000  -0.4000000  -0.5000000), wk =   0.0010101
        k(  717) = (  -0.0909091   0.4909091   0.0000000), wk =   0.0010101
        k(  718) = (   0.4909091  -0.4000000   0.0000000), wk =   0.0010101
        k(  719) = (  -0.0909091   0.4909091   0.1666667), wk =   0.0010101
        k(  720) = (   0.4909091  -0.4000000   0.1666667), wk =   0.0010101
        k(  721) = (  -0.4909091   0.4000000   0.1666667), wk =   0.0010101
        k(  722) = (   0.0909091  -0.4909091   0.1666667), wk =   0.0010101
        k(  723) = (  -0.0909091  -0.4000000  -0.1666667), wk =   0.0010101
        k(  724) = (  -0.0909091   0.4909091   0.3333333), wk =   0.0010101
        k(  725) = (   0.4909091  -0.4000000   0.3333333), wk =   0.0010101
        k(  726) = (  -0.4909091   0.4000000   0.3333333), wk =   0.0010101
        k(  727) = (   0.0909091  -0.4909091   0.3333333), wk =   0.0010101
        k(  728) = (  -0.0909091  -0.4000000  -0.3333333), wk =   0.0010101
        k(  729) = (  -0.0909091   0.4909091  -0.5000000), wk =   0.0010101
        k(  730) = (   0.4909091  -0.4000000  -0.5000000), wk =   0.0010101
        k(  731) = (  -0.1818182   0.5818182   0.0000000), wk =   0.0010101
        k(  732) = (   0.5818182  -0.4000000   0.0000000), wk =   0.0010101
        k(  733) = (  -0.1818182   0.5818182   0.1666667), wk =   0.0010101
        k(  734) = (   0.5818182  -0.4000000   0.1666667), wk =   0.0010101
        k(  735) = (  -0.5818182   0.4000000   0.1666667), wk =   0.0010101
        k(  736) = (   0.1818182  -0.5818182   0.1666667), wk =   0.0010101
        k(  737) = (  -0.1818182  -0.4000000  -0.1666667), wk =   0.0010101
        k(  738) = (  -0.1818182   0.5818182   0.3333333), wk =   0.0010101
        k(  739) = (   0.5818182  -0.4000000   0.3333333), wk =   0.0010101
        k(  740) = (  -0.5818182   0.4000000   0.3333333), wk =   0.0010101
        k(  741) = (   0.1818182  -0.5818182   0.3333333), wk =   0.0010101
        k(  742) = (  -0.1818182  -0.4000000  -0.3333333), wk =   0.0010101
        k(  743) = (  -0.1818182   0.5818182  -0.5000000), wk =   0.0010101
        k(  744) = (   0.5818182  -0.4000000  -0.5000000), wk =   0.0010101
        k(  745) = (  -0.2727273   0.6727273   0.0000000), wk =   0.0010101
        k(  746) = (   0.6727273  -0.4000000   0.0000000), wk =   0.0010101
        k(  747) = (  -0.2727273   0.6727273   0.1666667), wk =   0.0010101
        k(  748) = (   0.6727273  -0.4000000   0.1666667), wk =   0.0010101
        k(  749) = (  -0.6727273   0.4000000   0.1666667), wk =   0.0010101
        k(  750) = (   0.2727273  -0.6727273   0.1666667), wk =   0.0010101
        k(  751) = (  -0.2727273  -0.4000000  -0.1666667), wk =   0.0010101
        k(  752) = (  -0.2727273   0.6727273   0.3333333), wk =   0.0010101
        k(  753) = (   0.6727273  -0.4000000   0.3333333), wk =   0.0010101
        k(  754) = (  -0.6727273   0.4000000   0.3333333), wk =   0.0010101
        k(  755) = (   0.2727273  -0.6727273   0.3333333), wk =   0.0010101
        k(  756) = (  -0.2727273  -0.4000000  -0.3333333), wk =   0.0010101
        k(  757) = (  -0.2727273   0.6727273  -0.5000000), wk =   0.0010101
        k(  758) = (   0.6727273  -0.4000000  -0.5000000), wk =   0.0010101
        k(  759) = (  -0.3636364   0.7636364   0.0000000), wk =   0.0010101
        k(  760) = (   0.7636364  -0.4000000   0.0000000), wk =   0.0010101
        k(  761) = (  -0.3636364   0.7636364   0.1666667), wk =   0.0010101
        k(  762) = (   0.7636364  -0.4000000   0.1666667), wk =   0.0010101
        k(  763) = (  -0.7636364   0.4000000   0.1666667), wk =   0.0010101
        k(  764) = (   0.3636364  -0.7636364   0.1666667), wk =   0.0010101
        k(  765) = (  -0.3636364  -0.4000000  -0.1666667), wk =   0.0010101
        k(  766) = (  -0.3636364   0.7636364   0.3333333), wk =   0.0010101
        k(  767) = (   0.7636364  -0.4000000   0.3333333), wk =   0.0010101
        k(  768) = (  -0.7636364   0.4000000   0.3333333), wk =   0.0010101
        k(  769) = (   0.3636364  -0.7636364   0.3333333), wk =   0.0010101
        k(  770) = (  -0.3636364  -0.4000000  -0.3333333), wk =   0.0010101
        k(  771) = (  -0.3636364   0.7636364  -0.5000000), wk =   0.0010101
        k(  772) = (   0.7636364  -0.4000000  -0.5000000), wk =   0.0010101
        k(  773) = (  -0.4545455   0.8545455   0.0000000), wk =   0.0010101
        k(  774) = (   0.8545455  -0.4000000   0.0000000), wk =   0.0010101
        k(  775) = (  -0.4545455   0.8545455   0.1666667), wk =   0.0010101
        k(  776) = (   0.8545455  -0.4000000   0.1666667), wk =   0.0010101
        k(  777) = (  -0.8545455   0.4000000   0.1666667), wk =   0.0010101
        k(  778) = (   0.4545455  -0.8545455   0.1666667), wk =   0.0010101
        k(  779) = (  -0.4545455  -0.4000000  -0.1666667), wk =   0.0010101
        k(  780) = (  -0.4545455   0.8545455   0.3333333), wk =   0.0010101
        k(  781) = (   0.8545455  -0.4000000   0.3333333), wk =   0.0010101
        k(  782) = (  -0.8545455   0.4000000   0.3333333), wk =   0.0010101
        k(  783) = (   0.4545455  -0.8545455   0.3333333), wk =   0.0010101
        k(  784) = (  -0.4545455  -0.4000000  -0.3333333), wk =   0.0010101
        k(  785) = (  -0.4545455   0.8545455  -0.5000000), wk =   0.0010101
        k(  786) = (   0.8545455  -0.4000000  -0.5000000), wk =   0.0010101
        k(  787) = (   0.4545455  -0.0545455   0.0000000), wk =   0.0010101
        k(  788) = (  -0.0545455  -0.4000000   0.0000000), wk =   0.0010101
        k(  789) = (   0.4545455  -0.0545455   0.1666667), wk =   0.0010101
        k(  790) = (  -0.0545455  -0.4000000   0.1666667), wk =   0.0010101
        k(  791) = (   0.0545455   0.4000000   0.1666667), wk =   0.0010101
        k(  792) = (  -0.4545455   0.0545455   0.1666667), wk =   0.0010101
        k(  793) = (   0.4545455  -0.4000000  -0.1666667), wk =   0.0010101
        k(  794) = (   0.4545455  -0.0545455   0.3333333), wk =   0.0010101
        k(  795) = (  -0.0545455  -0.4000000   0.3333333), wk =   0.0010101
        k(  796) = (   0.0545455   0.4000000   0.3333333), wk =   0.0010101
        k(  797) = (  -0.4545455   0.0545455   0.3333333), wk =   0.0010101
        k(  798) = (   0.4545455  -0.4000000  -0.3333333), wk =   0.0010101
        k(  799) = (   0.4545455  -0.0545455  -0.5000000), wk =   0.0010101
        k(  800) = (  -0.0545455  -0.4000000  -0.5000000), wk =   0.0010101
        k(  801) = (   0.3636364   0.0363636   0.0000000), wk =   0.0010101
        k(  802) = (   0.0363636  -0.4000000   0.0000000), wk =   0.0010101
        k(  803) = (   0.3636364   0.0363636   0.1666667), wk =   0.0010101
        k(  804) = (   0.0363636  -0.4000000   0.1666667), wk =   0.0010101
        k(  805) = (  -0.0363636   0.4000000   0.1666667), wk =   0.0010101
        k(  806) = (  -0.3636364  -0.0363636   0.1666667), wk =   0.0010101
        k(  807) = (   0.3636364  -0.4000000  -0.1666667), wk =   0.0010101
        k(  808) = (   0.3636364   0.0363636   0.3333333), wk =   0.0010101
        k(  809) = (   0.0363636  -0.4000000   0.3333333), wk =   0.0010101
        k(  810) = (  -0.0363636   0.4000000   0.3333333), wk =   0.0010101
        k(  811) = (  -0.3636364  -0.0363636   0.3333333), wk =   0.0010101
        k(  812) = (   0.3636364  -0.4000000  -0.3333333), wk =   0.0010101
        k(  813) = (   0.3636364   0.0363636  -0.5000000), wk =   0.0010101
        k(  814) = (   0.0363636  -0.4000000  -0.5000000), wk =   0.0010101
        k(  815) = (   0.2727273   0.1272727   0.0000000), wk =   0.0010101
        k(  816) = (   0.1272727  -0.4000000   0.0000000), wk =   0.0010101
        k(  817) = (   0.2727273   0.1272727   0.1666667), wk =   0.0010101
        k(  818) = (   0.1272727  -0.4000000   0.1666667), wk =   0.0010101
        k(  819) = (  -0.1272727   0.4000000   0.1666667), wk =   0.0010101
        k(  820) = (  -0.2727273  -0.1272727   0.1666667), wk =   0.0010101
        k(  821) = (   0.2727273  -0.4000000  -0.1666667), wk =   0.0010101
        k(  822) = (   0.2727273   0.1272727   0.3333333), wk =   0.0010101
        k(  823) = (   0.1272727  -0.4000000   0.3333333), wk =   0.0010101
        k(  824) = (  -0.1272727   0.4000000   0.3333333), wk =   0.0010101
        k(  825) = (  -0.2727273  -0.1272727   0.3333333), wk =   0.0010101
        k(  826) = (   0.2727273  -0.4000000  -0.3333333), wk =   0.0010101
        k(  827) = (   0.2727273   0.1272727  -0.5000000), wk =   0.0010101
        k(  828) = (   0.1272727  -0.4000000  -0.5000000), wk =   0.0010101
        k(  829) = (   0.1818182   0.2181818   0.0000000), wk =   0.0010101
        k(  830) = (   0.2181818  -0.4000000   0.0000000), wk =   0.0010101
        k(  831) = (   0.1818182   0.2181818   0.1666667), wk =   0.0010101
        k(  832) = (   0.2181818  -0.4000000   0.1666667), wk =   0.0010101
        k(  833) = (  -0.2181818   0.4000000   0.1666667), wk =   0.0010101
        k(  834) = (  -0.1818182  -0.2181818   0.1666667), wk =   0.0010101
        k(  835) = (   0.1818182  -0.4000000  -0.1666667), wk =   0.0010101
        k(  836) = (   0.1818182   0.2181818   0.3333333), wk =   0.0010101
        k(  837) = (   0.2181818  -0.4000000   0.3333333), wk =   0.0010101
        k(  838) = (  -0.2181818   0.4000000   0.3333333), wk =   0.0010101
        k(  839) = (  -0.1818182  -0.2181818   0.3333333), wk =   0.0010101
        k(  840) = (   0.1818182  -0.4000000  -0.3333333), wk =   0.0010101
        k(  841) = (   0.1818182   0.2181818  -0.5000000), wk =   0.0010101
        k(  842) = (   0.2181818  -0.4000000  -0.5000000), wk =   0.0010101
        k(  843) = (   0.0909091   0.3090909   0.0000000), wk =   0.0010101
        k(  844) = (   0.3090909  -0.4000000   0.0000000), wk =   0.0010101
        k(  845) = (   0.0909091   0.3090909   0.1666667), wk =   0.0010101
        k(  846) = (   0.3090909  -0.4000000   0.1666667), wk =   0.0010101
        k(  847) = (  -0.3090909   0.4000000   0.1666667), wk =   0.0010101
        k(  848) = (  -0.0909091  -0.3090909   0.1666667), wk =   0.0010101
        k(  849) = (   0.0909091  -0.4000000  -0.1666667), wk =   0.0010101
        k(  850) = (   0.0909091   0.3090909   0.3333333), wk =   0.0010101
        k(  851) = (   0.3090909  -0.4000000   0.3333333), wk =   0.0010101
        k(  852) = (  -0.3090909   0.4000000   0.3333333), wk =   0.0010101
        k(  853) = (  -0.0909091  -0.3090909   0.3333333), wk =   0.0010101
        k(  854) = (   0.0909091  -0.4000000  -0.3333333), wk =   0.0010101
        k(  855) = (   0.0909091   0.3090909  -0.5000000), wk =   0.0010101
        k(  856) = (   0.3090909  -0.4000000  -0.5000000), wk =   0.0010101
        k(  857) = (  -0.5000000   0.5000000   0.0000000), wk =   0.0005051
        k(  858) = (  -0.5000000   0.5000000   0.1666667), wk =   0.0010101
        k(  859) = (  -0.5000000   0.5000000   0.3333333), wk =   0.0010101
        k(  860) = (  -0.5000000   0.5000000  -0.5000000), wk =   0.0005051
        k(  861) = (  -0.0909091  -0.4090909   0.0000000), wk =   0.0010101
        k(  862) = (  -0.4090909   0.5000000   0.0000000), wk =   0.0010101
        k(  863) = (  -0.0909091  -0.4090909   0.1666667), wk =   0.0010101
        k(  864) = (  -0.4090909   0.5000000   0.1666667), wk =   0.0010101
        k(  865) = (   0.4090909  -0.5000000   0.1666667), wk =   0.0010101
        k(  866) = (   0.0909091   0.4090909   0.1666667), wk =   0.0010101
        k(  867) = (  -0.0909091   0.5000000  -0.1666667), wk =   0.0010101
        k(  868) = (  -0.0909091  -0.4090909   0.3333333), wk =   0.0010101
        k(  869) = (  -0.4090909   0.5000000   0.3333333), wk =   0.0010101
        k(  870) = (   0.4090909  -0.5000000   0.3333333), wk =   0.0010101
        k(  871) = (   0.0909091   0.4090909   0.3333333), wk =   0.0010101
        k(  872) = (  -0.0909091   0.5000000  -0.3333333), wk =   0.0010101
        k(  873) = (  -0.0909091  -0.4090909  -0.5000000), wk =   0.0010101
        k(  874) = (  -0.4090909   0.5000000  -0.5000000), wk =   0.0010101
        k(  875) = (  -0.1818182  -0.3181818   0.0000000), wk =   0.0010101
        k(  876) = (  -0.3181818   0.5000000   0.0000000), wk =   0.0010101
        k(  877) = (  -0.1818182  -0.3181818   0.1666667), wk =   0.0010101
        k(  878) = (  -0.3181818   0.5000000   0.1666667), wk =   0.0010101
        k(  879) = (   0.3181818  -0.5000000   0.1666667), wk =   0.0010101
        k(  880) = (   0.1818182   0.3181818   0.1666667), wk =   0.0010101
        k(  881) = (  -0.1818182   0.5000000  -0.1666667), wk =   0.0010101
        k(  882) = (  -0.1818182  -0.3181818   0.3333333), wk =   0.0010101
        k(  883) = (  -0.3181818   0.5000000   0.3333333), wk =   0.0010101
        k(  884) = (   0.3181818  -0.5000000   0.3333333), wk =   0.0010101
        k(  885) = (   0.1818182   0.3181818   0.3333333), wk =   0.0010101
        k(  886) = (  -0.1818182   0.5000000  -0.3333333), wk =   0.0010101
        k(  887) = (  -0.1818182  -0.3181818  -0.5000000), wk =   0.0010101
        k(  888) = (  -0.3181818   0.5000000  -0.5000000), wk =   0.0010101
        k(  889) = (  -0.2727273  -0.2272727   0.0000000), wk =   0.0010101
        k(  890) = (  -0.2272727   0.5000000   0.0000000), wk =   0.0010101
        k(  891) = (  -0.2727273  -0.2272727   0.1666667), wk =   0.0010101
        k(  892) = (  -0.2272727   0.5000000   0.1666667), wk =   0.0010101
        k(  893) = (   0.2272727  -0.5000000   0.1666667), wk =   0.0010101
        k(  894) = (   0.2727273   0.2272727   0.1666667), wk =   0.0010101
        k(  895) = (  -0.2727273   0.5000000  -0.1666667), wk =   0.0010101
        k(  896) = (  -0.2727273  -0.2272727   0.3333333), wk =   0.0010101
        k(  897) = (  -0.2272727   0.5000000   0.3333333), wk =   0.0010101
        k(  898) = (   0.2272727  -0.5000000   0.3333333), wk =   0.0010101
        k(  899) = (   0.2727273   0.2272727   0.3333333), wk =   0.0010101
        k(  900) = (  -0.2727273   0.5000000  -0.3333333), wk =   0.0010101
        k(  901) = (  -0.2727273  -0.2272727  -0.5000000), wk =   0.0010101
        k(  902) = (  -0.2272727   0.5000000  -0.5000000), wk =   0.0010101
        k(  903) = (  -0.3636364  -0.1363636   0.0000000), wk =   0.0010101
        k(  904) = (  -0.1363636   0.5000000   0.0000000), wk =   0.0010101
        k(  905) = (  -0.3636364  -0.1363636   0.1666667), wk =   0.0010101
        k(  906) = (  -0.1363636   0.5000000   0.1666667), wk =   0.0010101
        k(  907) = (   0.1363636  -0.5000000   0.1666667), wk =   0.0010101
        k(  908) = (   0.3636364   0.1363636   0.1666667), wk =   0.0010101
        k(  909) = (  -0.3636364   0.5000000  -0.1666667), wk =   0.0010101
        k(  910) = (  -0.3636364  -0.1363636   0.3333333), wk =   0.0010101
        k(  911) = (  -0.1363636   0.5000000   0.3333333), wk =   0.0010101
        k(  912) = (   0.1363636  -0.5000000   0.3333333), wk =   0.0010101
        k(  913) = (   0.3636364   0.1363636   0.3333333), wk =   0.0010101
        k(  914) = (  -0.3636364   0.5000000  -0.3333333), wk =   0.0010101
        k(  915) = (  -0.3636364  -0.1363636  -0.5000000), wk =   0.0010101
        k(  916) = (  -0.1363636   0.5000000  -0.5000000), wk =   0.0010101
        k(  917) = (  -0.4545455  -0.0454545   0.0000000), wk =   0.0010101
        k(  918) = (  -0.0454545   0.5000000   0.0000000), wk =   0.0010101
        k(  919) = (  -0.4545455  -0.0454545   0.1666667), wk =   0.0010101
        k(  920) = (  -0.0454545   0.5000000   0.1666667), wk =   0.0010101
        k(  921) = (   0.0454545  -0.5000000   0.1666667), wk =   0.0010101
        k(  922) = (   0.4545455   0.0454545   0.1666667), wk =   0.0010101
        k(  923) = (  -0.4545455   0.5000000  -0.1666667), wk =   0.0010101
        k(  924) = (  -0.4545455  -0.0454545   0.3333333), wk =   0.0010101
        k(  925) = (  -0.0454545   0.5000000   0.3333333), wk =   0.0010101
        k(  926) = (   0.0454545  -0.5000000   0.3333333), wk =   0.0010101
        k(  927) = (   0.4545455   0.0454545   0.3333333), wk =   0.0010101
        k(  928) = (  -0.4545455   0.5000000  -0.3333333), wk =   0.0010101
        k(  929) = (  -0.4545455  -0.0454545  -0.5000000), wk =   0.0010101
        k(  930) = (  -0.0454545   0.5000000  -0.5000000), wk =   0.0010101

     Dense  grid:  1266735 G-vectors     FFT dimensions: ( 120, 120, 200)

     Smooth grid:   193329 G-vectors     FFT dimensions: (  64,  64, 108)

     Dynamical RAM for                 wfc:       2.49 MB

     Dynamical RAM for     wfc (w. buffer):    4633.99 MB

     Dynamical RAM for           str. fact:       4.83 MB

     Dynamical RAM for           local pot:       0.00 MB

     Dynamical RAM for          nlocal pot:       5.12 MB

     Dynamical RAM for                qrad:      26.73 MB

     Dynamical RAM for          rho,v,vnew:      15.82 MB

     Dynamical RAM for               rhoin:       5.27 MB

     Dynamical RAM for            rho*nmix:      38.66 MB

     Dynamical RAM for           G-vectors:       4.62 MB

     Dynamical RAM for          h,s,v(r/c):       0.53 MB

     Dynamical RAM for          <psi|beta>:       0.37 MB

     Dynamical RAM for      wfcinit/wfcrot:       5.25 MB

     Dynamical RAM for           addusdens:     233.16 MB

     Dynamical RAM for          addusforce:     245.28 MB

     Dynamical RAM for         addusstress:     244.63 MB

     Estimated static dynamical RAM per process >       4.60 GB

     Estimated max dynamical RAM per process >       4.88 GB

     Estimated total dynamical RAM >      78.05 GB

     Check: negative core charge=   -0.000002
     Generating pointlists ...
     new r_m :   0.2063 (alat units)  1.8611 (a.u.) for type    1
     new r_m :   0.2032 (alat units)  1.8340 (a.u.) for type    2
     new r_m :   0.1261 (alat units)  1.1377 (a.u.) for type    3
     new r_m :   0.1261 (alat units)  1.1377 (a.u.) for type    4

     Initial potential from superposition of free atoms

     starting charge     174.9963, renormalised to     179.0000

     negative rho (up, down):  2.507E-03 2.751E-03
     Starting wfcs are  147 randomized atomic wfcs
     Checking if some PAW data can be deallocated... 
       PAW data deallocated on   14 nodes for type:  1
       PAW data deallocated on    9 nodes for type:  2

     total cpu time spent up to now is      319.6 secs

     per-process dynamical memory:  5029.8 Mb

     Self-consistent Calculation

     iteration #  1     ecut=   124.00 Ry     beta= 0.20
     CG style diagonalization

---- Real-time Memory Report at c_bands before calling an iterative solver
          4962 MiB given to the printing process from OS
          4912 MiB allocation reported by mallinfo(arena+hblkhd)
        135359 MiB available memory on the node where the printing process lives
------------------
     ethr =  1.00E-02,  avg # of iterations =  2.5

     negative rho (up, down):  9.086E-04 9.374E-04

     total cpu time spent up to now is     4232.1 secs

     total energy              =   -3109.58829971 Ry
     estimated scf accuracy    <     121.69585261 Ry

     total magnetization       =     3.23 Bohr mag/cell
     absolute magnetization    =     4.25 Bohr mag/cell

     iteration #  2     ecut=   124.00 Ry     beta= 0.20
     CG style diagonalization

---- Real-time Memory Report at c_bands before calling an iterative solver
          5197 MiB given to the printing process from OS
          4940 MiB allocation reported by mallinfo(arena+hblkhd)
        131903 MiB available memory on the node where the printing process lives
------------------
     ethr =  1.00E-02,  avg # of iterations =  3.3

     negative rho (up, down):  1.108E-03 1.060E-03

     total cpu time spent up to now is     7957.1 secs

     total energy              =   -3114.28809867 Ry
     estimated scf accuracy    <       3.93616998 Ry

     total magnetization       =     4.04 Bohr mag/cell
     absolute magnetization    =     5.32 Bohr mag/cell

     iteration #  3     ecut=   124.00 Ry     beta= 0.20
     CG style diagonalization

---- Real-time Memory Report at c_bands before calling an iterative solver
          5198 MiB given to the printing process from OS
          4941 MiB allocation reported by mallinfo(arena+hblkhd)
        131515 MiB available memory on the node where the printing process lives
------------------
     ethr =  2.20E-03,  avg # of iterations =  3.2

     negative rho (up, down):  1.556E-03 1.372E-03

     total cpu time spent up to now is    11532.9 secs

     total energy              =   -3114.32742871 Ry
     estimated scf accuracy    <       1.02211973 Ry

     total magnetization       =     3.83 Bohr mag/cell
     absolute magnetization    =     5.16 Bohr mag/cell

     iteration #  4     ecut=   124.00 Ry     beta= 0.20
     CG style diagonalization

---- Real-time Memory Report at c_bands before calling an iterative solver
          5199 MiB given to the printing process from OS
          4941 MiB allocation reported by mallinfo(arena+hblkhd)
        131372 MiB available memory on the node where the printing process lives
------------------
     c_bands:  2 eigenvalues not converged
     c_bands:  1 eigenvalues not converged
     c_bands:  1 eigenvalues not converged
     c_bands:  1 eigenvalues not converged
     c_bands:  1 eigenvalues not converged
     c_bands:  1 eigenvalues not converged
     c_bands:  1 eigenvalues not converged
     c_bands:  1 eigenvalues not converged
     c_bands:  1 eigenvalues not converged
     c_bands:  1 eigenvalues not converged
     c_bands:  1 eigenvalues not converged
     c_bands:  1 eigenvalues not converged
     c_bands:  1 eigenvalues not converged
     c_bands:  1 eigenvalues not converged
     c_bands:  1 eigenvalues not converged
     c_bands:  1 eigenvalues not converged
     c_bands:  1 eigenvalues not converged
     c_bands:  1 eigenvalues not converged
     c_bands:  1 eigenvalues not converged
     c_bands:  1 eigenvalues not converged
     c_bands:  1 eigenvalues not converged
     c_bands:  1 eigenvalues not converged
     c_bands:  1 eigenvalues not converged
     c_bands:  1 eigenvalues not converged
     c_bands:  1 eigenvalues not converged
     c_bands:  1 eigenvalues not converged
     c_bands:  1 eigenvalues not converged
     c_bands:  1 eigenvalues not converged
     c_bands:  1 eigenvalues not converged
     c_bands:  1 eigenvalues not converged
     c_bands:  1 eigenvalues not converged
     c_bands:  1 eigenvalues not converged
     c_bands:  1 eigenvalues not converged
     c_bands:  1 eigenvalues not converged
     c_bands:  1 eigenvalues not converged
     c_bands:  1 eigenvalues not converged
     c_bands:  1 eigenvalues not converged
     c_bands:  1 eigenvalues not converged
     c_bands:  1 eigenvalues not converged
     c_bands:  1 eigenvalues not converged
     c_bands:  1 eigenvalues not converged
     c_bands:  1 eigenvalues not converged
     c_bands:  1 eigenvalues not converged
     c_bands:  1 eigenvalues not converged
     c_bands:  1 eigenvalues not converged
     c_bands:  1 eigenvalues not converged
     c_bands:  1 eigenvalues not converged
     c_bands:  1 eigenvalues not converged
     c_bands:  1 eigenvalues not converged
     c_bands:  1 eigenvalues not converged
     ethr =  5.71E-04,  avg # of iterations =  4.5

     negative rho (up, down):  1.856E-03 1.589E-03

     total cpu time spent up to now is    17167.7 secs

     total energy              =   -3114.45070222 Ry
     estimated scf accuracy    <       0.38523565 Ry

     total magnetization       =     5.10 Bohr mag/cell
     absolute magnetization    =     6.22 Bohr mag/cell

     iteration #  5     ecut=   124.00 Ry     beta= 0.20
     CG style diagonalization

---- Real-time Memory Report at c_bands before calling an iterative solver
          5199 MiB given to the printing process from OS
          4942 MiB allocation reported by mallinfo(arena+hblkhd)
        145881 MiB available memory on the node where the printing process lives
------------------
     c_bands:  2 eigenvalues not converged
     c_bands:  2 eigenvalues not converged
     c_bands:  2 eigenvalues not converged
     c_bands:  2 eigenvalues not converged
     c_bands:  1 eigenvalues not converged
     c_bands:  1 eigenvalues not converged
     c_bands:  1 eigenvalues not converged
     c_bands:  1 eigenvalues not converged
     c_bands:  1 eigenvalues not converged
     c_bands:  1 eigenvalues not converged
     c_bands:  1 eigenvalues not converged
     c_bands:  3 eigenvalues not converged
     c_bands:  1 eigenvalues not converged
     c_bands:  2 eigenvalues not converged
     c_bands:  1 eigenvalues not converged
     c_bands:  1 eigenvalues not converged
     c_bands:  1 eigenvalues not converged
     c_bands:  1 eigenvalues not converged
     c_bands:  1 eigenvalues not converged
     c_bands:  1 eigenvalues not converged
     c_bands:  1 eigenvalues not converged
     c_bands:  1 eigenvalues not converged
     c_bands:  1 eigenvalues not converged
     c_bands:  1 eigenvalues not converged
     c_bands:  2 eigenvalues not converged
     c_bands:  1 eigenvalues not converged
     c_bands:  1 eigenvalues not converged
     c_bands:  2 eigenvalues not converged
     c_bands:  1 eigenvalues not converged
     c_bands:  1 eigenvalues not converged
     c_bands:  1 eigenvalues not converged
     c_bands:  2 eigenvalues not converged
     c_bands:  1 eigenvalues not converged
     c_bands:  1 eigenvalues not converged
     c_bands:  1 eigenvalues not converged
     c_bands:  1 eigenvalues not converged
     c_bands:  1 eigenvalues not converged
     c_bands:  1 eigenvalues not converged
     c_bands:  1 eigenvalues not converged
     c_bands:  1 eigenvalues not converged
     c_bands:  2 eigenvalues not converged
     c_bands:  1 eigenvalues not converged
     c_bands:  1 eigenvalues not converged
     c_bands:  1 eigenvalues not converged
     c_bands:  1 eigenvalues not converged
     c_bands:  1 eigenvalues not converged
     c_bands:  1 eigenvalues not converged
     c_bands:  1 eigenvalues not converged
     c_bands:  1 eigenvalues not converged
     c_bands:  1 eigenvalues not converged
     c_bands:  1 eigenvalues not converged
     c_bands:  1 eigenvalues not converged
     c_bands:  1 eigenvalues not converged
     c_bands:  2 eigenvalues not converged
     c_bands:  1 eigenvalues not converged
     c_bands:  1 eigenvalues not converged
     c_bands:  1 eigenvalues not converged
     c_bands:  1 eigenvalues not converged
     c_bands:  2 eigenvalues not converged
     c_bands:  1 eigenvalues not converged
     c_bands:  1 eigenvalues not converged
     c_bands:  1 eigenvalues not converged
     c_bands:  2 eigenvalues not converged
     c_bands:  1 eigenvalues not converged
     c_bands:  2 eigenvalues not converged
     c_bands:  1 eigenvalues not converged
     c_bands:  1 eigenvalues not converged
     c_bands:  3 eigenvalues not converged
     c_bands:  1 eigenvalues not converged
     c_bands:  1 eigenvalues not converged
     c_bands:  1 eigenvalues not converged
     c_bands:  1 eigenvalues not converged
     c_bands:  1 eigenvalues not converged
     c_bands:  1 eigenvalues not converged
     c_bands:  1 eigenvalues not converged
     c_bands:  1 eigenvalues not converged
     c_bands:  2 eigenvalues not converged
     c_bands:  1 eigenvalues not converged
     c_bands:  1 eigenvalues not converged
     c_bands:  1 eigenvalues not converged
     c_bands:  1 eigenvalues not converged
     c_bands:  1 eigenvalues not converged
     c_bands:  1 eigenvalues not converged
     c_bands:  1 eigenvalues not converged
     c_bands:  1 eigenvalues not converged
     c_bands:  1 eigenvalues not converged
     c_bands:  1 eigenvalues not converged
     c_bands:  1 eigenvalues not converged
     c_bands:  1 eigenvalues not converged
     c_bands:  1 eigenvalues not converged
     c_bands:  1 eigenvalues not converged
     c_bands:  1 eigenvalues not converged
     c_bands:  1 eigenvalues not converged
     c_bands:  1 eigenvalues not converged
     c_bands:  1 eigenvalues not converged
     c_bands:  2 eigenvalues not converged
     c_bands:  1 eigenvalues not converged
     c_bands:  1 eigenvalues not converged
     c_bands:  1 eigenvalues not converged
     c_bands:  1 eigenvalues not converged
     c_bands:  2 eigenvalues not converged
     c_bands:  2 eigenvalues not converged
     c_bands:  1 eigenvalues not converged
     c_bands:  1 eigenvalues not converged
     c_bands:  1 eigenvalues not converged
     c_bands:  1 eigenvalues not converged
     c_bands:  1 eigenvalues not converged
     c_bands:  2 eigenvalues not converged
     c_bands:  1 eigenvalues not converged
     c_bands:  3 eigenvalues not converged
     c_bands:  1 eigenvalues not converged
     c_bands:  1 eigenvalues not converged
     c_bands:  1 eigenvalues not converged
     c_bands:  1 eigenvalues not converged
     c_bands:  1 eigenvalues not converged
     c_bands:  1 eigenvalues not converged
     c_bands:  1 eigenvalues not converged
     c_bands:  1 eigenvalues not converged
     c_bands:  1 eigenvalues not converged
     c_bands:  1 eigenvalues not converged
     c_bands:  1 eigenvalues not converged
     c_bands:  1 eigenvalues not converged
     c_bands:  2 eigenvalues not converged
     c_bands:  2 eigenvalues not converged
     c_bands:  1 eigenvalues not converged
     c_bands:  1 eigenvalues not converged
     c_bands:  1 eigenvalues not converged
     c_bands:  1 eigenvalues not converged
     c_bands:  1 eigenvalues not converged
     c_bands:  1 eigenvalues not converged
     c_bands:  1 eigenvalues not converged
     c_bands:  1 eigenvalues not converged
     c_bands:  1 eigenvalues not converged
     c_bands:  1 eigenvalues not converged
     c_bands:  1 eigenvalues not converged
     c_bands:  1 eigenvalues not converged
     c_bands:  2 eigenvalues not converged
     c_bands:  1 eigenvalues not converged
     c_bands:  1 eigenvalues not converged
     c_bands:  1 eigenvalues not converged
     c_bands:  1 eigenvalues not converged
     c_bands:  1 eigenvalues not converged
     c_bands:  1 eigenvalues not converged
     c_bands:  1 eigenvalues not converged
     c_bands:  1 eigenvalues not converged
     c_bands:  1 eigenvalues not converged
     c_bands:  1 eigenvalues not converged
     c_bands:  4 eigenvalues not converged
     c_bands:  2 eigenvalues not converged
     c_bands:  3 eigenvalues not converged
     c_bands:  1 eigenvalues not converged
     c_bands:  1 eigenvalues not converged
     c_bands:  2 eigenvalues not converged
     c_bands:  1 eigenvalues not converged
     c_bands:  1 eigenvalues not converged
     c_bands:  1 eigenvalues not converged
     c_bands:  1 eigenvalues not converged
     c_bands:  1 eigenvalues not converged
     c_bands:  1 eigenvalues not converged
     c_bands:  1 eigenvalues not converged
     c_bands:  1 eigenvalues not converged
     c_bands:  2 eigenvalues not converged
     c_bands:  1 eigenvalues not converged
     c_bands:  1 eigenvalues not converged
     c_bands:  1 eigenvalues not converged
     c_bands:  1 eigenvalues not converged
     c_bands:  1 eigenvalues not converged
     c_bands:  1 eigenvalues not converged
     c_bands:  1 eigenvalues not converged
     c_bands:  1 eigenvalues not converged
     c_bands:  1 eigenvalues not converged
     c_bands:  1 eigenvalues not converged
     c_bands:  1 eigenvalues not converged
     c_bands:  1 eigenvalues not converged
     c_bands:  1 eigenvalues not converged
     c_bands:  1 eigenvalues not converged
     c_bands:  1 eigenvalues not converged
     c_bands:  1 eigenvalues not converged
     c_bands:  1 eigenvalues not converged
     c_bands:  1 eigenvalues not converged
     c_bands:  1 eigenvalues not converged
     c_bands:  1 eigenvalues not converged
     c_bands:  1 eigenvalues not converged
     c_bands:  1 eigenvalues not converged
     c_bands:  1 eigenvalues not converged
     c_bands:  1 eigenvalues not converged
     c_bands:  1 eigenvalues not converged
     c_bands:  1 eigenvalues not converged
     c_bands:  1 eigenvalues not converged
     c_bands:  2 eigenvalues not converged
     c_bands:  1 eigenvalues not converged
     c_bands:  1 eigenvalues not converged
     c_bands:  1 eigenvalues not converged
     c_bands:  1 eigenvalues not converged
     c_bands:  1 eigenvalues not converged
     c_bands:  2 eigenvalues not converged
     c_bands:  1 eigenvalues not converged
     c_bands:  1 eigenvalues not converged
     c_bands:  1 eigenvalues not converged
     c_bands:  1 eigenvalues not converged
     c_bands:  1 eigenvalues not converged
     c_bands:  1 eigenvalues not converged
     c_bands:  1 eigenvalues not converged
     c_bands:  2 eigenvalues not converged
     c_bands:  1 eigenvalues not converged
     c_bands:  1 eigenvalues not converged
     c_bands:  1 eigenvalues not converged
     c_bands:  1 eigenvalues not converged
     c_bands:  1 eigenvalues not converged
     c_bands:  1 eigenvalues not converged
     c_bands:  1 eigenvalues not converged
     c_bands:  1 eigenvalues not converged
     c_bands:  1 eigenvalues not converged
     c_bands:  1 eigenvalues not converged
     c_bands:  1 eigenvalues not converged
     c_bands:  2 eigenvalues not converged
     c_bands:  1 eigenvalues not converged
     c_bands:  1 eigenvalues not converged
     c_bands:  2 eigenvalues not converged
     c_bands:  1 eigenvalues not converged
     c_bands:  1 eigenvalues not converged
     c_bands:  1 eigenvalues not converged
     c_bands:  1 eigenvalues not converged
     c_bands:  1 eigenvalues not converged
     c_bands:  1 eigenvalues not converged
     c_bands:  1 eigenvalues not converged
     c_bands:  1 eigenvalues not converged
     c_bands:  1 eigenvalues not converged
     c_bands:  1 eigenvalues not converged
     c_bands:  2 eigenvalues not converged
     c_bands:  1 eigenvalues not converged
     c_bands:  1 eigenvalues not converged
     c_bands:  1 eigenvalues not converged
     c_bands:  1 eigenvalues not converged
     c_bands:  1 eigenvalues not converged
     c_bands:  1 eigenvalues not converged
     c_bands:  1 eigenvalues not converged
     c_bands:  1 eigenvalues not converged
     c_bands:  1 eigenvalues not converged
     c_bands:  1 eigenvalues not converged
     c_bands:  1 eigenvalues not converged
     c_bands:  1 eigenvalues not converged
     c_bands:  1 eigenvalues not converged
     c_bands:  1 eigenvalues not converged
     c_bands:  1 eigenvalues not converged
     c_bands:  1 eigenvalues not converged
     c_bands:  1 eigenvalues not converged
     c_bands:  1 eigenvalues not converged
     c_bands:  2 eigenvalues not converged
     c_bands:  1 eigenvalues not converged
     c_bands:  1 eigenvalues not converged
     c_bands:  1 eigenvalues not converged
     c_bands:  1 eigenvalues not converged
     c_bands:  1 eigenvalues not converged
     c_bands:  2 eigenvalues not converged
     c_bands:  1 eigenvalues not converged
     c_bands:  1 eigenvalues not converged
     c_bands:  1 eigenvalues not converged
     c_bands:  1 eigenvalues not converged
     c_bands:  1 eigenvalues not converged
     c_bands:  1 eigenvalues not converged
     c_bands:  1 eigenvalues not converged
     c_bands:  1 eigenvalues not converged
     c_bands:  1 eigenvalues not converged
     c_bands:  1 eigenvalues not converged
     c_bands:  1 eigenvalues not converged
     c_bands:  2 eigenvalues not converged
     c_bands:  1 eigenvalues not converged
     c_bands:  1 eigenvalues not converged
     c_bands:  2 eigenvalues not converged
     c_bands:  1 eigenvalues not converged
     c_bands:  1 eigenvalues not converged
     c_bands:  1 eigenvalues not converged
     c_bands:  1 eigenvalues not converged
     c_bands:  1 eigenvalues not converged
     c_bands:  1 eigenvalues not converged
     c_bands:  1 eigenvalues not converged
     c_bands:  2 eigenvalues not converged
     c_bands:  1 eigenvalues not converged
     c_bands:  1 eigenvalues not converged
     c_bands:  1 eigenvalues not converged
     c_bands:  1 eigenvalues not converged
     c_bands:  1 eigenvalues not converged
     c_bands:  1 eigenvalues not converged
     c_bands:  1 eigenvalues not converged
     c_bands:  1 eigenvalues not converged
     c_bands:  1 eigenvalues not converged
     c_bands:  1 eigenvalues not converged
     c_bands:  1 eigenvalues not converged
     c_bands:  1 eigenvalues not converged
     c_bands:  1 eigenvalues not converged
     c_bands:  1 eigenvalues not converged
     c_bands:  1 eigenvalues not converged
     c_bands:  1 eigenvalues not converged
     c_bands:  2 eigenvalues not converged
     c_bands:  1 eigenvalues not converged
     c_bands:  2 eigenvalues not converged
     c_bands:  1 eigenvalues not converged
     c_bands:  1 eigenvalues not converged
     c_bands:  1 eigenvalues not converged
     c_bands:  1 eigenvalues not converged
     c_bands:  1 eigenvalues not converged
     c_bands:  2 eigenvalues not converged
     c_bands:  1 eigenvalues not converged
     c_bands:  2 eigenvalues not converged
     c_bands:  1 eigenvalues not converged
     c_bands:  1 eigenvalues not converged
     c_bands:  1 eigenvalues not converged
     c_bands:  1 eigenvalues not converged
     c_bands:  1 eigenvalues not converged
     c_bands:  1 eigenvalues not converged
     c_bands:  1 eigenvalues not converged
     c_bands:  1 eigenvalues not converged
     c_bands:  1 eigenvalues not converged
     c_bands:  1 eigenvalues not converged
     c_bands:  1 eigenvalues not converged
     c_bands:  1 eigenvalues not converged
     c_bands:  1 eigenvalues not converged
     c_bands:  1 eigenvalues not converged
     c_bands:  1 eigenvalues not converged
     c_bands:  1 eigenvalues not converged
     c_bands:  1 eigenvalues not converged
     c_bands:  1 eigenvalues not converged
     c_bands:  1 eigenvalues not converged
     c_bands:  1 eigenvalues not converged
     c_bands:  2 eigenvalues not converged
     c_bands:  1 eigenvalues not converged
     c_bands:  1 eigenvalues not converged
     c_bands:  1 eigenvalues not converged
     c_bands:  1 eigenvalues not converged
     c_bands:  1 eigenvalues not converged
     c_bands:  1 eigenvalues not converged
     c_bands:  2 eigenvalues not converged
     c_bands:  1 eigenvalues not converged
     c_bands:  1 eigenvalues not converged
     c_bands:  1 eigenvalues not converged
     c_bands:  1 eigenvalues not converged
     c_bands:  1 eigenvalues not converged
     c_bands:  1 eigenvalues not converged
     c_bands:  2 eigenvalues not converged
     c_bands:  1 eigenvalues not converged
     c_bands:  2 eigenvalues not converged
     c_bands:  1 eigenvalues not converged
     c_bands:  1 eigenvalues not converged
     c_bands:  1 eigenvalues not converged
     c_bands:  1 eigenvalues not converged
     c_bands:  1 eigenvalues not converged
     c_bands:  1 eigenvalues not converged
     c_bands:  1 eigenvalues not converged
     c_bands:  1 eigenvalues not converged
     c_bands:  1 eigenvalues not converged
     c_bands:  1 eigenvalues not converged
     c_bands:  1 eigenvalues not converged
     c_bands:  1 eigenvalues not converged
     c_bands:  1 eigenvalues not converged
     c_bands:  1 eigenvalues not converged
     c_bands:  1 eigenvalues not converged
     c_bands:  1 eigenvalues not converged
     c_bands:  1 eigenvalues not converged
     c_bands:  1 eigenvalues not converged
     c_bands:  1 eigenvalues not converged
     c_bands:  1 eigenvalues not converged
     c_bands:  1 eigenvalues not converged
     c_bands:  1 eigenvalues not converged
     c_bands:  1 eigenvalues not converged
     c_bands:  1 eigenvalues not converged
     c_bands:  1 eigenvalues not converged
     c_bands:  1 eigenvalues not converged
     c_bands:  1 eigenvalues not converged
     c_bands:  1 eigenvalues not converged
     c_bands:  1 eigenvalues not converged
     c_bands:  1 eigenvalues not converged
     c_bands:  1 eigenvalues not converged
     c_bands:  1 eigenvalues not converged
     c_bands:  1 eigenvalues not converged
     c_bands:  1 eigenvalues not converged
     c_bands:  1 eigenvalues not converged
     c_bands:  1 eigenvalues not converged
     c_bands:  1 eigenvalues not converged
     c_bands:  2 eigenvalues not converged
     c_bands:  1 eigenvalues not converged
     c_bands:  1 eigenvalues not converged
     c_bands:  2 eigenvalues not converged
     c_bands:  1 eigenvalues not converged
     c_bands:  1 eigenvalues not converged
     c_bands:  1 eigenvalues not converged
     c_bands:  2 eigenvalues not converged
     c_bands:  1 eigenvalues not converged
     c_bands:  1 eigenvalues not converged
     c_bands:  1 eigenvalues not converged
     c_bands:  1 eigenvalues not converged
     c_bands:  1 eigenvalues not converged
     c_bands:  1 eigenvalues not converged
     c_bands:  1 eigenvalues not converged
     c_bands:  1 eigenvalues not converged
     c_bands:  1 eigenvalues not converged
     c_bands:  1 eigenvalues not converged
     c_bands:  1 eigenvalues not converged
     c_bands:  1 eigenvalues not converged
     c_bands:  1 eigenvalues not converged
     c_bands:  1 eigenvalues not converged
     c_bands:  1 eigenvalues not converged
     c_bands:  1 eigenvalues not converged
     c_bands:  2 eigenvalues not converged
     c_bands:  1 eigenvalues not converged
     c_bands:  1 eigenvalues not converged
     c_bands:  1 eigenvalues not converged
     c_bands:  1 eigenvalues not converged
     c_bands:  1 eigenvalues not converged
     c_bands:  1 eigenvalues not converged
     c_bands:  1 eigenvalues not converged
     c_bands:  1 eigenvalues not converged
     c_bands:  1 eigenvalues not converged
     c_bands:  1 eigenvalues not converged
     c_bands:  1 eigenvalues not converged
     c_bands:  1 eigenvalues not converged
     c_bands:  2 eigenvalues not converged
     c_bands:  1 eigenvalues not converged
     c_bands:  2 eigenvalues not converged
     c_bands:  1 eigenvalues not converged
     c_bands:  1 eigenvalues not converged
     c_bands:  1 eigenvalues not converged
     c_bands:  2 eigenvalues not converged
     c_bands:  1 eigenvalues not converged
     c_bands:  1 eigenvalues not converged
     c_bands:  1 eigenvalues not converged
     c_bands:  2 eigenvalues not converged
     c_bands:  1 eigenvalues not converged
     c_bands:  1 eigenvalues not converged
     c_bands:  1 eigenvalues not converged
     c_bands:  1 eigenvalues not converged
     c_bands:  1 eigenvalues not converged
     c_bands:  1 eigenvalues not converged
     c_bands:  1 eigenvalues not converged
     c_bands:  1 eigenvalues not converged
     c_bands:  1 eigenvalues not converged
     c_bands:  1 eigenvalues not converged
     c_bands:  1 eigenvalues not converged
     c_bands:  1 eigenvalues not converged
     c_bands:  1 eigenvalues not converged
     c_bands:  1 eigenvalues not converged
     c_bands:  1 eigenvalues not converged
     c_bands:  1 eigenvalues not converged
     c_bands:  2 eigenvalues not converged
     c_bands:  1 eigenvalues not converged
     c_bands:  1 eigenvalues not converged
     c_bands:  1 eigenvalues not converged
     c_bands:  2 eigenvalues not converged
     c_bands:  1 eigenvalues not converged
     c_bands:  2 eigenvalues not converged
     c_bands:  1 eigenvalues not converged
     c_bands:  1 eigenvalues not converged
     c_bands:  1 eigenvalues not converged
     c_bands:  1 eigenvalues not converged
     c_bands:  1 eigenvalues not converged
     c_bands:  1 eigenvalues not converged
     c_bands:  2 eigenvalues not converged
     c_bands:  1 eigenvalues not converged
     c_bands:  1 eigenvalues not converged
     c_bands:  1 eigenvalues not converged
     c_bands:  1 eigenvalues not converged
     c_bands:  2 eigenvalues not converged
     c_bands:  2 eigenvalues not converged
     c_bands:  1 eigenvalues not converged
     c_bands:  1 eigenvalues not converged
     c_bands:  1 eigenvalues not converged
     c_bands:  2 eigenvalues not converged
     c_bands:  1 eigenvalues not converged
     c_bands:  2 eigenvalues not converged
     c_bands:  1 eigenvalues not converged
     c_bands:  1 eigenvalues not converged
     c_bands:  1 eigenvalues not converged
     c_bands:  1 eigenvalues not converged
     c_bands:  1 eigenvalues not converged
     c_bands:  1 eigenvalues not converged
     c_bands:  1 eigenvalues not converged
     c_bands:  1 eigenvalues not converged
     c_bands:  1 eigenvalues not converged
     c_bands:  1 eigenvalues not converged
     c_bands:  1 eigenvalues not converged
     c_bands:  1 eigenvalues not converged
     c_bands:  1 eigenvalues not converged
     c_bands:  1 eigenvalues not converged
     c_bands:  1 eigenvalues not converged
     c_bands:  1 eigenvalues not converged
     c_bands:  1 eigenvalues not converged
     c_bands:  1 eigenvalues not converged
     c_bands:  1 eigenvalues not converged
     c_bands:  1 eigenvalues not converged
     c_bands:  1 eigenvalues not converged
     c_bands:  1 eigenvalues not converged
     c_bands:  1 eigenvalues not converged
     c_bands:  1 eigenvalues not converged
     c_bands:  1 eigenvalues not converged
     c_bands:  1 eigenvalues not converged
     c_bands:  1 eigenvalues not converged
     c_bands:  1 eigenvalues not converged
     c_bands:  1 eigenvalues not converged
     c_bands:  1 eigenvalues not converged
     c_bands:  1 eigenvalues not converged
     c_bands:  1 eigenvalues not converged
     c_bands:  1 eigenvalues not converged
     c_bands:  1 eigenvalues not converged
     c_bands:  1 eigenvalues not converged
     c_bands:  1 eigenvalues not converged
     c_bands:  2 eigenvalues not converged
     c_bands:  2 eigenvalues not converged
     c_bands:  1 eigenvalues not converged
     c_bands:  1 eigenvalues not converged
     c_bands:  1 eigenvalues not converged
     c_bands:  1 eigenvalues not converged
     c_bands:  2 eigenvalues not converged
     c_bands:  1 eigenvalues not converged
     c_bands:  1 eigenvalues not converged
     c_bands:  1 eigenvalues not converged
     c_bands:  2 eigenvalues not converged
     c_bands:  1 eigenvalues not converged
     c_bands:  1 eigenvalues not converged
     c_bands:  1 eigenvalues not converged
     c_bands:  1 eigenvalues not converged
     c_bands:  1 eigenvalues not converged
     c_bands:  3 eigenvalues not converged
     c_bands:  1 eigenvalues not converged
     c_bands:  2 eigenvalues not converged
     c_bands:  1 eigenvalues not converged
     c_bands:  1 eigenvalues not converged
     c_bands:  1 eigenvalues not converged
     c_bands:  1 eigenvalues not converged
     c_bands:  1 eigenvalues not converged
     c_bands:  1 eigenvalues not converged
     c_bands:  1 eigenvalues not converged
     c_bands:  1 eigenvalues not converged
     ethr =  2.15E-04,  avg # of iterations =  3.6

     negative rho (up, down):  2.086E-03 1.716E-03

     total cpu time spent up to now is    21369.5 secs

     total energy              =   -3114.48347741 Ry
     estimated scf accuracy    <       0.12690859 Ry

     total magnetization       =     5.68 Bohr mag/cell
     absolute magnetization    =     7.15 Bohr mag/cell

     iteration #  6     ecut=   124.00 Ry     beta= 0.20
     CG style diagonalization

---- Real-time Memory Report at c_bands before calling an iterative solver
          5200 MiB given to the printing process from OS
          4943 MiB allocation reported by mallinfo(arena+hblkhd)
        146296 MiB available memory on the node where the printing process lives
------------------
     c_bands:  1 eigenvalues not converged
     c_bands:  1 eigenvalues not converged
     c_bands:  1 eigenvalues not converged
     c_bands:  2 eigenvalues not converged
     c_bands:  1 eigenvalues not converged
     c_bands:  2 eigenvalues not converged
     c_bands:  1 eigenvalues not converged
     c_bands:  2 eigenvalues not converged
     c_bands:  1 eigenvalues not converged
     c_bands:  1 eigenvalues not converged
     c_bands:  1 eigenvalues not converged
     c_bands:  1 eigenvalues not converged
     c_bands:  1 eigenvalues not converged
     c_bands:  1 eigenvalues not converged
     c_bands:  2 eigenvalues not converged
     c_bands:  1 eigenvalues not converged
     c_bands:  1 eigenvalues not converged
     c_bands:  1 eigenvalues not converged
     c_bands:  2 eigenvalues not converged
     c_bands:  2 eigenvalues not converged
     c_bands:  1 eigenvalues not converged
     c_bands:  1 eigenvalues not converged
     c_bands:  2 eigenvalues not converged
     c_bands:  2 eigenvalues not converged
     c_bands:  1 eigenvalues not converged
     c_bands:  1 eigenvalues not converged
     c_bands:  1 eigenvalues not converged
     c_bands:  1 eigenvalues not converged
     c_bands:  3 eigenvalues not converged
     c_bands:  1 eigenvalues not converged
     c_bands:  1 eigenvalues not converged
     c_bands:  1 eigenvalues not converged
     c_bands:  2 eigenvalues not converged
     c_bands:  1 eigenvalues not converged
     c_bands:  1 eigenvalues not converged
     c_bands:  1 eigenvalues not converged
     c_bands:  2 eigenvalues not converged
     c_bands:  1 eigenvalues not converged
     c_bands:  1 eigenvalues not converged
     c_bands:  1 eigenvalues not converged
     c_bands:  1 eigenvalues not converged
     c_bands:  1 eigenvalues not converged
     c_bands:  1 eigenvalues not converged
     c_bands:  1 eigenvalues not converged
     c_bands:  1 eigenvalues not converged
     c_bands:  1 eigenvalues not converged
     c_bands:  1 eigenvalues not converged
     c_bands:  1 eigenvalues not converged
     c_bands:  1 eigenvalues not converged
     c_bands:  1 eigenvalues not converged
     c_bands:  1 eigenvalues not converged
     c_bands:  1 eigenvalues not converged
     c_bands:  2 eigenvalues not converged
     c_bands:  1 eigenvalues not converged
     c_bands:  1 eigenvalues not converged
     c_bands:  1 eigenvalues not converged
     c_bands:  1 eigenvalues not converged
     c_bands:  1 eigenvalues not converged
     c_bands:  1 eigenvalues not converged
     c_bands:  2 eigenvalues not converged
     c_bands:  1 eigenvalues not converged
     c_bands:  1 eigenvalues not converged
     c_bands:  1 eigenvalues not converged
     c_bands:  2 eigenvalues not converged
     c_bands:  1 eigenvalues not converged
     c_bands:  1 eigenvalues not converged
     c_bands:  2 eigenvalues not converged
     c_bands:  1 eigenvalues not converged
     c_bands:  2 eigenvalues not converged
     c_bands:  2 eigenvalues not converged
     c_bands:  2 eigenvalues not converged
     c_bands:  1 eigenvalues not converged
     c_bands:  1 eigenvalues not converged
     c_bands:  2 eigenvalues not converged
     c_bands:  1 eigenvalues not converged
     c_bands:  1 eigenvalues not converged
     c_bands:  1 eigenvalues not converged
     c_bands:  1 eigenvalues not converged
     c_bands:  4 eigenvalues not converged
     c_bands:  1 eigenvalues not converged
     c_bands:  1 eigenvalues not converged
     c_bands:  1 eigenvalues not converged
     c_bands:  1 eigenvalues not converged
     c_bands:  1 eigenvalues not converged
     c_bands:  1 eigenvalues not converged
     c_bands:  1 eigenvalues not converged
     c_bands:  1 eigenvalues not converged
     c_bands:  1 eigenvalues not converged
     c_bands:  1 eigenvalues not converged
     c_bands:  1 eigenvalues not converged
     c_bands:  3 eigenvalues not converged
     c_bands:  2 eigenvalues not converged
     c_bands:  1 eigenvalues not converged
     c_bands:  2 eigenvalues not converged
     c_bands:  1 eigenvalues not converged
     c_bands:  1 eigenvalues not converged
     c_bands:  1 eigenvalues not converged
     c_bands:  2 eigenvalues not converged
     c_bands:  1 eigenvalues not converged
     c_bands:  1 eigenvalues not converged
     c_bands:  1 eigenvalues not converged
     c_bands:  1 eigenvalues not converged
     c_bands:  1 eigenvalues not converged
     c_bands:  1 eigenvalues not converged
     c_bands:  1 eigenvalues not converged
     c_bands:  1 eigenvalues not converged
     c_bands:  1 eigenvalues not converged
     c_bands:  1 eigenvalues not converged
     c_bands:  1 eigenvalues not converged
     c_bands:  1 eigenvalues not converged
     c_bands:  1 eigenvalues not converged
     c_bands:  1 eigenvalues not converged
     c_bands:  1 eigenvalues not converged
     c_bands:  1 eigenvalues not converged
     c_bands:  1 eigenvalues not converged
     c_bands:  2 eigenvalues not converged
     c_bands:  2 eigenvalues not converged
     c_bands:  2 eigenvalues not converged
     c_bands:  1 eigenvalues not converged
     c_bands:  1 eigenvalues not converged
     c_bands:  1 eigenvalues not converged
     c_bands:  1 eigenvalues not converged
     c_bands:  2 eigenvalues not converged
     c_bands:  1 eigenvalues not converged
     c_bands:  1 eigenvalues not converged
     c_bands:  1 eigenvalues not converged
     c_bands:  1 eigenvalues not converged
     c_bands:  1 eigenvalues not converged
     c_bands:  1 eigenvalues not converged
     c_bands:  1 eigenvalues not converged
     c_bands:  1 eigenvalues not converged
     c_bands:  1 eigenvalues not converged
     c_bands:  1 eigenvalues not converged
     c_bands:  1 eigenvalues not converged
     c_bands:  1 eigenvalues not converged
     c_bands:  1 eigenvalues not converged
     c_bands:  1 eigenvalues not converged
     c_bands:  1 eigenvalues not converged
     c_bands:  1 eigenvalues not converged
     c_bands:  2 eigenvalues not converged
     c_bands:  1 eigenvalues not converged
     c_bands:  1 eigenvalues not converged
     c_bands:  1 eigenvalues not converged
     c_bands:  1 eigenvalues not converged
     c_bands:  1 eigenvalues not converged
     c_bands:  1 eigenvalues not converged
     c_bands:  2 eigenvalues not converged
     c_bands:  1 eigenvalues not converged
     c_bands:  1 eigenvalues not converged
     c_bands:  1 eigenvalues not converged
     c_bands:  1 eigenvalues not converged
     c_bands:  1 eigenvalues not converged
     c_bands:  1 eigenvalues not converged
     c_bands:  1 eigenvalues not converged
     c_bands:  1 eigenvalues not converged
     c_bands:  1 eigenvalues not converged
     c_bands:  1 eigenvalues not converged
     c_bands:  1 eigenvalues not converged
     c_bands:  1 eigenvalues not converged
     c_bands:  1 eigenvalues not converged
     c_bands:  1 eigenvalues not converged
     c_bands:  1 eigenvalues not converged
     c_bands:  2 eigenvalues not converged
     c_bands:  2 eigenvalues not converged
     c_bands:  1 eigenvalues not converged
     c_bands:  1 eigenvalues not converged
     c_bands:  1 eigenvalues not converged
     c_bands:  1 eigenvalues not converged
     c_bands:  2 eigenvalues not converged
     c_bands:  1 eigenvalues not converged
     c_bands:  1 eigenvalues not converged
     c_bands:  1 eigenvalues not converged
     c_bands:  1 eigenvalues not converged
     c_bands:  1 eigenvalues not converged
     c_bands:  2 eigenvalues not converged
     c_bands:  1 eigenvalues not converged
     c_bands:  1 eigenvalues not converged
     c_bands:  1 eigenvalues not converged
     c_bands:  1 eigenvalues not converged
     c_bands:  2 eigenvalues not converged
     c_bands:  2 eigenvalues not converged
     c_bands:  1 eigenvalues not converged
     c_bands:  1 eigenvalues not converged
     c_bands:  1 eigenvalues not converged
     c_bands:  1 eigenvalues not converged
     c_bands:  1 eigenvalues not converged
     c_bands:  1 eigenvalues not converged
     c_bands:  2 eigenvalues not converged
     c_bands:  1 eigenvalues not converged
     c_bands:  1 eigenvalues not converged
     c_bands:  1 eigenvalues not converged
     c_bands:  3 eigenvalues not converged
     c_bands:  3 eigenvalues not converged
     c_bands:  2 eigenvalues not converged
     c_bands:  1 eigenvalues not converged
     c_bands:  4 eigenvalues not converged
     c_bands:  1 eigenvalues not converged
     c_bands:  1 eigenvalues not converged
     c_bands:  1 eigenvalues not converged
     c_bands:  1 eigenvalues not converged
     c_bands:  1 eigenvalues not converged
     c_bands:  1 eigenvalues not converged
     c_bands:  1 eigenvalues not converged
     c_bands:  1 eigenvalues not converged
     c_bands:  2 eigenvalues not converged
     c_bands:  1 eigenvalues not converged
     c_bands:  1 eigenvalues not converged
     c_bands:  2 eigenvalues not converged
     c_bands:  1 eigenvalues not converged
     c_bands:  1 eigenvalues not converged
     c_bands:  1 eigenvalues not converged
     c_bands:  1 eigenvalues not converged
     c_bands:  2 eigenvalues not converged
     c_bands:  2 eigenvalues not converged
     c_bands:  1 eigenvalues not converged
     c_bands:  1 eigenvalues not converged
     c_bands:  1 eigenvalues not converged
     c_bands:  1 eigenvalues not converged
     c_bands:  1 eigenvalues not converged
     c_bands:  1 eigenvalues not converged
     c_bands:  1 eigenvalues not converged
     c_bands:  1 eigenvalues not converged
     c_bands:  1 eigenvalues not converged
     c_bands:  2 eigenvalues not converged
     c_bands:  1 eigenvalues not converged
     c_bands:  2 eigenvalues not converged
     c_bands:  1 eigenvalues not converged
     c_bands:  1 eigenvalues not converged
     c_bands:  1 eigenvalues not converged
     c_bands:  1 eigenvalues not converged
     c_bands:  1 eigenvalues not converged
     c_bands:  1 eigenvalues not converged
     c_bands:  1 eigenvalues not converged
     c_bands:  2 eigenvalues not converged
     c_bands:  1 eigenvalues not converged
     c_bands:  1 eigenvalues not converged
     c_bands:  2 eigenvalues not converged
     c_bands:  1 eigenvalues not converged
     c_bands:  1 eigenvalues not converged
     c_bands:  3 eigenvalues not converged
     c_bands:  2 eigenvalues not converged
     c_bands:  2 eigenvalues not converged
     c_bands:  1 eigenvalues not converged
     c_bands:  1 eigenvalues not converged
     c_bands:  1 eigenvalues not converged
     c_bands:  1 eigenvalues not converged
     c_bands:  1 eigenvalues not converged
     c_bands:  1 eigenvalues not converged
     c_bands:  1 eigenvalues not converged
     c_bands:  1 eigenvalues not converged
     c_bands:  1 eigenvalues not converged
     c_bands:  1 eigenvalues not converged
     c_bands:  2 eigenvalues not converged
     c_bands:  1 eigenvalues not converged
     c_bands:  2 eigenvalues not converged
     c_bands:  1 eigenvalues not converged
     c_bands:  3 eigenvalues not converged
     c_bands:  1 eigenvalues not converged
     c_bands:  2 eigenvalues not converged
     c_bands:  1 eigenvalues not converged
     c_bands:  1 eigenvalues not converged
     c_bands:  1 eigenvalues not converged
     c_bands:  1 eigenvalues not converged
     c_bands:  2 eigenvalues not converged
     c_bands:  1 eigenvalues not converged
     c_bands:  1 eigenvalues not converged
     c_bands:  1 eigenvalues not converged
     c_bands:  2 eigenvalues not converged
     c_bands:  2 eigenvalues not converged
     c_bands:  1 eigenvalues not converged
     c_bands:  1 eigenvalues not converged
     c_bands:  1 eigenvalues not converged
     c_bands:  1 eigenvalues not converged
     c_bands:  1 eigenvalues not converged
     c_bands:  1 eigenvalues not converged
     c_bands:  2 eigenvalues not converged
     c_bands:  1 eigenvalues not converged
     c_bands:  2 eigenvalues not converged
     c_bands:  1 eigenvalues not converged
     c_bands:  1 eigenvalues not converged
     c_bands:  2 eigenvalues not converged
     c_bands:  1 eigenvalues not converged
     c_bands:  3 eigenvalues not converged
     c_bands:  2 eigenvalues not converged
     c_bands:  1 eigenvalues not converged
     c_bands:  2 eigenvalues not converged
     c_bands:  1 eigenvalues not converged
     c_bands:  2 eigenvalues not converged
     c_bands:  1 eigenvalues not converged
     c_bands:  2 eigenvalues not converged
     c_bands:  1 eigenvalues not converged
     c_bands:  1 eigenvalues not converged
     c_bands:  1 eigenvalues not converged
     c_bands:  1 eigenvalues not converged
     c_bands:  1 eigenvalues not converged
     c_bands:  1 eigenvalues not converged
     c_bands:  1 eigenvalues not converged
     c_bands:  1 eigenvalues not converged
     c_bands:  2 eigenvalues not converged
     c_bands:  1 eigenvalues not converged
     c_bands:  1 eigenvalues not converged
     c_bands:  3 eigenvalues not converged
     c_bands:  2 eigenvalues not converged
     c_bands:  1 eigenvalues not converged
     c_bands:  1 eigenvalues not converged
     c_bands:  1 eigenvalues not converged
     c_bands:  1 eigenvalues not converged
     c_bands:  1 eigenvalues not converged
     c_bands:  2 eigenvalues not converged
     c_bands:  1 eigenvalues not converged
     c_bands:  1 eigenvalues not converged
     c_bands:  1 eigenvalues not converged
     c_bands:  2 eigenvalues not converged
     c_bands:  1 eigenvalues not converged
     c_bands:  2 eigenvalues not converged
     c_bands:  1 eigenvalues not converged
     c_bands:  1 eigenvalues not converged
     c_bands:  1 eigenvalues not converged
     c_bands:  1 eigenvalues not converged
     c_bands:  1 eigenvalues not converged
     c_bands:  2 eigenvalues not converged
     c_bands:  1 eigenvalues not converged
     c_bands:  2 eigenvalues not converged
     c_bands:  2 eigenvalues not converged
     c_bands:  3 eigenvalues not converged
     c_bands:  2 eigenvalues not converged
     c_bands:  1 eigenvalues not converged
     c_bands:  1 eigenvalues not converged
     c_bands:  1 eigenvalues not converged
     c_bands:  1 eigenvalues not converged
     c_bands:  1 eigenvalues not converged
     c_bands:  1 eigenvalues not converged
     c_bands:  1 eigenvalues not converged
     c_bands:  1 eigenvalues not converged
     c_bands:  2 eigenvalues not converged
     c_bands:  1 eigenvalues not converged
     c_bands:  1 eigenvalues not converged
     c_bands:  1 eigenvalues not converged
     c_bands:  1 eigenvalues not converged
     c_bands:  2 eigenvalues not converged
     c_bands:  1 eigenvalues not converged
     c_bands:  1 eigenvalues not converged
     c_bands:  1 eigenvalues not converged
     c_bands:  2 eigenvalues not converged
     c_bands:  2 eigenvalues not converged
     c_bands:  1 eigenvalues not converged
     c_bands:  3 eigenvalues not converged
     c_bands:  1 eigenvalues not converged
     c_bands:  1 eigenvalues not converged
     c_bands:  1 eigenvalues not converged
     c_bands:  1 eigenvalues not converged
     c_bands:  2 eigenvalues not converged
     c_bands:  1 eigenvalues not converged
     c_bands:  1 eigenvalues not converged
     c_bands:  1 eigenvalues not converged
     c_bands:  2 eigenvalues not converged
     c_bands:  1 eigenvalues not converged
     c_bands:  2 eigenvalues not converged
     c_bands:  1 eigenvalues not converged
     c_bands:  1 eigenvalues not converged
     c_bands:  1 eigenvalues not converged
     c_bands:  1 eigenvalues not converged
     c_bands:  1 eigenvalues not converged
     c_bands:  2 eigenvalues not converged
     c_bands:  3 eigenvalues not converged
     c_bands:  1 eigenvalues not converged
     c_bands:  1 eigenvalues not converged
     c_bands:  1 eigenvalues not converged
     c_bands:  1 eigenvalues not converged
     c_bands:  1 eigenvalues not converged
     c_bands:  1 eigenvalues not converged
     c_bands:  1 eigenvalues not converged
     c_bands:  1 eigenvalues not converged
     c_bands:  1 eigenvalues not converged
     c_bands:  1 eigenvalues not converged
     c_bands:  1 eigenvalues not converged
     c_bands:  1 eigenvalues not converged
     c_bands:  1 eigenvalues not converged
     c_bands:  2 eigenvalues not converged
     c_bands:  1 eigenvalues not converged
     c_bands:  1 eigenvalues not converged
     c_bands:  1 eigenvalues not converged
     c_bands:  2 eigenvalues not converged
     c_bands:  1 eigenvalues not converged
     c_bands:  2 eigenvalues not converged
     c_bands:  1 eigenvalues not converged
     c_bands:  1 eigenvalues not converged
     c_bands:  1 eigenvalues not converged
     c_bands:  1 eigenvalues not converged
     c_bands:  1 eigenvalues not converged
     c_bands:  1 eigenvalues not converged
     c_bands:  1 eigenvalues not converged
     c_bands:  1 eigenvalues not converged
     c_bands:  1 eigenvalues not converged
     c_bands:  2 eigenvalues not converged
     c_bands:  3 eigenvalues not converged
     c_bands:  1 eigenvalues not converged
     c_bands:  1 eigenvalues not converged
     c_bands:  1 eigenvalues not converged
     c_bands:  1 eigenvalues not converged
     c_bands:  1 eigenvalues not converged
     c_bands:  1 eigenvalues not converged
     c_bands:  1 eigenvalues not converged
     c_bands:  1 eigenvalues not converged
     c_bands:  1 eigenvalues not converged
     c_bands:  1 eigenvalues not converged
     c_bands:  1 eigenvalues not converged
     c_bands:  1 eigenvalues not converged
     c_bands:  1 eigenvalues not converged
     c_bands:  1 eigenvalues not converged
     c_bands:  1 eigenvalues not converged
     c_bands:  1 eigenvalues not converged
     c_bands:  1 eigenvalues not converged
     c_bands:  1 eigenvalues not converged
     c_bands:  1 eigenvalues not converged
     c_bands:  1 eigenvalues not converged
     c_bands:  1 eigenvalues not converged
     c_bands:  1 eigenvalues not converged
     c_bands:  1 eigenvalues not converged
     c_bands:  1 eigenvalues not converged
     c_bands:  1 eigenvalues not converged
     c_bands:  1 eigenvalues not converged
     c_bands:  1 eigenvalues not converged
     c_bands:  2 eigenvalues not converged
     c_bands:  1 eigenvalues not converged
     c_bands:  1 eigenvalues not converged
     c_bands:  1 eigenvalues not converged
     c_bands:  1 eigenvalues not converged
     c_bands:  1 eigenvalues not converged
     c_bands:  1 eigenvalues not converged
     c_bands:  1 eigenvalues not converged
     c_bands:  1 eigenvalues not converged
     c_bands:  1 eigenvalues not converged
     c_bands:  2 eigenvalues not converged
     c_bands:  1 eigenvalues not converged
     c_bands:  1 eigenvalues not converged
     c_bands:  1 eigenvalues not converged
     c_bands:  1 eigenvalues not converged
     c_bands:  1 eigenvalues not converged
     c_bands:  1 eigenvalues not converged
     c_bands:  2 eigenvalues not converged
     c_bands:  1 eigenvalues not converged
     c_bands:  1 eigenvalues not converged
     c_bands:  1 eigenvalues not converged
     c_bands:  1 eigenvalues not converged
     c_bands:  1 eigenvalues not converged
     c_bands:  1 eigenvalues not converged
     c_bands:  1 eigenvalues not converged
     c_bands:  1 eigenvalues not converged
     c_bands:  1 eigenvalues not converged
     c_bands:  1 eigenvalues not converged
     c_bands:  1 eigenvalues not converged
     c_bands:  1 eigenvalues not converged
     c_bands:  1 eigenvalues not converged
     c_bands:  1 eigenvalues not converged
     c_bands:  1 eigenvalues not converged
     c_bands:  1 eigenvalues not converged
     c_bands:  2 eigenvalues not converged
     c_bands:  1 eigenvalues not converged
     c_bands:  1 eigenvalues not converged
     c_bands:  1 eigenvalues not converged
     c_bands:  1 eigenvalues not converged
     c_bands:  1 eigenvalues not converged
     c_bands:  2 eigenvalues not converged
     c_bands:  1 eigenvalues not converged
     c_bands:  1 eigenvalues not converged
     c_bands:  1 eigenvalues not converged
     c_bands:  2 eigenvalues not converged
     c_bands:  1 eigenvalues not converged
     c_bands:  1 eigenvalues not converged
     c_bands:  1 eigenvalues not converged
     c_bands:  1 eigenvalues not converged
     c_bands:  2 eigenvalues not converged
     c_bands:  1 eigenvalues not converged
     c_bands:  1 eigenvalues not converged
     c_bands:  1 eigenvalues not converged
     c_bands:  2 eigenvalues not converged
     c_bands:  2 eigenvalues not converged
     c_bands:  1 eigenvalues not converged
     c_bands:  1 eigenvalues not converged
     c_bands:  2 eigenvalues not converged
     c_bands:  1 eigenvalues not converged
     c_bands:  1 eigenvalues not converged
     c_bands:  2 eigenvalues not converged
     c_bands:  1 eigenvalues not converged
     c_bands:  1 eigenvalues not converged
     c_bands:  1 eigenvalues not converged
     c_bands:  1 eigenvalues not converged
     c_bands:  1 eigenvalues not converged
     c_bands:  1 eigenvalues not converged
     c_bands:  1 eigenvalues not converged
     c_bands:  1 eigenvalues not converged
     c_bands:  1 eigenvalues not converged
     c_bands:  2 eigenvalues not converged
     c_bands:  1 eigenvalues not converged
     c_bands:  2 eigenvalues not converged
     c_bands:  1 eigenvalues not converged
     c_bands:  1 eigenvalues not converged
     c_bands:  1 eigenvalues not converged
     c_bands:  2 eigenvalues not converged
     c_bands:  2 eigenvalues not converged
     c_bands:  1 eigenvalues not converged
     c_bands:  1 eigenvalues not converged
     c_bands:  2 eigenvalues not converged
     c_bands:  1 eigenvalues not converged
     c_bands:  1 eigenvalues not converged
     c_bands:  2 eigenvalues not converged
     c_bands:  1 eigenvalues not converged
     c_bands:  2 eigenvalues not converged
     c_bands:  3 eigenvalues not converged
     c_bands:  2 eigenvalues not converged
     c_bands:  1 eigenvalues not converged
     c_bands:  3 eigenvalues not converged
     c_bands:  3 eigenvalues not converged
     c_bands:  1 eigenvalues not converged
     c_bands:  2 eigenvalues not converged
     c_bands:  1 eigenvalues not converged
     c_bands:  1 eigenvalues not converged
     c_bands:  1 eigenvalues not converged
     c_bands:  1 eigenvalues not converged
     c_bands:  1 eigenvalues not converged
     c_bands:  2 eigenvalues not converged
     c_bands:  1 eigenvalues not converged
     c_bands:  1 eigenvalues not converged
     c_bands:  1 eigenvalues not converged
     c_bands:  1 eigenvalues not converged
     c_bands:  1 eigenvalues not converged
     c_bands:  1 eigenvalues not converged
     c_bands:  1 eigenvalues not converged
     c_bands:  1 eigenvalues not converged
     c_bands:  1 eigenvalues not converged
     c_bands:  1 eigenvalues not converged
     c_bands:  1 eigenvalues not converged
     c_bands:  1 eigenvalues not converged
     c_bands:  1 eigenvalues not converged
     c_bands:  1 eigenvalues not converged
     c_bands:  2 eigenvalues not converged
     c_bands:  1 eigenvalues not converged
     c_bands:  1 eigenvalues not converged
     c_bands:  1 eigenvalues not converged
     c_bands:  1 eigenvalues not converged
     c_bands:  1 eigenvalues not converged
     c_bands:  1 eigenvalues not converged
     c_bands:  1 eigenvalues not converged
     c_bands:  2 eigenvalues not converged
     c_bands:  1 eigenvalues not converged
     c_bands:  1 eigenvalues not converged
     c_bands:  2 eigenvalues not converged
     c_bands:  1 eigenvalues not converged
     c_bands:  1 eigenvalues not converged
     c_bands:  2 eigenvalues not converged
     c_bands:  1 eigenvalues not converged
     c_bands:  2 eigenvalues not converged
     c_bands:  1 eigenvalues not converged
     c_bands:  1 eigenvalues not converged
     c_bands:  1 eigenvalues not converged
     c_bands:  2 eigenvalues not converged
     c_bands:  1 eigenvalues not converged
     c_bands:  1 eigenvalues not converged
     c_bands:  1 eigenvalues not converged
     c_bands:  2 eigenvalues not converged
     c_bands:  3 eigenvalues not converged
     c_bands:  2 eigenvalues not converged
     c_bands:  1 eigenvalues not converged
     c_bands:  1 eigenvalues not converged
     c_bands:  2 eigenvalues not converged
     c_bands:  1 eigenvalues not converged
     c_bands:  1 eigenvalues not converged
     c_bands:  1 eigenvalues not converged
     c_bands:  1 eigenvalues not converged
     c_bands:  2 eigenvalues not converged
     c_bands:  1 eigenvalues not converged
     c_bands:  2 eigenvalues not converged
     c_bands:  2 eigenvalues not converged
     c_bands:  3 eigenvalues not converged
     c_bands:  1 eigenvalues not converged
     c_bands:  1 eigenvalues not converged
     c_bands:  1 eigenvalues not converged
     c_bands:  1 eigenvalues not converged
     c_bands:  2 eigenvalues not converged
     c_bands:  2 eigenvalues not converged
     c_bands:  1 eigenvalues not converged
     c_bands:  1 eigenvalues not converged
     c_bands:  1 eigenvalues not converged
     c_bands:  2 eigenvalues not converged
     c_bands:  3 eigenvalues not converged
     c_bands:  1 eigenvalues not converged
     c_bands:  1 eigenvalues not converged
     c_bands:  2 eigenvalues not converged
     c_bands:  2 eigenvalues not converged
     c_bands:  2 eigenvalues not converged
     c_bands:  2 eigenvalues not converged
     c_bands:  1 eigenvalues not converged
     c_bands:  2 eigenvalues not converged
     c_bands:  1 eigenvalues not converged
     c_bands:  2 eigenvalues not converged
     c_bands:  1 eigenvalues not converged
     c_bands:  1 eigenvalues not converged
     c_bands:  1 eigenvalues not converged
     c_bands:  1 eigenvalues not converged
     c_bands:  1 eigenvalues not converged
     c_bands:  1 eigenvalues not converged
     c_bands:  1 eigenvalues not converged
     c_bands:  1 eigenvalues not converged
     c_bands:  1 eigenvalues not converged
     c_bands:  2 eigenvalues not converged
     c_bands:  2 eigenvalues not converged
     c_bands:  1 eigenvalues not converged
     c_bands:  2 eigenvalues not converged
     c_bands:  1 eigenvalues not converged
     c_bands:  1 eigenvalues not converged
     c_bands:  2 eigenvalues not converged
     c_bands:  2 eigenvalues not converged
     c_bands:  1 eigenvalues not converged
     c_bands:  2 eigenvalues not converged
     c_bands:  1 eigenvalues not converged
     c_bands:  1 eigenvalues not converged
     c_bands:  2 eigenvalues not converged
     c_bands:  1 eigenvalues not converged
     c_bands:  1 eigenvalues not converged
     c_bands:  1 eigenvalues not converged
     c_bands:  3 eigenvalues not converged
     c_bands:  2 eigenvalues not converged
     c_bands:  2 eigenvalues not converged
     c_bands:  1 eigenvalues not converged
     c_bands:  2 eigenvalues not converged
     c_bands:  1 eigenvalues not converged
     ethr =  7.09E-05,  avg # of iterations =  3.7

     negative rho (up, down):  2.058E-03 1.586E-03

     total cpu time spent up to now is    25822.6 secs

     total energy              =   -3114.50507877 Ry
     estimated scf accuracy    <       0.03764900 Ry

     total magnetization       =     5.95 Bohr mag/cell
     absolute magnetization    =     7.63 Bohr mag/cell

     iteration #  7     ecut=   124.00 Ry     beta= 0.20
     CG style diagonalization

---- Real-time Memory Report at c_bands before calling an iterative solver
          5202 MiB given to the printing process from OS
          4944 MiB allocation reported by mallinfo(arena+hblkhd)
        143653 MiB available memory on the node where the printing process lives
------------------
     c_bands:  1 eigenvalues not converged
     c_bands:  1 eigenvalues not converged
     c_bands:  1 eigenvalues not converged
     c_bands:  2 eigenvalues not converged
     c_bands:  1 eigenvalues not converged
     c_bands:  1 eigenvalues not converged
     c_bands:  1 eigenvalues not converged
     c_bands:  1 eigenvalues not converged
     c_bands:  1 eigenvalues not converged
     c_bands:  3 eigenvalues not converged
     c_bands:  1 eigenvalues not converged
     c_bands:  1 eigenvalues not converged
     c_bands:  1 eigenvalues not converged
     c_bands:  1 eigenvalues not converged
     c_bands:  1 eigenvalues not converged
     c_bands:  1 eigenvalues not converged
     c_bands:  1 eigenvalues not converged
     c_bands:  1 eigenvalues not converged
     c_bands:  1 eigenvalues not converged
     c_bands:  2 eigenvalues not converged
     c_bands:  1 eigenvalues not converged
     c_bands:  2 eigenvalues not converged
     c_bands:  1 eigenvalues not converged
     c_bands:  2 eigenvalues not converged
     c_bands:  1 eigenvalues not converged
     c_bands:  1 eigenvalues not converged
     c_bands:  1 eigenvalues not converged
     c_bands:  1 eigenvalues not converged
     c_bands:  2 eigenvalues not converged
     c_bands:  1 eigenvalues not converged
     c_bands:  1 eigenvalues not converged
     c_bands:  1 eigenvalues not converged
     c_bands:  1 eigenvalues not converged
     c_bands:  2 eigenvalues not converged
     c_bands:  1 eigenvalues not converged
     c_bands:  2 eigenvalues not converged
     c_bands:  2 eigenvalues not converged
     c_bands:  1 eigenvalues not converged
     c_bands:  2 eigenvalues not converged
     c_bands:  2 eigenvalues not converged
     c_bands:  1 eigenvalues not converged
     c_bands:  1 eigenvalues not converged
     c_bands:  4 eigenvalues not converged
     c_bands:  2 eigenvalues not converged
     c_bands:  2 eigenvalues not converged
     c_bands:  1 eigenvalues not converged
     c_bands:  2 eigenvalues not converged
     c_bands:  2 eigenvalues not converged
     c_bands:  1 eigenvalues not converged
     c_bands:  2 eigenvalues not converged
     c_bands:  1 eigenvalues not converged
     c_bands:  1 eigenvalues not converged
     c_bands:  2 eigenvalues not converged
     c_bands:  1 eigenvalues not converged
     c_bands:  1 eigenvalues not converged
     c_bands:  1 eigenvalues not converged
     c_bands:  1 eigenvalues not converged
     c_bands:  1 eigenvalues not converged
     c_bands:  1 eigenvalues not converged
     c_bands:  1 eigenvalues not converged
     c_bands:  2 eigenvalues not converged
     c_bands:  1 eigenvalues not converged
     c_bands:  1 eigenvalues not converged
     c_bands:  1 eigenvalues not converged
     c_bands:  4 eigenvalues not converged
     c_bands:  1 eigenvalues not converged
     c_bands:  2 eigenvalues not converged
     c_bands:  1 eigenvalues not converged
     c_bands:  2 eigenvalues not converged
     c_bands:  2 eigenvalues not converged
     c_bands:  3 eigenvalues not converged
     c_bands:  2 eigenvalues not converged
     c_bands:  1 eigenvalues not converged
     c_bands:  2 eigenvalues not converged
     c_bands:  1 eigenvalues not converged
     c_bands:  1 eigenvalues not converged
     c_bands:  2 eigenvalues not converged
     c_bands:  2 eigenvalues not converged
     c_bands:  1 eigenvalues not converged
     c_bands:  1 eigenvalues not converged
     c_bands:  1 eigenvalues not converged
     c_bands:  1 eigenvalues not converged
     c_bands:  1 eigenvalues not converged
     c_bands:  1 eigenvalues not converged
     c_bands:  2 eigenvalues not converged
     c_bands:  1 eigenvalues not converged
     c_bands:  1 eigenvalues not converged
     c_bands:  1 eigenvalues not converged
     c_bands:  2 eigenvalues not converged
     c_bands:  1 eigenvalues not converged
     c_bands:  1 eigenvalues not converged
     c_bands:  2 eigenvalues not converged
     c_bands:  3 eigenvalues not converged
     c_bands:  2 eigenvalues not converged
     c_bands:  1 eigenvalues not converged
     c_bands:  1 eigenvalues not converged
     c_bands:  2 eigenvalues not converged
     c_bands:  1 eigenvalues not converged
     c_bands:  1 eigenvalues not converged
     c_bands:  1 eigenvalues not converged
     c_bands:  1 eigenvalues not converged
     c_bands:  1 eigenvalues not converged
     c_bands:  2 eigenvalues not converged
     c_bands:  1 eigenvalues not converged
     c_bands:  1 eigenvalues not converged
     c_bands:  2 eigenvalues not converged
     c_bands:  1 eigenvalues not converged
     c_bands:  1 eigenvalues not converged
     c_bands:  1 eigenvalues not converged
     c_bands:  2 eigenvalues not converged
     c_bands:  3 eigenvalues not converged
     c_bands:  1 eigenvalues not converged
     c_bands:  1 eigenvalues not converged
     c_bands:  1 eigenvalues not converged
     c_bands:  1 eigenvalues not converged
     c_bands:  1 eigenvalues not converged
     c_bands:  2 eigenvalues not converged
     c_bands:  2 eigenvalues not converged
     c_bands:  1 eigenvalues not converged
     c_bands:  1 eigenvalues not converged
     c_bands:  2 eigenvalues not converged
     c_bands:  1 eigenvalues not converged
     c_bands:  1 eigenvalues not converged
     c_bands:  1 eigenvalues not converged
     c_bands:  1 eigenvalues not converged
     c_bands:  2 eigenvalues not converged
     c_bands:  2 eigenvalues not converged
     c_bands:  1 eigenvalues not converged
     c_bands:  2 eigenvalues not converged
     c_bands:  1 eigenvalues not converged
     c_bands:  1 eigenvalues not converged
     c_bands:  1 eigenvalues not converged
     c_bands:  1 eigenvalues not converged
     c_bands:  2 eigenvalues not converged
     c_bands:  1 eigenvalues not converged
     c_bands:  1 eigenvalues not converged
     c_bands:  3 eigenvalues not converged
     c_bands:  1 eigenvalues not converged
     c_bands:  1 eigenvalues not converged
     c_bands:  1 eigenvalues not converged
     c_bands:  1 eigenvalues not converged
     c_bands:  1 eigenvalues not converged
     c_bands:  2 eigenvalues not converged
     c_bands:  1 eigenvalues not converged
     c_bands:  2 eigenvalues not converged
     c_bands:  2 eigenvalues not converged
     c_bands:  1 eigenvalues not converged
     c_bands:  2 eigenvalues not converged
     c_bands:  1 eigenvalues not converged
     c_bands:  1 eigenvalues not converged
     c_bands:  1 eigenvalues not converged
     c_bands:  2 eigenvalues not converged
     c_bands:  1 eigenvalues not converged
     c_bands:  2 eigenvalues not converged
     c_bands:  1 eigenvalues not converged
     c_bands:  2 eigenvalues not converged
     c_bands:  1 eigenvalues not converged
     c_bands:  1 eigenvalues not converged
     c_bands:  2 eigenvalues not converged
     c_bands:  1 eigenvalues not converged
     c_bands:  1 eigenvalues not converged
     c_bands:  1 eigenvalues not converged
     c_bands:  1 eigenvalues not converged
     c_bands:  1 eigenvalues not converged
     c_bands:  2 eigenvalues not converged
     c_bands:  1 eigenvalues not converged
     c_bands:  1 eigenvalues not converged
     c_bands:  1 eigenvalues not converged
     c_bands:  1 eigenvalues not converged
     c_bands:  1 eigenvalues not converged
     c_bands:  1 eigenvalues not converged
     c_bands:  1 eigenvalues not converged
     c_bands:  1 eigenvalues not converged
     c_bands:  1 eigenvalues not converged
     c_bands:  1 eigenvalues not converged
     c_bands:  1 eigenvalues not converged
     c_bands:  1 eigenvalues not converged
     c_bands:  1 eigenvalues not converged
     c_bands:  1 eigenvalues not converged
     c_bands:  1 eigenvalues not converged
     c_bands:  2 eigenvalues not converged
     c_bands:  1 eigenvalues not converged
     c_bands:  2 eigenvalues not converged
     c_bands:  1 eigenvalues not converged
     c_bands:  1 eigenvalues not converged
     c_bands:  1 eigenvalues not converged
     c_bands:  2 eigenvalues not converged
     c_bands:  1 eigenvalues not converged
     c_bands:  2 eigenvalues not converged
     c_bands:  1 eigenvalues not converged
     c_bands:  2 eigenvalues not converged
     c_bands:  1 eigenvalues not converged
     c_bands:  1 eigenvalues not converged
     c_bands:  1 eigenvalues not converged
     c_bands:  1 eigenvalues not converged
     c_bands:  1 eigenvalues not converged
     c_bands:  1 eigenvalues not converged
     c_bands:  1 eigenvalues not converged
     c_bands:  1 eigenvalues not converged
     c_bands:  1 eigenvalues not converged
     c_bands:  1 eigenvalues not converged
     c_bands:  1 eigenvalues not converged
     c_bands:  1 eigenvalues not converged
     c_bands:  1 eigenvalues not converged
     c_bands:  1 eigenvalues not converged
     c_bands:  1 eigenvalues not converged
     c_bands:  2 eigenvalues not converged
     c_bands:  1 eigenvalues not converged
     c_bands:  1 eigenvalues not converged
     c_bands:  1 eigenvalues not converged
     c_bands:  1 eigenvalues not converged
     c_bands:  1 eigenvalues not converged
     c_bands:  1 eigenvalues not converged
     c_bands:  1 eigenvalues not converged
     c_bands:  1 eigenvalues not converged
     c_bands:  2 eigenvalues not converged
     c_bands:  1 eigenvalues not converged
     c_bands:  1 eigenvalues not converged
     c_bands:  1 eigenvalues not converged
     c_bands:  1 eigenvalues not converged
     c_bands:  1 eigenvalues not converged
     c_bands:  1 eigenvalues not converged
     c_bands:  1 eigenvalues not converged
     c_bands:  1 eigenvalues not converged
     c_bands:  1 eigenvalues not converged
     c_bands:  1 eigenvalues not converged
     c_bands:  2 eigenvalues not converged
     c_bands:  2 eigenvalues not converged
     c_bands:  1 eigenvalues not converged
     c_bands:  4 eigenvalues not converged
     c_bands:  2 eigenvalues not converged
     c_bands:  2 eigenvalues not converged
     c_bands:  1 eigenvalues not converged
     c_bands:  1 eigenvalues not converged
     c_bands:  1 eigenvalues not converged
     c_bands:  1 eigenvalues not converged
     c_bands:  1 eigenvalues not converged
     c_bands:  1 eigenvalues not converged
     c_bands:  1 eigenvalues not converged
     c_bands:  2 eigenvalues not converged
     c_bands:  2 eigenvalues not converged
     c_bands:  1 eigenvalues not converged
     c_bands:  1 eigenvalues not converged
     c_bands:  1 eigenvalues not converged
     c_bands:  1 eigenvalues not converged
     c_bands:  2 eigenvalues not converged
     c_bands:  1 eigenvalues not converged
     c_bands:  2 eigenvalues not converged
     c_bands:  2 eigenvalues not converged
     c_bands:  1 eigenvalues not converged
     c_bands:  2 eigenvalues not converged
     c_bands:  1 eigenvalues not converged
     c_bands:  1 eigenvalues not converged
     c_bands:  2 eigenvalues not converged
     c_bands:  1 eigenvalues not converged
     c_bands:  2 eigenvalues not converged
     c_bands:  2 eigenvalues not converged
     c_bands:  1 eigenvalues not converged
     c_bands:  1 eigenvalues not converged
     c_bands:  2 eigenvalues not converged
     c_bands:  1 eigenvalues not converged
     c_bands:  1 eigenvalues not converged
     c_bands:  1 eigenvalues not converged
     c_bands:  1 eigenvalues not converged
     c_bands:  1 eigenvalues not converged
     c_bands:  1 eigenvalues not converged
     c_bands:  2 eigenvalues not converged
     c_bands:  2 eigenvalues not converged
     c_bands:  2 eigenvalues not converged
     c_bands:  2 eigenvalues not converged
     c_bands:  1 eigenvalues not converged
     c_bands:  1 eigenvalues not converged
     c_bands:  1 eigenvalues not converged
     c_bands:  1 eigenvalues not converged
     c_bands:  2 eigenvalues not converged
     c_bands:  1 eigenvalues not converged
     c_bands:  1 eigenvalues not converged
     c_bands:  2 eigenvalues not converged
     c_bands:  1 eigenvalues not converged
     c_bands:  1 eigenvalues not converged
     c_bands:  1 eigenvalues not converged
     c_bands:  1 eigenvalues not converged
     c_bands:  1 eigenvalues not converged
     c_bands:  1 eigenvalues not converged
     c_bands:  1 eigenvalues not converged
     c_bands:  1 eigenvalues not converged
     c_bands:  2 eigenvalues not converged
     c_bands:  2 eigenvalues not converged
     c_bands:  1 eigenvalues not converged
     c_bands:  1 eigenvalues not converged
     c_bands:  1 eigenvalues not converged
     c_bands:  1 eigenvalues not converged
     c_bands:  1 eigenvalues not converged
     c_bands:  1 eigenvalues not converged
     c_bands:  1 eigenvalues not converged
     c_bands:  1 eigenvalues not converged
     c_bands:  1 eigenvalues not converged
     c_bands:  1 eigenvalues not converged
     c_bands:  1 eigenvalues not converged
     c_bands:  2 eigenvalues not converged
     c_bands:  1 eigenvalues not converged
     c_bands:  2 eigenvalues not converged
     c_bands:  1 eigenvalues not converged
     c_bands:  1 eigenvalues not converged
     c_bands:  1 eigenvalues not converged
     c_bands:  2 eigenvalues not converged
     c_bands:  1 eigenvalues not converged
     c_bands:  2 eigenvalues not converged
     c_bands:  2 eigenvalues not converged
     c_bands:  2 eigenvalues not converged
     c_bands:  2 eigenvalues not converged
     c_bands:  2 eigenvalues not converged
     c_bands:  1 eigenvalues not converged
     c_bands:  1 eigenvalues not converged
     c_bands:  1 eigenvalues not converged
     c_bands:  2 eigenvalues not converged
     c_bands:  1 eigenvalues not converged
     c_bands:  1 eigenvalues not converged
     c_bands:  2 eigenvalues not converged
     c_bands:  2 eigenvalues not converged
     c_bands:  1 eigenvalues not converged
     c_bands:  3 eigenvalues not converged
     c_bands:  1 eigenvalues not converged
     c_bands:  1 eigenvalues not converged
     c_bands:  2 eigenvalues not converged
     c_bands:  1 eigenvalues not converged
     c_bands:  2 eigenvalues not converged
     c_bands:  2 eigenvalues not converged
     c_bands:  2 eigenvalues not converged
     c_bands:  2 eigenvalues not converged
     c_bands:  1 eigenvalues not converged
     c_bands:  2 eigenvalues not converged
     c_bands:  2 eigenvalues not converged
     c_bands:  3 eigenvalues not converged
     c_bands:  2 eigenvalues not converged
     c_bands:  1 eigenvalues not converged
     c_bands:  1 eigenvalues not converged
     c_bands:  1 eigenvalues not converged
     c_bands:  2 eigenvalues not converged
     c_bands:  1 eigenvalues not converged
     c_bands:  1 eigenvalues not converged
     c_bands:  1 eigenvalues not converged
     c_bands:  1 eigenvalues not converged
     c_bands:  1 eigenvalues not converged
     c_bands:  1 eigenvalues not converged
     c_bands:  2 eigenvalues not converged
     c_bands:  1 eigenvalues not converged
     c_bands:  1 eigenvalues not converged
     c_bands:  1 eigenvalues not converged
     c_bands:  2 eigenvalues not converged
     c_bands:  1 eigenvalues not converged
     c_bands:  1 eigenvalues not converged
     c_bands:  1 eigenvalues not converged
     c_bands:  1 eigenvalues not converged
     c_bands:  1 eigenvalues not converged
     c_bands:  1 eigenvalues not converged
     c_bands:  1 eigenvalues not converged
     c_bands:  1 eigenvalues not converged
     c_bands:  1 eigenvalues not converged
     c_bands:  1 eigenvalues not converged
     c_bands:  1 eigenvalues not converged
     c_bands:  2 eigenvalues not converged
     c_bands:  1 eigenvalues not converged
     c_bands:  1 eigenvalues not converged
     c_bands:  2 eigenvalues not converged
     c_bands:  2 eigenvalues not converged
     c_bands:  1 eigenvalues not converged
     c_bands:  1 eigenvalues not converged
     c_bands:  1 eigenvalues not converged
     c_bands:  1 eigenvalues not converged
     c_bands:  1 eigenvalues not converged
     c_bands:  1 eigenvalues not converged
     c_bands:  1 eigenvalues not converged
     c_bands:  2 eigenvalues not converged
     c_bands:  1 eigenvalues not converged
     c_bands:  1 eigenvalues not converged
     c_bands:  2 eigenvalues not converged
     c_bands:  1 eigenvalues not converged
     c_bands:  1 eigenvalues not converged
     c_bands:  1 eigenvalues not converged
     c_bands:  2 eigenvalues not converged
     c_bands:  3 eigenvalues not converged
     c_bands:  2 eigenvalues not converged
     c_bands:  2 eigenvalues not converged
     c_bands:  2 eigenvalues not converged
     c_bands:  1 eigenvalues not converged
     c_bands:  1 eigenvalues not converged
     c_bands:  1 eigenvalues not converged
     c_bands:  2 eigenvalues not converged
     c_bands:  1 eigenvalues not converged
     c_bands:  2 eigenvalues not converged
     c_bands:  1 eigenvalues not converged
     c_bands:  2 eigenvalues not converged
     c_bands:  1 eigenvalues not converged
     c_bands:  2 eigenvalues not converged
     c_bands:  1 eigenvalues not converged
     c_bands:  1 eigenvalues not converged
     c_bands:  3 eigenvalues not converged
     c_bands:  2 eigenvalues not converged
     c_bands:  1 eigenvalues not converged
     c_bands:  2 eigenvalues not converged
     c_bands:  3 eigenvalues not converged
     c_bands:  1 eigenvalues not converged
     c_bands:  1 eigenvalues not converged
     c_bands:  1 eigenvalues not converged
     c_bands:  2 eigenvalues not converged
     c_bands:  1 eigenvalues not converged
     c_bands:  1 eigenvalues not converged
     c_bands:  2 eigenvalues not converged
     c_bands:  1 eigenvalues not converged
     c_bands:  4 eigenvalues not converged
     c_bands:  2 eigenvalues not converged
     c_bands:  1 eigenvalues not converged
     c_bands:  2 eigenvalues not converged
     c_bands:  1 eigenvalues not converged
     c_bands:  1 eigenvalues not converged
     c_bands:  1 eigenvalues not converged
     c_bands:  1 eigenvalues not converged
     c_bands:  1 eigenvalues not converged
     c_bands:  2 eigenvalues not converged
     c_bands:  2 eigenvalues not converged
     c_bands:  2 eigenvalues not converged
     c_bands:  1 eigenvalues not converged
     c_bands:  1 eigenvalues not converged
     c_bands:  2 eigenvalues not converged
     c_bands:  1 eigenvalues not converged
     c_bands:  2 eigenvalues not converged
     c_bands:  1 eigenvalues not converged
     c_bands:  1 eigenvalues not converged
     c_bands:  1 eigenvalues not converged
     c_bands:  1 eigenvalues not converged
     c_bands:  2 eigenvalues not converged
     c_bands:  1 eigenvalues not converged
     c_bands:  2 eigenvalues not converged
     c_bands:  1 eigenvalues not converged
     c_bands:  1 eigenvalues not converged
     c_bands:  1 eigenvalues not converged
     c_bands:  1 eigenvalues not converged
     c_bands:  1 eigenvalues not converged
     c_bands:  1 eigenvalues not converged
     c_bands:  1 eigenvalues not converged
     c_bands:  3 eigenvalues not converged
     c_bands:  2 eigenvalues not converged
     c_bands:  2 eigenvalues not converged
     c_bands:  2 eigenvalues not converged
     c_bands:  1 eigenvalues not converged
     c_bands:  1 eigenvalues not converged
     c_bands:  1 eigenvalues not converged
     c_bands:  1 eigenvalues not converged
     c_bands:  1 eigenvalues not converged
     c_bands:  1 eigenvalues not converged
     c_bands:  1 eigenvalues not converged
     c_bands:  2 eigenvalues not converged
     c_bands:  2 eigenvalues not converged
     c_bands:  1 eigenvalues not converged
     c_bands:  2 eigenvalues not converged
     c_bands:  1 eigenvalues not converged
     c_bands:  2 eigenvalues not converged
     c_bands:  3 eigenvalues not converged
     c_bands:  2 eigenvalues not converged
     c_bands:  2 eigenvalues not converged
     c_bands:  2 eigenvalues not converged
     c_bands:  1 eigenvalues not converged
     c_bands:  1 eigenvalues not converged
     c_bands:  2 eigenvalues not converged
     c_bands:  1 eigenvalues not converged
     c_bands:  1 eigenvalues not converged
     c_bands:  2 eigenvalues not converged
     c_bands:  2 eigenvalues not converged
     c_bands:  2 eigenvalues not converged
     c_bands:  1 eigenvalues not converged
     c_bands:  2 eigenvalues not converged
     c_bands:  1 eigenvalues not converged
     c_bands:  1 eigenvalues not converged
     c_bands:  2 eigenvalues not converged
     c_bands:  1 eigenvalues not converged
     c_bands:  1 eigenvalues not converged
     c_bands:  1 eigenvalues not converged
     c_bands:  2 eigenvalues not converged
     c_bands:  1 eigenvalues not converged
     c_bands:  1 eigenvalues not converged
     c_bands:  1 eigenvalues not converged
     c_bands:  1 eigenvalues not converged
     c_bands:  2 eigenvalues not converged
     c_bands:  2 eigenvalues not converged
     c_bands:  1 eigenvalues not converged
     c_bands:  2 eigenvalues not converged
     c_bands:  2 eigenvalues not converged
     c_bands:  2 eigenvalues not converged
     c_bands:  1 eigenvalues not converged
     c_bands:  1 eigenvalues not converged
     c_bands:  1 eigenvalues not converged
     c_bands:  1 eigenvalues not converged
     c_bands:  2 eigenvalues not converged
     c_bands:  2 eigenvalues not converged
     c_bands:  1 eigenvalues not converged
     c_bands:  1 eigenvalues not converged
     c_bands:  2 eigenvalues not converged
     c_bands:  1 eigenvalues not converged
     c_bands:  1 eigenvalues not converged
     c_bands:  1 eigenvalues not converged
     c_bands:  1 eigenvalues not converged
     c_bands:  1 eigenvalues not converged
     c_bands:  1 eigenvalues not converged
     c_bands:  2 eigenvalues not converged
     c_bands:  2 eigenvalues not converged
     c_bands:  2 eigenvalues not converged
     c_bands:  1 eigenvalues not converged
     c_bands:  1 eigenvalues not converged
     c_bands:  3 eigenvalues not converged
     c_bands:  1 eigenvalues not converged
     c_bands:  1 eigenvalues not converged
     c_bands:  1 eigenvalues not converged
     c_bands:  1 eigenvalues not converged
     c_bands:  1 eigenvalues not converged
     c_bands:  2 eigenvalues not converged
     c_bands:  2 eigenvalues not converged
     c_bands:  1 eigenvalues not converged
     c_bands:  1 eigenvalues not converged
     c_bands:  2 eigenvalues not converged
     c_bands:  1 eigenvalues not converged
     c_bands:  1 eigenvalues not converged
     c_bands:  1 eigenvalues not converged
     c_bands:  1 eigenvalues not converged
     c_bands:  2 eigenvalues not converged
     c_bands:  1 eigenvalues not converged
     c_bands:  2 eigenvalues not converged
     c_bands:  1 eigenvalues not converged
     c_bands:  1 eigenvalues not converged
     c_bands:  3 eigenvalues not converged
     c_bands:  1 eigenvalues not converged
     c_bands:  1 eigenvalues not converged
     c_bands:  2 eigenvalues not converged
     c_bands:  1 eigenvalues not converged
     c_bands:  1 eigenvalues not converged
     c_bands:  2 eigenvalues not converged
     c_bands:  1 eigenvalues not converged
     c_bands:  2 eigenvalues not converged
     c_bands:  1 eigenvalues not converged
     c_bands:  2 eigenvalues not converged
     c_bands:  1 eigenvalues not converged
     c_bands:  2 eigenvalues not converged
     c_bands:  1 eigenvalues not converged
     c_bands:  1 eigenvalues not converged
     c_bands:  2 eigenvalues not converged
     c_bands:  1 eigenvalues not converged
     c_bands:  2 eigenvalues not converged
     c_bands:  1 eigenvalues not converged
     c_bands:  1 eigenvalues not converged
     c_bands:  1 eigenvalues not converged
     c_bands:  1 eigenvalues not converged
     c_bands:  1 eigenvalues not converged
     c_bands:  2 eigenvalues not converged
     c_bands:  3 eigenvalues not converged
     c_bands:  1 eigenvalues not converged
     c_bands:  1 eigenvalues not converged
     c_bands:  1 eigenvalues not converged
     c_bands:  3 eigenvalues not converged
     c_bands:  1 eigenvalues not converged
     c_bands:  1 eigenvalues not converged
     c_bands:  2 eigenvalues not converged
     c_bands:  1 eigenvalues not converged
     c_bands:  1 eigenvalues not converged
     c_bands:  3 eigenvalues not converged
     c_bands:  2 eigenvalues not converged
     c_bands:  1 eigenvalues not converged
     c_bands:  1 eigenvalues not converged
     c_bands:  1 eigenvalues not converged
     c_bands:  2 eigenvalues not converged
     c_bands:  2 eigenvalues not converged
     c_bands:  1 eigenvalues not converged
     c_bands:  1 eigenvalues not converged
     c_bands:  1 eigenvalues not converged
     c_bands:  1 eigenvalues not converged
     c_bands:  3 eigenvalues not converged
     c_bands:  2 eigenvalues not converged
     c_bands:  1 eigenvalues not converged
     c_bands:  1 eigenvalues not converged
     c_bands:  1 eigenvalues not converged
     c_bands:  1 eigenvalues not converged
     c_bands:  1 eigenvalues not converged
     c_bands:  1 eigenvalues not converged
     c_bands:  1 eigenvalues not converged
     c_bands:  1 eigenvalues not converged
     c_bands:  2 eigenvalues not converged
     c_bands:  2 eigenvalues not converged
     c_bands:  1 eigenvalues not converged
     c_bands:  2 eigenvalues not converged
     c_bands:  1 eigenvalues not converged
     c_bands:  2 eigenvalues not converged
     c_bands:  1 eigenvalues not converged
     c_bands:  1 eigenvalues not converged
     c_bands:  2 eigenvalues not converged
     c_bands:  1 eigenvalues not converged
     c_bands:  2 eigenvalues not converged
     c_bands:  1 eigenvalues not converged
     c_bands:  2 eigenvalues not converged
     c_bands:  1 eigenvalues not converged
     c_bands:  1 eigenvalues not converged
     c_bands:  1 eigenvalues not converged
     c_bands:  1 eigenvalues not converged
     c_bands:  1 eigenvalues not converged
     c_bands:  1 eigenvalues not converged
     c_bands:  1 eigenvalues not converged
     c_bands:  1 eigenvalues not converged
     c_bands:  2 eigenvalues not converged
     c_bands:  1 eigenvalues not converged
     c_bands:  2 eigenvalues not converged
     c_bands:  2 eigenvalues not converged
     c_bands:  1 eigenvalues not converged
     c_bands:  1 eigenvalues not converged
     c_bands:  1 eigenvalues not converged
     c_bands:  2 eigenvalues not converged
     c_bands:  2 eigenvalues not converged
     c_bands:  1 eigenvalues not converged
     c_bands:  1 eigenvalues not converged
     c_bands:  1 eigenvalues not converged
     c_bands:  1 eigenvalues not converged
     c_bands:  1 eigenvalues not converged
     c_bands:  2 eigenvalues not converged
     c_bands:  2 eigenvalues not converged
     c_bands:  1 eigenvalues not converged
     c_bands:  1 eigenvalues not converged
     c_bands:  2 eigenvalues not converged
     c_bands:  1 eigenvalues not converged
     c_bands:  1 eigenvalues not converged
     c_bands:  2 eigenvalues not converged
     c_bands:  1 eigenvalues not converged
     c_bands:  1 eigenvalues not converged
     c_bands:  1 eigenvalues not converged
     c_bands:  1 eigenvalues not converged
     c_bands:  1 eigenvalues not converged
     c_bands:  1 eigenvalues not converged
     c_bands:  1 eigenvalues not converged
     c_bands:  1 eigenvalues not converged
     c_bands:  1 eigenvalues not converged
     c_bands:  1 eigenvalues not converged
     c_bands:  1 eigenvalues not converged
     c_bands:  1 eigenvalues not converged
     c_bands:  1 eigenvalues not converged
     c_bands:  1 eigenvalues not converged
     c_bands:  1 eigenvalues not converged
     c_bands:  2 eigenvalues not converged
     c_bands:  1 eigenvalues not converged
     c_bands:  1 eigenvalues not converged
     c_bands:  2 eigenvalues not converged
     c_bands:  1 eigenvalues not converged
     c_bands:  2 eigenvalues not converged
     c_bands:  2 eigenvalues not converged
     c_bands:  1 eigenvalues not converged
     c_bands:  2 eigenvalues not converged
     c_bands:  1 eigenvalues not converged
     c_bands:  1 eigenvalues not converged
     c_bands:  1 eigenvalues not converged
     c_bands:  2 eigenvalues not converged
     c_bands:  1 eigenvalues not converged
     c_bands:  2 eigenvalues not converged
     c_bands:  1 eigenvalues not converged
     c_bands:  1 eigenvalues not converged
     c_bands:  3 eigenvalues not converged
     c_bands:  1 eigenvalues not converged
     c_bands:  1 eigenvalues not converged
     c_bands:  1 eigenvalues not converged
     c_bands:  2 eigenvalues not converged
     c_bands:  1 eigenvalues not converged
     c_bands:  1 eigenvalues not converged
     c_bands:  2 eigenvalues not converged
     c_bands:  1 eigenvalues not converged
     c_bands:  1 eigenvalues not converged
     c_bands:  1 eigenvalues not converged
     c_bands:  2 eigenvalues not converged
     c_bands:  2 eigenvalues not converged
     c_bands:  1 eigenvalues not converged
     c_bands:  1 eigenvalues not converged
     c_bands:  1 eigenvalues not converged
     c_bands:  1 eigenvalues not converged
     c_bands:  1 eigenvalues not converged
     c_bands:  1 eigenvalues not converged
     c_bands:  1 eigenvalues not converged
     c_bands:  1 eigenvalues not converged
     c_bands:  1 eigenvalues not converged
     c_bands:  1 eigenvalues not converged
     c_bands:  1 eigenvalues not converged
     c_bands:  1 eigenvalues not converged
     c_bands:  1 eigenvalues not converged
     c_bands:  1 eigenvalues not converged
     c_bands:  1 eigenvalues not converged
     c_bands:  1 eigenvalues not converged
     c_bands:  1 eigenvalues not converged
     c_bands:  2 eigenvalues not converged
     c_bands:  2 eigenvalues not converged
     c_bands:  1 eigenvalues not converged
     c_bands:  1 eigenvalues not converged
     c_bands:  1 eigenvalues not converged
     c_bands:  2 eigenvalues not converged
     c_bands:  2 eigenvalues not converged
     c_bands:  1 eigenvalues not converged
     c_bands:  1 eigenvalues not converged
     c_bands:  1 eigenvalues not converged
     c_bands:  1 eigenvalues not converged
     c_bands:  1 eigenvalues not converged
     c_bands:  2 eigenvalues not converged
     c_bands:  1 eigenvalues not converged
     c_bands:  2 eigenvalues not converged
     c_bands:  2 eigenvalues not converged
     c_bands:  2 eigenvalues not converged
     c_bands:  1 eigenvalues not converged
     c_bands:  1 eigenvalues not converged
     c_bands:  1 eigenvalues not converged
     c_bands:  2 eigenvalues not converged
     c_bands:  1 eigenvalues not converged
     c_bands:  1 eigenvalues not converged
     c_bands:  2 eigenvalues not converged
     c_bands:  1 eigenvalues not converged
     c_bands:  1 eigenvalues not converged
     c_bands:  1 eigenvalues not converged
     c_bands:  1 eigenvalues not converged
     c_bands:  1 eigenvalues not converged
     c_bands:  1 eigenvalues not converged
     c_bands:  2 eigenvalues not converged
     c_bands:  4 eigenvalues not converged
     c_bands:  1 eigenvalues not converged
     c_bands:  1 eigenvalues not converged
     c_bands:  1 eigenvalues not converged
     c_bands:  2 eigenvalues not converged
     c_bands:  2 eigenvalues not converged
     c_bands:  2 eigenvalues not converged
     c_bands:  2 eigenvalues not converged
     c_bands:  1 eigenvalues not converged
     c_bands:  1 eigenvalues not converged
     c_bands:  1 eigenvalues not converged
     c_bands:  1 eigenvalues not converged
     c_bands:  2 eigenvalues not converged
     c_bands:  2 eigenvalues not converged
     c_bands:  1 eigenvalues not converged
     c_bands:  1 eigenvalues not converged
     c_bands:  1 eigenvalues not converged
     c_bands:  2 eigenvalues not converged
     c_bands:  1 eigenvalues not converged
     c_bands:  1 eigenvalues not converged
     c_bands:  1 eigenvalues not converged
     c_bands:  1 eigenvalues not converged
     c_bands:  2 eigenvalues not converged
     c_bands:  1 eigenvalues not converged
     c_bands:  1 eigenvalues not converged
     c_bands:  1 eigenvalues not converged
     c_bands:  1 eigenvalues not converged
     c_bands:  1 eigenvalues not converged
     c_bands:  1 eigenvalues not converged
     c_bands:  1 eigenvalues not converged
     c_bands:  1 eigenvalues not converged
     c_bands:  1 eigenvalues not converged
     c_bands:  2 eigenvalues not converged
     c_bands:  2 eigenvalues not converged
     c_bands:  3 eigenvalues not converged
     c_bands:  1 eigenvalues not converged
     c_bands:  1 eigenvalues not converged
     c_bands:  1 eigenvalues not converged
     c_bands:  1 eigenvalues not converged
     c_bands:  1 eigenvalues not converged
     c_bands:  1 eigenvalues not converged
     c_bands:  1 eigenvalues not converged
     c_bands:  2 eigenvalues not converged
     c_bands:  1 eigenvalues not converged
     c_bands:  1 eigenvalues not converged
     c_bands:  3 eigenvalues not converged
     c_bands:  1 eigenvalues not converged
     c_bands:  2 eigenvalues not converged
     c_bands:  1 eigenvalues not converged
     c_bands:  1 eigenvalues not converged
     c_bands:  1 eigenvalues not converged
     c_bands:  1 eigenvalues not converged
     c_bands:  1 eigenvalues not converged
     c_bands:  2 eigenvalues not converged
     c_bands:  2 eigenvalues not converged
     c_bands:  1 eigenvalues not converged
     c_bands:  2 eigenvalues not converged
     c_bands:  2 eigenvalues not converged
     c_bands:  3 eigenvalues not converged
     c_bands:  1 eigenvalues not converged
     c_bands:  2 eigenvalues not converged
     c_bands:  2 eigenvalues not converged
     c_bands:  2 eigenvalues not converged
     c_bands:  1 eigenvalues not converged
     c_bands:  1 eigenvalues not converged
     c_bands:  2 eigenvalues not converged
     c_bands:  1 eigenvalues not converged
     c_bands:  1 eigenvalues not converged
     c_bands:  1 eigenvalues not converged
     c_bands:  3 eigenvalues not converged
     c_bands:  2 eigenvalues not converged
     c_bands:  1 eigenvalues not converged
     c_bands:  1 eigenvalues not converged
     c_bands:  2 eigenvalues not converged
     c_bands:  1 eigenvalues not converged
     c_bands:  1 eigenvalues not converged
     c_bands:  1 eigenvalues not converged
     c_bands:  1 eigenvalues not converged
     c_bands:  1 eigenvalues not converged
     c_bands:  2 eigenvalues not converged
     c_bands:  1 eigenvalues not converged
     c_bands:  2 eigenvalues not converged
     c_bands:  2 eigenvalues not converged
     c_bands:  2 eigenvalues not converged
     c_bands:  1 eigenvalues not converged
     c_bands:  1 eigenvalues not converged
     c_bands:  1 eigenvalues not converged
     c_bands:  3 eigenvalues not converged
     c_bands:  2 eigenvalues not converged
     c_bands:  1 eigenvalues not converged
     c_bands:  1 eigenvalues not converged
     c_bands:  1 eigenvalues not converged
     c_bands:  2 eigenvalues not converged
     c_bands:  1 eigenvalues not converged
     c_bands:  1 eigenvalues not converged
     c_bands:  2 eigenvalues not converged
     c_bands:  1 eigenvalues not converged
     c_bands:  1 eigenvalues not converged
     c_bands:  2 eigenvalues not converged
     c_bands:  1 eigenvalues not converged
     c_bands:  1 eigenvalues not converged
     c_bands:  2 eigenvalues not converged
     c_bands:  1 eigenvalues not converged
     c_bands:  2 eigenvalues not converged
     c_bands:  2 eigenvalues not converged
     c_bands:  1 eigenvalues not converged
     c_bands:  1 eigenvalues not converged
     c_bands:  2 eigenvalues not converged
     c_bands:  1 eigenvalues not converged
     c_bands:  1 eigenvalues not converged
     c_bands:  1 eigenvalues not converged
     c_bands:  1 eigenvalues not converged
     c_bands:  1 eigenvalues not converged
     c_bands:  1 eigenvalues not converged
     c_bands:  1 eigenvalues not converged
     c_bands:  1 eigenvalues not converged
     c_bands:  1 eigenvalues not converged
     c_bands:  1 eigenvalues not converged
     c_bands:  1 eigenvalues not converged
     c_bands:  1 eigenvalues not converged
     c_bands:  1 eigenvalues not converged
     c_bands:  2 eigenvalues not converged
     c_bands:  1 eigenvalues not converged
     c_bands:  1 eigenvalues not converged
     c_bands:  1 eigenvalues not converged
     c_bands:  1 eigenvalues not converged
     c_bands:  1 eigenvalues not converged
     c_bands:  1 eigenvalues not converged
     c_bands:  2 eigenvalues not converged
     c_bands:  1 eigenvalues not converged
     c_bands:  1 eigenvalues not converged
     c_bands:  1 eigenvalues not converged
     c_bands:  2 eigenvalues not converged
     c_bands:  1 eigenvalues not converged
     c_bands:  1 eigenvalues not converged
     c_bands:  3 eigenvalues not converged
     c_bands:  1 eigenvalues not converged
     c_bands:  2 eigenvalues not converged
     c_bands:  1 eigenvalues not converged
     c_bands:  1 eigenvalues not converged
     c_bands:  1 eigenvalues not converged
     c_bands:  1 eigenvalues not converged
     c_bands:  2 eigenvalues not converged
     c_bands:  2 eigenvalues not converged
     c_bands:  2 eigenvalues not converged
     c_bands:  1 eigenvalues not converged
     c_bands:  2 eigenvalues not converged
     c_bands:  1 eigenvalues not converged
     c_bands:  2 eigenvalues not converged
     c_bands:  3 eigenvalues not converged
     c_bands:  1 eigenvalues not converged
     c_bands:  2 eigenvalues not converged
     c_bands:  2 eigenvalues not converged
     c_bands:  1 eigenvalues not converged
     c_bands:  2 eigenvalues not converged
     c_bands:  3 eigenvalues not converged
     c_bands:  3 eigenvalues not converged
     c_bands:  1 eigenvalues not converged
     c_bands:  3 eigenvalues not converged
     c_bands:  1 eigenvalues not converged
     c_bands:  1 eigenvalues not converged
     c_bands:  1 eigenvalues not converged
     c_bands:  3 eigenvalues not converged
     c_bands:  1 eigenvalues not converged
     c_bands:  1 eigenvalues not converged
     c_bands:  2 eigenvalues not converged
     c_bands:  3 eigenvalues not converged
     c_bands:  1 eigenvalues not converged
     c_bands:  1 eigenvalues not converged
     c_bands:  1 eigenvalues not converged
     c_bands:  2 eigenvalues not converged
     c_bands:  2 eigenvalues not converged
     c_bands:  1 eigenvalues not converged
     c_bands:  1 eigenvalues not converged
     c_bands:  2 eigenvalues not converged
     c_bands:  2 eigenvalues not converged
     c_bands:  3 eigenvalues not converged
     c_bands:  1 eigenvalues not converged
     c_bands:  1 eigenvalues not converged
     c_bands:  1 eigenvalues not converged
     c_bands:  1 eigenvalues not converged
     c_bands:  1 eigenvalues not converged
     c_bands:  1 eigenvalues not converged
     c_bands:  1 eigenvalues not converged
     c_bands:  1 eigenvalues not converged
     c_bands:  2 eigenvalues not converged
     c_bands:  1 eigenvalues not converged
     c_bands:  2 eigenvalues not converged
     c_bands:  2 eigenvalues not converged
     c_bands:  2 eigenvalues not converged
     c_bands:  2 eigenvalues not converged
     c_bands:  1 eigenvalues not converged
     c_bands:  1 eigenvalues not converged
     c_bands:  1 eigenvalues not converged
     c_bands:  1 eigenvalues not converged
     c_bands:  1 eigenvalues not converged
     c_bands:  2 eigenvalues not converged
     c_bands:  2 eigenvalues not converged
     c_bands:  2 eigenvalues not converged
     c_bands:  2 eigenvalues not converged
     c_bands:  1 eigenvalues not converged
     c_bands:  1 eigenvalues not converged
     c_bands:  1 eigenvalues not converged
     c_bands:  2 eigenvalues not converged
     c_bands:  2 eigenvalues not converged
     c_bands:  1 eigenvalues not converged
     c_bands:  1 eigenvalues not converged
     c_bands:  1 eigenvalues not converged
     c_bands:  2 eigenvalues not converged
     c_bands:  1 eigenvalues not converged
     c_bands:  1 eigenvalues not converged
     c_bands:  1 eigenvalues not converged
     c_bands:  1 eigenvalues not converged
     c_bands:  1 eigenvalues not converged
     c_bands:  1 eigenvalues not converged
     c_bands:  2 eigenvalues not converged
     c_bands:  1 eigenvalues not converged
     c_bands:  2 eigenvalues not converged
     c_bands:  1 eigenvalues not converged
     c_bands:  1 eigenvalues not converged
     c_bands:  1 eigenvalues not converged
     c_bands:  3 eigenvalues not converged
     c_bands:  1 eigenvalues not converged
     c_bands:  1 eigenvalues not converged
     c_bands:  1 eigenvalues not converged
     c_bands:  1 eigenvalues not converged
     c_bands:  1 eigenvalues not converged
     c_bands:  1 eigenvalues not converged
     c_bands:  3 eigenvalues not converged
     c_bands:  1 eigenvalues not converged
     c_bands:  1 eigenvalues not converged
     c_bands:  2 eigenvalues not converged
     c_bands:  2 eigenvalues not converged
     c_bands:  1 eigenvalues not converged
     c_bands:  2 eigenvalues not converged
     c_bands:  2 eigenvalues not converged
     c_bands:  2 eigenvalues not converged
     c_bands:  3 eigenvalues not converged
     c_bands:  2 eigenvalues not converged
     c_bands:  2 eigenvalues not converged
     c_bands:  2 eigenvalues not converged
     c_bands:  1 eigenvalues not converged
     c_bands:  1 eigenvalues not converged
     c_bands:  1 eigenvalues not converged
     c_bands:  1 eigenvalues not converged
     c_bands:  1 eigenvalues not converged
     c_bands:  2 eigenvalues not converged
     c_bands:  2 eigenvalues not converged
     c_bands:  1 eigenvalues not converged
     c_bands:  1 eigenvalues not converged
     c_bands:  1 eigenvalues not converged
     c_bands:  2 eigenvalues not converged
     c_bands:  1 eigenvalues not converged
     c_bands:  1 eigenvalues not converged
     c_bands:  1 eigenvalues not converged
     ethr =  2.10E-05,  avg # of iterations =  4.1

     negative rho (up, down):  2.000E-03 1.484E-03

     total cpu time spent up to now is    30836.5 secs

     total energy              =   -3114.52098962 Ry
     estimated scf accuracy    <       0.06556530 Ry

     total magnetization       =     6.48 Bohr mag/cell
     absolute magnetization    =     8.40 Bohr mag/cell

     iteration #  8     ecut=   124.00 Ry     beta= 0.20
     CG style diagonalization

---- Real-time Memory Report at c_bands before calling an iterative solver
          5203 MiB given to the printing process from OS
          4945 MiB allocation reported by mallinfo(arena+hblkhd)
        150515 MiB available memory on the node where the printing process lives
------------------
     c_bands:  1 eigenvalues not converged
     c_bands:  1 eigenvalues not converged
     c_bands:  1 eigenvalues not converged
     c_bands:  1 eigenvalues not converged
     c_bands:  1 eigenvalues not converged
     c_bands:  1 eigenvalues not converged
     c_bands:  1 eigenvalues not converged
     c_bands:  1 eigenvalues not converged
     c_bands:  1 eigenvalues not converged
     c_bands:  1 eigenvalues not converged
     c_bands:  1 eigenvalues not converged
     c_bands:  1 eigenvalues not converged
     c_bands:  1 eigenvalues not converged
     c_bands:  1 eigenvalues not converged
     c_bands:  2 eigenvalues not converged
     c_bands:  1 eigenvalues not converged
     c_bands:  1 eigenvalues not converged
     c_bands:  1 eigenvalues not converged
     c_bands:  1 eigenvalues not converged
     c_bands:  2 eigenvalues not converged
     c_bands:  1 eigenvalues not converged
     c_bands:  2 eigenvalues not converged
     c_bands:  1 eigenvalues not converged
     c_bands:  2 eigenvalues not converged
     c_bands:  2 eigenvalues not converged
     c_bands:  1 eigenvalues not converged
     c_bands:  1 eigenvalues not converged
     c_bands:  1 eigenvalues not converged
     c_bands:  1 eigenvalues not converged
     c_bands:  1 eigenvalues not converged
     c_bands:  2 eigenvalues not converged
     c_bands:  1 eigenvalues not converged
     c_bands:  1 eigenvalues not converged
     c_bands:  1 eigenvalues not converged
     c_bands:  1 eigenvalues not converged
     c_bands:  2 eigenvalues not converged
     c_bands:  1 eigenvalues not converged
     c_bands:  2 eigenvalues not converged
     c_bands:  1 eigenvalues not converged
     c_bands:  1 eigenvalues not converged
     c_bands:  1 eigenvalues not converged
     c_bands:  1 eigenvalues not converged
     c_bands:  1 eigenvalues not converged
     c_bands:  1 eigenvalues not converged
     c_bands:  1 eigenvalues not converged
     c_bands:  1 eigenvalues not converged
     c_bands:  1 eigenvalues not converged
     c_bands:  1 eigenvalues not converged
     c_bands:  1 eigenvalues not converged
     c_bands:  1 eigenvalues not converged
     c_bands:  1 eigenvalues not converged
     c_bands:  1 eigenvalues not converged
     c_bands:  1 eigenvalues not converged
     c_bands:  1 eigenvalues not converged
     c_bands:  1 eigenvalues not converged
     c_bands:  1 eigenvalues not converged
     c_bands:  1 eigenvalues not converged
     c_bands:  1 eigenvalues not converged
     c_bands:  1 eigenvalues not converged
     c_bands:  1 eigenvalues not converged
     c_bands:  1 eigenvalues not converged
     c_bands:  1 eigenvalues not converged
     c_bands:  1 eigenvalues not converged
     c_bands:  1 eigenvalues not converged
     c_bands:  1 eigenvalues not converged
     c_bands:  1 eigenvalues not converged
     c_bands:  1 eigenvalues not converged
     c_bands:  1 eigenvalues not converged
     c_bands:  1 eigenvalues not converged
     c_bands:  1 eigenvalues not converged
     c_bands:  1 eigenvalues not converged
     c_bands:  1 eigenvalues not converged
     c_bands:  1 eigenvalues not converged
     c_bands:  1 eigenvalues not converged
     c_bands:  1 eigenvalues not converged
     c_bands:  1 eigenvalues not converged
     c_bands:  1 eigenvalues not converged
     c_bands:  1 eigenvalues not converged
     c_bands:  1 eigenvalues not converged
     c_bands:  1 eigenvalues not converged
     c_bands:  1 eigenvalues not converged
     c_bands:  1 eigenvalues not converged
     c_bands:  1 eigenvalues not converged
     c_bands:  1 eigenvalues not converged
     c_bands:  1 eigenvalues not converged
     c_bands:  1 eigenvalues not converged
     c_bands:  1 eigenvalues not converged
     c_bands:  1 eigenvalues not converged
     c_bands:  1 eigenvalues not converged
     c_bands:  1 eigenvalues not converged
     c_bands:  1 eigenvalues not converged
     c_bands:  1 eigenvalues not converged
     c_bands:  1 eigenvalues not converged
     c_bands:  1 eigenvalues not converged
     c_bands:  1 eigenvalues not converged
     c_bands:  1 eigenvalues not converged
     c_bands:  1 eigenvalues not converged
     c_bands:  1 eigenvalues not converged
     c_bands:  1 eigenvalues not converged
     c_bands:  1 eigenvalues not converged
     c_bands:  1 eigenvalues not converged
     c_bands:  1 eigenvalues not converged
     c_bands:  1 eigenvalues not converged
     c_bands:  1 eigenvalues not converged
     c_bands:  2 eigenvalues not converged
     c_bands:  1 eigenvalues not converged
     c_bands:  1 eigenvalues not converged
     c_bands:  1 eigenvalues not converged
     c_bands:  1 eigenvalues not converged
     c_bands:  1 eigenvalues not converged
     c_bands:  2 eigenvalues not converged
     c_bands:  1 eigenvalues not converged
     c_bands:  1 eigenvalues not converged
     c_bands:  1 eigenvalues not converged
     c_bands:  1 eigenvalues not converged
     c_bands:  1 eigenvalues not converged
     c_bands:  1 eigenvalues not converged
     c_bands:  1 eigenvalues not converged
     c_bands:  1 eigenvalues not converged
     c_bands:  1 eigenvalues not converged
     c_bands:  1 eigenvalues not converged
     c_bands:  1 eigenvalues not converged
     c_bands:  1 eigenvalues not converged
     c_bands:  1 eigenvalues not converged
     c_bands:  1 eigenvalues not converged
     c_bands:  1 eigenvalues not converged
     c_bands:  1 eigenvalues not converged
     c_bands:  1 eigenvalues not converged
     c_bands:  1 eigenvalues not converged
     c_bands:  1 eigenvalues not converged
     c_bands:  1 eigenvalues not converged
     c_bands:  1 eigenvalues not converged
     c_bands:  1 eigenvalues not converged
     c_bands:  1 eigenvalues not converged
     c_bands:  1 eigenvalues not converged
     c_bands:  1 eigenvalues not converged
     c_bands:  1 eigenvalues not converged
     c_bands:  2 eigenvalues not converged
     c_bands:  1 eigenvalues not converged
     c_bands:  1 eigenvalues not converged
     c_bands:  2 eigenvalues not converged
     c_bands:  1 eigenvalues not converged
     c_bands:  1 eigenvalues not converged
     c_bands:  1 eigenvalues not converged
     c_bands:  1 eigenvalues not converged
     c_bands:  1 eigenvalues not converged
     c_bands:  1 eigenvalues not converged
     c_bands:  1 eigenvalues not converged
     c_bands:  1 eigenvalues not converged
     c_bands:  1 eigenvalues not converged
     c_bands:  1 eigenvalues not converged
     c_bands:  1 eigenvalues not converged
     c_bands:  1 eigenvalues not converged
     c_bands:  1 eigenvalues not converged
     c_bands:  1 eigenvalues not converged
     c_bands:  1 eigenvalues not converged
     c_bands:  1 eigenvalues not converged
     c_bands:  1 eigenvalues not converged
     c_bands:  1 eigenvalues not converged
     c_bands:  1 eigenvalues not converged
     c_bands:  1 eigenvalues not converged
     c_bands:  1 eigenvalues not converged
     c_bands:  1 eigenvalues not converged
     c_bands:  1 eigenvalues not converged
     c_bands:  1 eigenvalues not converged
     c_bands:  2 eigenvalues not converged
     c_bands:  2 eigenvalues not converged
     c_bands:  1 eigenvalues not converged
     c_bands:  1 eigenvalues not converged
     c_bands:  1 eigenvalues not converged
     c_bands:  1 eigenvalues not converged
     c_bands:  1 eigenvalues not converged
     c_bands:  1 eigenvalues not converged
     c_bands:  1 eigenvalues not converged
     c_bands:  1 eigenvalues not converged
     c_bands:  1 eigenvalues not converged
     c_bands:  1 eigenvalues not converged
     c_bands:  1 eigenvalues not converged
     c_bands:  1 eigenvalues not converged
     c_bands:  1 eigenvalues not converged
     c_bands:  1 eigenvalues not converged
     c_bands:  2 eigenvalues not converged
     c_bands:  1 eigenvalues not converged
     c_bands:  1 eigenvalues not converged
     c_bands:  1 eigenvalues not converged
     c_bands:  1 eigenvalues not converged
     c_bands:  1 eigenvalues not converged
     c_bands:  1 eigenvalues not converged
     c_bands:  1 eigenvalues not converged
     c_bands:  1 eigenvalues not converged
     c_bands:  1 eigenvalues not converged
     c_bands:  1 eigenvalues not converged
     c_bands:  1 eigenvalues not converged
     c_bands:  2 eigenvalues not converged
     c_bands:  2 eigenvalues not converged
     c_bands:  1 eigenvalues not converged
     c_bands:  1 eigenvalues not converged
     c_bands:  1 eigenvalues not converged
     c_bands:  1 eigenvalues not converged
     c_bands:  1 eigenvalues not converged
     c_bands:  1 eigenvalues not converged
     c_bands:  1 eigenvalues not converged
     c_bands:  1 eigenvalues not converged
     c_bands:  2 eigenvalues not converged
     c_bands:  1 eigenvalues not converged
     c_bands:  1 eigenvalues not converged
     c_bands:  1 eigenvalues not converged
     c_bands:  1 eigenvalues not converged
     c_bands:  1 eigenvalues not converged
     c_bands:  1 eigenvalues not converged
     c_bands:  1 eigenvalues not converged
     c_bands:  1 eigenvalues not converged
     c_bands:  1 eigenvalues not converged
     c_bands:  1 eigenvalues not converged
     c_bands:  1 eigenvalues not converged
     c_bands:  1 eigenvalues not converged
     c_bands:  1 eigenvalues not converged
     c_bands:  1 eigenvalues not converged
     c_bands:  1 eigenvalues not converged
     c_bands:  1 eigenvalues not converged
     c_bands:  2 eigenvalues not converged
     c_bands:  1 eigenvalues not converged
     c_bands:  1 eigenvalues not converged
     c_bands:  1 eigenvalues not converged
     c_bands:  1 eigenvalues not converged
     c_bands:  1 eigenvalues not converged
     c_bands:  1 eigenvalues not converged
     c_bands:  1 eigenvalues not converged
     c_bands:  1 eigenvalues not converged
     c_bands:  1 eigenvalues not converged
     c_bands:  1 eigenvalues not converged
     c_bands:  1 eigenvalues not converged
     c_bands:  1 eigenvalues not converged
     c_bands:  1 eigenvalues not converged
     c_bands:  1 eigenvalues not converged
     c_bands:  1 eigenvalues not converged
     c_bands:  1 eigenvalues not converged
     c_bands:  2 eigenvalues not converged
     c_bands:  1 eigenvalues not converged
     c_bands:  1 eigenvalues not converged
     c_bands:  1 eigenvalues not converged
     c_bands:  1 eigenvalues not converged
     c_bands:  1 eigenvalues not converged
     c_bands:  1 eigenvalues not converged
     c_bands:  1 eigenvalues not converged
     c_bands:  1 eigenvalues not converged
     c_bands:  1 eigenvalues not converged
     c_bands:  1 eigenvalues not converged
     c_bands:  1 eigenvalues not converged
     c_bands:  1 eigenvalues not converged
     c_bands:  1 eigenvalues not converged
     c_bands:  1 eigenvalues not converged
     c_bands:  1 eigenvalues not converged
     c_bands:  1 eigenvalues not converged
     c_bands:  1 eigenvalues not converged
     c_bands:  1 eigenvalues not converged
     c_bands:  1 eigenvalues not converged
     c_bands:  1 eigenvalues not converged
     c_bands:  1 eigenvalues not converged
     c_bands:  1 eigenvalues not converged
     c_bands:  2 eigenvalues not converged
     c_bands:  1 eigenvalues not converged
     c_bands:  1 eigenvalues not converged
     c_bands:  1 eigenvalues not converged
     c_bands:  1 eigenvalues not converged
     c_bands:  1 eigenvalues not converged
     c_bands:  2 eigenvalues not converged
     c_bands:  1 eigenvalues not converged
     c_bands:  1 eigenvalues not converged
     c_bands:  1 eigenvalues not converged
     c_bands:  1 eigenvalues not converged
     c_bands:  1 eigenvalues not converged
     c_bands:  1 eigenvalues not converged
     ethr =  2.10E-05,  avg # of iterations =  3.7

     negative rho (up, down):  2.009E-03 1.474E-03

     total cpu time spent up to now is    35111.1 secs

     total energy              =   -3114.53096540 Ry
     estimated scf accuracy    <       0.03479386 Ry

     total magnetization       =     6.85 Bohr mag/cell
     absolute magnetization    =     8.95 Bohr mag/cell

     iteration #  9     ecut=   124.00 Ry     beta= 0.20
     CG style diagonalization

---- Real-time Memory Report at c_bands before calling an iterative solver
          5204 MiB given to the printing process from OS
          4946 MiB allocation reported by mallinfo(arena+hblkhd)
        146160 MiB available memory on the node where the printing process lives
------------------
     c_bands:  1 eigenvalues not converged
     c_bands:  1 eigenvalues not converged
     c_bands:  1 eigenvalues not converged
     c_bands:  1 eigenvalues not converged
     c_bands:  1 eigenvalues not converged
     c_bands:  1 eigenvalues not converged
     c_bands:  2 eigenvalues not converged
     c_bands:  1 eigenvalues not converged
     c_bands:  1 eigenvalues not converged
     c_bands:  1 eigenvalues not converged
     c_bands:  1 eigenvalues not converged
     c_bands:  1 eigenvalues not converged
     c_bands:  1 eigenvalues not converged
     c_bands:  1 eigenvalues not converged
     c_bands:  1 eigenvalues not converged
     c_bands:  1 eigenvalues not converged
     c_bands:  1 eigenvalues not converged
     c_bands:  1 eigenvalues not converged
     c_bands:  1 eigenvalues not converged
     c_bands:  1 eigenvalues not converged
     c_bands:  1 eigenvalues not converged
     c_bands:  1 eigenvalues not converged
     c_bands:  1 eigenvalues not converged
     c_bands:  1 eigenvalues not converged
     c_bands:  1 eigenvalues not converged
     c_bands:  1 eigenvalues not converged
     c_bands:  1 eigenvalues not converged
     c_bands:  1 eigenvalues not converged
     c_bands:  1 eigenvalues not converged
     c_bands:  1 eigenvalues not converged
     c_bands:  1 eigenvalues not converged
     c_bands:  1 eigenvalues not converged
     c_bands:  1 eigenvalues not converged
     c_bands:  1 eigenvalues not converged
     c_bands:  1 eigenvalues not converged
     c_bands:  1 eigenvalues not converged
     c_bands:  1 eigenvalues not converged
     c_bands:  1 eigenvalues not converged
     c_bands:  1 eigenvalues not converged
     c_bands:  1 eigenvalues not converged
     c_bands:  1 eigenvalues not converged
     c_bands:  1 eigenvalues not converged
     c_bands:  1 eigenvalues not converged
     c_bands:  1 eigenvalues not converged
     c_bands:  1 eigenvalues not converged
     c_bands:  1 eigenvalues not converged
     c_bands:  1 eigenvalues not converged
     c_bands:  1 eigenvalues not converged
     c_bands:  1 eigenvalues not converged
     c_bands:  1 eigenvalues not converged
     c_bands:  1 eigenvalues not converged
     c_bands:  1 eigenvalues not converged
     c_bands:  1 eigenvalues not converged
     c_bands:  1 eigenvalues not converged
     c_bands:  1 eigenvalues not converged
     c_bands:  1 eigenvalues not converged
     c_bands:  2 eigenvalues not converged
     c_bands:  1 eigenvalues not converged
     c_bands:  1 eigenvalues not converged
     c_bands:  1 eigenvalues not converged
     c_bands:  1 eigenvalues not converged
     c_bands:  1 eigenvalues not converged
     c_bands:  1 eigenvalues not converged
     c_bands:  1 eigenvalues not converged
     c_bands:  1 eigenvalues not converged
     c_bands:  1 eigenvalues not converged
     c_bands:  1 eigenvalues not converged
     c_bands:  1 eigenvalues not converged
     c_bands:  1 eigenvalues not converged
     c_bands:  1 eigenvalues not converged
     c_bands:  1 eigenvalues not converged
     c_bands:  1 eigenvalues not converged
     c_bands:  1 eigenvalues not converged
     c_bands:  1 eigenvalues not converged
     c_bands:  1 eigenvalues not converged
     c_bands:  1 eigenvalues not converged
     c_bands:  1 eigenvalues not converged
     c_bands:  1 eigenvalues not converged
     c_bands:  1 eigenvalues not converged
     c_bands:  1 eigenvalues not converged
     c_bands:  1 eigenvalues not converged
     ethr =  1.94E-05,  avg # of iterations =  3.1

     negative rho (up, down):  2.027E-03 1.419E-03

     total cpu time spent up to now is    38592.8 secs

     total energy              =   -3114.53462302 Ry
     estimated scf accuracy    <       0.03191182 Ry

     total magnetization       =     6.94 Bohr mag/cell
     absolute magnetization    =     9.12 Bohr mag/cell

     iteration # 10     ecut=   124.00 Ry     beta= 0.20
     CG style diagonalization

---- Real-time Memory Report at c_bands before calling an iterative solver
          5204 MiB given to the printing process from OS
          4947 MiB allocation reported by mallinfo(arena+hblkhd)
        149876 MiB available memory on the node where the printing process lives
------------------
     c_bands:  1 eigenvalues not converged
     c_bands:  1 eigenvalues not converged
     c_bands:  1 eigenvalues not converged
     c_bands:  1 eigenvalues not converged
     c_bands:  1 eigenvalues not converged
     c_bands:  1 eigenvalues not converged
     c_bands:  1 eigenvalues not converged
     c_bands:  1 eigenvalues not converged
     c_bands:  1 eigenvalues not converged
     c_bands:  1 eigenvalues not converged
     c_bands:  1 eigenvalues not converged
     c_bands:  1 eigenvalues not converged
     c_bands:  1 eigenvalues not converged
     c_bands:  2 eigenvalues not converged
     c_bands:  1 eigenvalues not converged
     c_bands:  1 eigenvalues not converged
     c_bands:  1 eigenvalues not converged
     c_bands:  1 eigenvalues not converged
     c_bands:  1 eigenvalues not converged
     c_bands:  1 eigenvalues not converged
     c_bands:  1 eigenvalues not converged
     c_bands:  1 eigenvalues not converged
     c_bands:  1 eigenvalues not converged
     c_bands:  1 eigenvalues not converged
     c_bands:  1 eigenvalues not converged
     c_bands:  1 eigenvalues not converged
     c_bands:  1 eigenvalues not converged
     c_bands:  1 eigenvalues not converged
     c_bands:  1 eigenvalues not converged
     c_bands:  1 eigenvalues not converged
     c_bands:  1 eigenvalues not converged
     c_bands:  1 eigenvalues not converged
     c_bands:  1 eigenvalues not converged
     c_bands:  1 eigenvalues not converged
     ethr =  1.78E-05,  avg # of iterations =  3.1

     negative rho (up, down):  2.038E-03 1.297E-03

     total cpu time spent up to now is    41990.7 secs

     total energy              =   -3114.53862093 Ry
     estimated scf accuracy    <       0.01403459 Ry

     total magnetization       =     7.30 Bohr mag/cell
     absolute magnetization    =     9.77 Bohr mag/cell

     iteration # 11     ecut=   124.00 Ry     beta= 0.20
     CG style diagonalization

---- Real-time Memory Report at c_bands before calling an iterative solver
          5204 MiB given to the printing process from OS
          4947 MiB allocation reported by mallinfo(arena+hblkhd)
        147757 MiB available memory on the node where the printing process lives
------------------
     c_bands:  1 eigenvalues not converged
     c_bands:  1 eigenvalues not converged
     c_bands:  1 eigenvalues not converged
     c_bands:  1 eigenvalues not converged
     c_bands:  1 eigenvalues not converged
     c_bands:  1 eigenvalues not converged
     c_bands:  1 eigenvalues not converged
     c_bands:  3 eigenvalues not converged
     c_bands:  1 eigenvalues not converged
     c_bands:  2 eigenvalues not converged
     c_bands:  1 eigenvalues not converged
     c_bands:  1 eigenvalues not converged
     c_bands:  1 eigenvalues not converged
     c_bands:  1 eigenvalues not converged
     c_bands:  1 eigenvalues not converged
     c_bands:  1 eigenvalues not converged
     c_bands:  1 eigenvalues not converged
     c_bands:  1 eigenvalues not converged
     c_bands:  1 eigenvalues not converged
     c_bands:  1 eigenvalues not converged
     c_bands:  1 eigenvalues not converged
     c_bands:  1 eigenvalues not converged
     c_bands:  1 eigenvalues not converged
     c_bands:  1 eigenvalues not converged
     c_bands:  1 eigenvalues not converged
     c_bands:  1 eigenvalues not converged
     c_bands:  1 eigenvalues not converged
     c_bands:  1 eigenvalues not converged
     c_bands:  1 eigenvalues not converged
     c_bands:  1 eigenvalues not converged
     c_bands:  1 eigenvalues not converged
     c_bands:  1 eigenvalues not converged
     c_bands:  1 eigenvalues not converged
     c_bands:  1 eigenvalues not converged
     c_bands:  1 eigenvalues not converged
     c_bands:  1 eigenvalues not converged
     c_bands:  1 eigenvalues not converged
     c_bands:  1 eigenvalues not converged
     c_bands:  1 eigenvalues not converged
     c_bands:  1 eigenvalues not converged
     c_bands:  1 eigenvalues not converged
     c_bands:  1 eigenvalues not converged
     c_bands:  1 eigenvalues not converged
     c_bands:  1 eigenvalues not converged
     c_bands:  1 eigenvalues not converged
     c_bands:  1 eigenvalues not converged
     c_bands:  1 eigenvalues not converged
     c_bands:  1 eigenvalues not converged
     c_bands:  1 eigenvalues not converged
     c_bands:  1 eigenvalues not converged
     c_bands:  1 eigenvalues not converged
     c_bands:  1 eigenvalues not converged
     c_bands:  1 eigenvalues not converged
     c_bands:  1 eigenvalues not converged
     c_bands:  1 eigenvalues not converged
     c_bands:  1 eigenvalues not converged
     c_bands:  1 eigenvalues not converged
     c_bands:  1 eigenvalues not converged
     c_bands:  1 eigenvalues not converged
     c_bands:  2 eigenvalues not converged
     c_bands:  1 eigenvalues not converged
     c_bands:  1 eigenvalues not converged
     c_bands:  1 eigenvalues not converged
     c_bands:  1 eigenvalues not converged
     c_bands:  1 eigenvalues not converged
     c_bands:  1 eigenvalues not converged
     c_bands:  1 eigenvalues not converged
     c_bands:  1 eigenvalues not converged
     c_bands:  1 eigenvalues not converged
     c_bands:  1 eigenvalues not converged
     c_bands:  1 eigenvalues not converged
     c_bands:  1 eigenvalues not converged
     c_bands:  2 eigenvalues not converged
     c_bands:  1 eigenvalues not converged
     c_bands:  1 eigenvalues not converged
     c_bands:  1 eigenvalues not converged
     c_bands:  1 eigenvalues not converged
     c_bands:  1 eigenvalues not converged
     c_bands:  1 eigenvalues not converged
     c_bands:  1 eigenvalues not converged
     c_bands:  2 eigenvalues not converged
     c_bands:  1 eigenvalues not converged
     c_bands:  1 eigenvalues not converged
     c_bands:  1 eigenvalues not converged
     c_bands:  1 eigenvalues not converged
     c_bands:  1 eigenvalues not converged
     c_bands:  1 eigenvalues not converged
     c_bands:  1 eigenvalues not converged
     c_bands:  1 eigenvalues not converged
     c_bands:  1 eigenvalues not converged
     c_bands:  1 eigenvalues not converged
     c_bands:  1 eigenvalues not converged
     c_bands:  1 eigenvalues not converged
     c_bands:  1 eigenvalues not converged
     c_bands:  1 eigenvalues not converged
     c_bands:  1 eigenvalues not converged
     c_bands:  1 eigenvalues not converged
     c_bands:  1 eigenvalues not converged
     c_bands:  1 eigenvalues not converged
     c_bands:  1 eigenvalues not converged
     c_bands:  1 eigenvalues not converged
     c_bands:  1 eigenvalues not converged
     c_bands:  1 eigenvalues not converged
     c_bands:  1 eigenvalues not converged
     c_bands:  1 eigenvalues not converged
     c_bands:  1 eigenvalues not converged
     c_bands:  1 eigenvalues not converged
     c_bands:  1 eigenvalues not converged
     c_bands:  1 eigenvalues not converged
     c_bands:  1 eigenvalues not converged
     c_bands:  1 eigenvalues not converged
     c_bands:  1 eigenvalues not converged
     c_bands:  1 eigenvalues not converged
     c_bands:  1 eigenvalues not converged
     c_bands:  1 eigenvalues not converged
     c_bands:  1 eigenvalues not converged
     c_bands:  1 eigenvalues not converged
     c_bands:  2 eigenvalues not converged
     c_bands:  1 eigenvalues not converged
     c_bands:  1 eigenvalues not converged
     c_bands:  1 eigenvalues not converged
     c_bands:  1 eigenvalues not converged
     c_bands:  1 eigenvalues not converged
     c_bands:  1 eigenvalues not converged
     c_bands:  1 eigenvalues not converged
     c_bands:  1 eigenvalues not converged
     c_bands:  2 eigenvalues not converged
     c_bands:  1 eigenvalues not converged
     c_bands:  1 eigenvalues not converged
     c_bands:  1 eigenvalues not converged
     c_bands:  1 eigenvalues not converged
     c_bands:  1 eigenvalues not converged
     c_bands:  1 eigenvalues not converged
     c_bands:  2 eigenvalues not converged
     c_bands:  1 eigenvalues not converged
     c_bands:  1 eigenvalues not converged
     c_bands:  1 eigenvalues not converged
     c_bands:  1 eigenvalues not converged
     c_bands:  1 eigenvalues not converged
     c_bands:  1 eigenvalues not converged
     c_bands:  1 eigenvalues not converged
     c_bands:  1 eigenvalues not converged
     c_bands:  1 eigenvalues not converged
     c_bands:  1 eigenvalues not converged
     c_bands:  1 eigenvalues not converged
     c_bands:  1 eigenvalues not converged
     c_bands:  1 eigenvalues not converged
     c_bands:  1 eigenvalues not converged
     c_bands:  1 eigenvalues not converged
     c_bands:  1 eigenvalues not converged
     c_bands:  1 eigenvalues not converged
     c_bands:  1 eigenvalues not converged
     c_bands:  1 eigenvalues not converged
     c_bands:  1 eigenvalues not converged
     c_bands:  1 eigenvalues not converged
     c_bands:  2 eigenvalues not converged
     c_bands:  1 eigenvalues not converged
     c_bands:  1 eigenvalues not converged
     c_bands:  2 eigenvalues not converged
     c_bands:  2 eigenvalues not converged
     c_bands:  1 eigenvalues not converged
     c_bands:  1 eigenvalues not converged
     c_bands:  2 eigenvalues not converged
     c_bands:  1 eigenvalues not converged
     c_bands:  1 eigenvalues not converged
     c_bands:  1 eigenvalues not converged
     c_bands:  1 eigenvalues not converged
     c_bands:  1 eigenvalues not converged
     c_bands:  1 eigenvalues not converged
     c_bands:  1 eigenvalues not converged
     c_bands:  1 eigenvalues not converged
     c_bands:  1 eigenvalues not converged
     c_bands:  1 eigenvalues not converged
     c_bands:  1 eigenvalues not converged
     c_bands:  1 eigenvalues not converged
     c_bands:  1 eigenvalues not converged
     c_bands:  1 eigenvalues not converged
     c_bands:  1 eigenvalues not converged
     c_bands:  1 eigenvalues not converged
     c_bands:  1 eigenvalues not converged
     c_bands:  1 eigenvalues not converged
     c_bands:  1 eigenvalues not converged
     c_bands:  1 eigenvalues not converged
     c_bands:  1 eigenvalues not converged
     c_bands:  1 eigenvalues not converged
     c_bands:  1 eigenvalues not converged
     c_bands:  1 eigenvalues not converged
     c_bands:  1 eigenvalues not converged
     c_bands:  2 eigenvalues not converged
     c_bands:  1 eigenvalues not converged
     c_bands:  1 eigenvalues not converged
     c_bands:  1 eigenvalues not converged
     c_bands:  1 eigenvalues not converged
     c_bands:  1 eigenvalues not converged
     c_bands:  1 eigenvalues not converged
     c_bands:  1 eigenvalues not converged
     c_bands:  1 eigenvalues not converged
     c_bands:  1 eigenvalues not converged
     c_bands:  1 eigenvalues not converged
     c_bands:  1 eigenvalues not converged
     c_bands:  1 eigenvalues not converged
     c_bands:  1 eigenvalues not converged
     c_bands:  1 eigenvalues not converged
     c_bands:  1 eigenvalues not converged
     c_bands:  1 eigenvalues not converged
     c_bands:  1 eigenvalues not converged
     c_bands:  1 eigenvalues not converged
     c_bands:  1 eigenvalues not converged
     c_bands:  1 eigenvalues not converged
     c_bands:  1 eigenvalues not converged
     c_bands:  1 eigenvalues not converged
     c_bands:  1 eigenvalues not converged
     c_bands:  1 eigenvalues not converged
     c_bands:  1 eigenvalues not converged
     c_bands:  1 eigenvalues not converged
     c_bands:  1 eigenvalues not converged
     c_bands:  1 eigenvalues not converged
     c_bands:  1 eigenvalues not converged
     c_bands:  1 eigenvalues not converged
     c_bands:  1 eigenvalues not converged
     c_bands:  1 eigenvalues not converged
     c_bands:  1 eigenvalues not converged
     c_bands:  1 eigenvalues not converged
     c_bands:  1 eigenvalues not converged
     c_bands:  2 eigenvalues not converged
     c_bands:  1 eigenvalues not converged
     c_bands:  1 eigenvalues not converged
     c_bands:  1 eigenvalues not converged
     c_bands:  2 eigenvalues not converged
     c_bands:  1 eigenvalues not converged
     c_bands:  1 eigenvalues not converged
     c_bands:  2 eigenvalues not converged
     c_bands:  1 eigenvalues not converged
     c_bands:  1 eigenvalues not converged
     c_bands:  1 eigenvalues not converged
     c_bands:  2 eigenvalues not converged
     c_bands:  1 eigenvalues not converged
     c_bands:  1 eigenvalues not converged
     c_bands:  1 eigenvalues not converged
     c_bands:  1 eigenvalues not converged
     c_bands:  1 eigenvalues not converged
     c_bands:  1 eigenvalues not converged
     c_bands:  1 eigenvalues not converged
     c_bands:  1 eigenvalues not converged
     c_bands:  1 eigenvalues not converged
     c_bands:  1 eigenvalues not converged
     c_bands:  1 eigenvalues not converged
     c_bands:  1 eigenvalues not converged
     c_bands:  1 eigenvalues not converged
     c_bands:  1 eigenvalues not converged
     c_bands:  1 eigenvalues not converged
     c_bands:  1 eigenvalues not converged
     c_bands:  1 eigenvalues not converged
     c_bands:  1 eigenvalues not converged
     c_bands:  2 eigenvalues not converged
     c_bands:  1 eigenvalues not converged
     c_bands:  1 eigenvalues not converged
     c_bands:  1 eigenvalues not converged
     c_bands:  1 eigenvalues not converged
     c_bands:  1 eigenvalues not converged
     c_bands:  1 eigenvalues not converged
     c_bands:  1 eigenvalues not converged
     c_bands:  1 eigenvalues not converged
     c_bands:  1 eigenvalues not converged
     c_bands:  1 eigenvalues not converged
     c_bands:  1 eigenvalues not converged
     c_bands:  1 eigenvalues not converged
     c_bands:  1 eigenvalues not converged
     c_bands:  1 eigenvalues not converged
     c_bands:  1 eigenvalues not converged
     c_bands:  1 eigenvalues not converged
     c_bands:  1 eigenvalues not converged
     c_bands:  1 eigenvalues not converged
     c_bands:  1 eigenvalues not converged
     c_bands:  1 eigenvalues not converged
     c_bands:  1 eigenvalues not converged
     c_bands:  1 eigenvalues not converged
     c_bands:  1 eigenvalues not converged
     c_bands:  1 eigenvalues not converged
     c_bands:  1 eigenvalues not converged
     c_bands:  1 eigenvalues not converged
     c_bands:  1 eigenvalues not converged
     c_bands:  1 eigenvalues not converged
     c_bands:  2 eigenvalues not converged
     c_bands:  1 eigenvalues not converged
     c_bands:  1 eigenvalues not converged
     c_bands:  1 eigenvalues not converged
     c_bands:  1 eigenvalues not converged
     c_bands:  1 eigenvalues not converged
     c_bands:  1 eigenvalues not converged
     c_bands:  1 eigenvalues not converged
     c_bands:  1 eigenvalues not converged
     c_bands:  1 eigenvalues not converged
     c_bands:  2 eigenvalues not converged
     c_bands:  1 eigenvalues not converged
     c_bands:  1 eigenvalues not converged
     c_bands:  1 eigenvalues not converged
     c_bands:  1 eigenvalues not converged
     c_bands:  1 eigenvalues not converged
     c_bands:  1 eigenvalues not converged
     c_bands:  1 eigenvalues not converged
     c_bands:  1 eigenvalues not converged
     c_bands:  1 eigenvalues not converged
     c_bands:  1 eigenvalues not converged
     c_bands:  1 eigenvalues not converged
     c_bands:  1 eigenvalues not converged
     c_bands:  1 eigenvalues not converged
     c_bands:  1 eigenvalues not converged
     c_bands:  1 eigenvalues not converged
     c_bands:  1 eigenvalues not converged
     c_bands:  1 eigenvalues not converged
     c_bands:  1 eigenvalues not converged
     c_bands:  1 eigenvalues not converged
     c_bands:  1 eigenvalues not converged
     c_bands:  1 eigenvalues not converged
     c_bands:  2 eigenvalues not converged
     c_bands:  1 eigenvalues not converged
     c_bands:  1 eigenvalues not converged
     c_bands:  1 eigenvalues not converged
     c_bands:  1 eigenvalues not converged
     c_bands:  1 eigenvalues not converged
     c_bands:  1 eigenvalues not converged
     c_bands:  1 eigenvalues not converged
     c_bands:  1 eigenvalues not converged
     c_bands:  1 eigenvalues not converged
     c_bands:  2 eigenvalues not converged
     c_bands:  1 eigenvalues not converged
     c_bands:  1 eigenvalues not converged
     c_bands:  1 eigenvalues not converged
     c_bands:  1 eigenvalues not converged
     c_bands:  1 eigenvalues not converged
     c_bands:  1 eigenvalues not converged
     c_bands:  1 eigenvalues not converged
     c_bands:  1 eigenvalues not converged
     c_bands:  1 eigenvalues not converged
     c_bands:  2 eigenvalues not converged
     c_bands:  1 eigenvalues not converged
     c_bands:  2 eigenvalues not converged
     c_bands:  1 eigenvalues not converged
     c_bands:  1 eigenvalues not converged
     c_bands:  1 eigenvalues not converged
     c_bands:  1 eigenvalues not converged
     c_bands:  2 eigenvalues not converged
     c_bands:  1 eigenvalues not converged
     c_bands:  1 eigenvalues not converged
     c_bands:  1 eigenvalues not converged
     c_bands:  1 eigenvalues not converged
     c_bands:  1 eigenvalues not converged
     c_bands:  2 eigenvalues not converged
     c_bands:  1 eigenvalues not converged
     c_bands:  1 eigenvalues not converged
     c_bands:  1 eigenvalues not converged
     c_bands:  1 eigenvalues not converged
     c_bands:  1 eigenvalues not converged
     c_bands:  1 eigenvalues not converged
     c_bands:  1 eigenvalues not converged
     c_bands:  1 eigenvalues not converged
     c_bands:  1 eigenvalues not converged
     c_bands:  1 eigenvalues not converged
     c_bands:  1 eigenvalues not converged
     c_bands:  1 eigenvalues not converged
     c_bands:  1 eigenvalues not converged
     c_bands:  1 eigenvalues not converged
     c_bands:  1 eigenvalues not converged
     c_bands:  1 eigenvalues not converged
     c_bands:  1 eigenvalues not converged
     c_bands:  1 eigenvalues not converged
     c_bands:  1 eigenvalues not converged
     c_bands:  1 eigenvalues not converged
     c_bands:  1 eigenvalues not converged
     c_bands:  1 eigenvalues not converged
     c_bands:  1 eigenvalues not converged
     c_bands:  1 eigenvalues not converged
     c_bands:  1 eigenvalues not converged
     c_bands:  1 eigenvalues not converged
     c_bands:  1 eigenvalues not converged
     c_bands:  1 eigenvalues not converged
     c_bands:  1 eigenvalues not converged
     ethr =  7.84E-06,  avg # of iterations =  3.9

     negative rho (up, down):  2.041E-03 1.295E-03

     total cpu time spent up to now is    46635.2 secs

     total energy              =   -3114.54698009 Ry
     estimated scf accuracy    <       0.00763160 Ry

     total magnetization       =     8.31 Bohr mag/cell
     absolute magnetization    =    11.38 Bohr mag/cell

     iteration # 12     ecut=   124.00 Ry     beta= 0.20
     CG style diagonalization

---- Real-time Memory Report at c_bands before calling an iterative solver
          5205 MiB given to the printing process from OS
          4947 MiB allocation reported by mallinfo(arena+hblkhd)
        147218 MiB available memory on the node where the printing process lives
------------------
     c_bands:  2 eigenvalues not converged
     c_bands:  1 eigenvalues not converged
     c_bands:  1 eigenvalues not converged
     c_bands:  1 eigenvalues not converged
     c_bands:  1 eigenvalues not converged
     c_bands:  1 eigenvalues not converged
     c_bands:  1 eigenvalues not converged
     c_bands:  1 eigenvalues not converged
     c_bands:  1 eigenvalues not converged
     c_bands:  1 eigenvalues not converged
     c_bands:  1 eigenvalues not converged
     c_bands:  1 eigenvalues not converged
     c_bands:  1 eigenvalues not converged
     c_bands:  1 eigenvalues not converged
     c_bands:  1 eigenvalues not converged
     c_bands:  1 eigenvalues not converged
     c_bands:  1 eigenvalues not converged
     c_bands:  1 eigenvalues not converged
     c_bands:  1 eigenvalues not converged
     c_bands:  1 eigenvalues not converged
     c_bands:  1 eigenvalues not converged
     c_bands:  1 eigenvalues not converged
     c_bands:  2 eigenvalues not converged
     c_bands:  1 eigenvalues not converged
     c_bands:  2 eigenvalues not converged
     c_bands:  1 eigenvalues not converged
     c_bands:  1 eigenvalues not converged
     c_bands:  1 eigenvalues not converged
     c_bands:  1 eigenvalues not converged
     c_bands:  1 eigenvalues not converged
     c_bands:  1 eigenvalues not converged
     c_bands:  1 eigenvalues not converged
     c_bands:  1 eigenvalues not converged
     c_bands:  1 eigenvalues not converged
     c_bands:  1 eigenvalues not converged
     c_bands:  1 eigenvalues not converged
     c_bands:  1 eigenvalues not converged
     c_bands:  1 eigenvalues not converged
     c_bands:  1 eigenvalues not converged
     c_bands:  1 eigenvalues not converged
     c_bands:  1 eigenvalues not converged
     c_bands:  1 eigenvalues not converged
     c_bands:  1 eigenvalues not converged
     c_bands:  1 eigenvalues not converged
     c_bands:  1 eigenvalues not converged
     c_bands:  1 eigenvalues not converged
     c_bands:  1 eigenvalues not converged
     c_bands:  1 eigenvalues not converged
     c_bands:  2 eigenvalues not converged
     c_bands:  1 eigenvalues not converged
     c_bands:  1 eigenvalues not converged
     c_bands:  1 eigenvalues not converged
     c_bands:  1 eigenvalues not converged
     c_bands:  1 eigenvalues not converged
     c_bands:  1 eigenvalues not converged
     c_bands:  1 eigenvalues not converged
     c_bands:  1 eigenvalues not converged
     c_bands:  1 eigenvalues not converged
     c_bands:  1 eigenvalues not converged
     c_bands:  1 eigenvalues not converged
     c_bands:  1 eigenvalues not converged
     c_bands:  1 eigenvalues not converged
     c_bands:  1 eigenvalues not converged
     c_bands:  1 eigenvalues not converged
     c_bands:  1 eigenvalues not converged
     c_bands:  1 eigenvalues not converged
     c_bands:  1 eigenvalues not converged
     c_bands:  1 eigenvalues not converged
     c_bands:  1 eigenvalues not converged
     c_bands:  1 eigenvalues not converged
     c_bands:  1 eigenvalues not converged
     c_bands:  1 eigenvalues not converged
     c_bands:  1 eigenvalues not converged
     c_bands:  1 eigenvalues not converged
     c_bands:  1 eigenvalues not converged
     c_bands:  1 eigenvalues not converged
     c_bands:  1 eigenvalues not converged
     c_bands:  1 eigenvalues not converged
     c_bands:  1 eigenvalues not converged
     c_bands:  1 eigenvalues not converged
     c_bands:  1 eigenvalues not converged
     c_bands:  1 eigenvalues not converged
     c_bands:  1 eigenvalues not converged
     c_bands:  1 eigenvalues not converged
     c_bands:  1 eigenvalues not converged
     c_bands:  1 eigenvalues not converged
     c_bands:  1 eigenvalues not converged
     c_bands:  1 eigenvalues not converged
     c_bands:  1 eigenvalues not converged
     c_bands:  2 eigenvalues not converged
     c_bands:  1 eigenvalues not converged
     c_bands:  1 eigenvalues not converged
     c_bands:  1 eigenvalues not converged
     c_bands:  1 eigenvalues not converged
     c_bands:  1 eigenvalues not converged
     c_bands:  1 eigenvalues not converged
     c_bands:  1 eigenvalues not converged
     c_bands:  1 eigenvalues not converged
     c_bands:  1 eigenvalues not converged
     c_bands:  1 eigenvalues not converged
     c_bands:  1 eigenvalues not converged
     c_bands:  1 eigenvalues not converged
     c_bands:  1 eigenvalues not converged
     c_bands:  1 eigenvalues not converged
     c_bands:  1 eigenvalues not converged
     c_bands:  1 eigenvalues not converged
     c_bands:  1 eigenvalues not converged
     c_bands:  1 eigenvalues not converged
     c_bands:  1 eigenvalues not converged
     c_bands:  1 eigenvalues not converged
     c_bands:  1 eigenvalues not converged
     c_bands:  1 eigenvalues not converged
     c_bands:  1 eigenvalues not converged
     c_bands:  1 eigenvalues not converged
     c_bands:  1 eigenvalues not converged
     c_bands:  1 eigenvalues not converged
     c_bands:  1 eigenvalues not converged
     c_bands:  1 eigenvalues not converged
     c_bands:  1 eigenvalues not converged
     c_bands:  1 eigenvalues not converged
     c_bands:  1 eigenvalues not converged
     c_bands:  1 eigenvalues not converged
     c_bands:  1 eigenvalues not converged
     c_bands:  1 eigenvalues not converged
     c_bands:  1 eigenvalues not converged
     c_bands:  1 eigenvalues not converged
     c_bands:  1 eigenvalues not converged
     c_bands:  1 eigenvalues not converged
     c_bands:  2 eigenvalues not converged
     c_bands:  1 eigenvalues not converged
     c_bands:  1 eigenvalues not converged
     c_bands:  1 eigenvalues not converged
     c_bands:  1 eigenvalues not converged
     c_bands:  1 eigenvalues not converged
     c_bands:  1 eigenvalues not converged
     c_bands:  1 eigenvalues not converged
     c_bands:  1 eigenvalues not converged
     c_bands:  1 eigenvalues not converged
     c_bands:  1 eigenvalues not converged
     c_bands:  1 eigenvalues not converged
     c_bands:  1 eigenvalues not converged
     c_bands:  1 eigenvalues not converged
     c_bands:  1 eigenvalues not converged
     c_bands:  2 eigenvalues not converged
     c_bands:  1 eigenvalues not converged
     c_bands:  1 eigenvalues not converged
     c_bands:  1 eigenvalues not converged
     c_bands:  1 eigenvalues not converged
     c_bands:  1 eigenvalues not converged
     c_bands:  1 eigenvalues not converged
     c_bands:  1 eigenvalues not converged
     c_bands:  2 eigenvalues not converged
     c_bands:  1 eigenvalues not converged
     c_bands:  1 eigenvalues not converged
     c_bands:  1 eigenvalues not converged
     c_bands:  1 eigenvalues not converged
     c_bands:  2 eigenvalues not converged
     c_bands:  1 eigenvalues not converged
     c_bands:  1 eigenvalues not converged
     c_bands:  1 eigenvalues not converged
     c_bands:  1 eigenvalues not converged
     c_bands:  1 eigenvalues not converged
     c_bands:  1 eigenvalues not converged
     c_bands:  1 eigenvalues not converged
     c_bands:  1 eigenvalues not converged
     c_bands:  1 eigenvalues not converged
     c_bands:  1 eigenvalues not converged
     c_bands:  1 eigenvalues not converged
     c_bands:  1 eigenvalues not converged
     c_bands:  1 eigenvalues not converged
     c_bands:  1 eigenvalues not converged
     c_bands:  1 eigenvalues not converged
     c_bands:  1 eigenvalues not converged
     c_bands:  1 eigenvalues not converged
     c_bands:  1 eigenvalues not converged
     c_bands:  1 eigenvalues not converged
     c_bands:  1 eigenvalues not converged
     c_bands:  1 eigenvalues not converged
     c_bands:  1 eigenvalues not converged
     c_bands:  1 eigenvalues not converged
     c_bands:  1 eigenvalues not converged
     c_bands:  1 eigenvalues not converged
     c_bands:  1 eigenvalues not converged
     c_bands:  1 eigenvalues not converged
     c_bands:  1 eigenvalues not converged
     c_bands:  1 eigenvalues not converged
     c_bands:  1 eigenvalues not converged
     c_bands:  1 eigenvalues not converged
     c_bands:  1 eigenvalues not converged
     c_bands:  1 eigenvalues not converged
     c_bands:  2 eigenvalues not converged
     c_bands:  1 eigenvalues not converged
     c_bands:  1 eigenvalues not converged
     c_bands:  1 eigenvalues not converged
     c_bands:  1 eigenvalues not converged
     c_bands:  1 eigenvalues not converged
     c_bands:  1 eigenvalues not converged
     c_bands:  1 eigenvalues not converged
     c_bands:  1 eigenvalues not converged
     c_bands:  1 eigenvalues not converged
     c_bands:  1 eigenvalues not converged
     c_bands:  1 eigenvalues not converged
     c_bands:  1 eigenvalues not converged
     c_bands:  1 eigenvalues not converged
     c_bands:  1 eigenvalues not converged
     c_bands:  1 eigenvalues not converged
     c_bands:  1 eigenvalues not converged
     c_bands:  1 eigenvalues not converged
     c_bands:  1 eigenvalues not converged
     c_bands:  1 eigenvalues not converged
     c_bands:  1 eigenvalues not converged
     c_bands:  1 eigenvalues not converged
     c_bands:  1 eigenvalues not converged
     c_bands:  1 eigenvalues not converged
     c_bands:  1 eigenvalues not converged
     c_bands:  1 eigenvalues not converged
     c_bands:  1 eigenvalues not converged
     c_bands:  1 eigenvalues not converged
     c_bands:  1 eigenvalues not converged
     c_bands:  1 eigenvalues not converged
     c_bands:  1 eigenvalues not converged
     c_bands:  1 eigenvalues not converged
     c_bands:  1 eigenvalues not converged
     c_bands:  1 eigenvalues not converged
     c_bands:  1 eigenvalues not converged
     c_bands:  1 eigenvalues not converged
     c_bands:  1 eigenvalues not converged
     c_bands:  1 eigenvalues not converged
     c_bands:  2 eigenvalues not converged
     c_bands:  1 eigenvalues not converged
     c_bands:  1 eigenvalues not converged
     c_bands:  1 eigenvalues not converged
     c_bands:  1 eigenvalues not converged
     c_bands:  1 eigenvalues not converged
     c_bands:  1 eigenvalues not converged
     c_bands:  2 eigenvalues not converged
     c_bands:  1 eigenvalues not converged
     c_bands:  1 eigenvalues not converged
     c_bands:  1 eigenvalues not converged
     c_bands:  1 eigenvalues not converged
     c_bands:  1 eigenvalues not converged
     c_bands:  1 eigenvalues not converged
     c_bands:  1 eigenvalues not converged
     c_bands:  2 eigenvalues not converged
     c_bands:  1 eigenvalues not converged
     c_bands:  1 eigenvalues not converged
     c_bands:  1 eigenvalues not converged
     c_bands:  1 eigenvalues not converged
     c_bands:  1 eigenvalues not converged
     c_bands:  2 eigenvalues not converged
     c_bands:  1 eigenvalues not converged
     c_bands:  1 eigenvalues not converged
     c_bands:  1 eigenvalues not converged
     c_bands:  1 eigenvalues not converged
     c_bands:  1 eigenvalues not converged
     c_bands:  1 eigenvalues not converged
     c_bands:  1 eigenvalues not converged
     c_bands:  1 eigenvalues not converged
     c_bands:  1 eigenvalues not converged
     c_bands:  1 eigenvalues not converged
     c_bands:  1 eigenvalues not converged
     c_bands:  1 eigenvalues not converged
     c_bands:  1 eigenvalues not converged
     c_bands:  1 eigenvalues not converged
     c_bands:  1 eigenvalues not converged
     c_bands:  1 eigenvalues not converged
     c_bands:  1 eigenvalues not converged
     c_bands:  1 eigenvalues not converged
     c_bands:  1 eigenvalues not converged
     c_bands:  1 eigenvalues not converged
     c_bands:  1 eigenvalues not converged
     c_bands:  1 eigenvalues not converged
     c_bands:  1 eigenvalues not converged
     c_bands:  1 eigenvalues not converged
     c_bands:  1 eigenvalues not converged
     c_bands:  1 eigenvalues not converged
     c_bands:  1 eigenvalues not converged
     c_bands:  1 eigenvalues not converged
     c_bands:  1 eigenvalues not converged
     c_bands:  1 eigenvalues not converged
     c_bands:  1 eigenvalues not converged
     c_bands:  1 eigenvalues not converged
     c_bands:  1 eigenvalues not converged
     c_bands:  1 eigenvalues not converged
     c_bands:  1 eigenvalues not converged
     c_bands:  1 eigenvalues not converged
     c_bands:  2 eigenvalues not converged
     c_bands:  1 eigenvalues not converged
     c_bands:  1 eigenvalues not converged
     c_bands:  1 eigenvalues not converged
     c_bands:  2 eigenvalues not converged
     c_bands:  1 eigenvalues not converged
     c_bands:  2 eigenvalues not converged
     c_bands:  1 eigenvalues not converged
     c_bands:  1 eigenvalues not converged
     c_bands:  1 eigenvalues not converged
     c_bands:  1 eigenvalues not converged
     c_bands:  1 eigenvalues not converged
     c_bands:  1 eigenvalues not converged
     c_bands:  1 eigenvalues not converged
     c_bands:  1 eigenvalues not converged
     c_bands:  1 eigenvalues not converged
     c_bands:  1 eigenvalues not converged
     c_bands:  1 eigenvalues not converged
     c_bands:  1 eigenvalues not converged
     c_bands:  1 eigenvalues not converged
     c_bands:  1 eigenvalues not converged
     c_bands:  1 eigenvalues not converged
     c_bands:  1 eigenvalues not converged
     c_bands:  1 eigenvalues not converged
     c_bands:  1 eigenvalues not converged
     c_bands:  2 eigenvalues not converged
     c_bands:  1 eigenvalues not converged
     c_bands:  2 eigenvalues not converged
     c_bands:  1 eigenvalues not converged
     c_bands:  1 eigenvalues not converged
     c_bands:  1 eigenvalues not converged
     c_bands:  2 eigenvalues not converged
     c_bands:  1 eigenvalues not converged
     c_bands:  1 eigenvalues not converged
     c_bands:  1 eigenvalues not converged
     c_bands:  1 eigenvalues not converged
     c_bands:  1 eigenvalues not converged
     c_bands:  1 eigenvalues not converged
     c_bands:  1 eigenvalues not converged
     c_bands:  1 eigenvalues not converged
     c_bands:  1 eigenvalues not converged
     c_bands:  1 eigenvalues not converged
     c_bands:  1 eigenvalues not converged
     c_bands:  1 eigenvalues not converged
     c_bands:  1 eigenvalues not converged
     c_bands:  1 eigenvalues not converged
     c_bands:  2 eigenvalues not converged
     c_bands:  1 eigenvalues not converged
     c_bands:  1 eigenvalues not converged
     c_bands:  1 eigenvalues not converged
     c_bands:  1 eigenvalues not converged
     c_bands:  1 eigenvalues not converged
     c_bands:  1 eigenvalues not converged
     c_bands:  1 eigenvalues not converged
     c_bands:  1 eigenvalues not converged
     c_bands:  1 eigenvalues not converged
     c_bands:  1 eigenvalues not converged
     c_bands:  1 eigenvalues not converged
     c_bands:  1 eigenvalues not converged
     c_bands:  1 eigenvalues not converged
     c_bands:  1 eigenvalues not converged
     c_bands:  1 eigenvalues not converged
     c_bands:  1 eigenvalues not converged
     c_bands:  1 eigenvalues not converged
     c_bands:  2 eigenvalues not converged
     c_bands:  1 eigenvalues not converged
     c_bands:  1 eigenvalues not converged
     c_bands:  1 eigenvalues not converged
     c_bands:  2 eigenvalues not converged
     c_bands:  1 eigenvalues not converged
     c_bands:  1 eigenvalues not converged
     c_bands:  1 eigenvalues not converged
     c_bands:  1 eigenvalues not converged
     c_bands:  1 eigenvalues not converged
     c_bands:  1 eigenvalues not converged
     c_bands:  1 eigenvalues not converged
     c_bands:  1 eigenvalues not converged
     c_bands:  1 eigenvalues not converged
     c_bands:  1 eigenvalues not converged
     c_bands:  1 eigenvalues not converged
     c_bands:  1 eigenvalues not converged
     c_bands:  1 eigenvalues not converged
     c_bands:  1 eigenvalues not converged
     c_bands:  1 eigenvalues not converged
     c_bands:  1 eigenvalues not converged
     c_bands:  1 eigenvalues not converged
     c_bands:  1 eigenvalues not converged
     c_bands:  1 eigenvalues not converged
     c_bands:  1 eigenvalues not converged
     c_bands:  1 eigenvalues not converged
     c_bands:  1 eigenvalues not converged
     c_bands:  1 eigenvalues not converged
     c_bands:  1 eigenvalues not converged
     c_bands:  1 eigenvalues not converged
     c_bands:  1 eigenvalues not converged
     c_bands:  1 eigenvalues not converged
     c_bands:  1 eigenvalues not converged
     c_bands:  1 eigenvalues not converged
     c_bands:  1 eigenvalues not converged
     c_bands:  1 eigenvalues not converged
     c_bands:  1 eigenvalues not converged
     ethr =  4.26E-06,  avg # of iterations =  3.3

     negative rho (up, down):  2.045E-03 1.275E-03

     total cpu time spent up to now is    50414.0 secs

     total energy              =   -3114.54880016 Ry
     estimated scf accuracy    <       0.00701573 Ry

     total magnetization       =     8.34 Bohr mag/cell
     absolute magnetization    =    11.41 Bohr mag/cell

     iteration # 13     ecut=   124.00 Ry     beta= 0.20
     CG style diagonalization

---- Real-time Memory Report at c_bands before calling an iterative solver
          5205 MiB given to the printing process from OS
          4947 MiB allocation reported by mallinfo(arena+hblkhd)
        151938 MiB available memory on the node where the printing process lives
------------------
     c_bands:  1 eigenvalues not converged
     c_bands:  1 eigenvalues not converged
     c_bands:  1 eigenvalues not converged
     c_bands:  1 eigenvalues not converged
     c_bands:  1 eigenvalues not converged
     c_bands:  1 eigenvalues not converged
     c_bands:  1 eigenvalues not converged
     c_bands:  1 eigenvalues not converged
     c_bands:  1 eigenvalues not converged
     c_bands:  1 eigenvalues not converged
     c_bands:  1 eigenvalues not converged
     c_bands:  1 eigenvalues not converged
     c_bands:  1 eigenvalues not converged
     c_bands:  1 eigenvalues not converged
     c_bands:  1 eigenvalues not converged
     c_bands:  1 eigenvalues not converged
     c_bands:  1 eigenvalues not converged
     c_bands:  1 eigenvalues not converged
     c_bands:  1 eigenvalues not converged
     c_bands:  1 eigenvalues not converged
     c_bands:  1 eigenvalues not converged
     c_bands:  1 eigenvalues not converged
     c_bands:  1 eigenvalues not converged
     c_bands:  1 eigenvalues not converged
     c_bands:  1 eigenvalues not converged
     c_bands:  1 eigenvalues not converged
     c_bands:  1 eigenvalues not converged
     c_bands:  1 eigenvalues not converged
     c_bands:  2 eigenvalues not converged
     c_bands:  1 eigenvalues not converged
     c_bands:  1 eigenvalues not converged
     c_bands:  1 eigenvalues not converged
     c_bands:  1 eigenvalues not converged
     c_bands:  1 eigenvalues not converged
     c_bands:  1 eigenvalues not converged
     c_bands:  1 eigenvalues not converged
     c_bands:  1 eigenvalues not converged
     c_bands:  1 eigenvalues not converged
     c_bands:  1 eigenvalues not converged
     c_bands:  1 eigenvalues not converged
     c_bands:  1 eigenvalues not converged
     c_bands:  1 eigenvalues not converged
     c_bands:  2 eigenvalues not converged
     c_bands:  1 eigenvalues not converged
     c_bands:  1 eigenvalues not converged
     c_bands:  1 eigenvalues not converged
     c_bands:  1 eigenvalues not converged
     c_bands:  1 eigenvalues not converged
     c_bands:  1 eigenvalues not converged
     c_bands:  1 eigenvalues not converged
     c_bands:  1 eigenvalues not converged
     c_bands:  1 eigenvalues not converged
     c_bands:  1 eigenvalues not converged
     c_bands:  1 eigenvalues not converged
     c_bands:  1 eigenvalues not converged
     c_bands:  1 eigenvalues not converged
     c_bands:  1 eigenvalues not converged
     c_bands:  1 eigenvalues not converged
     c_bands:  1 eigenvalues not converged
     c_bands:  1 eigenvalues not converged
     c_bands:  1 eigenvalues not converged
     c_bands:  1 eigenvalues not converged
     c_bands:  1 eigenvalues not converged
     c_bands:  1 eigenvalues not converged
     c_bands:  1 eigenvalues not converged
     c_bands:  1 eigenvalues not converged
     c_bands:  1 eigenvalues not converged
     c_bands:  1 eigenvalues not converged
     c_bands:  1 eigenvalues not converged
     c_bands:  1 eigenvalues not converged
     c_bands:  1 eigenvalues not converged
     c_bands:  2 eigenvalues not converged
     c_bands:  1 eigenvalues not converged
     c_bands:  1 eigenvalues not converged
     c_bands:  1 eigenvalues not converged
     c_bands:  1 eigenvalues not converged
     c_bands:  1 eigenvalues not converged
     c_bands:  1 eigenvalues not converged
     c_bands:  1 eigenvalues not converged
     c_bands:  1 eigenvalues not converged
     c_bands:  1 eigenvalues not converged
     c_bands:  1 eigenvalues not converged
     c_bands:  1 eigenvalues not converged
     c_bands:  1 eigenvalues not converged
     c_bands:  1 eigenvalues not converged
     c_bands:  1 eigenvalues not converged
     c_bands:  1 eigenvalues not converged
     c_bands:  1 eigenvalues not converged
     c_bands:  1 eigenvalues not converged
     c_bands:  1 eigenvalues not converged
     c_bands:  1 eigenvalues not converged
     c_bands:  1 eigenvalues not converged
     c_bands:  1 eigenvalues not converged
     c_bands:  1 eigenvalues not converged
     c_bands:  1 eigenvalues not converged
     c_bands:  2 eigenvalues not converged
     c_bands:  1 eigenvalues not converged
     c_bands:  1 eigenvalues not converged
     c_bands:  1 eigenvalues not converged
     c_bands:  1 eigenvalues not converged
     c_bands:  1 eigenvalues not converged
     c_bands:  1 eigenvalues not converged
     c_bands:  1 eigenvalues not converged
     c_bands:  1 eigenvalues not converged
     c_bands:  1 eigenvalues not converged
     c_bands:  1 eigenvalues not converged
     c_bands:  1 eigenvalues not converged
     c_bands:  1 eigenvalues not converged
     c_bands:  1 eigenvalues not converged
     c_bands:  1 eigenvalues not converged
     c_bands:  1 eigenvalues not converged
     c_bands:  1 eigenvalues not converged
     c_bands:  1 eigenvalues not converged
     c_bands:  1 eigenvalues not converged
     c_bands:  1 eigenvalues not converged
     c_bands:  1 eigenvalues not converged
     c_bands:  1 eigenvalues not converged
     c_bands:  1 eigenvalues not converged
     c_bands:  1 eigenvalues not converged
     c_bands:  1 eigenvalues not converged
     c_bands:  1 eigenvalues not converged
     c_bands:  1 eigenvalues not converged
     c_bands:  1 eigenvalues not converged
     c_bands:  1 eigenvalues not converged
     c_bands:  1 eigenvalues not converged
     c_bands:  1 eigenvalues not converged
     c_bands:  1 eigenvalues not converged
     c_bands:  1 eigenvalues not converged
     c_bands:  2 eigenvalues not converged
     c_bands:  1 eigenvalues not converged
     c_bands:  1 eigenvalues not converged
     c_bands:  1 eigenvalues not converged
     c_bands:  1 eigenvalues not converged
     c_bands:  1 eigenvalues not converged
     c_bands:  1 eigenvalues not converged
     c_bands:  1 eigenvalues not converged
     c_bands:  1 eigenvalues not converged
     c_bands:  1 eigenvalues not converged
     c_bands:  1 eigenvalues not converged
     c_bands:  1 eigenvalues not converged
     c_bands:  1 eigenvalues not converged
     c_bands:  1 eigenvalues not converged
     c_bands:  1 eigenvalues not converged
     c_bands:  1 eigenvalues not converged
     c_bands:  1 eigenvalues not converged
     c_bands:  1 eigenvalues not converged
     c_bands:  1 eigenvalues not converged
     c_bands:  1 eigenvalues not converged
     c_bands:  1 eigenvalues not converged
     c_bands:  1 eigenvalues not converged
     c_bands:  1 eigenvalues not converged
     c_bands:  1 eigenvalues not converged
     c_bands:  1 eigenvalues not converged
     c_bands:  1 eigenvalues not converged
     c_bands:  2 eigenvalues not converged
     c_bands:  1 eigenvalues not converged
     c_bands:  1 eigenvalues not converged
     c_bands:  1 eigenvalues not converged
     c_bands:  1 eigenvalues not converged
     c_bands:  1 eigenvalues not converged
     c_bands:  1 eigenvalues not converged
     c_bands:  1 eigenvalues not converged
     c_bands:  1 eigenvalues not converged
     c_bands:  1 eigenvalues not converged
     c_bands:  1 eigenvalues not converged
     c_bands:  1 eigenvalues not converged
     c_bands:  1 eigenvalues not converged
     c_bands:  1 eigenvalues not converged
     c_bands:  1 eigenvalues not converged
     c_bands:  1 eigenvalues not converged
     c_bands:  1 eigenvalues not converged
     c_bands:  1 eigenvalues not converged
     c_bands:  1 eigenvalues not converged
     c_bands:  1 eigenvalues not converged
     c_bands:  1 eigenvalues not converged
     c_bands:  1 eigenvalues not converged
     c_bands:  1 eigenvalues not converged
     c_bands:  1 eigenvalues not converged
     c_bands:  1 eigenvalues not converged
     c_bands:  1 eigenvalues not converged
     c_bands:  1 eigenvalues not converged
     c_bands:  1 eigenvalues not converged
     c_bands:  1 eigenvalues not converged
     c_bands:  1 eigenvalues not converged
     c_bands:  1 eigenvalues not converged
     c_bands:  1 eigenvalues not converged
     ethr =  3.92E-06,  avg # of iterations =  3.1

     negative rho (up, down):  2.026E-03 1.324E-03

     total cpu time spent up to now is    54007.3 secs

     total energy              =   -3114.54282684 Ry
     estimated scf accuracy    <       0.00625290 Ry

     total magnetization       =     8.60 Bohr mag/cell
     absolute magnetization    =    11.75 Bohr mag/cell

     iteration # 14     ecut=   124.00 Ry     beta= 0.20
     CG style diagonalization

---- Real-time Memory Report at c_bands before calling an iterative solver
          5205 MiB given to the printing process from OS
          4947 MiB allocation reported by mallinfo(arena+hblkhd)
        151919 MiB available memory on the node where the printing process lives
------------------
     c_bands:  1 eigenvalues not converged
     c_bands:  1 eigenvalues not converged
     c_bands:  1 eigenvalues not converged
     c_bands:  1 eigenvalues not converged
     c_bands:  1 eigenvalues not converged
     c_bands:  1 eigenvalues not converged
     c_bands:  1 eigenvalues not converged
     c_bands:  1 eigenvalues not converged
     c_bands:  1 eigenvalues not converged
     c_bands:  1 eigenvalues not converged
     c_bands:  1 eigenvalues not converged
     c_bands:  1 eigenvalues not converged
     c_bands:  1 eigenvalues not converged
     c_bands:  1 eigenvalues not converged
     c_bands:  1 eigenvalues not converged
     c_bands:  1 eigenvalues not converged
     c_bands:  1 eigenvalues not converged
     c_bands:  1 eigenvalues not converged
     c_bands:  1 eigenvalues not converged
     c_bands:  1 eigenvalues not converged
     c_bands:  1 eigenvalues not converged
     c_bands:  1 eigenvalues not converged
     c_bands:  1 eigenvalues not converged
     c_bands:  1 eigenvalues not converged
     c_bands:  1 eigenvalues not converged
     c_bands:  1 eigenvalues not converged
     c_bands:  1 eigenvalues not converged
     c_bands:  1 eigenvalues not converged
     c_bands:  1 eigenvalues not converged
     c_bands:  1 eigenvalues not converged
     c_bands:  1 eigenvalues not converged
     c_bands:  1 eigenvalues not converged
     c_bands:  1 eigenvalues not converged
     c_bands:  1 eigenvalues not converged
     c_bands:  1 eigenvalues not converged
     c_bands:  1 eigenvalues not converged
     c_bands:  1 eigenvalues not converged
     c_bands:  1 eigenvalues not converged
     c_bands:  1 eigenvalues not converged
     c_bands:  1 eigenvalues not converged
     c_bands:  1 eigenvalues not converged
     c_bands:  1 eigenvalues not converged
     c_bands:  1 eigenvalues not converged
     c_bands:  1 eigenvalues not converged
     c_bands:  1 eigenvalues not converged
     c_bands:  1 eigenvalues not converged
     c_bands:  1 eigenvalues not converged
     c_bands:  1 eigenvalues not converged
     c_bands:  1 eigenvalues not converged
     c_bands:  1 eigenvalues not converged
     c_bands:  1 eigenvalues not converged
     c_bands:  1 eigenvalues not converged
     c_bands:  1 eigenvalues not converged
     c_bands:  1 eigenvalues not converged
     c_bands:  1 eigenvalues not converged
     c_bands:  1 eigenvalues not converged
     c_bands:  1 eigenvalues not converged
     c_bands:  1 eigenvalues not converged
     c_bands:  1 eigenvalues not converged
     c_bands:  1 eigenvalues not converged
     c_bands:  1 eigenvalues not converged
     c_bands:  1 eigenvalues not converged
     c_bands:  1 eigenvalues not converged
     c_bands:  1 eigenvalues not converged
     c_bands:  1 eigenvalues not converged
     c_bands:  1 eigenvalues not converged
     c_bands:  1 eigenvalues not converged
     c_bands:  1 eigenvalues not converged
     c_bands:  1 eigenvalues not converged
     c_bands:  1 eigenvalues not converged
     c_bands:  1 eigenvalues not converged
     c_bands:  1 eigenvalues not converged
     c_bands:  1 eigenvalues not converged
     c_bands:  1 eigenvalues not converged
     c_bands:  1 eigenvalues not converged
     c_bands:  1 eigenvalues not converged
     c_bands:  1 eigenvalues not converged
     c_bands:  1 eigenvalues not converged
     c_bands:  1 eigenvalues not converged
     c_bands:  1 eigenvalues not converged
     c_bands:  1 eigenvalues not converged
     c_bands:  1 eigenvalues not converged
     c_bands:  1 eigenvalues not converged
     c_bands:  1 eigenvalues not converged
     c_bands:  1 eigenvalues not converged
     c_bands:  1 eigenvalues not converged
     c_bands:  1 eigenvalues not converged
     c_bands:  1 eigenvalues not converged
     c_bands:  1 eigenvalues not converged
     c_bands:  1 eigenvalues not converged
     c_bands:  1 eigenvalues not converged
     c_bands:  1 eigenvalues not converged
     c_bands:  1 eigenvalues not converged
     c_bands:  1 eigenvalues not converged
     c_bands:  1 eigenvalues not converged
     c_bands:  1 eigenvalues not converged
     c_bands:  1 eigenvalues not converged
     c_bands:  1 eigenvalues not converged
     c_bands:  1 eigenvalues not converged
     c_bands:  1 eigenvalues not converged
     c_bands:  1 eigenvalues not converged
     c_bands:  1 eigenvalues not converged
     c_bands:  1 eigenvalues not converged
     c_bands:  1 eigenvalues not converged
     c_bands:  1 eigenvalues not converged
     c_bands:  1 eigenvalues not converged
     c_bands:  1 eigenvalues not converged
     c_bands:  1 eigenvalues not converged
     c_bands:  1 eigenvalues not converged
     c_bands:  1 eigenvalues not converged
     c_bands:  1 eigenvalues not converged
     c_bands:  1 eigenvalues not converged
     c_bands:  1 eigenvalues not converged
     c_bands:  1 eigenvalues not converged
     c_bands:  1 eigenvalues not converged
     c_bands:  1 eigenvalues not converged
     c_bands:  1 eigenvalues not converged
     c_bands:  1 eigenvalues not converged
     c_bands:  1 eigenvalues not converged
     c_bands:  1 eigenvalues not converged
     c_bands:  1 eigenvalues not converged
     c_bands:  1 eigenvalues not converged
     ethr =  3.49E-06,  avg # of iterations =  3.4

     negative rho (up, down):  2.200E-03 1.269E-03

     total cpu time spent up to now is    58205.9 secs

     total energy              =   -3114.54102210 Ry
     estimated scf accuracy    <       0.00951622 Ry

     total magnetization       =     7.91 Bohr mag/cell
     absolute magnetization    =    10.84 Bohr mag/cell

     iteration # 15     ecut=   124.00 Ry     beta= 0.20
     CG style diagonalization

---- Real-time Memory Report at c_bands before calling an iterative solver
          5205 MiB given to the printing process from OS
          4947 MiB allocation reported by mallinfo(arena+hblkhd)
        152076 MiB available memory on the node where the printing process lives
------------------
     c_bands:  1 eigenvalues not converged
     c_bands:  1 eigenvalues not converged
     c_bands:  1 eigenvalues not converged
     c_bands:  1 eigenvalues not converged
     c_bands:  1 eigenvalues not converged
     c_bands:  1 eigenvalues not converged
     c_bands:  1 eigenvalues not converged
     c_bands:  1 eigenvalues not converged
     c_bands:  1 eigenvalues not converged
     c_bands:  1 eigenvalues not converged
     c_bands:  1 eigenvalues not converged
     c_bands:  1 eigenvalues not converged
     c_bands:  1 eigenvalues not converged
     c_bands:  1 eigenvalues not converged
     c_bands:  1 eigenvalues not converged
     c_bands:  1 eigenvalues not converged
     c_bands:  1 eigenvalues not converged
     c_bands:  1 eigenvalues not converged
     c_bands:  1 eigenvalues not converged
     c_bands:  1 eigenvalues not converged
     c_bands:  1 eigenvalues not converged
     c_bands:  1 eigenvalues not converged
     c_bands:  1 eigenvalues not converged
     c_bands:  1 eigenvalues not converged
     c_bands:  1 eigenvalues not converged
     c_bands:  1 eigenvalues not converged
     c_bands:  1 eigenvalues not converged
     c_bands:  1 eigenvalues not converged
     c_bands:  1 eigenvalues not converged
     c_bands:  1 eigenvalues not converged
     c_bands:  1 eigenvalues not converged
     c_bands:  1 eigenvalues not converged
     c_bands:  1 eigenvalues not converged
     c_bands:  1 eigenvalues not converged
     c_bands:  1 eigenvalues not converged
     c_bands:  1 eigenvalues not converged
     c_bands:  1 eigenvalues not converged
     c_bands:  1 eigenvalues not converged
     c_bands:  1 eigenvalues not converged
     c_bands:  2 eigenvalues not converged
     c_bands:  2 eigenvalues not converged
     c_bands:  1 eigenvalues not converged
     c_bands:  1 eigenvalues not converged
     c_bands:  1 eigenvalues not converged
     c_bands:  1 eigenvalues not converged
     c_bands:  1 eigenvalues not converged
     c_bands:  1 eigenvalues not converged
     c_bands:  1 eigenvalues not converged
     c_bands:  1 eigenvalues not converged
     c_bands:  1 eigenvalues not converged
     c_bands:  1 eigenvalues not converged
     c_bands:  1 eigenvalues not converged
     c_bands:  1 eigenvalues not converged
     c_bands:  1 eigenvalues not converged
     c_bands:  1 eigenvalues not converged
     c_bands:  1 eigenvalues not converged
     c_bands:  1 eigenvalues not converged
     c_bands:  1 eigenvalues not converged
     c_bands:  2 eigenvalues not converged
     c_bands:  1 eigenvalues not converged
     c_bands:  1 eigenvalues not converged
     c_bands:  1 eigenvalues not converged
     c_bands:  1 eigenvalues not converged
     c_bands:  1 eigenvalues not converged
     c_bands:  1 eigenvalues not converged
     c_bands:  1 eigenvalues not converged
     c_bands:  1 eigenvalues not converged
     c_bands:  1 eigenvalues not converged
     c_bands:  1 eigenvalues not converged
     c_bands:  1 eigenvalues not converged
     c_bands:  1 eigenvalues not converged
     c_bands:  1 eigenvalues not converged
     c_bands:  1 eigenvalues not converged
     c_bands:  1 eigenvalues not converged
     ethr =  3.49E-06,  avg # of iterations =  4.0

     negative rho (up, down):  2.198E-03 1.275E-03

     total cpu time spent up to now is    63627.3 secs

     total energy              =   -3114.55594995 Ry
     estimated scf accuracy    <       0.00503013 Ry

     total magnetization       =     9.78 Bohr mag/cell
     absolute magnetization    =    13.42 Bohr mag/cell

     iteration # 16     ecut=   124.00 Ry     beta= 0.20
     CG style diagonalization

---- Real-time Memory Report at c_bands before calling an iterative solver
          5205 MiB given to the printing process from OS
          4947 MiB allocation reported by mallinfo(arena+hblkhd)
        151330 MiB available memory on the node where the printing process lives
------------------
     c_bands:  1 eigenvalues not converged
     c_bands:  1 eigenvalues not converged
     c_bands:  1 eigenvalues not converged
     c_bands:  1 eigenvalues not converged
     c_bands:  1 eigenvalues not converged
     c_bands:  1 eigenvalues not converged
     c_bands:  1 eigenvalues not converged
     c_bands:  1 eigenvalues not converged
     c_bands:  1 eigenvalues not converged
     c_bands:  1 eigenvalues not converged
     c_bands:  1 eigenvalues not converged
     c_bands:  1 eigenvalues not converged
     c_bands:  1 eigenvalues not converged
     c_bands:  1 eigenvalues not converged
     c_bands:  1 eigenvalues not converged
     c_bands:  1 eigenvalues not converged
     c_bands:  1 eigenvalues not converged
     c_bands:  1 eigenvalues not converged
     c_bands:  1 eigenvalues not converged
     c_bands:  1 eigenvalues not converged
     c_bands:  1 eigenvalues not converged
     c_bands:  1 eigenvalues not converged
     c_bands:  1 eigenvalues not converged
     c_bands:  1 eigenvalues not converged
     c_bands:  1 eigenvalues not converged
     c_bands:  1 eigenvalues not converged
     c_bands:  1 eigenvalues not converged
     c_bands:  1 eigenvalues not converged
     c_bands:  1 eigenvalues not converged
     c_bands:  1 eigenvalues not converged
     c_bands:  1 eigenvalues not converged
     c_bands:  1 eigenvalues not converged
     c_bands:  1 eigenvalues not converged
     c_bands:  1 eigenvalues not converged
     c_bands:  1 eigenvalues not converged
     c_bands:  1 eigenvalues not converged
     c_bands:  1 eigenvalues not converged
     c_bands:  1 eigenvalues not converged
     c_bands:  2 eigenvalues not converged
     c_bands:  1 eigenvalues not converged
     c_bands:  1 eigenvalues not converged
     c_bands:  1 eigenvalues not converged
     c_bands:  1 eigenvalues not converged
     c_bands:  1 eigenvalues not converged
     ethr =  2.81E-06,  avg # of iterations =  3.0

     negative rho (up, down):  2.153E-03 1.256E-03

     total cpu time spent up to now is    67322.3 secs

     total energy              =   -3114.55457237 Ry
     estimated scf accuracy    <       0.00615859 Ry

     total magnetization       =     9.74 Bohr mag/cell
     absolute magnetization    =    13.34 Bohr mag/cell

     iteration # 17     ecut=   124.00 Ry     beta= 0.20
     CG style diagonalization

---- Real-time Memory Report at c_bands before calling an iterative solver
          5205 MiB given to the printing process from OS
          4947 MiB allocation reported by mallinfo(arena+hblkhd)
        126514 MiB available memory on the node where the printing process lives
------------------
     c_bands:  1 eigenvalues not converged
     c_bands:  1 eigenvalues not converged
     c_bands:  1 eigenvalues not converged
     c_bands:  1 eigenvalues not converged
     c_bands:  1 eigenvalues not converged
     c_bands:  1 eigenvalues not converged
     c_bands:  1 eigenvalues not converged
     c_bands:  1 eigenvalues not converged
     c_bands:  1 eigenvalues not converged
     c_bands:  1 eigenvalues not converged
     c_bands:  1 eigenvalues not converged
     c_bands:  1 eigenvalues not converged
     c_bands:  1 eigenvalues not converged
     ethr =  2.81E-06,  avg # of iterations =  3.0

     negative rho (up, down):  2.301E-03 1.283E-03

     total cpu time spent up to now is    71514.8 secs

     total energy              =   -3114.55381274 Ry
     estimated scf accuracy    <       0.00618921 Ry

     total magnetization       =     9.47 Bohr mag/cell
     absolute magnetization    =    13.05 Bohr mag/cell

     iteration # 18     ecut=   124.00 Ry     beta= 0.20
     CG style diagonalization

---- Real-time Memory Report at c_bands before calling an iterative solver
          5205 MiB given to the printing process from OS
          4947 MiB allocation reported by mallinfo(arena+hblkhd)
        119841 MiB available memory on the node where the printing process lives
------------------
     c_bands:  1 eigenvalues not converged
     c_bands:  1 eigenvalues not converged
     c_bands:  1 eigenvalues not converged
     c_bands:  1 eigenvalues not converged
     c_bands:  1 eigenvalues not converged
     c_bands:  1 eigenvalues not converged
     c_bands:  1 eigenvalues not converged
     c_bands:  1 eigenvalues not converged
     c_bands:  1 eigenvalues not converged
     c_bands:  1 eigenvalues not converged
     c_bands:  1 eigenvalues not converged
     c_bands:  1 eigenvalues not converged
     c_bands:  1 eigenvalues not converged
     c_bands:  1 eigenvalues not converged
     c_bands:  1 eigenvalues not converged
     c_bands:  1 eigenvalues not converged
     c_bands:  1 eigenvalues not converged
     c_bands:  1 eigenvalues not converged
     c_bands:  1 eigenvalues not converged
     c_bands:  1 eigenvalues not converged
     c_bands:  1 eigenvalues not converged
     c_bands:  1 eigenvalues not converged
     c_bands:  1 eigenvalues not converged
     c_bands:  1 eigenvalues not converged
     c_bands:  1 eigenvalues not converged
     c_bands:  1 eigenvalues not converged
     c_bands:  1 eigenvalues not converged
     c_bands:  1 eigenvalues not converged
     c_bands:  1 eigenvalues not converged
     c_bands:  1 eigenvalues not converged
     c_bands:  1 eigenvalues not converged
     c_bands:  1 eigenvalues not converged
     c_bands:  1 eigenvalues not converged
     c_bands:  1 eigenvalues not converged
     c_bands:  1 eigenvalues not converged
     c_bands:  1 eigenvalues not converged
     c_bands:  1 eigenvalues not converged
     c_bands:  1 eigenvalues not converged
     c_bands:  1 eigenvalues not converged
     c_bands:  1 eigenvalues not converged
     c_bands:  1 eigenvalues not converged
     c_bands:  1 eigenvalues not converged
     c_bands:  1 eigenvalues not converged
     ethr =  2.81E-06,  avg # of iterations =  3.6

     negative rho (up, down):  2.292E-03 1.283E-03

     total cpu time spent up to now is    76737.8 secs

     total energy              =   -3114.56069460 Ry
     estimated scf accuracy    <       0.00124665 Ry

     total magnetization       =    10.65 Bohr mag/cell
     absolute magnetization    =    14.54 Bohr mag/cell

     iteration # 19     ecut=   124.00 Ry     beta= 0.20
     CG style diagonalization

---- Real-time Memory Report at c_bands before calling an iterative solver
          5205 MiB given to the printing process from OS
          4947 MiB allocation reported by mallinfo(arena+hblkhd)
        148354 MiB available memory on the node where the printing process lives
------------------
     c_bands:  1 eigenvalues not converged
     c_bands:  1 eigenvalues not converged
     c_bands:  1 eigenvalues not converged
     c_bands:  1 eigenvalues not converged
     c_bands:  1 eigenvalues not converged
     c_bands:  1 eigenvalues not converged
     c_bands:  1 eigenvalues not converged
     c_bands:  1 eigenvalues not converged
     c_bands:  1 eigenvalues not converged
     c_bands:  1 eigenvalues not converged
     c_bands:  1 eigenvalues not converged
     c_bands:  1 eigenvalues not converged
     c_bands:  1 eigenvalues not converged
     c_bands:  1 eigenvalues not converged
     c_bands:  1 eigenvalues not converged
     c_bands:  1 eigenvalues not converged
     c_bands:  1 eigenvalues not converged
     c_bands:  1 eigenvalues not converged
     c_bands:  1 eigenvalues not converged
     c_bands:  1 eigenvalues not converged
     c_bands:  1 eigenvalues not converged
     c_bands:  1 eigenvalues not converged
     c_bands:  1 eigenvalues not converged
     c_bands:  1 eigenvalues not converged
     c_bands:  2 eigenvalues not converged
     c_bands:  1 eigenvalues not converged
     c_bands:  1 eigenvalues not converged
     c_bands:  1 eigenvalues not converged
     c_bands:  1 eigenvalues not converged
     c_bands:  1 eigenvalues not converged
     c_bands:  1 eigenvalues not converged
     c_bands:  1 eigenvalues not converged
     c_bands:  1 eigenvalues not converged
     ethr =  6.96E-07,  avg # of iterations =  3.4

     negative rho (up, down):  2.310E-03 1.274E-03

     total cpu time spent up to now is    80831.4 secs

     total energy              =   -3114.56139950 Ry
     estimated scf accuracy    <       0.00104750 Ry

     total magnetization       =    10.73 Bohr mag/cell
     absolute magnetization    =    14.56 Bohr mag/cell

     iteration # 20     ecut=   124.00 Ry     beta= 0.20
     CG style diagonalization

---- Real-time Memory Report at c_bands before calling an iterative solver
          5205 MiB given to the printing process from OS
          4947 MiB allocation reported by mallinfo(arena+hblkhd)
        146003 MiB available memory on the node where the printing process lives
------------------
     c_bands:  1 eigenvalues not converged
     c_bands:  1 eigenvalues not converged
     c_bands:  1 eigenvalues not converged
     c_bands:  1 eigenvalues not converged
     c_bands:  1 eigenvalues not converged
     c_bands:  1 eigenvalues not converged
     c_bands:  1 eigenvalues not converged
     c_bands:  1 eigenvalues not converged
     c_bands:  1 eigenvalues not converged
     c_bands:  1 eigenvalues not converged
     c_bands:  1 eigenvalues not converged
     c_bands:  1 eigenvalues not converged
     c_bands:  1 eigenvalues not converged
     c_bands:  1 eigenvalues not converged
     c_bands:  1 eigenvalues not converged
     c_bands:  1 eigenvalues not converged
     c_bands:  1 eigenvalues not converged
     c_bands:  1 eigenvalues not converged
     c_bands:  1 eigenvalues not converged
     c_bands:  1 eigenvalues not converged
     ethr =  5.85E-07,  avg # of iterations =  3.6

     negative rho (up, down):  2.338E-03 1.249E-03

     total cpu time spent up to now is    85340.5 secs

     total energy              =   -3114.56192350 Ry
     estimated scf accuracy    <       0.00068390 Ry

     total magnetization       =    10.96 Bohr mag/cell
     absolute magnetization    =    14.90 Bohr mag/cell

     iteration # 21     ecut=   124.00 Ry     beta= 0.20
     CG style diagonalization

---- Real-time Memory Report at c_bands before calling an iterative solver
          5205 MiB given to the printing process from OS
          4947 MiB allocation reported by mallinfo(arena+hblkhd)
        148338 MiB available memory on the node where the printing process lives
------------------
     c_bands:  1 eigenvalues not converged
     c_bands:  1 eigenvalues not converged
     c_bands:  1 eigenvalues not converged
     c_bands:  1 eigenvalues not converged
     c_bands:  1 eigenvalues not converged
     c_bands:  1 eigenvalues not converged
     c_bands:  1 eigenvalues not converged
     c_bands:  1 eigenvalues not converged
     c_bands:  1 eigenvalues not converged
     c_bands:  1 eigenvalues not converged
     c_bands:  2 eigenvalues not converged
     c_bands:  1 eigenvalues not converged
     c_bands:  1 eigenvalues not converged
     c_bands:  1 eigenvalues not converged
     ethr =  3.82E-07,  avg # of iterations =  3.9

     negative rho (up, down):  2.339E-03 1.236E-03

     total cpu time spent up to now is    90323.8 secs

     total energy              =   -3114.56303859 Ry
     estimated scf accuracy    <       0.00029412 Ry

     total magnetization       =    11.32 Bohr mag/cell
     absolute magnetization    =    15.43 Bohr mag/cell

     iteration # 22     ecut=   124.00 Ry     beta= 0.20
     CG style diagonalization

---- Real-time Memory Report at c_bands before calling an iterative solver
          5205 MiB given to the printing process from OS
          4947 MiB allocation reported by mallinfo(arena+hblkhd)
        148338 MiB available memory on the node where the printing process lives
------------------
     c_bands:  1 eigenvalues not converged
     c_bands:  1 eigenvalues not converged
     c_bands:  1 eigenvalues not converged
     c_bands:  1 eigenvalues not converged
     c_bands:  1 eigenvalues not converged
     c_bands:  1 eigenvalues not converged
     c_bands:  1 eigenvalues not converged
     c_bands:  1 eigenvalues not converged
     c_bands:  1 eigenvalues not converged
     c_bands:  1 eigenvalues not converged
     c_bands:  1 eigenvalues not converged
     c_bands:  1 eigenvalues not converged
     c_bands:  1 eigenvalues not converged
     c_bands:  1 eigenvalues not converged
     c_bands:  1 eigenvalues not converged
     c_bands:  1 eigenvalues not converged
     c_bands:  1 eigenvalues not converged
     c_bands:  1 eigenvalues not converged
     c_bands:  1 eigenvalues not converged
     c_bands:  1 eigenvalues not converged
     c_bands:  1 eigenvalues not converged
     c_bands:  1 eigenvalues not converged
     c_bands:  1 eigenvalues not converged
     c_bands:  1 eigenvalues not converged
     c_bands:  1 eigenvalues not converged
     ethr =  1.64E-07,  avg # of iterations =  3.7

     negative rho (up, down):  2.354E-03 1.219E-03

     total cpu time spent up to now is    94933.4 secs

     total energy              =   -3114.56328758 Ry
     estimated scf accuracy    <       0.00018821 Ry

     total magnetization       =    11.32 Bohr mag/cell
     absolute magnetization    =    15.49 Bohr mag/cell

     iteration # 23     ecut=   124.00 Ry     beta= 0.20
     CG style diagonalization

---- Real-time Memory Report at c_bands before calling an iterative solver
          5205 MiB given to the printing process from OS
          4947 MiB allocation reported by mallinfo(arena+hblkhd)
        148500 MiB available memory on the node where the printing process lives
------------------
     c_bands:  1 eigenvalues not converged
     c_bands:  1 eigenvalues not converged
     c_bands:  1 eigenvalues not converged
     c_bands:  1 eigenvalues not converged
     c_bands:  1 eigenvalues not converged
     c_bands:  1 eigenvalues not converged
     c_bands:  1 eigenvalues not converged
     c_bands:  1 eigenvalues not converged
     c_bands:  1 eigenvalues not converged
     c_bands:  1 eigenvalues not converged
     ethr =  1.05E-07,  avg # of iterations =  3.7

     negative rho (up, down):  2.387E-03 1.202E-03

     total cpu time spent up to now is    99592.4 secs

     total energy              =   -3114.56335006 Ry
     estimated scf accuracy    <       0.00008528 Ry

     total magnetization       =    11.40 Bohr mag/cell
     absolute magnetization    =    15.68 Bohr mag/cell

     iteration # 24     ecut=   124.00 Ry     beta= 0.20
     CG style diagonalization

---- Real-time Memory Report at c_bands before calling an iterative solver
          5205 MiB given to the printing process from OS
          4947 MiB allocation reported by mallinfo(arena+hblkhd)
        147853 MiB available memory on the node where the printing process lives
------------------
     c_bands:  1 eigenvalues not converged
     c_bands:  1 eigenvalues not converged
     c_bands:  1 eigenvalues not converged
     c_bands:  1 eigenvalues not converged
     c_bands:  1 eigenvalues not converged
     c_bands:  1 eigenvalues not converged
     c_bands:  1 eigenvalues not converged
     ethr =  4.76E-08,  avg # of iterations =  4.5

     negative rho (up, down):  2.394E-03 1.202E-03

     total cpu time spent up to now is   105531.1 secs

     total energy              =   -3114.56362404 Ry
     estimated scf accuracy    <       0.00003498 Ry

     total magnetization       =    11.54 Bohr mag/cell
     absolute magnetization    =    15.98 Bohr mag/cell

     iteration # 25     ecut=   124.00 Ry     beta= 0.20
     CG style diagonalization

---- Real-time Memory Report at c_bands before calling an iterative solver
          5205 MiB given to the printing process from OS
          4947 MiB allocation reported by mallinfo(arena+hblkhd)
        147645 MiB available memory on the node where the printing process lives
------------------
     c_bands:  1 eigenvalues not converged
     ethr =  1.95E-08,  avg # of iterations =  4.1

     negative rho (up, down):  2.405E-03 1.198E-03

     total cpu time spent up to now is   110762.1 secs

     total energy              =   -3114.56365029 Ry
     estimated scf accuracy    <       0.00001439 Ry

     total magnetization       =    11.52 Bohr mag/cell
     absolute magnetization    =    15.96 Bohr mag/cell

     iteration # 26     ecut=   124.00 Ry     beta= 0.20
     CG style diagonalization

---- Real-time Memory Report at c_bands before calling an iterative solver
          5205 MiB given to the printing process from OS
          4947 MiB allocation reported by mallinfo(arena+hblkhd)
        147774 MiB available memory on the node where the printing process lives
------------------
     ethr =  8.04E-09,  avg # of iterations =  4.3

     negative rho (up, down):  2.415E-03 1.193E-03

     total cpu time spent up to now is   116160.6 secs

     total energy              =   -3114.56366266 Ry
     estimated scf accuracy    <       0.00000764 Ry

     total magnetization       =    11.51 Bohr mag/cell
     absolute magnetization    =    15.98 Bohr mag/cell

     iteration # 27     ecut=   124.00 Ry     beta= 0.20
     CG style diagonalization

---- Real-time Memory Report at c_bands before calling an iterative solver
          5205 MiB given to the printing process from OS
          4947 MiB allocation reported by mallinfo(arena+hblkhd)
        149279 MiB available memory on the node where the printing process lives
------------------
     ethr =  4.27E-09,  avg # of iterations =  4.3

     negative rho (up, down):  2.418E-03 1.190E-03

     total cpu time spent up to now is   121432.3 secs

     total energy              =   -3114.56366791 Ry
     estimated scf accuracy    <       0.00000342 Ry

     total magnetization       =    11.52 Bohr mag/cell
     absolute magnetization    =    16.01 Bohr mag/cell

     iteration # 28     ecut=   124.00 Ry     beta= 0.20
     CG style diagonalization

---- Real-time Memory Report at c_bands before calling an iterative solver
          5205 MiB given to the printing process from OS
          4947 MiB allocation reported by mallinfo(arena+hblkhd)
        148367 MiB available memory on the node where the printing process lives
------------------
     c_bands:  1 eigenvalues not converged
     ethr =  1.91E-09,  avg # of iterations =  4.2

     negative rho (up, down):  2.421E-03 1.189E-03

     total cpu time spent up to now is   126590.3 secs

     total energy              =   -3114.56367056 Ry
     estimated scf accuracy    <       0.00000138 Ry

     total magnetization       =    11.53 Bohr mag/cell
     absolute magnetization    =    16.03 Bohr mag/cell

     iteration # 29     ecut=   124.00 Ry     beta= 0.20
     CG style diagonalization

---- Real-time Memory Report at c_bands before calling an iterative solver
          5205 MiB given to the printing process from OS
          4947 MiB allocation reported by mallinfo(arena+hblkhd)
        149492 MiB available memory on the node where the printing process lives
------------------
     ethr =  7.72E-10,  avg # of iterations =  4.2

     negative rho (up, down):  2.423E-03 1.187E-03

     total cpu time spent up to now is   131720.3 secs

     total energy              =   -3114.56367127 Ry
     estimated scf accuracy    <       0.00000058 Ry

     total magnetization       =    11.53 Bohr mag/cell
     absolute magnetization    =    16.03 Bohr mag/cell

     iteration # 30     ecut=   124.00 Ry     beta= 0.20
     CG style diagonalization

---- Real-time Memory Report at c_bands before calling an iterative solver
          5205 MiB given to the printing process from OS
          4947 MiB allocation reported by mallinfo(arena+hblkhd)
        148354 MiB available memory on the node where the printing process lives
------------------
     ethr =  3.22E-10,  avg # of iterations =  4.5

     negative rho (up, down):  2.423E-03 1.187E-03

     total cpu time spent up to now is   137338.4 secs

     total energy              =   -3114.56367187 Ry
     estimated scf accuracy    <       0.00000024 Ry

     total magnetization       =    11.53 Bohr mag/cell
     absolute magnetization    =    16.04 Bohr mag/cell

     iteration # 31     ecut=   124.00 Ry     beta= 0.20
     CG style diagonalization

---- Real-time Memory Report at c_bands before calling an iterative solver
          5205 MiB given to the printing process from OS
          4947 MiB allocation reported by mallinfo(arena+hblkhd)
        150286 MiB available memory on the node where the printing process lives
------------------
     ethr =  1.35E-10,  avg # of iterations =  4.3

     negative rho (up, down):  2.424E-03 1.187E-03

     total cpu time spent up to now is   142694.9 secs

     total energy              =   -3114.56367205 Ry
     estimated scf accuracy    <       0.00000014 Ry

     total magnetization       =    11.53 Bohr mag/cell
     absolute magnetization    =    16.04 Bohr mag/cell

     iteration # 32     ecut=   124.00 Ry     beta= 0.20
     CG style diagonalization

---- Real-time Memory Report at c_bands before calling an iterative solver
          5205 MiB given to the printing process from OS
          4947 MiB allocation reported by mallinfo(arena+hblkhd)
        149745 MiB available memory on the node where the printing process lives
------------------
