
     Program PWSCF v.7.4 starts on 30Oct2025 at 14:44:45 

     This program is part of the open-source Quantum ESPRESSO suite
     for quantum simulation of materials; please cite
         "P. Giannozzi et al., J. Phys.:Condens. Matter 21 395502 (2009);
         "P. Giannozzi et al., J. Phys.:Condens. Matter 29 465901 (2017);
         "P. Giannozzi et al., J. Chem. Phys. 152 154105 (2020);
          URL http://www.quantum-espresso.org", 
     in publications or presentations arising from this work. More details at
     http://www.quantum-espresso.org/quote

     Parallel version (MPI & OpenMP), running on       8 processor cores
     Number of MPI processes:                 8
     Threads/MPI process:                     1

     MPI processes distributed on     1 nodes
     89759 MiB available memory on the printing compute node when the environment starts

     Reading input from Fe.in
Warning: card / ignored

     Current dimensions of program PWSCF are:
     Max number of different atomic species (ntypx) = 10
     Max number of k-points (npk) =  40000
     Max angular momentum in pseudopotentials (lmaxx) =  4
     file Fe.pbe-spn-kjpaw_psl.0.2.1.UPF: wavefunction(s)  3D renormalized

     IMPORTANT: XC functional enforced from input :
     Exchange-correlation= PBE
                           (   1   4   3   4   0   0   0)
     Any further DFT definition will be discarded
     Please, verify this is what you really want

     Message from routine setup:
     using ibrav=0 with symmetry is DISCOURAGED, use correct ibrav instead

     R & G space division:  proc/nbgrp/npool/nimage =       8
     Subspace diagonalization in iterative solution of the eigenvalue problem:
     a serial algorithm will be used


     Parallelization info
     --------------------
     sticks:   dense  smooth     PW     G-vecs:    dense   smooth      PW
     Min         357     102     32                12111     1846     323
     Max         358     103     33                12112     1848     324
     Sum        2861     817    261                96891    14771    2587

     Using Slab Decomposition



     bravais-lattice index     =            0
     lattice parameter (alat)  =       5.4104  a.u.
     unit-cell volume          =      79.1861 (a.u.)^3
     number of atoms/cell      =            1
     number of atomic types    =            1
     number of electrons       =        16.00
     number of Kohn-Sham states=           12
     kinetic-energy cutoff     =     124.0000  Ry
     charge density cutoff     =    1736.0000  Ry
     scf convergence threshold =      1.0E-08
     mixing beta               =       0.7000
     number of iterations used =            8  plain     mixing
     Exchange-correlation= PBE
                           (   1   4   3   4   0   0   0)

     celldm(1)=   5.410361  celldm(2)=   0.000000  celldm(3)=   0.000000
     celldm(4)=   0.000000  celldm(5)=   0.000000  celldm(6)=   0.000000

     crystal axes: (cart. coord. in units of alat)
               a(1) = (  -0.500000   0.500000   0.500000 )  
               a(2) = (   0.500000  -0.500000   0.500000 )  
               a(3) = (   0.500000   0.500000  -0.500000 )  

     reciprocal axes: (cart. coord. in units 2 pi/alat)
               b(1) = (  0.000000  1.000000  1.000000 )  
               b(2) = (  1.000000  0.000000  1.000000 )  
               b(3) = (  1.000000  1.000000  0.000000 )  


     PseudoPot. # 1 for Fe read from file:
     ../../pseudos/Fe.pbe-spn-kjpaw_psl.0.2.1.UPF
     MD5 check sum: e86618425769142926afa95317d90200
     Pseudo is Projector augmented-wave + core cor, Zval = 16.0
     Generated using "atomic" code by A. Dal Corso  v.5.0.99 svn rev. 10869
     Shape of augmentation charge: PSQ
     Using radial grid of 1191 points,  6 beta functions with: 
                l(1) =   0
                l(2) =   0
                l(3) =   1
                l(4) =   1
                l(5) =   2
                l(6) =   2
     Q(r) pseudized with 0 coefficients 


     atomic species   valence    mass     pseudopotential
     Fe               16.00    55.84500     Fe( 1.00)

     Starting magnetic structure 
     atomic species   magnetization
     Fe              0.062

     48 Sym. Ops., with inversion, found



   Cartesian axes

     site n.     atom                  positions (alat units)
         1        Fe     tau(   1) = (   0.0000000   0.0000000   0.0000000  )

     number of k points=   286  Marzari-Vanderbilt smearing, width (Ry)=  0.0050

     Number of k-points >= 100: set verbosity='high' to print them.

     Dense  grid:    96891 G-vectors     FFT dimensions: (  64,  64,  64)

     Smooth grid:    14771 G-vectors     FFT dimensions: (  36,  36,  36)

     Estimated max dynamical RAM per process >      77.11 MB

     Estimated total dynamical RAM >     616.91 MB

     Check: negative core charge=   -0.000002
     Generating pointlists ...
     new r_m :   0.3572 (alat units)  1.9328 (a.u.) for type    1

     Initial potential from superposition of free atoms

     starting charge      15.9996, renormalised to      16.0000
     Starting wfcs are   13 randomized atomic wfcs
     Checking if some PAW data can be deallocated... 

     total cpu time spent up to now is        2.4 secs

     per-process dynamical memory:   144.9 Mb

     Self-consistent Calculation

     iteration #  1     ecut=   124.00 Ry     beta= 0.70
     Davidson diagonalization with overlap
     ethr =  1.00E-02,  avg # of iterations =  3.1

     Threshold (ethr) on eigenvalues was too large:
     Diagonalizing with lowered threshold

     Davidson diagonalization with overlap
     ethr =  2.68E-04,  avg # of iterations =  3.7

     total cpu time spent up to now is        8.7 secs

     total energy              =    -329.23740162 Ry
     estimated scf accuracy    <       0.04340188 Ry

     total magnetization       =     1.49 Bohr mag/cell
     absolute magnetization    =     1.49 Bohr mag/cell

     iteration #  2     ecut=   124.00 Ry     beta= 0.70
     Davidson diagonalization with overlap
     ethr =  2.71E-04,  avg # of iterations =  2.0

     total cpu time spent up to now is       11.7 secs

     total energy              =    -329.24698748 Ry
     estimated scf accuracy    <       0.10790555 Ry

     total magnetization       =     1.90 Bohr mag/cell
     absolute magnetization    =     1.93 Bohr mag/cell

     iteration #  3     ecut=   124.00 Ry     beta= 0.70
     Davidson diagonalization with overlap
     ethr =  2.71E-04,  avg # of iterations =  2.0

     negative rho (up, down):  0.000E+00 1.438E-05

     total cpu time spent up to now is       14.6 secs

     total energy              =    -329.26258298 Ry
     estimated scf accuracy    <       0.00924065 Ry

     total magnetization       =     1.91 Bohr mag/cell
     absolute magnetization    =     1.94 Bohr mag/cell

     iteration #  4     ecut=   124.00 Ry     beta= 0.70
     Davidson diagonalization with overlap
     ethr =  5.78E-05,  avg # of iterations =  2.2

     negative rho (up, down):  0.000E+00 9.396E-06

     total cpu time spent up to now is       17.5 secs

     total energy              =    -329.27066208 Ry
     estimated scf accuracy    <       0.00087386 Ry

     total magnetization       =     2.19 Bohr mag/cell
     absolute magnetization    =     2.31 Bohr mag/cell

     iteration #  5     ecut=   124.00 Ry     beta= 0.70
     Davidson diagonalization with overlap
     ethr =  5.46E-06,  avg # of iterations =  3.1

     negative rho (up, down):  0.000E+00 1.198E-05

     total cpu time spent up to now is       20.8 secs

     total energy              =    -329.27121085 Ry
     estimated scf accuracy    <       0.00035611 Ry

     total magnetization       =     2.13 Bohr mag/cell
     absolute magnetization    =     2.23 Bohr mag/cell

     iteration #  6     ecut=   124.00 Ry     beta= 0.70
     Davidson diagonalization with overlap
     ethr =  2.23E-06,  avg # of iterations =  2.3

     negative rho (up, down):  0.000E+00 1.176E-05

     total cpu time spent up to now is       23.8 secs

     total energy              =    -329.27161371 Ry
     estimated scf accuracy    <       0.00003179 Ry

     total magnetization       =     2.20 Bohr mag/cell
     absolute magnetization    =     2.33 Bohr mag/cell

     iteration #  7     ecut=   124.00 Ry     beta= 0.70
     Davidson diagonalization with overlap
     ethr =  1.99E-07,  avg # of iterations =  2.8

     negative rho (up, down):  0.000E+00 1.236E-05

     total cpu time spent up to now is       27.1 secs

     total energy              =    -329.27162239 Ry
     estimated scf accuracy    <       0.00001220 Ry

     total magnetization       =     2.20 Bohr mag/cell
     absolute magnetization    =     2.33 Bohr mag/cell

     iteration #  8     ecut=   124.00 Ry     beta= 0.70
     Davidson diagonalization with overlap
     ethr =  7.62E-08,  avg # of iterations =  2.0

     negative rho (up, down):  0.000E+00 1.235E-05

     total cpu time spent up to now is       29.9 secs

     total energy              =    -329.27163719 Ry
     estimated scf accuracy    <       0.00000054 Ry

     total magnetization       =     2.21 Bohr mag/cell
     absolute magnetization    =     2.34 Bohr mag/cell

     iteration #  9     ecut=   124.00 Ry     beta= 0.70
     Davidson diagonalization with overlap
     ethr =  3.40E-09,  avg # of iterations =  4.1

     negative rho (up, down):  0.000E+00 1.238E-05

     total cpu time spent up to now is       33.9 secs

     total energy              =    -329.27163790 Ry
     estimated scf accuracy    <       0.00000006 Ry

     total magnetization       =     2.21 Bohr mag/cell
     absolute magnetization    =     2.34 Bohr mag/cell

     iteration # 10     ecut=   124.00 Ry     beta= 0.70
     Davidson diagonalization with overlap
     ethr =  4.04E-10,  avg # of iterations =  2.5

     negative rho (up, down):  0.000E+00 1.239E-05

     total cpu time spent up to now is       37.0 secs

     total energy              =    -329.27163795 Ry
     estimated scf accuracy    <       0.00000001 Ry

     total magnetization       =     2.21 Bohr mag/cell
     absolute magnetization    =     2.34 Bohr mag/cell

     iteration # 11     ecut=   124.00 Ry     beta= 0.70
     Davidson diagonalization with overlap
     ethr =  8.29E-11,  avg # of iterations =  2.2

     negative rho (up, down):  0.000E+00 1.239E-05

     Magnetic moment per site  (integrated on atomic sphere of radius R)
     atom   1 (R=0.357)  charge= 14.4168  magn=  2.2687

     total cpu time spent up to now is       39.9 secs

     End of self-consistent calculation

     Number of k-points >= 100: set verbosity='high' to print the bands.

     the Fermi energy is    17.5398 ev

!    total energy              =    -329.27163795 Ry
     total all-electron energy =     -2545.568173 Ry
     estimated scf accuracy    <          8.7E-10 Ry
     smearing contrib. (-TS)   =       0.00001607 Ry
     internal energy E=F+TS    =    -329.27165403 Ry

     The total energy is F=E-TS. E is the sum of the following terms:
     one-electron contribution =    -112.56289679 Ry
     hartree contribution      =      66.44827018 Ry
     xc contribution           =     -34.80862287 Ry
     ewald contribution        =    -172.19621385 Ry
     one-center paw contrib.   =     -76.15219071 Ry

     total magnetization       =     2.21 Bohr mag/cell
     absolute magnetization    =     2.34 Bohr mag/cell

     convergence has been achieved in  11 iterations

     negative rho (up, down):  0.000E+00 1.239E-05

     Forces acting on atoms (cartesian axes, Ry/au):

     atom    1 type  1   force =     0.00000000    0.00000000    0.00000000

     Total force =     0.000000     Total SCF correction =     0.000000


     Computing stress (Cartesian axis) and pressure


     negative rho (up, down):  0.000E+00 1.239E-05
          total   stress  (Ry/bohr**3)                   (kbar)     P=      -58.59
  -0.00039830  -0.00000000  -0.00000000          -58.59       -0.00       -0.00
  -0.00000000  -0.00039830  -0.00000000           -0.00      -58.59       -0.00
  -0.00000000  -0.00000000  -0.00039830           -0.00       -0.00      -58.59


     Writing all to output data dir ./Fe.save/ :
     XML data file, charge density, pseudopotentials, collected wavefunctions

     init_run     :      1.86s CPU      2.10s WALL (       1 calls)
     electrons    :     36.34s CPU     37.61s WALL (       1 calls)
     forces       :      0.20s CPU      0.21s WALL (       1 calls)
     stress       :      0.91s CPU      0.92s WALL (       1 calls)

     Called by init_run:
     wfcinit      :      1.07s CPU      1.24s WALL (       1 calls)
     potinit      :      0.35s CPU      0.40s WALL (       1 calls)
     hinit0       :      0.32s CPU      0.32s WALL (       1 calls)

     Called by electrons:
     c_bands      :     29.31s CPU     30.28s WALL (      12 calls)
     sum_band     :      5.44s CPU      5.62s WALL (      12 calls)
     v_of_rho     :      0.32s CPU      0.34s WALL (      12 calls)
     newd         :      0.46s CPU      0.47s WALL (      12 calls)
     PAW_pot      :      0.89s CPU      0.95s WALL (      12 calls)
     mix_rho      :      0.02s CPU      0.02s WALL (      12 calls)

     Called by c_bands:
     init_us_2    :      0.69s CPU      0.71s WALL (   15444 calls)
     cegterg      :     28.28s CPU     29.21s WALL (    6864 calls)

     Called by *egterg:
     cdiaghg      :      3.01s CPU      3.22s WALL (   24537 calls)
     h_psi        :     23.79s CPU     24.59s WALL (   25681 calls)
     s_psi        :      0.24s CPU      0.25s WALL (   25681 calls)
     g_psi        :      0.10s CPU      0.11s WALL (   18245 calls)

     Called by h_psi:
     h_psi:calbec :      0.51s CPU      0.53s WALL (   25681 calls)
     vloc_psi     :     22.90s CPU     23.67s WALL (   25681 calls)
     add_vuspsi   :      0.25s CPU      0.26s WALL (   25681 calls)

     General routines
     calbec       :      0.92s CPU      0.95s WALL (   42269 calls)
     fft          :      0.38s CPU      0.40s WALL (     340 calls)
     ffts         :      0.24s CPU      0.24s WALL (      48 calls)
     fftw         :     22.27s CPU     23.01s WALL (  500338 calls)
     interpolate  :      0.25s CPU      0.25s WALL (      24 calls)

     Parallel routines

     PWSCF        :     39.97s CPU     52.20s WALL


   This run was terminated on:  14:45:37  30Oct2025            

=------------------------------------------------------------------------------=
   JOB DONE.
=------------------------------------------------------------------------------=
