
     Program PWSCF v.7.4 starts on 12Nov2025 at 22:55:48 

     This program is part of the open-source Quantum ESPRESSO suite
     for quantum simulation of materials; please cite
         "P. Giannozzi et al., J. Phys.:Condens. Matter 21 395502 (2009);
         "P. Giannozzi et al., J. Phys.:Condens. Matter 29 465901 (2017);
         "P. Giannozzi et al., J. Chem. Phys. 152 154105 (2020);
          URL http://www.quantum-espresso.org", 
     in publications or presentations arising from this work. More details at
     http://www.quantum-espresso.org/quote

     Parallel version (MPI & OpenMP), running on      16 processor cores
     Number of MPI processes:                16
     Threads/MPI process:                     1

     MPI processes distributed on     1 nodes
     120228 MiB available memory on the printing compute node when the environment starts

     Reading input from TiFe_H_edges_x.in

     Current dimensions of program PWSCF are:
     Max number of different atomic species (ntypx) = 10
     Max number of k-points (npk) =  40000
     Max angular momentum in pseudopotentials (lmaxx) =  4
     file Fe.pbe-spn-kjpaw_psl.0.2.1.UPF: wavefunction(s)  3D renormalized

     IMPORTANT: XC functional enforced from input :
     Exchange-correlation= PBE
                           (   1   4   3   4   0   0   0)
     Any further DFT definition will be discarded
     Please, verify this is what you really want

     Message from routine setup:
     using ibrav=0 with symmetry is DISCOURAGED, use correct ibrav instead

     R & G space division:  proc/nbgrp/npool/nimage =      16
     Subspace diagonalization in iterative solution of the eigenvalue problem:
     a serial algorithm will be used


     Parallelization info
     --------------------
     sticks:   dense  smooth     PW     G-vecs:    dense   smooth      PW
     Min         269      76     22                13288     2024     320
     Max         271      77     23                13289     2027     323
     Sum        4309    1225    357               212623    32423    5137

     Using Slab Decomposition



     bravais-lattice index     =            0
     lattice parameter (alat)  =       5.5824  a.u.
     unit-cell volume          =     173.9675 (a.u.)^3
     number of atoms/cell      =            3
     number of atomic types    =            3
     number of electrons       =        29.00
     number of Kohn-Sham states=           19
     kinetic-energy cutoff     =     124.0000  Ry
     charge density cutoff     =    1736.0000  Ry
     scf convergence threshold =      1.0E-08
     mixing beta               =       0.7000
     number of iterations used =            8  plain     mixing
     energy convergence thresh.=      1.0E-04
     force convergence thresh. =      1.0E-03
     press convergence thresh. =      1.0E-01
     Exchange-correlation= PBE
                           (   1   4   3   4   0   0   0)
     nstep                     =           50


     celldm(1)=   5.582423  celldm(2)=   0.000000  celldm(3)=   0.000000
     celldm(4)=   0.000000  celldm(5)=   0.000000  celldm(6)=   0.000000

     crystal axes: (cart. coord. in units of alat)
               a(1) = (   1.000000   0.000000   0.000000 )  
               a(2) = (   0.000000   1.000000   0.000000 )  
               a(3) = (   0.000000   0.000000   1.000000 )  

     reciprocal axes: (cart. coord. in units 2 pi/alat)
               b(1) = (  1.000000  0.000000  0.000000 )  
               b(2) = (  0.000000  1.000000  0.000000 )  
               b(3) = (  0.000000  0.000000  1.000000 )  


     PseudoPot. # 1 for Fe read from file:
     ../../pseudos/Fe.pbe-spn-kjpaw_psl.0.2.1.UPF
     MD5 check sum: e86618425769142926afa95317d90200
     Pseudo is Projector augmented-wave + core cor, Zval = 16.0
     Generated using "atomic" code by A. Dal Corso  v.5.0.99 svn rev. 10869
     Shape of augmentation charge: PSQ
     Using radial grid of 1191 points,  6 beta functions with: 
                l(1) =   0
                l(2) =   0
                l(3) =   1
                l(4) =   1
                l(5) =   2
                l(6) =   2
     Q(r) pseudized with 0 coefficients 


     PseudoPot. # 2 for Ti read from file:
     ../../pseudos/ti_pbe_v1.4.uspp.F.UPF
     MD5 check sum: 88a00a6731bd790ddea75d31a80cb452
     Pseudo is Ultrasoft + core correction, Zval = 12.0
     Generated by new atomic code, or converted to UPF format
     Using radial grid of  851 points,  6 beta functions with: 
                l(1) =   0
                l(2) =   0
                l(3) =   1
                l(4) =   1
                l(5) =   2
                l(6) =   2
     Q(r) pseudized with  6 coefficients,  rinner =    1.000   1.000   1.000
                                                       1.000   1.000

     PseudoPot. # 3 for H  read from file:
     ../../pseudos/H.pbe-rrkjus_psl.1.0.0.UPF
     MD5 check sum: f52b6d4d1c606e5624b1dc7b2218f220
     Pseudo is Ultrasoft, Zval =  1.0
     Generated using "atomic" code by A. Dal Corso  v.5.1
     Using radial grid of  929 points,  2 beta functions with: 
                l(1) =   0
                l(2) =   0
     Q(r) pseudized with 0 coefficients 


     atomic species   valence    mass     pseudopotential
     Fe               16.00    55.84500     Fe( 1.00)
     Ti               12.00    47.86700     Ti( 1.00)
     H                 1.00     1.00750     H ( 1.00)

     16 Sym. Ops., with inversion, found



   Cartesian axes

     site n.     atom                  positions (alat units)
         1        Fe     tau(   1) = (   0.5000000   0.5000000   0.5000000  )
         2        Ti     tau(   2) = (   0.0000000   0.0000000   0.0000000  )
         3        H      tau(   3) = (   0.5000000   0.0000000   0.0000000  )

     number of k points=   288  Marzari-Vanderbilt smearing, width (Ry)=  0.0050

     Number of k-points >= 100: set verbosity='high' to print them.

     Dense  grid:   212623 G-vectors     FFT dimensions: (  75,  75,  75)

     Smooth grid:    32423 G-vectors     FFT dimensions: (  40,  40,  40)

     Estimated max dynamical RAM per process >      90.33 MB

     Estimated total dynamical RAM >       1.41 GB

     Check: negative core charge=   -0.000001

     Initial potential from superposition of free atoms

     starting charge      27.9995, renormalised to      29.0000

     negative rho (up, down):  1.312E-03 0.000E+00
     Starting wfcs are   24 randomized atomic wfcs
     Checking if some PAW data can be deallocated... 

     total cpu time spent up to now is        2.8 secs

     per-process dynamical memory:   160.1 Mb

     Self-consistent Calculation

     iteration #  1     ecut=   124.00 Ry     beta= 0.70
     Davidson diagonalization with overlap
     ethr =  1.00E-02,  avg # of iterations =  2.1

     negative rho (up, down):  1.115E-04 0.000E+00

     total cpu time spent up to now is        5.7 secs

     total energy              =    -434.92682050 Ry
     estimated scf accuracy    <      18.72602512 Ry

     iteration #  2     ecut=   124.00 Ry     beta= 0.70
     Davidson diagonalization with overlap
     ethr =  1.00E-02,  avg # of iterations =  6.3

     negative rho (up, down):  1.394E-05 0.000E+00

     total cpu time spent up to now is       11.2 secs

     total energy              =    -448.57188071 Ry
     estimated scf accuracy    <      73.30012367 Ry

     iteration #  3     ecut=   124.00 Ry     beta= 0.70
     Davidson diagonalization with overlap
     ethr =  1.00E-02,  avg # of iterations =  3.1

     negative rho (up, down):  1.457E-04 0.000E+00

     total cpu time spent up to now is       14.9 secs

     total energy              =    -449.73467074 Ry
     estimated scf accuracy    <      16.98785070 Ry

     iteration #  4     ecut=   124.00 Ry     beta= 0.70
     Davidson diagonalization with overlap
     ethr =  1.00E-02,  avg # of iterations =  2.3

     negative rho (up, down):  2.211E-04 0.000E+00

     total cpu time spent up to now is       17.8 secs

     total energy              =    -450.06832561 Ry
     estimated scf accuracy    <       5.09821549 Ry

     iteration #  5     ecut=   124.00 Ry     beta= 0.70
     Davidson diagonalization with overlap
     ethr =  1.00E-02,  avg # of iterations =  1.1

     negative rho (up, down):  8.223E-04 0.000E+00

     total cpu time spent up to now is       20.2 secs

     total energy              =    -449.32692505 Ry
     estimated scf accuracy    <       4.07256150 Ry

     iteration #  6     ecut=   124.00 Ry     beta= 0.70
     Davidson diagonalization with overlap
     ethr =  1.00E-02,  avg # of iterations =  2.1

     negative rho (up, down):  8.309E-04 0.000E+00

     total cpu time spent up to now is       22.8 secs

     total energy              =    -449.56930544 Ry
     estimated scf accuracy    <       0.08381471 Ry

     iteration #  7     ecut=   124.00 Ry     beta= 0.70
     Davidson diagonalization with overlap
     ethr =  2.89E-04,  avg # of iterations =  5.3

     negative rho (up, down):  6.779E-04 0.000E+00

     total cpu time spent up to now is       26.9 secs

     total energy              =    -449.59534838 Ry
     estimated scf accuracy    <       0.02204980 Ry

     iteration #  8     ecut=   124.00 Ry     beta= 0.70
     Davidson diagonalization with overlap
     ethr =  7.60E-05,  avg # of iterations =  4.3

     negative rho (up, down):  1.056E-03 0.000E+00

     total cpu time spent up to now is       30.7 secs

     total energy              =    -449.45748204 Ry
     estimated scf accuracy    <       1.62026468 Ry

     iteration #  9     ecut=   124.00 Ry     beta= 0.70
     Davidson diagonalization with overlap
     ethr =  7.60E-05,  avg # of iterations =  5.1

     negative rho (up, down):  8.899E-04 0.000E+00

     total cpu time spent up to now is       35.0 secs

     total energy              =    -449.58303879 Ry
     estimated scf accuracy    <       0.13730159 Ry

     iteration # 10     ecut=   124.00 Ry     beta= 0.70
     Davidson diagonalization with overlap
     ethr =  7.60E-05,  avg # of iterations =  2.8

     negative rho (up, down):  9.133E-04 0.000E+00

     total cpu time spent up to now is       38.1 secs

     total energy              =    -449.59495505 Ry
     estimated scf accuracy    <       0.01843354 Ry

     iteration # 11     ecut=   124.00 Ry     beta= 0.70
     Davidson diagonalization with overlap
     ethr =  6.36E-05,  avg # of iterations =  1.7

     negative rho (up, down):  9.059E-04 0.000E+00

     total cpu time spent up to now is       40.7 secs

     total energy              =    -449.59749532 Ry
     estimated scf accuracy    <       0.01677604 Ry

     iteration # 12     ecut=   124.00 Ry     beta= 0.70
     Davidson diagonalization with overlap
     ethr =  5.78E-05,  avg # of iterations =  1.0

     negative rho (up, down):  9.002E-04 0.000E+00

     total cpu time spent up to now is       43.1 secs

     total energy              =    -449.59776666 Ry
     estimated scf accuracy    <       0.00132325 Ry

     iteration # 13     ecut=   124.00 Ry     beta= 0.70
     Davidson diagonalization with overlap
     ethr =  4.56E-06,  avg # of iterations =  2.3

     negative rho (up, down):  9.034E-04 0.000E+00

     total cpu time spent up to now is       45.8 secs

     total energy              =    -449.59810685 Ry
     estimated scf accuracy    <       0.00258713 Ry

     iteration # 14     ecut=   124.00 Ry     beta= 0.70
     Davidson diagonalization with overlap
     ethr =  4.56E-06,  avg # of iterations =  1.0

     negative rho (up, down):  9.152E-04 0.000E+00

     total cpu time spent up to now is       48.2 secs

     total energy              =    -449.59789950 Ry
     estimated scf accuracy    <       0.00191282 Ry

     iteration # 15     ecut=   124.00 Ry     beta= 0.70
     Davidson diagonalization with overlap
     ethr =  4.56E-06,  avg # of iterations =  1.0

     negative rho (up, down):  9.225E-04 0.000E+00

     total cpu time spent up to now is       50.7 secs

     total energy              =    -449.59792934 Ry
     estimated scf accuracy    <       0.00016073 Ry

     iteration # 16     ecut=   124.00 Ry     beta= 0.70
     Davidson diagonalization with overlap
     ethr =  5.54E-07,  avg # of iterations =  2.3

     negative rho (up, down):  9.180E-04 0.000E+00

     total cpu time spent up to now is       53.5 secs

     total energy              =    -449.59795442 Ry
     estimated scf accuracy    <       0.00016466 Ry

     iteration # 17     ecut=   124.00 Ry     beta= 0.70
     Davidson diagonalization with overlap
     ethr =  5.54E-07,  avg # of iterations =  1.0

     negative rho (up, down):  9.173E-04 0.000E+00

     total cpu time spent up to now is       55.9 secs

     total energy              =    -449.59796527 Ry
     estimated scf accuracy    <       0.00000108 Ry

     iteration # 18     ecut=   124.00 Ry     beta= 0.70
     Davidson diagonalization with overlap
     ethr =  3.71E-09,  avg # of iterations =  5.7

     negative rho (up, down):  9.173E-04 0.000E+00

     total cpu time spent up to now is       60.5 secs

     total energy              =    -449.59796693 Ry
     estimated scf accuracy    <       0.00000036 Ry

     iteration # 19     ecut=   124.00 Ry     beta= 0.70
     Davidson diagonalization with overlap
     ethr =  1.25E-09,  avg # of iterations =  1.1

     negative rho (up, down):  9.173E-04 0.000E+00

     total cpu time spent up to now is       62.9 secs

     total energy              =    -449.59796688 Ry
     estimated scf accuracy    <       0.00000020 Ry

     iteration # 20     ecut=   124.00 Ry     beta= 0.70
     Davidson diagonalization with overlap
     ethr =  7.06E-10,  avg # of iterations =  1.4

     negative rho (up, down):  9.175E-04 0.000E+00

     total cpu time spent up to now is       65.4 secs

     total energy              =    -449.59796683 Ry
     estimated scf accuracy    <       0.00000007 Ry

     iteration # 21     ecut=   124.00 Ry     beta= 0.70
     Davidson diagonalization with overlap
     ethr =  2.30E-10,  avg # of iterations =  3.4

     negative rho (up, down):  9.175E-04 0.000E+00

     total cpu time spent up to now is       68.8 secs

     total energy              =    -449.59796685 Ry
     estimated scf accuracy    <       0.00000006 Ry

     iteration # 22     ecut=   124.00 Ry     beta= 0.70
     Davidson diagonalization with overlap
     ethr =  1.90E-10,  avg # of iterations =  1.8

     negative rho (up, down):  9.174E-04 0.000E+00

     total cpu time spent up to now is       71.4 secs

     End of self-consistent calculation

     Number of k-points >= 100: set verbosity='high' to print the bands.

     the Fermi energy is    18.0361 ev

!    total energy              =    -449.59796686 Ry
     estimated scf accuracy    <          4.3E-09 Ry
     smearing contrib. (-TS)   =      -0.00002982 Ry
     internal energy E=F+TS    =    -449.59793704 Ry

     The total energy is F=E-TS. E is the sum of the following terms:
     one-electron contribution =    -148.22783188 Ry
     hartree contribution      =      91.39694626 Ry
     xc contribution           =     -53.89094256 Ry
     ewald contribution        =    -262.72514085 Ry
     one-center paw contrib.   =     -76.15096800 Ry

     convergence has been achieved in  22 iterations

     negative rho (up, down):  9.174E-04 0.000E+00

     Forces acting on atoms (cartesian axes, Ry/au):

     atom    1 type  1   force =     0.00000000    0.00000000    0.00000000
     atom    2 type  2   force =     0.00000000    0.00000000    0.00000000
     atom    3 type  3   force =     0.00000000    0.00000000    0.00000000

     Total force =     0.000000     Total SCF correction =     0.000000


     Computing stress (Cartesian axis) and pressure


     negative rho (up, down):  9.174E-04 0.000E+00
          total   stress  (Ry/bohr**3)                   (kbar)     P=      365.88
   0.00585177   0.00000000   0.00000000          860.82        0.00        0.00
   0.00000000   0.00080496   0.00000000            0.00      118.41        0.00
   0.00000000   0.00000000   0.00080496            0.00        0.00      118.41


     BFGS Geometry Optimization
     Energy error            =      1.4E-01 Ry
     Gradient error          =      0.0E+00 Ry/Bohr
     Cell gradient error     =      8.6E+02 kbar

     number of scf cycles    =   1
     number of bfgs steps    =   0

     enthalpy           new  =    -449.5979668572 Ry

     new trust radius        =       0.3859144207 bohr
     new conv_thr            =       0.0000000100 Ry

     new unit-cell volume =    207.52484 a.u.^3 (    30.75201 Ang^3 )
     density =      5.65462 g/cm^3

CELL_PARAMETERS (alat=  5.58242261)
   1.146294145   0.000000000   0.000000000
   0.000000000   1.020123948   0.000000000
   0.000000000   0.000000000   1.020123948

ATOMIC_POSITIONS (crystal)
Fe               0.5000000000        0.5000000000        0.5000000000
Ti               0.0000000000        0.0000000000        0.0000000000
H                0.5000000000        0.0000000000        0.0000000000



     Writing config-only to output data dir ./TiFe_H_edges_x.save/ :
     XML data file     NEW-OLD atomic charge density approx. for the potential
     New effective cutoffs (rho, wfc): 1667.74  119.15

     Check: negative core charge=   -0.000002

     negative rho (up, down):  1.033E-03 0.000E+00

     total cpu time spent up to now is       73.7 secs

     per-process dynamical memory:   163.8 Mb

     Self-consistent Calculation

     iteration #  1     ecut=   124.00 Ry     beta= 0.70
     Davidson diagonalization with overlap
     c_bands:  1 eigenvalues not converged
     c_bands:  1 eigenvalues not converged
     c_bands:  1 eigenvalues not converged
     c_bands:  1 eigenvalues not converged
     c_bands:  1 eigenvalues not converged
     c_bands:  1 eigenvalues not converged
     c_bands:  1 eigenvalues not converged
     c_bands:  1 eigenvalues not converged
     ethr =  1.00E-06,  avg # of iterations = 14.6

     negative rho (up, down):  9.994E-04 0.000E+00

     total cpu time spent up to now is       86.0 secs

     total energy              =    -449.61795862 Ry
     estimated scf accuracy    <       0.07867453 Ry

     iteration #  2     ecut=   124.00 Ry     beta= 0.70
     Davidson diagonalization with overlap
     ethr =  2.71E-04,  avg # of iterations =  5.2

     negative rho (up, down):  8.239E-04 0.000E+00

     total cpu time spent up to now is       90.1 secs

     total energy              =    -449.16839453 Ry
     estimated scf accuracy    <      12.07747462 Ry

     iteration #  3     ecut=   124.00 Ry     beta= 0.70
     Davidson diagonalization with overlap
     ethr =  2.71E-04,  avg # of iterations =  4.6

     negative rho (up, down):  9.182E-04 0.000E+00

     total cpu time spent up to now is       94.0 secs

     total energy              =    -449.66419864 Ry
     estimated scf accuracy    <       0.02634166 Ry

     iteration #  4     ecut=   124.00 Ry     beta= 0.70
     Davidson diagonalization with overlap
     ethr =  9.08E-05,  avg # of iterations =  2.2

     negative rho (up, down):  9.102E-04 0.000E+00

     total cpu time spent up to now is       96.9 secs

     total energy              =    -449.66926115 Ry
     estimated scf accuracy    <       0.00692951 Ry

     iteration #  5     ecut=   124.00 Ry     beta= 0.70
     Davidson diagonalization with overlap
     ethr =  2.39E-05,  avg # of iterations =  1.8

     negative rho (up, down):  9.093E-04 0.000E+00

     total cpu time spent up to now is       99.5 secs

     total energy              =    -449.66975489 Ry
     estimated scf accuracy    <       0.00036327 Ry

     iteration #  6     ecut=   124.00 Ry     beta= 0.70
     Davidson diagonalization with overlap
     ethr =  1.25E-06,  avg # of iterations =  5.3

     negative rho (up, down):  9.075E-04 0.000E+00

     total cpu time spent up to now is      103.7 secs

     total energy              =    -449.66993745 Ry
     estimated scf accuracy    <       0.00009880 Ry

     iteration #  7     ecut=   124.00 Ry     beta= 0.70
     Davidson diagonalization with overlap
     ethr =  3.41E-07,  avg # of iterations =  1.5

     negative rho (up, down):  9.059E-04 0.000E+00

     total cpu time spent up to now is      106.3 secs

     total energy              =    -449.66993746 Ry
     estimated scf accuracy    <       0.00001716 Ry

     iteration #  8     ecut=   124.00 Ry     beta= 0.70
     Davidson diagonalization with overlap
     ethr =  5.92E-08,  avg # of iterations =  2.6

     negative rho (up, down):  9.066E-04 0.000E+00

     total cpu time spent up to now is      109.5 secs

     total energy              =    -449.66994153 Ry
     estimated scf accuracy    <       0.00000608 Ry

     iteration #  9     ecut=   124.00 Ry     beta= 0.70
     Davidson diagonalization with overlap
     ethr =  2.10E-08,  avg # of iterations =  2.0

     negative rho (up, down):  9.070E-04 0.000E+00

     total cpu time spent up to now is      112.4 secs

     total energy              =    -449.66994170 Ry
     estimated scf accuracy    <       0.00000103 Ry

     iteration # 10     ecut=   124.00 Ry     beta= 0.70
     Davidson diagonalization with overlap
     ethr =  3.56E-09,  avg # of iterations =  3.6

     negative rho (up, down):  9.068E-04 0.000E+00

     total cpu time spent up to now is      115.8 secs

     total energy              =    -449.66994201 Ry
     estimated scf accuracy    <       0.00000002 Ry

     iteration # 11     ecut=   124.00 Ry     beta= 0.70
     Davidson diagonalization with overlap
     ethr =  7.40E-11,  avg # of iterations =  5.3

     negative rho (up, down):  9.067E-04 0.000E+00

     total cpu time spent up to now is      120.3 secs

     End of self-consistent calculation

     Number of k-points >= 100: set verbosity='high' to print the bands.

     the Fermi energy is    14.8874 ev

!    total energy              =    -449.66994203 Ry
     estimated scf accuracy    <          1.7E-09 Ry
     smearing contrib. (-TS)   =      -0.00019099 Ry
     internal energy E=F+TS    =    -449.66975103 Ry

     The total energy is F=E-TS. E is the sum of the following terms:
     one-electron contribution =    -171.49467307 Ry
     hartree contribution      =      99.41708116 Ry
     xc contribution           =     -53.51970571 Ry
     ewald contribution        =    -247.92565855 Ry
     one-center paw contrib.   =     -76.14679487 Ry

     convergence has been achieved in  11 iterations

     negative rho (up, down):  9.067E-04 0.000E+00

     Forces acting on atoms (cartesian axes, Ry/au):

     atom    1 type  1   force =     0.00000000    0.00000000    0.00000000
     atom    2 type  2   force =     0.00000000    0.00000000    0.00000000
     atom    3 type  3   force =     0.00000000    0.00000000    0.00000000

     Total force =     0.000000     Total SCF correction =     0.000000


     Computing stress (Cartesian axis) and pressure


     negative rho (up, down):  9.067E-04 0.000E+00
          total   stress  (Ry/bohr**3)                   (kbar)     P=      -76.59
   0.00091993   0.00000000   0.00000000          135.33        0.00        0.00
   0.00000000  -0.00124095   0.00000000            0.00     -182.55        0.00
   0.00000000   0.00000000  -0.00124095            0.00        0.00     -182.55

     Energy error            =      7.2E-02 Ry
     Gradient error          =      0.0E+00 Ry/Bohr
     Cell gradient error     =      1.8E+02 kbar

     number of scf cycles    =   2
     number of bfgs steps    =   1

     enthalpy           old  =    -449.5979668572 Ry
     enthalpy           new  =    -449.6699420276 Ry

     CASE: enthalpy          _new < enthalpy          _old

     new trust radius        =       0.1268137541 bohr
     new conv_thr            =            1.0E-10 Ry

     new unit-cell volume =    201.37743 a.u.^3 (    29.84106 Ang^3 )
     density =      5.82723 g/cm^3

CELL_PARAMETERS (alat=  5.58242261)
   1.196748353   0.000000000   0.000000000
   0.000000000   0.983489922   0.000000000
   0.000000000   0.000000000   0.983489922

ATOMIC_POSITIONS (crystal)
Fe               0.5000000000        0.5000000000        0.5000000000
Ti               0.0000000000        0.0000000000        0.0000000000
H                0.5000000000        0.0000000000        0.0000000000



     Writing config-only to output data dir ./TiFe_H_edges_x.save/ :
     XML data file     NEW-OLD atomic charge density approx. for the potential
     New effective cutoffs (rho, wfc): 1794.30  128.19

     Check: negative core charge=   -0.000002

     negative rho (up, down):  8.810E-04 0.000E+00

     total cpu time spent up to now is      122.5 secs

     per-process dynamical memory:   163.8 Mb

     Self-consistent Calculation

     iteration #  1     ecut=   124.00 Ry     beta= 0.70
     Davidson diagonalization with overlap
     ethr =  1.00E-06,  avg # of iterations = 11.3

     negative rho (up, down):  8.784E-04 0.000E+00

     total cpu time spent up to now is      132.5 secs

     total energy              =    -449.69402624 Ry
     estimated scf accuracy    <       0.00423596 Ry

     iteration #  2     ecut=   124.00 Ry     beta= 0.70
     Davidson diagonalization with overlap
     ethr =  1.46E-05,  avg # of iterations =  2.8

     negative rho (up, down):  9.014E-04 0.000E+00

     total cpu time spent up to now is      135.6 secs

     total energy              =    -449.69123312 Ry
     estimated scf accuracy    <       0.01477747 Ry

     iteration #  3     ecut=   124.00 Ry     beta= 0.70
     Davidson diagonalization with overlap
     ethr =  1.46E-05,  avg # of iterations =  3.7

     negative rho (up, down):  8.905E-04 0.000E+00

     total cpu time spent up to now is      139.0 secs

     total energy              =    -449.69002405 Ry
     estimated scf accuracy    <       0.11343437 Ry

     iteration #  4     ecut=   124.00 Ry     beta= 0.70
     Davidson diagonalization with overlap
     ethr =  1.46E-05,  avg # of iterations =  3.1

     negative rho (up, down):  8.856E-04 0.000E+00

     total cpu time spent up to now is      142.1 secs

     total energy              =    -449.69520122 Ry
     estimated scf accuracy    <       0.00002845 Ry

     iteration #  5     ecut=   124.00 Ry     beta= 0.70
     Davidson diagonalization with overlap
     ethr =  9.81E-08,  avg # of iterations =  4.8

     negative rho (up, down):  8.883E-04 0.000E+00

     total cpu time spent up to now is      146.3 secs

     total energy              =    -449.69522474 Ry
     estimated scf accuracy    <       0.00001191 Ry

     iteration #  6     ecut=   124.00 Ry     beta= 0.70
     Davidson diagonalization with overlap
     ethr =  4.11E-08,  avg # of iterations =  2.3

     negative rho (up, down):  8.884E-04 0.000E+00

     total cpu time spent up to now is      149.2 secs

     total energy              =    -449.69522682 Ry
     estimated scf accuracy    <       0.00000027 Ry

     iteration #  7     ecut=   124.00 Ry     beta= 0.70
     Davidson diagonalization with overlap
     ethr =  9.34E-10,  avg # of iterations =  4.9

     negative rho (up, down):  8.882E-04 0.000E+00

     total cpu time spent up to now is      153.3 secs

     total energy              =    -449.69522706 Ry
     estimated scf accuracy    <       0.00000010 Ry

     iteration #  8     ecut=   124.00 Ry     beta= 0.70
     Davidson diagonalization with overlap
     ethr =  3.29E-10,  avg # of iterations =  1.6

     negative rho (up, down):  8.882E-04 0.000E+00

     total cpu time spent up to now is      155.9 secs

     total energy              =    -449.69522707 Ry
     estimated scf accuracy    <          4.3E-09 Ry

     iteration #  9     ecut=   124.00 Ry     beta= 0.70
     Davidson diagonalization with overlap
     ethr =  1.47E-11,  avg # of iterations =  4.3

     negative rho (up, down):  8.882E-04 0.000E+00

     total cpu time spent up to now is      159.5 secs

     total energy              =    -449.69522707 Ry
     estimated scf accuracy    <          1.1E-09 Ry

     iteration # 10     ecut=   124.00 Ry     beta= 0.70
     Davidson diagonalization with overlap
     ethr =  3.89E-12,  avg # of iterations =  2.2

     negative rho (up, down):  8.882E-04 0.000E+00

     total cpu time spent up to now is      162.2 secs

     total energy              =    -449.69522707 Ry
     estimated scf accuracy    <          1.8E-10 Ry

     iteration # 11     ecut=   124.00 Ry     beta= 0.70
     Davidson diagonalization with overlap
     ethr =  6.37E-13,  avg # of iterations =  3.6

     negative rho (up, down):  8.882E-04 0.000E+00

     total cpu time spent up to now is      165.5 secs

     End of self-consistent calculation

     Number of k-points >= 100: set verbosity='high' to print the bands.

     the Fermi energy is    15.3956 ev

!    total energy              =    -449.69522707 Ry
     estimated scf accuracy    <          7.5E-12 Ry
     smearing contrib. (-TS)   =      -0.00008849 Ry
     internal energy E=F+TS    =    -449.69513858 Ry

     The total energy is F=E-TS. E is the sum of the following terms:
     one-electron contribution =    -167.73982869 Ry
     hartree contribution      =      98.14220344 Ry
     xc contribution           =     -53.54672485 Ry
     ewald contribution        =    -250.40275565 Ry
     one-center paw contrib.   =     -76.14803283 Ry

     convergence has been achieved in  11 iterations

     negative rho (up, down):  8.882E-04 0.000E+00

     Forces acting on atoms (cartesian axes, Ry/au):

     atom    1 type  1   force =     0.00000000    0.00000000    0.00000000
     atom    2 type  2   force =     0.00000000    0.00000000    0.00000000
     atom    3 type  3   force =     0.00000000    0.00000000    0.00000000

     Total force =     0.000000     Total SCF correction =     0.000000


     Computing stress (Cartesian axis) and pressure


     negative rho (up, down):  8.882E-04 0.000E+00
          total   stress  (Ry/bohr**3)                   (kbar)     P=      -69.30
   0.00070773   0.00000000   0.00000000          104.11        0.00        0.00
   0.00000000  -0.00106053   0.00000000            0.00     -156.01        0.00
   0.00000000   0.00000000  -0.00106053            0.00        0.00     -156.01

     Energy error            =      2.5E-02 Ry
     Gradient error          =      0.0E+00 Ry/Bohr
     Cell gradient error     =      1.6E+02 kbar

     number of scf cycles    =   3
     number of bfgs steps    =   2

     enthalpy           old  =    -449.6699420276 Ry
     enthalpy           new  =    -449.6952270707 Ry

     CASE: enthalpy          _new < enthalpy          _old


     WARNING: bfgs curvature condition failed, Theta= 0.982
     new trust radius        =       0.1794821267 bohr
     new conv_thr            =            1.0E-10 Ry

     new unit-cell volume =    188.71094 a.u.^3 (    27.96408 Ang^3 )
     density =      6.21836 g/cm^3

CELL_PARAMETERS (alat=  5.58242261)
   1.272429664   0.000000000   0.000000000
   0.000000000   0.923310087   0.000000000
   0.000000000   0.000000000   0.923310087

ATOMIC_POSITIONS (crystal)
Fe               0.5000000000        0.5000000000        0.5000000000
Ti               0.0000000000        0.0000000000        0.0000000000
H                0.5000000000        0.0000000000        0.0000000000



     Writing config-only to output data dir ./TiFe_H_edges_x.save/ :
     XML data file     NEW-OLD atomic charge density approx. for the potential
     New effective cutoffs (rho, wfc): 2035.82  145.44

     Check: negative core charge=   -0.000002

     negative rho (up, down):  8.343E-04 0.000E+00

     total cpu time spent up to now is      167.5 secs

     per-process dynamical memory:   163.8 Mb

     Self-consistent Calculation

     iteration #  1     ecut=   124.00 Ry     beta= 0.70
     Davidson diagonalization with overlap
     c_bands:  1 eigenvalues not converged
     ethr =  1.00E-06,  avg # of iterations = 13.0

     negative rho (up, down):  7.874E-04 0.000E+00

     total cpu time spent up to now is      178.9 secs

     total energy              =    -449.70811219 Ry
     estimated scf accuracy    <       0.01309588 Ry

     iteration #  2     ecut=   124.00 Ry     beta= 0.70
     Davidson diagonalization with overlap
     ethr =  4.52E-05,  avg # of iterations =  4.5

     negative rho (up, down):  8.409E-04 0.000E+00

     total cpu time spent up to now is      182.8 secs

     total energy              =    -449.66633691 Ry
     estimated scf accuracy    <       0.85619305 Ry

     iteration #  3     ecut=   124.00 Ry     beta= 0.70
     Davidson diagonalization with overlap
     ethr =  4.52E-05,  avg # of iterations =  4.3

     negative rho (up, down):  8.573E-04 0.000E+00

     total cpu time spent up to now is      186.5 secs

     total energy              =    -449.71476443 Ry
     estimated scf accuracy    <       0.01126292 Ry

     iteration #  4     ecut=   124.00 Ry     beta= 0.70
     Davidson diagonalization with overlap
     ethr =  3.88E-05,  avg # of iterations =  1.0

     negative rho (up, down):  8.530E-04 0.000E+00

     total cpu time spent up to now is      189.0 secs

     total energy              =    -449.71553387 Ry
     estimated scf accuracy    <       0.00007880 Ry

     iteration #  5     ecut=   124.00 Ry     beta= 0.70
     Davidson diagonalization with overlap
     ethr =  2.72E-07,  avg # of iterations =  4.7

     negative rho (up, down):  8.534E-04 0.000E+00

     total cpu time spent up to now is      193.1 secs

     total energy              =    -449.71560946 Ry
     estimated scf accuracy    <       0.00000736 Ry

     iteration #  6     ecut=   124.00 Ry     beta= 0.70
     Davidson diagonalization with overlap
     ethr =  2.54E-08,  avg # of iterations =  3.6

     negative rho (up, down):  8.545E-04 0.000E+00

     total cpu time spent up to now is      196.4 secs

     total energy              =    -449.71561145 Ry
     estimated scf accuracy    <       0.00000181 Ry

     iteration #  7     ecut=   124.00 Ry     beta= 0.70
     Davidson diagonalization with overlap
     ethr =  6.26E-09,  avg # of iterations =  2.5

     negative rho (up, down):  8.544E-04 0.000E+00

     total cpu time spent up to now is      199.4 secs

     total energy              =    -449.71561179 Ry
     estimated scf accuracy    <       0.00000058 Ry

     iteration #  8     ecut=   124.00 Ry     beta= 0.70
     Davidson diagonalization with overlap
     ethr =  2.01E-09,  avg # of iterations =  1.9

     negative rho (up, down):  8.545E-04 0.000E+00

     total cpu time spent up to now is      202.1 secs

     total energy              =    -449.71561188 Ry
     estimated scf accuracy    <       0.00000006 Ry

     iteration #  9     ecut=   124.00 Ry     beta= 0.70
     Davidson diagonalization with overlap
     ethr =  2.04E-10,  avg # of iterations =  4.4

     negative rho (up, down):  8.544E-04 0.000E+00

     total cpu time spent up to now is      205.6 secs

     total energy              =    -449.71561190 Ry
     estimated scf accuracy    <          1.9E-09 Ry

     iteration # 10     ecut=   124.00 Ry     beta= 0.70
     Davidson diagonalization with overlap
     ethr =  6.45E-12,  avg # of iterations =  4.4

     negative rho (up, down):  8.544E-04 0.000E+00

     total cpu time spent up to now is      209.4 secs

     total energy              =    -449.71561190 Ry
     estimated scf accuracy    <          2.1E-10 Ry

     iteration # 11     ecut=   124.00 Ry     beta= 0.70
     Davidson diagonalization with overlap
     ethr =  7.21E-13,  avg # of iterations =  2.8

     negative rho (up, down):  8.544E-04 0.000E+00

     total cpu time spent up to now is      212.5 secs

     End of self-consistent calculation

     Number of k-points >= 100: set verbosity='high' to print the bands.

     the Fermi energy is    16.3988 ev

!    total energy              =    -449.71561190 Ry
     estimated scf accuracy    <          1.5E-12 Ry
     smearing contrib. (-TS)   =      -0.00002841 Ry
     internal energy E=F+TS    =    -449.71558349 Ry

     The total energy is F=E-TS. E is the sum of the following terms:
     one-electron contribution =    -159.91079711 Ry
     hartree contribution      =      95.59461497 Ry
     xc contribution           =     -53.64595291 Ry
     ewald contribution        =    -255.60303435 Ry
     one-center paw contrib.   =     -76.15041409 Ry

     convergence has been achieved in  11 iterations

     negative rho (up, down):  8.544E-04 0.000E+00

     Forces acting on atoms (cartesian axes, Ry/au):

     atom    1 type  1   force =     0.00000000    0.00000000    0.00000000
     atom    2 type  2   force =     0.00000000    0.00000000    0.00000000
     atom    3 type  3   force =     0.00000000    0.00000000    0.00000000

     Total force =     0.000000     Total SCF correction =     0.000000


     Computing stress (Cartesian axis) and pressure


     negative rho (up, down):  8.544E-04 0.000E+00
          total   stress  (Ry/bohr**3)                   (kbar)     P=        7.64
   0.00028228   0.00000000   0.00000000           41.52        0.00        0.00
   0.00000000  -0.00006328   0.00000000            0.00       -9.31        0.00
   0.00000000   0.00000000  -0.00006328            0.00        0.00       -9.31

     Energy error            =      2.0E-02 Ry
     Gradient error          =      0.0E+00 Ry/Bohr
     Cell gradient error     =      4.2E+01 kbar

     number of scf cycles    =   4
     number of bfgs steps    =   3

     enthalpy           old  =    -449.6952270707 Ry
     enthalpy           new  =    -449.7156119024 Ry

     CASE: enthalpy          _new < enthalpy          _old

     new trust radius        =       0.0364892204 bohr
     new conv_thr            =            1.0E-10 Ry

     new unit-cell volume =    187.76488 a.u.^3 (    27.82389 Ang^3 )
     density =      6.24970 g/cm^3

CELL_PARAMETERS (alat=  5.58242261)
   1.289329008   0.000000000   0.000000000
   0.000000000   0.914937109   0.000000000
   0.000000000   0.000000000   0.914937109

ATOMIC_POSITIONS (crystal)
Fe               0.5000000000        0.5000000000        0.5000000000
Ti               0.0000000000        0.0000000000        0.0000000000
H                0.5000000000        0.0000000000        0.0000000000



     Writing config-only to output data dir ./TiFe_H_edges_x.save/ :
     XML data file     NEW-OLD atomic charge density approx. for the potential
     New effective cutoffs (rho, wfc): 2073.25  148.11

     Check: negative core charge=   -0.000002

     negative rho (up, down):  8.518E-04 0.000E+00

     total cpu time spent up to now is      214.5 secs

     per-process dynamical memory:   163.8 Mb

     Self-consistent Calculation

     iteration #  1     ecut=   124.00 Ry     beta= 0.70
     Davidson diagonalization with overlap
     ethr =  1.00E-06,  avg # of iterations =  7.2

     negative rho (up, down):  8.015E-04 0.000E+00

     total cpu time spent up to now is      220.9 secs

     total energy              =    -449.71354520 Ry
     estimated scf accuracy    <       0.00304149 Ry

     iteration #  2     ecut=   124.00 Ry     beta= 0.70
     Davidson diagonalization with overlap
     ethr =  1.05E-05,  avg # of iterations =  5.3

     negative rho (up, down):  8.326E-04 0.000E+00

     total cpu time spent up to now is      225.3 secs

     total energy              =    -449.69705362 Ry
     estimated scf accuracy    <       0.42459161 Ry

     iteration #  3     ecut=   124.00 Ry     beta= 0.70
     Davidson diagonalization with overlap
     ethr =  1.05E-05,  avg # of iterations =  4.8

     negative rho (up, down):  8.427E-04 0.000E+00

     total cpu time spent up to now is      229.3 secs

     total energy              =    -449.71618426 Ry
     estimated scf accuracy    <       0.00024621 Ry

     iteration #  4     ecut=   124.00 Ry     beta= 0.70
     Davidson diagonalization with overlap
     ethr =  8.49E-07,  avg # of iterations =  3.1

     negative rho (up, down):  8.442E-04 0.000E+00

     total cpu time spent up to now is      232.5 secs

     total energy              =    -449.71623981 Ry
     estimated scf accuracy    <       0.00003001 Ry

     iteration #  5     ecut=   124.00 Ry     beta= 0.70
     Davidson diagonalization with overlap
     ethr =  1.03E-07,  avg # of iterations =  3.5

     negative rho (up, down):  8.434E-04 0.000E+00

     total cpu time spent up to now is      235.7 secs

     total energy              =    -449.71624600 Ry
     estimated scf accuracy    <       0.00000053 Ry

     iteration #  6     ecut=   124.00 Ry     beta= 0.70
     Davidson diagonalization with overlap
     ethr =  1.83E-09,  avg # of iterations =  5.3

     negative rho (up, down):  8.433E-04 0.000E+00

     total cpu time spent up to now is      240.1 secs

     total energy              =    -449.71624671 Ry
     estimated scf accuracy    <       0.00000010 Ry

     iteration #  7     ecut=   124.00 Ry     beta= 0.70
     Davidson diagonalization with overlap
     ethr =  3.32E-10,  avg # of iterations =  2.2

     negative rho (up, down):  8.433E-04 0.000E+00

     total cpu time spent up to now is      242.9 secs

     total energy              =    -449.71624672 Ry
     estimated scf accuracy    <       0.00000001 Ry

     iteration #  8     ecut=   124.00 Ry     beta= 0.70
     Davidson diagonalization with overlap
     ethr =  5.03E-11,  avg # of iterations =  2.7

     negative rho (up, down):  8.433E-04 0.000E+00

     total cpu time spent up to now is      245.7 secs

     total energy              =    -449.71624672 Ry
     estimated scf accuracy    <          1.5E-09 Ry

     iteration #  9     ecut=   124.00 Ry     beta= 0.70
     Davidson diagonalization with overlap
     ethr =  5.25E-12,  avg # of iterations =  4.5

     negative rho (up, down):  8.433E-04 0.000E+00

     total cpu time spent up to now is      249.4 secs

     End of self-consistent calculation

     Number of k-points >= 100: set verbosity='high' to print the bands.

     the Fermi energy is    16.4680 ev

!    total energy              =    -449.71624672 Ry
     estimated scf accuracy    <          5.5E-11 Ry
     smearing contrib. (-TS)   =      -0.00004543 Ry
     internal energy E=F+TS    =    -449.71620129 Ry

     The total energy is F=E-TS. E is the sum of the following terms:
     one-electron contribution =    -159.43557507 Ry
     hartree contribution      =      95.46564759 Ry
     xc contribution           =     -53.65409987 Ry
     ewald contribution        =    -255.94144347 Ry
     one-center paw contrib.   =     -76.15073048 Ry

     convergence has been achieved in   9 iterations

     negative rho (up, down):  8.433E-04 0.000E+00

     Forces acting on atoms (cartesian axes, Ry/au):

     atom    1 type  1   force =     0.00000000    0.00000000    0.00000000
     atom    2 type  2   force =     0.00000000    0.00000000    0.00000000
     atom    3 type  3   force =     0.00000000    0.00000000    0.00000000

     Total force =     0.000000     Total SCF correction =     0.000000


     Computing stress (Cartesian axis) and pressure


     negative rho (up, down):  8.433E-04 0.000E+00
          total   stress  (Ry/bohr**3)                   (kbar)     P=       13.50
   0.00019232   0.00000000   0.00000000           28.29        0.00        0.00
   0.00000000   0.00004151   0.00000000            0.00        6.11        0.00
   0.00000000   0.00000000   0.00004151            0.00        0.00        6.11

     Energy error            =      6.3E-04 Ry
     Gradient error          =      0.0E+00 Ry/Bohr
     Cell gradient error     =      2.8E+01 kbar

     number of scf cycles    =   5
     number of bfgs steps    =   4

     enthalpy           old  =    -449.7156119024 Ry
     enthalpy           new  =    -449.7162467242 Ry

     CASE: enthalpy          _new < enthalpy          _old

     new trust radius        =       0.0287504261 bohr
     new conv_thr            =            1.0E-10 Ry

     new unit-cell volume =    188.35241 a.u.^3 (    27.91095 Ang^3 )
     density =      6.23020 g/cm^3

CELL_PARAMETERS (alat=  5.58242261)
   1.302855054   0.000000000   0.000000000
   0.000000000   0.911598221   0.000000000
   0.000000000   0.000000000   0.911598221

ATOMIC_POSITIONS (crystal)
Fe               0.5000000000        0.5000000000        0.5000000000
Ti               0.0000000000        0.0000000000        0.0000000000
H                0.5000000000        0.0000000000        0.0000000000



     Writing config-only to output data dir ./TiFe_H_edges_x.save/ :
     XML data file     NEW-OLD atomic charge density approx. for the potential
     New effective cutoffs (rho, wfc): 2088.47  149.20

     Check: negative core charge=   -0.000002

     negative rho (up, down):  8.416E-04 0.000E+00

     total cpu time spent up to now is      251.4 secs

     per-process dynamical memory:   163.8 Mb

     Self-consistent Calculation

     iteration #  1     ecut=   124.00 Ry     beta= 0.70
     Davidson diagonalization with overlap
     ethr =  1.00E-06,  avg # of iterations =  6.1

     negative rho (up, down):  8.043E-04 0.000E+00

     total cpu time spent up to now is      257.0 secs

     total energy              =    -449.71473063 Ry
     estimated scf accuracy    <       0.00205395 Ry

     iteration #  2     ecut=   124.00 Ry     beta= 0.70
     Davidson diagonalization with overlap
     ethr =  7.08E-06,  avg # of iterations =  5.4

     negative rho (up, down):  8.305E-04 0.000E+00

     total cpu time spent up to now is      261.3 secs

     total energy              =    -449.70201458 Ry
     estimated scf accuracy    <       0.34684989 Ry

     iteration #  3     ecut=   124.00 Ry     beta= 0.70
     Davidson diagonalization with overlap
     ethr =  7.08E-06,  avg # of iterations =  4.8

     negative rho (up, down):  8.361E-04 0.000E+00

     total cpu time spent up to now is      265.3 secs

     total energy              =    -449.71638701 Ry
     estimated scf accuracy    <       0.00008801 Ry

     iteration #  4     ecut=   124.00 Ry     beta= 0.70
     Davidson diagonalization with overlap
     ethr =  3.03E-07,  avg # of iterations =  3.8

     negative rho (up, down):  8.352E-04 0.000E+00

     total cpu time spent up to now is      268.8 secs

     total energy              =    -449.71641821 Ry
     estimated scf accuracy    <       0.00000123 Ry

     iteration #  5     ecut=   124.00 Ry     beta= 0.70
     Davidson diagonalization with overlap
     ethr =  4.25E-09,  avg # of iterations =  5.4

     negative rho (up, down):  8.348E-04 0.000E+00

     total cpu time spent up to now is      273.3 secs

     total energy              =    -449.71641999 Ry
     estimated scf accuracy    <       0.00000031 Ry

     iteration #  6     ecut=   124.00 Ry     beta= 0.70
     Davidson diagonalization with overlap
     ethr =  1.06E-09,  avg # of iterations =  1.7

     negative rho (up, down):  8.347E-04 0.000E+00

     total cpu time spent up to now is      275.9 secs

     total energy              =    -449.71642000 Ry
     estimated scf accuracy    <       0.00000002 Ry

     iteration #  7     ecut=   124.00 Ry     beta= 0.70
     Davidson diagonalization with overlap
     ethr =  7.07E-11,  avg # of iterations =  3.7

     negative rho (up, down):  8.347E-04 0.000E+00

     total cpu time spent up to now is      279.3 secs

     total energy              =    -449.71642000 Ry
     estimated scf accuracy    <          1.6E-09 Ry

     iteration #  8     ecut=   124.00 Ry     beta= 0.70
     Davidson diagonalization with overlap
     ethr =  5.63E-12,  avg # of iterations =  4.5

     negative rho (up, down):  8.347E-04 0.000E+00

     total cpu time spent up to now is      282.9 secs

     End of self-consistent calculation

     Number of k-points >= 100: set verbosity='high' to print the bands.

     the Fermi energy is    16.3874 ev

!    total energy              =    -449.71642000 Ry
     estimated scf accuracy    <          5.8E-11 Ry
     smearing contrib. (-TS)   =      -0.00002170 Ry
     internal energy E=F+TS    =    -449.71639831 Ry

     The total energy is F=E-TS. E is the sum of the following terms:
     one-electron contribution =    -159.97952882 Ry
     hartree contribution      =      95.67168722 Ry
     xc contribution           =     -53.64737708 Ry
     ewald contribution        =    -255.61039422 Ry
     one-center paw contrib.   =     -76.15078541 Ry

     convergence has been achieved in   8 iterations

     negative rho (up, down):  8.347E-04 0.000E+00

     Forces acting on atoms (cartesian axes, Ry/au):

     atom    1 type  1   force =     0.00000000    0.00000000    0.00000000
     atom    2 type  2   force =     0.00000000    0.00000000    0.00000000
     atom    3 type  3   force =     0.00000000    0.00000000    0.00000000

     Total force =     0.000000     Total SCF correction =     0.000000


     Computing stress (Cartesian axis) and pressure


     negative rho (up, down):  8.347E-04 0.000E+00
          total   stress  (Ry/bohr**3)                   (kbar)     P=        5.78
   0.00003946   0.00000000   0.00000000            5.80        0.00        0.00
   0.00000000   0.00003924   0.00000000            0.00        5.77        0.00
   0.00000000   0.00000000   0.00003924            0.00        0.00        5.77

     Energy error            =      1.7E-04 Ry
     Gradient error          =      0.0E+00 Ry/Bohr
     Cell gradient error     =      5.8E+00 kbar

     number of scf cycles    =   6
     number of bfgs steps    =   5

     enthalpy           old  =    -449.7162467242 Ry
     enthalpy           new  =    -449.7164200035 Ry

     CASE: enthalpy          _new < enthalpy          _old

     new trust radius        =       0.0026396116 bohr
     new conv_thr            =            1.0E-10 Ry

     new unit-cell volume =    188.85966 a.u.^3 (    27.98611 Ang^3 )
     density =      6.21347 g/cm^3

CELL_PARAMETERS (alat=  5.58242261)
   1.303854815   0.000000000   0.000000000
   0.000000000   0.912474874   0.000000000
   0.000000000   0.000000000   0.912474874

ATOMIC_POSITIONS (crystal)
Fe               0.5000000000        0.5000000000        0.5000000000
Ti               0.0000000000        0.0000000000        0.0000000000
H                0.5000000000        0.0000000000        0.0000000000



     Writing config-only to output data dir ./TiFe_H_edges_x.save/ :
     XML data file     NEW-OLD atomic charge density approx. for the potential
     New effective cutoffs (rho, wfc): 2084.46  148.91

     Check: negative core charge=   -0.000002

     negative rho (up, down):  8.359E-04 0.000E+00

     total cpu time spent up to now is      284.9 secs

     per-process dynamical memory:   163.8 Mb

     Self-consistent Calculation

     iteration #  1     ecut=   124.00 Ry     beta= 0.70
     Davidson diagonalization with overlap
     ethr =  1.00E-06,  avg # of iterations =  2.0

     Threshold (ethr) on eigenvalues was too large:
     Diagonalizing with lowered threshold

     Davidson diagonalization with overlap
     ethr =  3.83E-09,  avg # of iterations =  6.3

     negative rho (up, down):  8.344E-04 0.000E+00

     total cpu time spent up to now is      292.5 secs

     total energy              =    -449.71642478 Ry
     estimated scf accuracy    <       0.00000208 Ry

     iteration #  2     ecut=   124.00 Ry     beta= 0.70
     Davidson diagonalization with overlap
     ethr =  7.17E-09,  avg # of iterations =  4.2

     negative rho (up, down):  8.338E-04 0.000E+00

     total cpu time spent up to now is      296.2 secs

     total energy              =    -449.71641957 Ry
     estimated scf accuracy    <       0.00022507 Ry

     iteration #  3     ecut=   124.00 Ry     beta= 0.70
     Davidson diagonalization with overlap
     ethr =  7.17E-09,  avg # of iterations =  4.1

     negative rho (up, down):  8.344E-04 0.000E+00

     total cpu time spent up to now is      299.7 secs

     total energy              =    -449.71643102 Ry
     estimated scf accuracy    <       0.00000672 Ry

     iteration #  4     ecut=   124.00 Ry     beta= 0.70
     Davidson diagonalization with overlap
     ethr =  7.17E-09,  avg # of iterations =  2.0

     negative rho (up, down):  8.343E-04 0.000E+00

     total cpu time spent up to now is      302.5 secs

     total energy              =    -449.71643139 Ry
     estimated scf accuracy    <       0.00000032 Ry

     iteration #  5     ecut=   124.00 Ry     beta= 0.70
     Davidson diagonalization with overlap
     ethr =  1.11E-09,  avg # of iterations =  2.6

     negative rho (up, down):  8.342E-04 0.000E+00

     total cpu time spent up to now is      305.3 secs

     total energy              =    -449.71643142 Ry
     estimated scf accuracy    <       0.00000001 Ry

     iteration #  6     ecut=   124.00 Ry     beta= 0.70
     Davidson diagonalization with overlap
     ethr =  3.55E-11,  avg # of iterations =  4.9

     negative rho (up, down):  8.342E-04 0.000E+00

     total cpu time spent up to now is      309.3 secs

     total energy              =    -449.71643142 Ry
     estimated scf accuracy    <          4.9E-09 Ry

     iteration #  7     ecut=   124.00 Ry     beta= 0.70
     Davidson diagonalization with overlap
     ethr =  1.67E-11,  avg # of iterations =  2.0

     negative rho (up, down):  8.342E-04 0.000E+00

     total cpu time spent up to now is      312.0 secs

     total energy              =    -449.71643142 Ry
     estimated scf accuracy    <          1.6E-09 Ry

     iteration #  8     ecut=   124.00 Ry     beta= 0.70
     Davidson diagonalization with overlap
     ethr =  5.51E-12,  avg # of iterations =  2.0

     negative rho (up, down):  8.342E-04 0.000E+00

     total cpu time spent up to now is      314.9 secs

     End of self-consistent calculation

     Number of k-points >= 100: set verbosity='high' to print the bands.

     the Fermi energy is    16.3363 ev

!    total energy              =    -449.71643142 Ry
     estimated scf accuracy    <          6.6E-11 Ry
     smearing contrib. (-TS)   =      -0.00002241 Ry
     internal energy E=F+TS    =    -449.71640901 Ry

     The total energy is F=E-TS. E is the sum of the following terms:
     one-electron contribution =    -160.33267349 Ry
     hartree contribution      =      95.79153454 Ry
     xc contribution           =     -53.64227673 Ry
     ewald contribution        =    -255.38227722 Ry
     one-center paw contrib.   =     -76.15071610 Ry

     convergence has been achieved in   8 iterations

     negative rho (up, down):  8.342E-04 0.000E+00

     Forces acting on atoms (cartesian axes, Ry/au):

     atom    1 type  1   force =     0.00000000    0.00000000    0.00000000
     atom    2 type  2   force =     0.00000000    0.00000000    0.00000000
     atom    3 type  3   force =     0.00000000    0.00000000    0.00000000

     Total force =     0.000000     Total SCF correction =     0.000000


     Computing stress (Cartesian axis) and pressure


     negative rho (up, down):  8.342E-04 0.000E+00
          total   stress  (Ry/bohr**3)                   (kbar)     P=        0.77
   0.00000470   0.00000000   0.00000000            0.69        0.00        0.00
   0.00000000   0.00000552   0.00000000            0.00        0.81        0.00
   0.00000000   0.00000000   0.00000552            0.00        0.00        0.81

     Energy error            =      1.1E-05 Ry
     Gradient error          =      0.0E+00 Ry/Bohr
     Cell gradient error     =      8.1E-01 kbar

     number of scf cycles    =   7
     number of bfgs steps    =   6

     enthalpy           old  =    -449.7164200035 Ry
     enthalpy           new  =    -449.7164314210 Ry

     CASE: enthalpy          _new < enthalpy          _old

     new trust radius        =       0.0004976442 bohr
     new conv_thr            =            1.0E-10 Ry

     new unit-cell volume =    188.93908 a.u.^3 (    27.99788 Ang^3 )
     density =      6.21086 g/cm^3

CELL_PARAMETERS (alat=  5.58242261)
   1.303930917   0.000000000   0.000000000
   0.000000000   0.912640085   0.000000000
   0.000000000   0.000000000   0.912640085

ATOMIC_POSITIONS (crystal)
Fe               0.5000000000        0.5000000000        0.5000000000
Ti               0.0000000000        0.0000000000        0.0000000000
H                0.5000000000        0.0000000000        0.0000000000



     Writing config-only to output data dir ./TiFe_H_edges_x.save/ :
     XML data file     NEW-OLD atomic charge density approx. for the potential
     New effective cutoffs (rho, wfc): 2083.70  148.86

     Check: negative core charge=   -0.000002

     negative rho (up, down):  8.344E-04 0.000E+00

     total cpu time spent up to now is      316.9 secs

     per-process dynamical memory:   163.8 Mb

     Self-consistent Calculation

     iteration #  1     ecut=   124.00 Ry     beta= 0.70
     Davidson diagonalization with overlap
     ethr =  1.00E-06,  avg # of iterations =  2.0

     Threshold (ethr) on eigenvalues was too large:
     Diagonalizing with lowered threshold

     Davidson diagonalization with overlap
     ethr =  5.23E-10,  avg # of iterations =  5.0

     negative rho (up, down):  8.344E-04 0.000E+00

     total cpu time spent up to now is      324.0 secs

     total energy              =    -449.71643132 Ry
     estimated scf accuracy    <       0.00000023 Ry

     iteration #  2     ecut=   124.00 Ry     beta= 0.70
     Davidson diagonalization with overlap
     ethr =  8.07E-10,  avg # of iterations =  4.3

     negative rho (up, down):  8.341E-04 0.000E+00

     total cpu time spent up to now is      327.8 secs

     total energy              =    -449.71642969 Ry
     estimated scf accuracy    <       0.00004710 Ry

     iteration #  3     ecut=   124.00 Ry     beta= 0.70
     Davidson diagonalization with overlap
     ethr =  8.07E-10,  avg # of iterations =  4.3

     negative rho (up, down):  8.342E-04 0.000E+00

     total cpu time spent up to now is      331.4 secs

     total energy              =    -449.71643166 Ry
     estimated scf accuracy    <       0.00000007 Ry

     iteration #  4     ecut=   124.00 Ry     beta= 0.70
     Davidson diagonalization with overlap
     ethr =  2.51E-10,  avg # of iterations =  2.0

     negative rho (up, down):  8.342E-04 0.000E+00

     total cpu time spent up to now is      334.1 secs

     total energy              =    -449.71643166 Ry
     estimated scf accuracy    <       0.00000001 Ry

     iteration #  5     ecut=   124.00 Ry     beta= 0.70
     Davidson diagonalization with overlap
     ethr =  3.67E-11,  avg # of iterations =  2.3

     negative rho (up, down):  8.342E-04 0.000E+00

     total cpu time spent up to now is      337.0 secs

     total energy              =    -449.71643166 Ry
     estimated scf accuracy    <          4.3E-10 Ry

     iteration #  6     ecut=   124.00 Ry     beta= 0.70
     Davidson diagonalization with overlap
     ethr =  1.48E-12,  avg # of iterations =  4.9

     negative rho (up, down):  8.342E-04 0.000E+00

     total cpu time spent up to now is      341.1 secs

     total energy              =    -449.71643166 Ry
     estimated scf accuracy    <          1.2E-10 Ry

     iteration #  7     ecut=   124.00 Ry     beta= 0.70
     Davidson diagonalization with overlap
     ethr =  4.20E-13,  avg # of iterations =  2.1

     negative rho (up, down):  8.342E-04 0.000E+00

     total cpu time spent up to now is      343.8 secs

     total energy              =    -449.71643166 Ry
     estimated scf accuracy    <          2.4E-10 Ry

     iteration #  8     ecut=   124.00 Ry     beta= 0.70
     Davidson diagonalization with overlap
     ethr =  4.20E-13,  avg # of iterations =  2.0

     negative rho (up, down):  8.342E-04 0.000E+00

     total cpu time spent up to now is      346.7 secs

     End of self-consistent calculation

     Number of k-points >= 100: set verbosity='high' to print the bands.

     the Fermi energy is    16.3285 ev

!    total energy              =    -449.71643166 Ry
     estimated scf accuracy    <          8.5E-12 Ry
     smearing contrib. (-TS)   =      -0.00002271 Ry
     internal energy E=F+TS    =    -449.71640895 Ry

     The total energy is F=E-TS. E is the sum of the following terms:
     one-electron contribution =    -160.38707029 Ry
     hartree contribution      =      95.80994796 Ry
     xc contribution           =     -53.64150544 Ry
     ewald contribution        =    -255.34707675 Ry
     one-center paw contrib.   =     -76.15070442 Ry

     convergence has been achieved in   8 iterations

     negative rho (up, down):  8.342E-04 0.000E+00

     Forces acting on atoms (cartesian axes, Ry/au):

     atom    1 type  1   force =     0.00000000    0.00000000    0.00000000
     atom    2 type  2   force =     0.00000000    0.00000000    0.00000000
     atom    3 type  3   force =     0.00000000    0.00000000    0.00000000

     Total force =     0.000000     Total SCF correction =     0.000000


     Computing stress (Cartesian axis) and pressure


     negative rho (up, down):  8.342E-04 0.000E+00
          total   stress  (Ry/bohr**3)                   (kbar)     P=        0.08
   0.00000061   0.00000000   0.00000000            0.09        0.00        0.00
   0.00000000   0.00000047   0.00000000            0.00        0.07        0.00
   0.00000000   0.00000000   0.00000047            0.00        0.00        0.07

     Energy error            =      2.4E-07 Ry
     Gradient error          =      0.0E+00 Ry/Bohr
     Cell gradient error     =      8.9E-02 kbar

     bfgs converged in   8 scf cycles and   7 bfgs steps
     (criteria: energy <  1.0E-04 Ry, force <  1.0E-03 Ry/Bohr, cell <  1.0E-01 kbar)

     End of BFGS Geometry Optimization

     Final enthalpy           =    -449.7164316601 Ry

     File ./TiFe_H_edges_x.bfgs deleted, as requested
Begin final coordinates
     new unit-cell volume =    188.93908 a.u.^3 (    27.99788 Ang^3 )
     density =      6.21086 g/cm^3

CELL_PARAMETERS (alat=  5.58242261)
   1.303930917   0.000000000   0.000000000
   0.000000000   0.912640085   0.000000000
   0.000000000   0.000000000   0.912640085

ATOMIC_POSITIONS (crystal)
Fe               0.5000000000        0.5000000000        0.5000000000
Ti               0.0000000000        0.0000000000        0.0000000000
H                0.5000000000        0.0000000000        0.0000000000
End final coordinates



     Writing config-only to output data dir ./TiFe_H_edges_x.save/ :
     XML data file
     Final scf calculation at the relaxed structure.
     The G-vectors are recalculated for the final unit cell
     Results may differ from those at the preceding step.

     Parallelization info
     --------------------
     sticks:   dense  smooth     PW     G-vecs:    dense   smooth      PW
     Min         319      91     26                14420     2203     344
     Max         321      92     27                14422     2206     347
     Sum        5119    1463    425               230737    35259    5527

     Using Slab Decomposition



     bravais-lattice index     =            0
     lattice parameter (alat)  =       5.5824  a.u.
     unit-cell volume          =     188.9391 (a.u.)^3
     number of atoms/cell      =            3
     number of atomic types    =            3
     number of electrons       =        29.00
     number of Kohn-Sham states=           19
     kinetic-energy cutoff     =     124.0000  Ry
     charge density cutoff     =    1736.0000  Ry
     scf convergence threshold =      1.0E-10
     mixing beta               =       0.7000
     number of iterations used =            8  plain     mixing
     press convergence thresh. =      1.0E-01
     Exchange-correlation= PBE
                           (   1   4   3   4   0   0   0)

     celldm(1)=   5.582423  celldm(2)=   0.000000  celldm(3)=   0.000000
     celldm(4)=   0.000000  celldm(5)=   0.000000  celldm(6)=   0.000000

     crystal axes: (cart. coord. in units of alat)
               a(1) = (   1.303931   0.000000   0.000000 )  
               a(2) = (   0.000000   0.912640   0.000000 )  
               a(3) = (   0.000000   0.000000   0.912640 )  

     reciprocal axes: (cart. coord. in units 2 pi/alat)
               b(1) = (  0.766912  0.000000  0.000000 )  
               b(2) = (  0.000000  1.095722  0.000000 )  
               b(3) = (  0.000000  0.000000  1.095722 )  


     PseudoPot. # 1 for Fe read from file:
     ../../pseudos/Fe.pbe-spn-kjpaw_psl.0.2.1.UPF
     MD5 check sum: e86618425769142926afa95317d90200
     Pseudo is Projector augmented-wave + core cor, Zval = 16.0
     Generated using "atomic" code by A. Dal Corso  v.5.0.99 svn rev. 10869
     Shape of augmentation charge: PSQ
     Using radial grid of 1191 points,  6 beta functions with: 
                l(1) =   0
                l(2) =   0
                l(3) =   1
                l(4) =   1
                l(5) =   2
                l(6) =   2
     Q(r) pseudized with 0 coefficients 


     PseudoPot. # 2 for Ti read from file:
     ../../pseudos/ti_pbe_v1.4.uspp.F.UPF
     MD5 check sum: 88a00a6731bd790ddea75d31a80cb452
     Pseudo is Ultrasoft + core correction, Zval = 12.0
     Generated by new atomic code, or converted to UPF format
     Using radial grid of  851 points,  6 beta functions with: 
                l(1) =   0
                l(2) =   0
                l(3) =   1
                l(4) =   1
                l(5) =   2
                l(6) =   2
     Q(r) pseudized with  6 coefficients,  rinner =    1.000   1.000   1.000
                                                       1.000   1.000

     PseudoPot. # 3 for H  read from file:
     ../../pseudos/H.pbe-rrkjus_psl.1.0.0.UPF
     MD5 check sum: f52b6d4d1c606e5624b1dc7b2218f220
     Pseudo is Ultrasoft, Zval =  1.0
     Generated using "atomic" code by A. Dal Corso  v.5.1
     Using radial grid of  929 points,  2 beta functions with: 
                l(1) =   0
                l(2) =   0
     Q(r) pseudized with 0 coefficients 


     atomic species   valence    mass     pseudopotential
     Fe               16.00    55.84500     Fe( 1.00)
     Ti               12.00    47.86700     Ti( 1.00)
     H                 1.00     1.00750     H ( 1.00)

     16 Sym. Ops., with inversion, found



   Cartesian axes

     site n.     atom                  positions (alat units)
         1        Fe     tau(   1) = (   0.6519655   0.4563200   0.4563200  )
         2        Ti     tau(   2) = (   0.0000000   0.0000000   0.0000000  )
         3        H      tau(   3) = (   0.6519655   0.0000000   0.0000000  )

     number of k points=   288  Marzari-Vanderbilt smearing, width (Ry)=  0.0050

     Number of k-points >= 100: set verbosity='high' to print them.

     Dense  grid:   230737 G-vectors     FFT dimensions: ( 100,  72,  72)

     Smooth grid:    35259 G-vectors     FFT dimensions: (  54,  40,  40)

     Estimated max dynamical RAM per process >      97.03 MB

     Estimated total dynamical RAM >       1.52 GB

     Check: negative core charge=   -0.000001

     Initial potential from superposition of free atoms

     starting charge      27.9995, renormalised to      29.0000

     negative rho (up, down):  1.318E-03 0.000E+00
     Starting wfcs are   24 randomized atomic wfcs
     Checking if some PAW data can be deallocated... 

     total cpu time spent up to now is      351.0 secs

     per-process dynamical memory:   163.0 Mb

     Self-consistent Calculation

     iteration #  1     ecut=   124.00 Ry     beta= 0.70
     Davidson diagonalization with overlap
     c_bands:  1 eigenvalues not converged
     c_bands:  1 eigenvalues not converged
     c_bands:  1 eigenvalues not converged
     c_bands:  1 eigenvalues not converged
     c_bands:  1 eigenvalues not converged
     c_bands:  1 eigenvalues not converged
     c_bands:  1 eigenvalues not converged
     c_bands:  1 eigenvalues not converged
     c_bands:  1 eigenvalues not converged
     c_bands:  1 eigenvalues not converged
     c_bands:  1 eigenvalues not converged
     c_bands:  1 eigenvalues not converged
     c_bands:  1 eigenvalues not converged
     c_bands:  1 eigenvalues not converged
     c_bands:  1 eigenvalues not converged
     c_bands:  1 eigenvalues not converged
     c_bands:  1 eigenvalues not converged
     c_bands:  1 eigenvalues not converged
     c_bands:  1 eigenvalues not converged
     c_bands:  1 eigenvalues not converged
     c_bands:  1 eigenvalues not converged
     c_bands:  1 eigenvalues not converged
     c_bands:  1 eigenvalues not converged
     c_bands:  1 eigenvalues not converged
     c_bands:  1 eigenvalues not converged
     c_bands:  1 eigenvalues not converged
     c_bands:  1 eigenvalues not converged
     c_bands:  1 eigenvalues not converged
     c_bands:  1 eigenvalues not converged
     c_bands:  1 eigenvalues not converged
     ethr =  1.00E-06,  avg # of iterations = 16.2

     negative rho (up, down):  1.693E-04 0.000E+00

     total cpu time spent up to now is      367.5 secs

     total energy              =    -428.90536187 Ry
     estimated scf accuracy    <      26.06948164 Ry

     iteration #  2     ecut=   124.00 Ry     beta= 0.70
     Davidson diagonalization with overlap
     ethr =  1.00E-02,  avg # of iterations =  7.6

     total cpu time spent up to now is      374.9 secs

     total energy              =    -438.93445888 Ry
     estimated scf accuracy    <     143.54853600 Ry

     iteration #  3     ecut=   124.00 Ry     beta= 0.70
     Davidson diagonalization with overlap
     ethr =  1.00E-02,  avg # of iterations =  4.2

     negative rho (up, down):  1.533E-05 0.000E+00

     total cpu time spent up to now is      379.7 secs

     total energy              =    -451.49950798 Ry
     estimated scf accuracy    <      22.49536035 Ry

     iteration #  4     ecut=   124.00 Ry     beta= 0.70
     Davidson diagonalization with overlap
     ethr =  1.00E-02,  avg # of iterations =  2.2

     negative rho (up, down):  1.749E-04 0.000E+00

     total cpu time spent up to now is      383.0 secs

     total energy              =    -450.00201278 Ry
     estimated scf accuracy    <      13.18016125 Ry

     iteration #  5     ecut=   124.00 Ry     beta= 0.70
     Davidson diagonalization with overlap
     ethr =  1.00E-02,  avg # of iterations =  2.0

     negative rho (up, down):  3.216E-04 0.000E+00

     total cpu time spent up to now is      386.1 secs

     total energy              =    -450.00757383 Ry
     estimated scf accuracy    <       5.07656059 Ry

     iteration #  6     ecut=   124.00 Ry     beta= 0.70
     Davidson diagonalization with overlap
     ethr =  1.00E-02,  avg # of iterations =  1.0

     negative rho (up, down):  4.356E-04 0.000E+00

     total cpu time spent up to now is      389.1 secs

     total energy              =    -449.91442598 Ry
     estimated scf accuracy    <       3.39655957 Ry

     iteration #  7     ecut=   124.00 Ry     beta= 0.70
     Davidson diagonalization with overlap
     ethr =  1.00E-02,  avg # of iterations =  1.0

     negative rho (up, down):  7.847E-04 0.000E+00

     total cpu time spent up to now is      392.0 secs

     total energy              =    -449.73493132 Ry
     estimated scf accuracy    <       2.50301139 Ry

     iteration #  8     ecut=   124.00 Ry     beta= 0.70
     Davidson diagonalization with overlap
     ethr =  8.63E-03,  avg # of iterations =  1.2

     negative rho (up, down):  9.188E-04 0.000E+00

     total cpu time spent up to now is      395.0 secs

     total energy              =    -449.60569194 Ry
     estimated scf accuracy    <       1.35938766 Ry

     iteration #  9     ecut=   124.00 Ry     beta= 0.70
     Davidson diagonalization with overlap
     ethr =  4.69E-03,  avg # of iterations =  1.3

     negative rho (up, down):  8.896E-04 0.000E+00

     total cpu time spent up to now is      398.0 secs

     total energy              =    -449.70244473 Ry
     estimated scf accuracy    <       0.12772975 Ry

     iteration # 10     ecut=   124.00 Ry     beta= 0.70
     Davidson diagonalization with overlap
     ethr =  4.40E-04,  avg # of iterations =  4.5

     negative rho (up, down):  1.049E-03 0.000E+00

     total cpu time spent up to now is      401.9 secs

     total energy              =    -449.73725479 Ry
     estimated scf accuracy    <       0.03347611 Ry

     iteration # 11     ecut=   124.00 Ry     beta= 0.70
     Davidson diagonalization with overlap
     ethr =  1.15E-04,  avg # of iterations =  4.7

     negative rho (up, down):  9.888E-04 0.000E+00

     total cpu time spent up to now is      406.3 secs

     total energy              =    -449.75346595 Ry
     estimated scf accuracy    <       1.71903997 Ry

     iteration # 12     ecut=   124.00 Ry     beta= 0.70
     Davidson diagonalization with overlap
     ethr =  1.15E-04,  avg # of iterations =  1.1

     negative rho (up, down):  6.418E-04 0.000E+00

     total cpu time spent up to now is      409.3 secs

     total energy              =    -449.62351720 Ry
     estimated scf accuracy    <       1.02376180 Ry

     iteration # 13     ecut=   124.00 Ry     beta= 0.70
     Davidson diagonalization with overlap
     ethr =  1.15E-04,  avg # of iterations =  5.0

     negative rho (up, down):  4.710E-04 0.000E+00

     total cpu time spent up to now is      414.1 secs

     total energy              =    -449.79072346 Ry
     estimated scf accuracy    <       0.23776889 Ry

     iteration # 14     ecut=   124.00 Ry     beta= 0.70
     Davidson diagonalization with overlap
     ethr =  1.15E-04,  avg # of iterations =  3.5

     negative rho (up, down):  5.786E-04 0.000E+00

     total cpu time spent up to now is      417.9 secs

     total energy              =    -449.76544967 Ry
     estimated scf accuracy    <       1.07141616 Ry

     iteration # 15     ecut=   124.00 Ry     beta= 0.70
     Davidson diagonalization with overlap
     ethr =  1.15E-04,  avg # of iterations =  1.5

     negative rho (up, down):  8.106E-04 0.000E+00

     total cpu time spent up to now is      420.9 secs

     total energy              =    -449.68965760 Ry
     estimated scf accuracy    <       0.68100737 Ry

     iteration # 16     ecut=   124.00 Ry     beta= 0.70
     Davidson diagonalization with overlap
     ethr =  1.15E-04,  avg # of iterations =  3.5

     negative rho (up, down):  8.054E-04 0.000E+00

     total cpu time spent up to now is      425.1 secs

     total energy              =    -449.71756747 Ry
     estimated scf accuracy    <       0.02084676 Ry

     iteration # 17     ecut=   124.00 Ry     beta= 0.70
     Davidson diagonalization with overlap
     ethr =  7.19E-05,  avg # of iterations =  1.0

     negative rho (up, down):  8.145E-04 0.000E+00

     total cpu time spent up to now is      428.0 secs

     total energy              =    -449.71730409 Ry
     estimated scf accuracy    <       0.01951883 Ry

     iteration # 18     ecut=   124.00 Ry     beta= 0.70
     Davidson diagonalization with overlap
     ethr =  6.73E-05,  avg # of iterations =  1.0

     negative rho (up, down):  8.273E-04 0.000E+00

     total cpu time spent up to now is      430.9 secs

     total energy              =    -449.71682486 Ry
     estimated scf accuracy    <       0.01164201 Ry

     iteration # 19     ecut=   124.00 Ry     beta= 0.70
     Davidson diagonalization with overlap
     ethr =  4.01E-05,  avg # of iterations =  1.1

     negative rho (up, down):  8.717E-04 0.000E+00

     total cpu time spent up to now is      433.9 secs

     total energy              =    -449.71614873 Ry
     estimated scf accuracy    <       0.00381339 Ry

     iteration # 20     ecut=   124.00 Ry     beta= 0.70
     Davidson diagonalization with overlap
     ethr =  1.31E-05,  avg # of iterations =  3.0

     negative rho (up, down):  8.686E-04 0.000E+00

     total cpu time spent up to now is      437.4 secs

     total energy              =    -449.71699003 Ry
     estimated scf accuracy    <       0.00767881 Ry

     iteration # 21     ecut=   124.00 Ry     beta= 0.70
     Davidson diagonalization with overlap
     ethr =  1.31E-05,  avg # of iterations =  1.0

     negative rho (up, down):  8.534E-04 0.000E+00

     total cpu time spent up to now is      440.3 secs

     total energy              =    -449.71669075 Ry
     estimated scf accuracy    <       0.00373274 Ry

     iteration # 22     ecut=   124.00 Ry     beta= 0.70
     Davidson diagonalization with overlap
     ethr =  1.29E-05,  avg # of iterations =  1.0

     negative rho (up, down):  8.535E-04 0.000E+00

     total cpu time spent up to now is      443.2 secs

     total energy              =    -449.71684613 Ry
     estimated scf accuracy    <       0.00001787 Ry

     iteration # 23     ecut=   124.00 Ry     beta= 0.70
     Davidson diagonalization with overlap
     ethr =  6.16E-08,  avg # of iterations =  4.7

     negative rho (up, down):  8.524E-04 0.000E+00

     total cpu time spent up to now is      447.4 secs

     total energy              =    -449.71685322 Ry
     estimated scf accuracy    <       0.00000820 Ry

     iteration # 24     ecut=   124.00 Ry     beta= 0.70
     Davidson diagonalization with overlap
     ethr =  2.83E-08,  avg # of iterations =  2.2

     negative rho (up, down):  8.536E-04 0.000E+00

     total cpu time spent up to now is      450.7 secs

     total energy              =    -449.71685391 Ry
     estimated scf accuracy    <       0.00001741 Ry

     iteration # 25     ecut=   124.00 Ry     beta= 0.70
     Davidson diagonalization with overlap
     ethr =  2.83E-08,  avg # of iterations =  1.1

     negative rho (up, down):  8.535E-04 0.000E+00

     total cpu time spent up to now is      453.6 secs

     total energy              =    -449.71685491 Ry
     estimated scf accuracy    <       0.00000055 Ry

     iteration # 26     ecut=   124.00 Ry     beta= 0.70
     Davidson diagonalization with overlap
     ethr =  1.88E-09,  avg # of iterations =  2.3

     negative rho (up, down):  8.536E-04 0.000E+00

     total cpu time spent up to now is      456.8 secs

     total energy              =    -449.71685495 Ry
     estimated scf accuracy    <       0.00000007 Ry

     iteration # 27     ecut=   124.00 Ry     beta= 0.70
     Davidson diagonalization with overlap
     ethr =  2.30E-10,  avg # of iterations =  3.1

     negative rho (up, down):  8.536E-04 0.000E+00

     total cpu time spent up to now is      460.3 secs

     total energy              =    -449.71685496 Ry
     estimated scf accuracy    <       0.00000003 Ry

     iteration # 28     ecut=   124.00 Ry     beta= 0.70
     Davidson diagonalization with overlap
     ethr =  1.02E-10,  avg # of iterations =  1.4

     negative rho (up, down):  8.536E-04 0.000E+00

     total cpu time spent up to now is      463.3 secs

     total energy              =    -449.71685496 Ry
     estimated scf accuracy    <       0.00000001 Ry

     iteration # 29     ecut=   124.00 Ry     beta= 0.70
     Davidson diagonalization with overlap
     ethr =  4.87E-11,  avg # of iterations =  1.5

     negative rho (up, down):  8.536E-04 0.000E+00

     total cpu time spent up to now is      466.3 secs

     total energy              =    -449.71685496 Ry
     estimated scf accuracy    <          6.3E-09 Ry

     iteration # 30     ecut=   124.00 Ry     beta= 0.70
     Davidson diagonalization with overlap
     ethr =  2.19E-11,  avg # of iterations =  1.8

     negative rho (up, down):  8.536E-04 0.000E+00

     total cpu time spent up to now is      469.5 secs

     total energy              =    -449.71685496 Ry
     estimated scf accuracy    <          2.3E-09 Ry

     iteration # 31     ecut=   124.00 Ry     beta= 0.70
     Davidson diagonalization with overlap
     ethr =  8.08E-12,  avg # of iterations =  2.7

     negative rho (up, down):  8.536E-04 0.000E+00

     total cpu time spent up to now is      472.8 secs

     total energy              =    -449.71685496 Ry
     estimated scf accuracy    <          1.5E-10 Ry

     iteration # 32     ecut=   124.00 Ry     beta= 0.70
     Davidson diagonalization with overlap
     ethr =  5.28E-13,  avg # of iterations =  4.7

     negative rho (up, down):  8.536E-04 0.000E+00

     total cpu time spent up to now is      477.4 secs

     End of self-consistent calculation

     Number of k-points >= 100: set verbosity='high' to print the bands.

     the Fermi energy is    16.3282 ev

!    total energy              =    -449.71685496 Ry
     estimated scf accuracy    <          5.2E-12 Ry
     smearing contrib. (-TS)   =      -0.00002276 Ry
     internal energy E=F+TS    =    -449.71683220 Ry

     The total energy is F=E-TS. E is the sum of the following terms:
     one-electron contribution =    -160.38695653 Ry
     hartree contribution      =      95.80961039 Ry
     xc contribution           =     -53.64162523 Ry
     ewald contribution        =    -255.34707675 Ry
     one-center paw contrib.   =     -76.15078407 Ry

     convergence has been achieved in  32 iterations

     negative rho (up, down):  8.536E-04 0.000E+00

     Forces acting on atoms (cartesian axes, Ry/au):

     atom    1 type  1   force =     0.00000000    0.00000000    0.00000000
     atom    2 type  2   force =     0.00000000    0.00000000    0.00000000
     atom    3 type  3   force =     0.00000000    0.00000000    0.00000000

     Total force =     0.000000     Total SCF correction =     0.000000


     Computing stress (Cartesian axis) and pressure


     negative rho (up, down):  8.536E-04 0.000E+00
          total   stress  (Ry/bohr**3)                   (kbar)     P=        0.63
   0.00002392   0.00000000   0.00000000            3.52        0.00        0.00
   0.00000000  -0.00000549   0.00000000            0.00       -0.81        0.00
   0.00000000   0.00000000  -0.00000549            0.00        0.00       -0.81


     Writing all to output data dir ./TiFe_H_edges_x.save/ :
     XML data file
     init_run     :      4.51s CPU      4.76s WALL (       2 calls)
     electrons    :    439.25s CPU    455.72s WALL (       9 calls)
     update_pot   :      0.53s CPU      0.62s WALL (       7 calls)
     forces       :      2.63s CPU      2.78s WALL (       9 calls)
     stress       :     11.76s CPU     12.17s WALL (       9 calls)

     Called by init_run:
     wfcinit      :      2.43s CPU      2.57s WALL (       2 calls)
     potinit      :      0.63s CPU      0.66s WALL (       2 calls)
     hinit0       :      0.95s CPU      0.99s WALL (       2 calls)

     Called by electrons:
     c_bands      :    362.45s CPU    374.04s WALL (     122 calls)
     sum_band     :     58.41s CPU     61.02s WALL (     122 calls)
     v_of_rho     :      1.80s CPU      2.02s WALL (     129 calls)
     newd         :     11.72s CPU     12.95s WALL (     129 calls)
     PAW_pot      :      6.04s CPU      6.87s WALL (     136 calls)
     mix_rho      :      0.20s CPU      0.25s WALL (     122 calls)

     Called by c_bands:
     init_us_2    :      7.39s CPU      7.73s WALL (   78048 calls)
     cegterg      :    349.91s CPU    360.78s WALL (   35136 calls)

     Called by *egterg:
     cdiaghg      :     59.93s CPU     61.61s WALL (  155328 calls)
     h_psi        :    248.85s CPU    257.11s WALL (  158496 calls)
     s_psi        :      5.36s CPU      5.55s WALL (  158496 calls)
     g_psi        :      1.33s CPU      1.36s WALL (  122784 calls)

     Called by h_psi:
     h_psi:calbec :     10.63s CPU     10.98s WALL (  158496 calls)
     vloc_psi     :    231.20s CPU    238.89s WALL (  158496 calls)
     add_vuspsi   :      5.62s CPU      5.82s WALL (  158496 calls)

     General routines
     calbec       :     16.50s CPU     17.03s WALL (  239712 calls)
     fft          :      2.01s CPU      2.33s WALL (    1893 calls)
     ffts         :      0.52s CPU      0.53s WALL (     251 calls)
     fftw         :    223.32s CPU    230.61s WALL ( 4596966 calls)
     interpolate  :      0.61s CPU      0.65s WALL (     129 calls)

     Parallel routines

     PWSCF        :    460.51s CPU    479.36s WALL


   This run was terminated on:  23: 3:47  12Nov2025            

=------------------------------------------------------------------------------=
   JOB DONE.
=------------------------------------------------------------------------------=
