
     Program PWSCF v.7.4 starts on 12Nov2025 at 23:40:11 

     This program is part of the open-source Quantum ESPRESSO suite
     for quantum simulation of materials; please cite
         "P. Giannozzi et al., J. Phys.:Condens. Matter 21 395502 (2009);
         "P. Giannozzi et al., J. Phys.:Condens. Matter 29 465901 (2017);
         "P. Giannozzi et al., J. Chem. Phys. 152 154105 (2020);
          URL http://www.quantum-espresso.org", 
     in publications or presentations arising from this work. More details at
     http://www.quantum-espresso.org/quote

     Parallel version (MPI & OpenMP), running on      16 processor cores
     Number of MPI processes:                16
     Threads/MPI process:                     1

     MPI processes distributed on     1 nodes
     144663 MiB available memory on the printing compute node when the environment starts

     Reading input from TiFe_H_edges_z.in

     Current dimensions of program PWSCF are:
     Max number of different atomic species (ntypx) = 10
     Max number of k-points (npk) =  40000
     Max angular momentum in pseudopotentials (lmaxx) =  4
     file Fe.pbe-spn-kjpaw_psl.0.2.1.UPF: wavefunction(s)  3D renormalized

     IMPORTANT: XC functional enforced from input :
     Exchange-correlation= PBE
                           (   1   4   3   4   0   0   0)
     Any further DFT definition will be discarded
     Please, verify this is what you really want

     Message from routine setup:
     using ibrav=0 with symmetry is DISCOURAGED, use correct ibrav instead

     R & G space division:  proc/nbgrp/npool/nimage =      16
     Subspace diagonalization in iterative solution of the eigenvalue problem:
     a serial algorithm will be used


     Parallelization info
     --------------------
     sticks:   dense  smooth     PW     G-vecs:    dense   smooth      PW
     Min         269      76     22                13288     2024     320
     Max         271      77     23                13289     2027     323
     Sum        4309    1225    357               212623    32423    5137

     Using Slab Decomposition



     bravais-lattice index     =            0
     lattice parameter (alat)  =       5.5824  a.u.
     unit-cell volume          =     173.9675 (a.u.)^3
     number of atoms/cell      =            3
     number of atomic types    =            3
     number of electrons       =        29.00
     number of Kohn-Sham states=           19
     kinetic-energy cutoff     =     124.0000  Ry
     charge density cutoff     =    1736.0000  Ry
     scf convergence threshold =      1.0E-08
     mixing beta               =       0.7000
     number of iterations used =            8  plain     mixing
     energy convergence thresh.=      1.0E-04
     force convergence thresh. =      1.0E-03
     press convergence thresh. =      1.0E-01
     Exchange-correlation= PBE
                           (   1   4   3   4   0   0   0)
     nstep                     =           50


     celldm(1)=   5.582423  celldm(2)=   0.000000  celldm(3)=   0.000000
     celldm(4)=   0.000000  celldm(5)=   0.000000  celldm(6)=   0.000000

     crystal axes: (cart. coord. in units of alat)
               a(1) = (   1.000000   0.000000   0.000000 )  
               a(2) = (   0.000000   1.000000   0.000000 )  
               a(3) = (   0.000000   0.000000   1.000000 )  

     reciprocal axes: (cart. coord. in units 2 pi/alat)
               b(1) = (  1.000000  0.000000  0.000000 )  
               b(2) = (  0.000000  1.000000  0.000000 )  
               b(3) = (  0.000000  0.000000  1.000000 )  


     PseudoPot. # 1 for Fe read from file:
     ../../pseudos/Fe.pbe-spn-kjpaw_psl.0.2.1.UPF
     MD5 check sum: e86618425769142926afa95317d90200
     Pseudo is Projector augmented-wave + core cor, Zval = 16.0
     Generated using "atomic" code by A. Dal Corso  v.5.0.99 svn rev. 10869
     Shape of augmentation charge: PSQ
     Using radial grid of 1191 points,  6 beta functions with: 
                l(1) =   0
                l(2) =   0
                l(3) =   1
                l(4) =   1
                l(5) =   2
                l(6) =   2
     Q(r) pseudized with 0 coefficients 


     PseudoPot. # 2 for Ti read from file:
     ../../pseudos/ti_pbe_v1.4.uspp.F.UPF
     MD5 check sum: 88a00a6731bd790ddea75d31a80cb452
     Pseudo is Ultrasoft + core correction, Zval = 12.0
     Generated by new atomic code, or converted to UPF format
     Using radial grid of  851 points,  6 beta functions with: 
                l(1) =   0
                l(2) =   0
                l(3) =   1
                l(4) =   1
                l(5) =   2
                l(6) =   2
     Q(r) pseudized with  6 coefficients,  rinner =    1.000   1.000   1.000
                                                       1.000   1.000

     PseudoPot. # 3 for H  read from file:
     ../../pseudos/H.pbe-rrkjus_psl.1.0.0.UPF
     MD5 check sum: f52b6d4d1c606e5624b1dc7b2218f220
     Pseudo is Ultrasoft, Zval =  1.0
     Generated using "atomic" code by A. Dal Corso  v.5.1
     Using radial grid of  929 points,  2 beta functions with: 
                l(1) =   0
                l(2) =   0
     Q(r) pseudized with 0 coefficients 


     atomic species   valence    mass     pseudopotential
     Fe               16.00    55.84500     Fe( 1.00)
     Ti               12.00    47.86700     Ti( 1.00)
     H                 1.00     1.00750     H ( 1.00)

     16 Sym. Ops., with inversion, found



   Cartesian axes

     site n.     atom                  positions (alat units)
         1        Fe     tau(   1) = (   0.5000000   0.5000000   0.5000000  )
         2        Ti     tau(   2) = (   0.0000000   0.0000000   0.0000000  )
         3        H      tau(   3) = (   0.0000000   0.0000000   0.5000000  )

     number of k points=   288  Marzari-Vanderbilt smearing, width (Ry)=  0.0050

     Number of k-points >= 100: set verbosity='high' to print them.

     Dense  grid:   212623 G-vectors     FFT dimensions: (  75,  75,  75)

     Smooth grid:    32423 G-vectors     FFT dimensions: (  40,  40,  40)

     Estimated max dynamical RAM per process >      90.33 MB

     Estimated total dynamical RAM >       1.41 GB

     Check: negative core charge=   -0.000001

     Initial potential from superposition of free atoms

     starting charge      27.9995, renormalised to      29.0000

     negative rho (up, down):  1.312E-03 0.000E+00
     Starting wfcs are   24 randomized atomic wfcs
     Checking if some PAW data can be deallocated... 

     total cpu time spent up to now is        2.5 secs

     per-process dynamical memory:   160.0 Mb

     Self-consistent Calculation

     iteration #  1     ecut=   124.00 Ry     beta= 0.70
     Davidson diagonalization with overlap
     ethr =  1.00E-02,  avg # of iterations =  2.1

     negative rho (up, down):  1.113E-04 0.000E+00

     total cpu time spent up to now is        5.7 secs

     total energy              =    -434.92760735 Ry
     estimated scf accuracy    <      18.72519813 Ry

     iteration #  2     ecut=   124.00 Ry     beta= 0.70
     Davidson diagonalization with overlap
     ethr =  1.00E-02,  avg # of iterations =  6.3

     negative rho (up, down):  1.394E-05 0.000E+00

     total cpu time spent up to now is       11.5 secs

     total energy              =    -448.56965165 Ry
     estimated scf accuracy    <      73.31174364 Ry

     iteration #  3     ecut=   124.00 Ry     beta= 0.70
     Davidson diagonalization with overlap
     ethr =  1.00E-02,  avg # of iterations =  3.1

     negative rho (up, down):  1.459E-04 0.000E+00

     total cpu time spent up to now is       15.4 secs

     total energy              =    -449.73326262 Ry
     estimated scf accuracy    <      16.98470940 Ry

     iteration #  4     ecut=   124.00 Ry     beta= 0.70
     Davidson diagonalization with overlap
     ethr =  1.00E-02,  avg # of iterations =  2.3

     negative rho (up, down):  2.209E-04 0.000E+00

     total cpu time spent up to now is       18.5 secs

     total energy              =    -450.06891871 Ry
     estimated scf accuracy    <       5.09215233 Ry

     iteration #  5     ecut=   124.00 Ry     beta= 0.70
     Davidson diagonalization with overlap
     ethr =  1.00E-02,  avg # of iterations =  1.1

     negative rho (up, down):  8.261E-04 0.000E+00

     total cpu time spent up to now is       21.1 secs

     total energy              =    -449.32222777 Ry
     estimated scf accuracy    <       4.07547593 Ry

     iteration #  6     ecut=   124.00 Ry     beta= 0.70
     Davidson diagonalization with overlap
     ethr =  1.00E-02,  avg # of iterations =  2.1

     negative rho (up, down):  8.294E-04 0.000E+00

     total cpu time spent up to now is       23.9 secs

     total energy              =    -449.57009605 Ry
     estimated scf accuracy    <       0.07469735 Ry

     iteration #  7     ecut=   124.00 Ry     beta= 0.70
     Davidson diagonalization with overlap
     ethr =  2.58E-04,  avg # of iterations =  5.4

     negative rho (up, down):  6.814E-04 0.000E+00

     total cpu time spent up to now is       28.2 secs

     total energy              =    -449.59626207 Ry
     estimated scf accuracy    <       0.02084685 Ry

     iteration #  8     ecut=   124.00 Ry     beta= 0.70
     Davidson diagonalization with overlap
     ethr =  7.19E-05,  avg # of iterations =  4.3

     negative rho (up, down):  1.060E-03 0.000E+00

     total cpu time spent up to now is       32.3 secs

     total energy              =    -449.45642578 Ry
     estimated scf accuracy    <       1.59413491 Ry

     iteration #  9     ecut=   124.00 Ry     beta= 0.70
     Davidson diagonalization with overlap
     ethr =  7.19E-05,  avg # of iterations =  5.2

     negative rho (up, down):  8.875E-04 0.000E+00

     total cpu time spent up to now is       37.0 secs

     total energy              =    -449.58093966 Ry
     estimated scf accuracy    <       0.15804243 Ry

     iteration # 10     ecut=   124.00 Ry     beta= 0.70
     Davidson diagonalization with overlap
     ethr =  7.19E-05,  avg # of iterations =  3.0

     negative rho (up, down):  9.110E-04 0.000E+00

     total cpu time spent up to now is       40.4 secs

     total energy              =    -449.59488239 Ry
     estimated scf accuracy    <       0.02165254 Ry

     iteration # 11     ecut=   124.00 Ry     beta= 0.70
     Davidson diagonalization with overlap
     ethr =  7.19E-05,  avg # of iterations =  1.4

     negative rho (up, down):  9.048E-04 0.000E+00

     total cpu time spent up to now is       43.1 secs

     total energy              =    -449.59753332 Ry
     estimated scf accuracy    <       0.01270157 Ry

     iteration # 12     ecut=   124.00 Ry     beta= 0.70
     Davidson diagonalization with overlap
     ethr =  4.38E-05,  avg # of iterations =  1.0

     negative rho (up, down):  9.001E-04 0.000E+00

     total cpu time spent up to now is       45.6 secs

     total energy              =    -449.59786144 Ry
     estimated scf accuracy    <       0.00074755 Ry

     iteration # 13     ecut=   124.00 Ry     beta= 0.70
     Davidson diagonalization with overlap
     ethr =  2.58E-06,  avg # of iterations =  2.8

     negative rho (up, down):  9.029E-04 0.000E+00

     total cpu time spent up to now is       48.7 secs

     total energy              =    -449.59812436 Ry
     estimated scf accuracy    <       0.00267741 Ry

     iteration # 14     ecut=   124.00 Ry     beta= 0.70
     Davidson diagonalization with overlap
     ethr =  2.58E-06,  avg # of iterations =  1.0

     negative rho (up, down):  9.192E-04 0.000E+00

     total cpu time spent up to now is       51.3 secs

     total energy              =    -449.59783405 Ry
     estimated scf accuracy    <       0.00208624 Ry

     iteration # 15     ecut=   124.00 Ry     beta= 0.70
     Davidson diagonalization with overlap
     ethr =  2.58E-06,  avg # of iterations =  2.0

     negative rho (up, down):  9.258E-04 0.000E+00

     total cpu time spent up to now is       54.1 secs

     total energy              =    -449.59795705 Ry
     estimated scf accuracy    <       0.00001602 Ry

     iteration # 16     ecut=   124.00 Ry     beta= 0.70
     Davidson diagonalization with overlap
     ethr =  5.52E-08,  avg # of iterations =  4.9

     negative rho (up, down):  9.137E-04 0.000E+00

     total cpu time spent up to now is       58.4 secs

     total energy              =    -449.59792654 Ry
     estimated scf accuracy    <       0.00030398 Ry

     iteration # 17     ecut=   124.00 Ry     beta= 0.70
     Davidson diagonalization with overlap
     ethr =  5.52E-08,  avg # of iterations =  4.2

     negative rho (up, down):  9.161E-04 0.000E+00

     total cpu time spent up to now is       62.3 secs

     total energy              =    -449.59796535 Ry
     estimated scf accuracy    <       0.00004654 Ry

     iteration # 18     ecut=   124.00 Ry     beta= 0.70
     Davidson diagonalization with overlap
     ethr =  5.52E-08,  avg # of iterations =  2.0

     negative rho (up, down):  9.167E-04 0.000E+00

     total cpu time spent up to now is       65.1 secs

     total energy              =    -449.59796663 Ry
     estimated scf accuracy    <       0.00000531 Ry

     iteration # 19     ecut=   124.00 Ry     beta= 0.70
     Davidson diagonalization with overlap
     ethr =  1.83E-08,  avg # of iterations =  2.0

     negative rho (up, down):  9.170E-04 0.000E+00

     total cpu time spent up to now is       67.9 secs

     total energy              =    -449.59796679 Ry
     estimated scf accuracy    <       0.00000129 Ry

     iteration # 20     ecut=   124.00 Ry     beta= 0.70
     Davidson diagonalization with overlap
     ethr =  4.45E-09,  avg # of iterations =  2.2

     negative rho (up, down):  9.176E-04 0.000E+00

     total cpu time spent up to now is       70.7 secs

     total energy              =    -449.59796677 Ry
     estimated scf accuracy    <       0.00000034 Ry

     iteration # 21     ecut=   124.00 Ry     beta= 0.70
     Davidson diagonalization with overlap
     ethr =  1.19E-09,  avg # of iterations =  3.1

     negative rho (up, down):  9.175E-04 0.000E+00

     total cpu time spent up to now is       73.9 secs

     total energy              =    -449.59796684 Ry
     estimated scf accuracy    <       0.00000003 Ry

     iteration # 22     ecut=   124.00 Ry     beta= 0.70
     Davidson diagonalization with overlap
     ethr =  1.19E-10,  avg # of iterations =  4.1

     negative rho (up, down):  9.174E-04 0.000E+00

     total cpu time spent up to now is       77.3 secs

     End of self-consistent calculation

     Number of k-points >= 100: set verbosity='high' to print the bands.

     the Fermi energy is    18.0361 ev

!    total energy              =    -449.59796684 Ry
     estimated scf accuracy    <          6.1E-09 Ry
     smearing contrib. (-TS)   =      -0.00002982 Ry
     internal energy E=F+TS    =    -449.59793703 Ry

     The total energy is F=E-TS. E is the sum of the following terms:
     one-electron contribution =    -148.22707121 Ry
     hartree contribution      =      91.39606551 Ry
     xc contribution           =     -53.89082481 Ry
     ewald contribution        =    -262.72514085 Ry
     one-center paw contrib.   =     -76.15096567 Ry

     convergence has been achieved in  22 iterations

     negative rho (up, down):  9.174E-04 0.000E+00

     Forces acting on atoms (cartesian axes, Ry/au):

     atom    1 type  1   force =     0.00000000    0.00000000    0.00000000
     atom    2 type  2   force =     0.00000000    0.00000000    0.00000000
     atom    3 type  3   force =     0.00000000    0.00000000    0.00000000

     Total force =     0.000000     Total SCF correction =     0.000000


     Computing stress (Cartesian axis) and pressure


     negative rho (up, down):  9.174E-04 0.000E+00
          total   stress  (Ry/bohr**3)                   (kbar)     P=      365.73
   0.00080404   0.00000000   0.00000000          118.28        0.00        0.00
   0.00000000   0.00080404   0.00000000            0.00      118.28        0.00
   0.00000000   0.00000000   0.00585056            0.00        0.00      860.65


     BFGS Geometry Optimization
     Energy error            =      1.4E-01 Ry
     Gradient error          =      0.0E+00 Ry/Bohr
     Cell gradient error     =      8.6E+02 kbar

     number of scf cycles    =   1
     number of bfgs steps    =   0

     enthalpy           new  =    -449.5979668434 Ry

     new trust radius        =       0.3858348168 bohr
     new conv_thr            =       0.0000000100 Ry

     new unit-cell volume =    207.51005 a.u.^3 (    30.74982 Ang^3 )
     density =      5.65502 g/cm^3

CELL_PARAMETERS (alat=  5.58242261)
   1.020101023   0.000000000   0.000000000
   0.000000000   1.020101023   0.000000000
   0.000000000   0.000000000   1.146263968

ATOMIC_POSITIONS (crystal)
Fe               0.5000000000        0.5000000000        0.5000000000
Ti               0.0000000000        0.0000000000        0.0000000000
H                0.0000000000        0.0000000000        0.5000000000



     Writing config-only to output data dir ./TiFe_H_edges_z.save/ :
     XML data file     NEW-OLD atomic charge density approx. for the potential
     New effective cutoffs (rho, wfc): 1667.82  119.15

     Check: negative core charge=   -0.000002

     negative rho (up, down):  1.033E-03 0.000E+00

     total cpu time spent up to now is       79.4 secs

     per-process dynamical memory:   163.8 Mb

     Self-consistent Calculation

     iteration #  1     ecut=   124.00 Ry     beta= 0.70
     Davidson diagonalization with overlap
     c_bands:  1 eigenvalues not converged
     c_bands:  1 eigenvalues not converged
     c_bands:  1 eigenvalues not converged
     c_bands:  1 eigenvalues not converged
     c_bands:  1 eigenvalues not converged
     c_bands:  1 eigenvalues not converged
     c_bands:  1 eigenvalues not converged
     c_bands:  1 eigenvalues not converged
     ethr =  1.00E-06,  avg # of iterations = 14.6

     negative rho (up, down):  1.000E-03 0.000E+00

     total cpu time spent up to now is       91.9 secs

     total energy              =    -449.61758466 Ry
     estimated scf accuracy    <       0.07914061 Ry

     iteration #  2     ecut=   124.00 Ry     beta= 0.70
     Davidson diagonalization with overlap
     ethr =  2.73E-04,  avg # of iterations =  5.2

     negative rho (up, down):  8.236E-04 0.000E+00

     total cpu time spent up to now is       96.3 secs

     total energy              =    -449.16466283 Ry
     estimated scf accuracy    <      12.17868358 Ry

     iteration #  3     ecut=   124.00 Ry     beta= 0.70
     Davidson diagonalization with overlap
     ethr =  2.73E-04,  avg # of iterations =  4.6

     negative rho (up, down):  9.181E-04 0.000E+00

     total cpu time spent up to now is      100.4 secs

     total energy              =    -449.66416735 Ry
     estimated scf accuracy    <       0.02634339 Ry

     iteration #  4     ecut=   124.00 Ry     beta= 0.70
     Davidson diagonalization with overlap
     ethr =  9.08E-05,  avg # of iterations =  2.2

     negative rho (up, down):  9.101E-04 0.000E+00

     total cpu time spent up to now is      103.5 secs

     total energy              =    -449.66926572 Ry
     estimated scf accuracy    <       0.00695023 Ry

     iteration #  5     ecut=   124.00 Ry     beta= 0.70
     Davidson diagonalization with overlap
     ethr =  2.40E-05,  avg # of iterations =  1.8

     negative rho (up, down):  9.092E-04 0.000E+00

     total cpu time spent up to now is      106.3 secs

     total energy              =    -449.66976002 Ry
     estimated scf accuracy    <       0.00037196 Ry

     iteration #  6     ecut=   124.00 Ry     beta= 0.70
     Davidson diagonalization with overlap
     ethr =  1.28E-06,  avg # of iterations =  5.2

     negative rho (up, down):  9.075E-04 0.000E+00

     total cpu time spent up to now is      110.6 secs

     total energy              =    -449.66994402 Ry
     estimated scf accuracy    <       0.00010043 Ry

     iteration #  7     ecut=   124.00 Ry     beta= 0.70
     Davidson diagonalization with overlap
     ethr =  3.46E-07,  avg # of iterations =  1.4

     negative rho (up, down):  9.059E-04 0.000E+00

     total cpu time spent up to now is      113.2 secs

     total energy              =    -449.66994403 Ry
     estimated scf accuracy    <       0.00001764 Ry

     iteration #  8     ecut=   124.00 Ry     beta= 0.70
     Davidson diagonalization with overlap
     ethr =  6.08E-08,  avg # of iterations =  2.6

     negative rho (up, down):  9.066E-04 0.000E+00

     total cpu time spent up to now is      116.5 secs

     total energy              =    -449.66994811 Ry
     estimated scf accuracy    <       0.00000614 Ry

     iteration #  9     ecut=   124.00 Ry     beta= 0.70
     Davidson diagonalization with overlap
     ethr =  2.12E-08,  avg # of iterations =  2.0

     negative rho (up, down):  9.070E-04 0.000E+00

     total cpu time spent up to now is      119.5 secs

     total energy              =    -449.66994826 Ry
     estimated scf accuracy    <       0.00000107 Ry

     iteration # 10     ecut=   124.00 Ry     beta= 0.70
     Davidson diagonalization with overlap
     ethr =  3.69E-09,  avg # of iterations =  3.5

     negative rho (up, down):  9.068E-04 0.000E+00

     total cpu time spent up to now is      123.0 secs

     total energy              =    -449.66994857 Ry
     estimated scf accuracy    <       0.00000002 Ry

     iteration # 11     ecut=   124.00 Ry     beta= 0.70
     Davidson diagonalization with overlap
     ethr =  7.47E-11,  avg # of iterations =  5.3

     negative rho (up, down):  9.067E-04 0.000E+00

     total cpu time spent up to now is      127.5 secs

     End of self-consistent calculation

     Number of k-points >= 100: set verbosity='high' to print the bands.

     the Fermi energy is    14.8887 ev

!    total energy              =    -449.66994859 Ry
     estimated scf accuracy    <          1.7E-09 Ry
     smearing contrib. (-TS)   =      -0.00019096 Ry
     internal energy E=F+TS    =    -449.66975763 Ry

     The total energy is F=E-TS. E is the sum of the following terms:
     one-electron contribution =    -171.48538329 Ry
     hartree contribution      =      99.41379050 Ry
     xc contribution           =     -53.51982147 Ry
     ewald contribution        =    -247.93154692 Ry
     one-center paw contrib.   =     -76.14679645 Ry

     convergence has been achieved in  11 iterations

     negative rho (up, down):  9.067E-04 0.000E+00

     Forces acting on atoms (cartesian axes, Ry/au):

     atom    1 type  1   force =     0.00000000    0.00000000    0.00000000
     atom    2 type  2   force =     0.00000000    0.00000000    0.00000000
     atom    3 type  3   force =     0.00000000    0.00000000    0.00000000

     Total force =     0.000000     Total SCF correction =     0.000000


     Computing stress (Cartesian axis) and pressure


     negative rho (up, down):  9.067E-04 0.000E+00
          total   stress  (Ry/bohr**3)                   (kbar)     P=      -76.49
  -0.00124045   0.00000000   0.00000000         -182.48        0.00        0.00
   0.00000000  -0.00124045   0.00000000            0.00     -182.48        0.00
   0.00000000   0.00000000   0.00092093            0.00        0.00      135.47

     Energy error            =      7.2E-02 Ry
     Gradient error          =      0.0E+00 Ry/Bohr
     Cell gradient error     =      1.8E+02 kbar

     number of scf cycles    =   2
     number of bfgs steps    =   1

     enthalpy           old  =    -449.5979668434 Ry
     enthalpy           new  =    -449.6699485949 Ry

     CASE: enthalpy          _new < enthalpy          _old

     new trust radius        =       0.1269117502 bohr
     new conv_thr            =            1.0E-10 Ry

     new unit-cell volume =    201.37080 a.u.^3 (    29.84007 Ang^3 )
     density =      5.82743 g/cm^3

CELL_PARAMETERS (alat=  5.58242261)
   0.983469921   0.000000000   0.000000000
   0.000000000   0.983469921   0.000000000
   0.000000000   0.000000000   1.196757635

ATOMIC_POSITIONS (crystal)
Fe               0.5000000000        0.5000000000        0.5000000000
Ti               0.0000000000        0.0000000000        0.0000000000
H                0.0000000000        0.0000000000        0.5000000000



     Writing config-only to output data dir ./TiFe_H_edges_z.save/ :
     XML data file     NEW-OLD atomic charge density approx. for the potential
     New effective cutoffs (rho, wfc): 1794.37  128.19

     Check: negative core charge=   -0.000002

     negative rho (up, down):  8.810E-04 0.000E+00

     total cpu time spent up to now is      129.7 secs

     per-process dynamical memory:   163.9 Mb

     Self-consistent Calculation

     iteration #  1     ecut=   124.00 Ry     beta= 0.70
     Davidson diagonalization with overlap
     ethr =  1.00E-06,  avg # of iterations = 11.3

     negative rho (up, down):  8.784E-04 0.000E+00

     total cpu time spent up to now is      139.9 secs

     total energy              =    -449.69403599 Ry
     estimated scf accuracy    <       0.00423808 Ry

     iteration #  2     ecut=   124.00 Ry     beta= 0.70
     Davidson diagonalization with overlap
     ethr =  1.46E-05,  avg # of iterations =  2.8

     negative rho (up, down):  9.014E-04 0.000E+00

     total cpu time spent up to now is      143.0 secs

     total energy              =    -449.69126591 Ry
     estimated scf accuracy    <       0.01458233 Ry

     iteration #  3     ecut=   124.00 Ry     beta= 0.70
     Davidson diagonalization with overlap
     ethr =  1.46E-05,  avg # of iterations =  3.7

     negative rho (up, down):  8.905E-04 0.000E+00

     total cpu time spent up to now is      146.5 secs

     total energy              =    -449.68999743 Ry
     estimated scf accuracy    <       0.11423609 Ry

     iteration #  4     ecut=   124.00 Ry     beta= 0.70
     Davidson diagonalization with overlap
     ethr =  1.46E-05,  avg # of iterations =  3.1

     negative rho (up, down):  8.856E-04 0.000E+00

     total cpu time spent up to now is      149.7 secs

     total energy              =    -449.69521092 Ry
     estimated scf accuracy    <       0.00002856 Ry

     iteration #  5     ecut=   124.00 Ry     beta= 0.70
     Davidson diagonalization with overlap
     ethr =  9.85E-08,  avg # of iterations =  4.8

     negative rho (up, down):  8.883E-04 0.000E+00

     total cpu time spent up to now is      154.0 secs

     total energy              =    -449.69523452 Ry
     estimated scf accuracy    <       0.00001191 Ry

     iteration #  6     ecut=   124.00 Ry     beta= 0.70
     Davidson diagonalization with overlap
     ethr =  4.11E-08,  avg # of iterations =  2.3

     negative rho (up, down):  8.884E-04 0.000E+00

     total cpu time spent up to now is      157.0 secs

     total energy              =    -449.69523662 Ry
     estimated scf accuracy    <       0.00000027 Ry

     iteration #  7     ecut=   124.00 Ry     beta= 0.70
     Davidson diagonalization with overlap
     ethr =  9.38E-10,  avg # of iterations =  4.9

     negative rho (up, down):  8.882E-04 0.000E+00

     total cpu time spent up to now is      161.3 secs

     total energy              =    -449.69523685 Ry
     estimated scf accuracy    <       0.00000010 Ry

     iteration #  8     ecut=   124.00 Ry     beta= 0.70
     Davidson diagonalization with overlap
     ethr =  3.30E-10,  avg # of iterations =  1.6

     negative rho (up, down):  8.882E-04 0.000E+00

     total cpu time spent up to now is      163.9 secs

     total energy              =    -449.69523686 Ry
     estimated scf accuracy    <          4.4E-09 Ry

     iteration #  9     ecut=   124.00 Ry     beta= 0.70
     Davidson diagonalization with overlap
     ethr =  1.50E-11,  avg # of iterations =  4.3

     negative rho (up, down):  8.882E-04 0.000E+00

     total cpu time spent up to now is      167.6 secs

     total energy              =    -449.69523686 Ry
     estimated scf accuracy    <          1.1E-09 Ry

     iteration # 10     ecut=   124.00 Ry     beta= 0.70
     Davidson diagonalization with overlap
     ethr =  3.89E-12,  avg # of iterations =  2.3

     negative rho (up, down):  8.882E-04 0.000E+00

     total cpu time spent up to now is      170.5 secs

     total energy              =    -449.69523686 Ry
     estimated scf accuracy    <          1.8E-10 Ry

     iteration # 11     ecut=   124.00 Ry     beta= 0.70
     Davidson diagonalization with overlap
     ethr =  6.35E-13,  avg # of iterations =  3.5

     negative rho (up, down):  8.882E-04 0.000E+00

     total cpu time spent up to now is      173.9 secs

     End of self-consistent calculation

     Number of k-points >= 100: set verbosity='high' to print the bands.

     the Fermi energy is    15.3961 ev

!    total energy              =    -449.69523686 Ry
     estimated scf accuracy    <          7.7E-12 Ry
     smearing contrib. (-TS)   =      -0.00008857 Ry
     internal energy E=F+TS    =    -449.69514829 Ry

     The total energy is F=E-TS. E is the sum of the following terms:
     one-electron contribution =    -167.73563046 Ry
     hartree contribution      =      98.14076736 Ry
     xc contribution           =     -53.54677556 Ry
     ewald contribution        =    -250.40547585 Ry
     one-center paw contrib.   =     -76.14803377 Ry

     convergence has been achieved in  11 iterations

     negative rho (up, down):  8.882E-04 0.000E+00

     Forces acting on atoms (cartesian axes, Ry/au):

     atom    1 type  1   force =     0.00000000    0.00000000    0.00000000
     atom    2 type  2   force =     0.00000000    0.00000000    0.00000000
     atom    3 type  3   force =     0.00000000    0.00000000    0.00000000

     Total force =     0.000000     Total SCF correction =     0.000000


     Computing stress (Cartesian axis) and pressure


     negative rho (up, down):  8.882E-04 0.000E+00
          total   stress  (Ry/bohr**3)                   (kbar)     P=      -69.26
  -0.00106023   0.00000000   0.00000000         -155.97        0.00        0.00
   0.00000000  -0.00106023   0.00000000            0.00     -155.97        0.00
   0.00000000   0.00000000   0.00070792            0.00        0.00      104.14

     Energy error            =      2.5E-02 Ry
     Gradient error          =      0.0E+00 Ry/Bohr
     Cell gradient error     =      1.6E+02 kbar

     number of scf cycles    =   3
     number of bfgs steps    =   2

     enthalpy           old  =    -449.6699485949 Ry
     enthalpy           new  =    -449.6952368625 Ry

     CASE: enthalpy          _new < enthalpy          _old


     WARNING: bfgs curvature condition failed, Theta= 0.982
     new trust radius        =       0.1796181456 bohr
     new conv_thr            =            1.0E-10 Ry

     new unit-cell volume =    188.70292 a.u.^3 (    27.96289 Ang^3 )
     density =      6.21863 g/cm^3

CELL_PARAMETERS (alat=  5.58242261)
   0.923265625   0.000000000   0.000000000
   0.000000000   0.923265625   0.000000000
   0.000000000   0.000000000   1.272498135

ATOMIC_POSITIONS (crystal)
Fe               0.5000000000        0.5000000000        0.5000000000
Ti               0.0000000000        0.0000000000        0.0000000000
H                0.0000000000        0.0000000000        0.5000000000



     Writing config-only to output data dir ./TiFe_H_edges_z.save/ :
     XML data file     NEW-OLD atomic charge density approx. for the potential
     New effective cutoffs (rho, wfc): 2036.02  145.45

     Check: negative core charge=   -0.000002

     negative rho (up, down):  8.343E-04 0.000E+00

     total cpu time spent up to now is      176.0 secs

     per-process dynamical memory:   163.9 Mb

     Self-consistent Calculation

     iteration #  1     ecut=   124.00 Ry     beta= 0.70
     Davidson diagonalization with overlap
     c_bands:  1 eigenvalues not converged
     ethr =  1.00E-06,  avg # of iterations = 13.0

     negative rho (up, down):  7.872E-04 0.000E+00

     total cpu time spent up to now is      187.8 secs

     total energy              =    -449.70807272 Ry
     estimated scf accuracy    <       0.01315345 Ry

     iteration #  2     ecut=   124.00 Ry     beta= 0.70
     Davidson diagonalization with overlap
     ethr =  4.54E-05,  avg # of iterations =  4.5

     negative rho (up, down):  8.408E-04 0.000E+00

     total cpu time spent up to now is      191.8 secs

     total energy              =    -449.66609139 Ry
     estimated scf accuracy    <       0.86137685 Ry

     iteration #  3     ecut=   124.00 Ry     beta= 0.70
     Davidson diagonalization with overlap
     ethr =  4.54E-05,  avg # of iterations =  4.3

     negative rho (up, down):  8.573E-04 0.000E+00

     total cpu time spent up to now is      195.7 secs

     total energy              =    -449.71477115 Ry
     estimated scf accuracy    <       0.01117263 Ry

     iteration #  4     ecut=   124.00 Ry     beta= 0.70
     Davidson diagonalization with overlap
     ethr =  3.85E-05,  avg # of iterations =  1.1

     negative rho (up, down):  8.530E-04 0.000E+00

     total cpu time spent up to now is      198.3 secs

     total energy              =    -449.71553783 Ry
     estimated scf accuracy    <       0.00007866 Ry

     iteration #  5     ecut=   124.00 Ry     beta= 0.70
     Davidson diagonalization with overlap
     ethr =  2.71E-07,  avg # of iterations =  4.8

     negative rho (up, down):  8.533E-04 0.000E+00

     total cpu time spent up to now is      202.5 secs

     total energy              =    -449.71561347 Ry
     estimated scf accuracy    <       0.00000736 Ry

     iteration #  6     ecut=   124.00 Ry     beta= 0.70
     Davidson diagonalization with overlap
     ethr =  2.54E-08,  avg # of iterations =  3.6

     negative rho (up, down):  8.545E-04 0.000E+00

     total cpu time spent up to now is      206.0 secs

     total energy              =    -449.71561546 Ry
     estimated scf accuracy    <       0.00000182 Ry

     iteration #  7     ecut=   124.00 Ry     beta= 0.70
     Davidson diagonalization with overlap
     ethr =  6.28E-09,  avg # of iterations =  2.5

     negative rho (up, down):  8.543E-04 0.000E+00

     total cpu time spent up to now is      209.1 secs

     total energy              =    -449.71561580 Ry
     estimated scf accuracy    <       0.00000059 Ry

     iteration #  8     ecut=   124.00 Ry     beta= 0.70
     Davidson diagonalization with overlap
     ethr =  2.02E-09,  avg # of iterations =  1.9

     negative rho (up, down):  8.544E-04 0.000E+00

     total cpu time spent up to now is      211.9 secs

     total energy              =    -449.71561589 Ry
     estimated scf accuracy    <       0.00000006 Ry

     iteration #  9     ecut=   124.00 Ry     beta= 0.70
     Davidson diagonalization with overlap
     ethr =  2.04E-10,  avg # of iterations =  4.5

     negative rho (up, down):  8.544E-04 0.000E+00

     total cpu time spent up to now is      215.6 secs

     total energy              =    -449.71561591 Ry
     estimated scf accuracy    <          1.9E-09 Ry

     iteration # 10     ecut=   124.00 Ry     beta= 0.70
     Davidson diagonalization with overlap
     ethr =  6.57E-12,  avg # of iterations =  4.4

     negative rho (up, down):  8.544E-04 0.000E+00

     total cpu time spent up to now is      219.5 secs

     total energy              =    -449.71561591 Ry
     estimated scf accuracy    <          2.3E-10 Ry

     iteration # 11     ecut=   124.00 Ry     beta= 0.70
     Davidson diagonalization with overlap
     ethr =  8.07E-13,  avg # of iterations =  2.7

     negative rho (up, down):  8.544E-04 0.000E+00

     total cpu time spent up to now is      222.8 secs

     End of self-consistent calculation

     Number of k-points >= 100: set verbosity='high' to print the bands.

     the Fermi energy is    16.3995 ev

!    total energy              =    -449.71561591 Ry
     estimated scf accuracy    <          1.8E-12 Ry
     smearing contrib. (-TS)   =      -0.00002868 Ry
     internal energy E=F+TS    =    -449.71558723 Ry

     The total energy is F=E-TS. E is the sum of the following terms:
     one-electron contribution =    -159.90600613 Ry
     hartree contribution      =      95.59313890 Ry
     xc contribution           =     -53.64602773 Ry
     ewald contribution        =    -255.60627645 Ry
     one-center paw contrib.   =     -76.15041581 Ry

     convergence has been achieved in  11 iterations

     negative rho (up, down):  8.544E-04 0.000E+00

     Forces acting on atoms (cartesian axes, Ry/au):

     atom    1 type  1   force =     0.00000000    0.00000000    0.00000000
     atom    2 type  2   force =     0.00000000    0.00000000    0.00000000
     atom    3 type  3   force =     0.00000000    0.00000000    0.00000000

     Total force =     0.000000     Total SCF correction =     0.000000


     Computing stress (Cartesian axis) and pressure


     negative rho (up, down):  8.544E-04 0.000E+00
          total   stress  (Ry/bohr**3)                   (kbar)     P=        7.70
  -0.00006261   0.00000000   0.00000000           -9.21        0.00        0.00
   0.00000000  -0.00006261   0.00000000            0.00       -9.21        0.00
   0.00000000   0.00000000   0.00028215            0.00        0.00       41.51

     Energy error            =      2.0E-02 Ry
     Gradient error          =      0.0E+00 Ry/Bohr
     Cell gradient error     =      4.2E+01 kbar

     number of scf cycles    =   4
     number of bfgs steps    =   3

     enthalpy           old  =    -449.6952368625 Ry
     enthalpy           new  =    -449.7156159132 Ry

     CASE: enthalpy          _new < enthalpy          _old

     new trust radius        =       0.0364103414 bohr
     new conv_thr            =            1.0E-10 Ry

     new unit-cell volume =    187.76591 a.u.^3 (    27.82404 Ang^3 )
     density =      6.24966 g/cm^3

CELL_PARAMETERS (alat=  5.58242261)
   0.914927828   0.000000000   0.000000000
   0.000000000   0.914927828   0.000000000
   0.000000000   0.000000000   1.289362213

ATOMIC_POSITIONS (crystal)
Fe               0.5000000000        0.5000000000        0.5000000000
Ti               0.0000000000        0.0000000000        0.0000000000
H                0.0000000000        0.0000000000        0.5000000000



     Writing config-only to output data dir ./TiFe_H_edges_z.save/ :
     XML data file     NEW-OLD atomic charge density approx. for the potential
     New effective cutoffs (rho, wfc): 2073.30  148.12

     Check: negative core charge=   -0.000002

     negative rho (up, down):  8.518E-04 0.000E+00

     total cpu time spent up to now is      224.9 secs

     per-process dynamical memory:   164.1 Mb

     Self-consistent Calculation

     iteration #  1     ecut=   124.00 Ry     beta= 0.70
     Davidson diagonalization with overlap
     ethr =  1.00E-06,  avg # of iterations =  7.2

     negative rho (up, down):  8.016E-04 0.000E+00

     total cpu time spent up to now is      231.7 secs

     total energy              =    -449.71355399 Ry
     estimated scf accuracy    <       0.00303418 Ry

     iteration #  2     ecut=   124.00 Ry     beta= 0.70
     Davidson diagonalization with overlap
     ethr =  1.05E-05,  avg # of iterations =  5.3

     negative rho (up, down):  8.326E-04 0.000E+00

     total cpu time spent up to now is      236.2 secs

     total energy              =    -449.69708953 Ry
     estimated scf accuracy    <       0.42402926 Ry

     iteration #  3     ecut=   124.00 Ry     beta= 0.70
     Davidson diagonalization with overlap
     ethr =  1.05E-05,  avg # of iterations =  4.8

     negative rho (up, down):  8.427E-04 0.000E+00

     total cpu time spent up to now is      240.4 secs

     total energy              =    -449.71618480 Ry
     estimated scf accuracy    <       0.00024252 Ry

     iteration #  4     ecut=   124.00 Ry     beta= 0.70
     Davidson diagonalization with overlap
     ethr =  8.36E-07,  avg # of iterations =  3.2

     negative rho (up, down):  8.441E-04 0.000E+00

     total cpu time spent up to now is      243.7 secs

     total energy              =    -449.71624076 Ry
     estimated scf accuracy    <       0.00003029 Ry

     iteration #  5     ecut=   124.00 Ry     beta= 0.70
     Davidson diagonalization with overlap
     ethr =  1.04E-07,  avg # of iterations =  3.4

     negative rho (up, down):  8.434E-04 0.000E+00

     total cpu time spent up to now is      247.0 secs

     total energy              =    -449.71624675 Ry
     estimated scf accuracy    <       0.00000053 Ry

     iteration #  6     ecut=   124.00 Ry     beta= 0.70
     Davidson diagonalization with overlap
     ethr =  1.83E-09,  avg # of iterations =  5.3

     negative rho (up, down):  8.433E-04 0.000E+00

     total cpu time spent up to now is      252.0 secs

     total energy              =    -449.71624748 Ry
     estimated scf accuracy    <       0.00000010 Ry

     iteration #  7     ecut=   124.00 Ry     beta= 0.70
     Davidson diagonalization with overlap
     ethr =  3.45E-10,  avg # of iterations =  2.1

     negative rho (up, down):  8.433E-04 0.000E+00

     total cpu time spent up to now is      254.9 secs

     total energy              =    -449.71624749 Ry
     estimated scf accuracy    <       0.00000001 Ry

     iteration #  8     ecut=   124.00 Ry     beta= 0.70
     Davidson diagonalization with overlap
     ethr =  4.69E-11,  avg # of iterations =  2.9

     negative rho (up, down):  8.433E-04 0.000E+00

     total cpu time spent up to now is      257.9 secs

     total energy              =    -449.71624749 Ry
     estimated scf accuracy    <          1.5E-09 Ry

     iteration #  9     ecut=   124.00 Ry     beta= 0.70
     Davidson diagonalization with overlap
     ethr =  5.25E-12,  avg # of iterations =  4.5

     negative rho (up, down):  8.433E-04 0.000E+00

     total cpu time spent up to now is      261.7 secs

     End of self-consistent calculation

     Number of k-points >= 100: set verbosity='high' to print the bands.

     the Fermi energy is    16.4678 ev

!    total energy              =    -449.71624749 Ry
     estimated scf accuracy    <          4.6E-11 Ry
     smearing contrib. (-TS)   =      -0.00004540 Ry
     internal energy E=F+TS    =    -449.71620209 Ry

     The total energy is F=E-TS. E is the sum of the following terms:
     one-electron contribution =    -159.43661545 Ry
     hartree contribution      =      95.46605051 Ry
     xc contribution           =     -53.65408622 Ry
     ewald contribution        =    -255.94082030 Ry
     one-center paw contrib.   =     -76.15073063 Ry

     convergence has been achieved in   9 iterations

     negative rho (up, down):  8.433E-04 0.000E+00

     Forces acting on atoms (cartesian axes, Ry/au):

     atom    1 type  1   force =     0.00000000    0.00000000    0.00000000
     atom    2 type  2   force =     0.00000000    0.00000000    0.00000000
     atom    3 type  3   force =     0.00000000    0.00000000    0.00000000

     Total force =     0.000000     Total SCF correction =     0.000000


     Computing stress (Cartesian axis) and pressure


     negative rho (up, down):  8.433E-04 0.000E+00
          total   stress  (Ry/bohr**3)                   (kbar)     P=       13.48
   0.00004149   0.00000000   0.00000000            6.10        0.00        0.00
   0.00000000   0.00004149   0.00000000            0.00        6.10        0.00
   0.00000000   0.00000000   0.00019193            0.00        0.00       28.23

     Energy error            =      6.3E-04 Ry
     Gradient error          =      0.0E+00 Ry/Bohr
     Cell gradient error     =      2.8E+01 kbar

     number of scf cycles    =   5
     number of bfgs steps    =   4

     enthalpy           old  =    -449.7156159132 Ry
     enthalpy           new  =    -449.7162474948 Ry

     CASE: enthalpy          _new < enthalpy          _old

     new trust radius        =       0.0287038803 bohr
     new conv_thr            =            1.0E-10 Ry

     new unit-cell volume =    188.35528 a.u.^3 (    27.91137 Ang^3 )
     density =      6.23011 g/cm^3

CELL_PARAMETERS (alat=  5.58242261)
   0.911601109   0.000000000   0.000000000
   0.000000000   0.911601109   0.000000000
   0.000000000   0.000000000   1.302866672

ATOMIC_POSITIONS (crystal)
Fe               0.5000000000        0.5000000000        0.5000000000
Ti               0.0000000000        0.0000000000        0.0000000000
H                0.0000000000        0.0000000000        0.5000000000



     Writing config-only to output data dir ./TiFe_H_edges_z.save/ :
     XML data file     NEW-OLD atomic charge density approx. for the potential
     New effective cutoffs (rho, wfc): 2088.46  149.20

     Check: negative core charge=   -0.000002

     negative rho (up, down):  8.416E-04 0.000E+00

     total cpu time spent up to now is      263.8 secs

     per-process dynamical memory:   164.4 Mb

     Self-consistent Calculation

     iteration #  1     ecut=   124.00 Ry     beta= 0.70
     Davidson diagonalization with overlap
     ethr =  1.00E-06,  avg # of iterations =  6.1

     negative rho (up, down):  8.043E-04 0.000E+00

     total cpu time spent up to now is      269.6 secs

     total energy              =    -449.71473703 Ry
     estimated scf accuracy    <       0.00204648 Ry

     iteration #  2     ecut=   124.00 Ry     beta= 0.70
     Davidson diagonalization with overlap
     ethr =  7.06E-06,  avg # of iterations =  5.4

     negative rho (up, down):  8.305E-04 0.000E+00

     total cpu time spent up to now is      274.2 secs

     total energy              =    -449.70205830 Ry
     estimated scf accuracy    <       0.34585601 Ry

     iteration #  3     ecut=   124.00 Ry     beta= 0.70
     Davidson diagonalization with overlap
     ethr =  7.06E-06,  avg # of iterations =  4.8

     negative rho (up, down):  8.361E-04 0.000E+00

     total cpu time spent up to now is      278.4 secs

     total energy              =    -449.71638730 Ry
     estimated scf accuracy    <       0.00008735 Ry

     iteration #  4     ecut=   124.00 Ry     beta= 0.70
     Davidson diagonalization with overlap
     ethr =  3.01E-07,  avg # of iterations =  3.8

     negative rho (up, down):  8.352E-04 0.000E+00

     total cpu time spent up to now is      282.1 secs

     total energy              =    -449.71641834 Ry
     estimated scf accuracy    <       0.00000122 Ry

     iteration #  5     ecut=   124.00 Ry     beta= 0.70
     Davidson diagonalization with overlap
     ethr =  4.22E-09,  avg # of iterations =  5.4

     negative rho (up, down):  8.348E-04 0.000E+00

     total cpu time spent up to now is      286.8 secs

     total energy              =    -449.71642010 Ry
     estimated scf accuracy    <       0.00000030 Ry

     iteration #  6     ecut=   124.00 Ry     beta= 0.70
     Davidson diagonalization with overlap
     ethr =  1.05E-09,  avg # of iterations =  1.8

     negative rho (up, down):  8.347E-04 0.000E+00

     total cpu time spent up to now is      289.5 secs

     total energy              =    -449.71642011 Ry
     estimated scf accuracy    <       0.00000002 Ry

     iteration #  7     ecut=   124.00 Ry     beta= 0.70
     Davidson diagonalization with overlap
     ethr =  6.92E-11,  avg # of iterations =  3.7

     negative rho (up, down):  8.347E-04 0.000E+00

     total cpu time spent up to now is      293.0 secs

     total energy              =    -449.71642012 Ry
     estimated scf accuracy    <          1.6E-09 Ry

     iteration #  8     ecut=   124.00 Ry     beta= 0.70
     Davidson diagonalization with overlap
     ethr =  5.57E-12,  avg # of iterations =  4.5

     negative rho (up, down):  8.347E-04 0.000E+00

     total cpu time spent up to now is      296.8 secs

     End of self-consistent calculation

     Number of k-points >= 100: set verbosity='high' to print the bands.

     the Fermi energy is    16.3871 ev

!    total energy              =    -449.71642012 Ry
     estimated scf accuracy    <          5.6E-11 Ry
     smearing contrib. (-TS)   =      -0.00002169 Ry
     internal energy E=F+TS    =    -449.71639843 Ry

     The total energy is F=E-TS. E is the sum of the following terms:
     one-electron contribution =    -159.98160102 Ry
     hartree contribution      =      95.67240260 Ry
     xc contribution           =     -53.64734804 Ry
     ewald contribution        =    -255.60906686 Ry
     one-center paw contrib.   =     -76.15078510 Ry

     convergence has been achieved in   8 iterations

     negative rho (up, down):  8.347E-04 0.000E+00

     Forces acting on atoms (cartesian axes, Ry/au):

     atom    1 type  1   force =     0.00000000    0.00000000    0.00000000
     atom    2 type  2   force =     0.00000000    0.00000000    0.00000000
     atom    3 type  3   force =     0.00000000    0.00000000    0.00000000

     Total force =     0.000000     Total SCF correction =     0.000000


     Computing stress (Cartesian axis) and pressure


     negative rho (up, down):  8.347E-04 0.000E+00
          total   stress  (Ry/bohr**3)                   (kbar)     P=        5.75
   0.00003907   0.00000000   0.00000000            5.75        0.00        0.00
   0.00000000   0.00003907   0.00000000            0.00        5.75        0.00
   0.00000000   0.00000000   0.00003920            0.00        0.00        5.77

     Energy error            =      1.7E-04 Ry
     Gradient error          =      0.0E+00 Ry/Bohr
     Cell gradient error     =      5.8E+00 kbar

     number of scf cycles    =   6
     number of bfgs steps    =   5

     enthalpy           old  =    -449.7162474948 Ry
     enthalpy           new  =    -449.7164201164 Ry

     CASE: enthalpy          _new < enthalpy          _old

     new trust radius        =       0.0026346896 bohr
     new conv_thr            =            1.0E-10 Ry

     new unit-cell volume =    188.86045 a.u.^3 (    27.98623 Ang^3 )
     density =      6.21344 g/cm^3

CELL_PARAMETERS (alat=  5.58242261)
   0.912476124   0.000000000   0.000000000
   0.000000000   0.912476124   0.000000000
   0.000000000   0.000000000   1.303856696

ATOMIC_POSITIONS (crystal)
Fe               0.5000000000        0.5000000000        0.5000000000
Ti               0.0000000000        0.0000000000        0.0000000000
H                0.0000000000        0.0000000000        0.5000000000



     Writing config-only to output data dir ./TiFe_H_edges_z.save/ :
     XML data file     NEW-OLD atomic charge density approx. for the potential
     New effective cutoffs (rho, wfc): 2084.45  148.91

     Check: negative core charge=   -0.000002

     negative rho (up, down):  8.359E-04 0.000E+00

     total cpu time spent up to now is      298.9 secs

     per-process dynamical memory:   164.2 Mb

     Self-consistent Calculation

     iteration #  1     ecut=   124.00 Ry     beta= 0.70
     Davidson diagonalization with overlap
     ethr =  1.00E-06,  avg # of iterations =  2.0

     Threshold (ethr) on eigenvalues was too large:
     Diagonalizing with lowered threshold

     Davidson diagonalization with overlap
     ethr =  3.86E-09,  avg # of iterations =  6.2

     negative rho (up, down):  8.344E-04 0.000E+00

     total cpu time spent up to now is      306.8 secs

     total energy              =    -449.71642480 Ry
     estimated scf accuracy    <       0.00000209 Ry

     iteration #  2     ecut=   124.00 Ry     beta= 0.70
     Davidson diagonalization with overlap
     ethr =  7.21E-09,  avg # of iterations =  4.1

     negative rho (up, down):  8.338E-04 0.000E+00

     total cpu time spent up to now is      310.7 secs

     total energy              =    -449.71641938 Ry
     estimated scf accuracy    <       0.00023036 Ry

     iteration #  3     ecut=   124.00 Ry     beta= 0.70
     Davidson diagonalization with overlap
     ethr =  7.21E-09,  avg # of iterations =  4.1

     negative rho (up, down):  8.344E-04 0.000E+00

     total cpu time spent up to now is      314.2 secs

     total energy              =    -449.71643103 Ry
     estimated scf accuracy    <       0.00000653 Ry

     iteration #  4     ecut=   124.00 Ry     beta= 0.70
     Davidson diagonalization with overlap
     ethr =  7.21E-09,  avg # of iterations =  2.0

     negative rho (up, down):  8.343E-04 0.000E+00

     total cpu time spent up to now is      317.1 secs

     total energy              =    -449.71643139 Ry
     estimated scf accuracy    <       0.00000032 Ry

     iteration #  5     ecut=   124.00 Ry     beta= 0.70
     Davidson diagonalization with overlap
     ethr =  1.10E-09,  avg # of iterations =  2.6

     negative rho (up, down):  8.342E-04 0.000E+00

     total cpu time spent up to now is      320.0 secs

     total energy              =    -449.71643142 Ry
     estimated scf accuracy    <       0.00000001 Ry

     iteration #  6     ecut=   124.00 Ry     beta= 0.70
     Davidson diagonalization with overlap
     ethr =  3.57E-11,  avg # of iterations =  4.9

     negative rho (up, down):  8.342E-04 0.000E+00

     total cpu time spent up to now is      324.3 secs

     total energy              =    -449.71643143 Ry
     estimated scf accuracy    <          4.8E-09 Ry

     iteration #  7     ecut=   124.00 Ry     beta= 0.70
     Davidson diagonalization with overlap
     ethr =  1.67E-11,  avg # of iterations =  1.9

     negative rho (up, down):  8.342E-04 0.000E+00

     total cpu time spent up to now is      327.0 secs

     total energy              =    -449.71643143 Ry
     estimated scf accuracy    <          1.6E-09 Ry

     iteration #  8     ecut=   124.00 Ry     beta= 0.70
     Davidson diagonalization with overlap
     ethr =  5.49E-12,  avg # of iterations =  2.0

     negative rho (up, down):  8.342E-04 0.000E+00

     total cpu time spent up to now is      330.1 secs

     End of self-consistent calculation

     Number of k-points >= 100: set verbosity='high' to print the bands.

     the Fermi energy is    16.3362 ev

!    total energy              =    -449.71643142 Ry
     estimated scf accuracy    <          6.7E-11 Ry
     smearing contrib. (-TS)   =      -0.00002241 Ry
     internal energy E=F+TS    =    -449.71640902 Ry

     The total energy is F=E-TS. E is the sum of the following terms:
     one-electron contribution =    -160.33322537 Ry
     hartree contribution      =      95.79172181 Ry
     xc contribution           =     -53.64226863 Ry
     ewald contribution        =    -255.38192084 Ry
     one-center paw contrib.   =     -76.15071598 Ry

     convergence has been achieved in   8 iterations

     negative rho (up, down):  8.342E-04 0.000E+00

     Forces acting on atoms (cartesian axes, Ry/au):

     atom    1 type  1   force =     0.00000000    0.00000000    0.00000000
     atom    2 type  2   force =     0.00000000    0.00000000    0.00000000
     atom    3 type  3   force =     0.00000000    0.00000000    0.00000000

     Total force =     0.000000     Total SCF correction =     0.000000


     Computing stress (Cartesian axis) and pressure


     negative rho (up, down):  8.342E-04 0.000E+00
          total   stress  (Ry/bohr**3)                   (kbar)     P=        0.76
   0.00000546   0.00000000   0.00000000            0.80        0.00        0.00
   0.00000000   0.00000546   0.00000000            0.00        0.80        0.00
   0.00000000   0.00000000   0.00000464            0.00        0.00        0.68

     Energy error            =      1.1E-05 Ry
     Gradient error          =      0.0E+00 Ry/Bohr
     Cell gradient error     =      8.0E-01 kbar

     number of scf cycles    =   7
     number of bfgs steps    =   6

     enthalpy           old  =    -449.7164201164 Ry
     enthalpy           new  =    -449.7164314250 Ry

     CASE: enthalpy          _new < enthalpy          _old

     new trust radius        =       0.0004932195 bohr
     new conv_thr            =            1.0E-10 Ry

     new unit-cell volume =    188.93900 a.u.^3 (    27.99787 Ang^3 )
     density =      6.21086 g/cm^3

CELL_PARAMETERS (alat=  5.58242261)
   0.912639866   0.000000000   0.000000000
   0.000000000   0.912639866   0.000000000
   0.000000000   0.000000000   1.303930981

ATOMIC_POSITIONS (crystal)
Fe               0.5000000000        0.5000000000        0.5000000000
Ti               0.0000000000        0.0000000000        0.0000000000
H                0.0000000000        0.0000000000        0.5000000000



     Writing config-only to output data dir ./TiFe_H_edges_z.save/ :
     XML data file     NEW-OLD atomic charge density approx. for the potential
     New effective cutoffs (rho, wfc): 2083.70  148.86

     Check: negative core charge=   -0.000002

     negative rho (up, down):  8.344E-04 0.000E+00

     total cpu time spent up to now is      332.2 secs

     per-process dynamical memory:   164.3 Mb

     Self-consistent Calculation

     iteration #  1     ecut=   124.00 Ry     beta= 0.70
     Davidson diagonalization with overlap
     ethr =  1.00E-06,  avg # of iterations =  2.0

     Threshold (ethr) on eigenvalues was too large:
     Diagonalizing with lowered threshold

     Davidson diagonalization with overlap
     ethr =  5.22E-10,  avg # of iterations =  5.0

     negative rho (up, down):  8.344E-04 0.000E+00

     total cpu time spent up to now is      339.6 secs

     total energy              =    -449.71643132 Ry
     estimated scf accuracy    <       0.00000023 Ry

     iteration #  2     ecut=   124.00 Ry     beta= 0.70
     Davidson diagonalization with overlap
     ethr =  8.02E-10,  avg # of iterations =  4.3

     negative rho (up, down):  8.341E-04 0.000E+00

     total cpu time spent up to now is      343.5 secs

     total energy              =    -449.71642970 Ry
     estimated scf accuracy    <       0.00004688 Ry

     iteration #  3     ecut=   124.00 Ry     beta= 0.70
     Davidson diagonalization with overlap
     ethr =  8.02E-10,  avg # of iterations =  4.3

     negative rho (up, down):  8.342E-04 0.000E+00

     total cpu time spent up to now is      347.3 secs

     total energy              =    -449.71643166 Ry
     estimated scf accuracy    <       0.00000007 Ry

     iteration #  4     ecut=   124.00 Ry     beta= 0.70
     Davidson diagonalization with overlap
     ethr =  2.46E-10,  avg # of iterations =  2.0

     negative rho (up, down):  8.342E-04 0.000E+00

     total cpu time spent up to now is      350.1 secs

     total energy              =    -449.71643166 Ry
     estimated scf accuracy    <       0.00000001 Ry

     iteration #  5     ecut=   124.00 Ry     beta= 0.70
     Davidson diagonalization with overlap
     ethr =  3.61E-11,  avg # of iterations =  2.3

     negative rho (up, down):  8.342E-04 0.000E+00

     total cpu time spent up to now is      353.0 secs

     total energy              =    -449.71643166 Ry
     estimated scf accuracy    <          4.2E-10 Ry

     iteration #  6     ecut=   124.00 Ry     beta= 0.70
     Davidson diagonalization with overlap
     ethr =  1.45E-12,  avg # of iterations =  4.9

     negative rho (up, down):  8.342E-04 0.000E+00

     total cpu time spent up to now is      357.3 secs

     total energy              =    -449.71643166 Ry
     estimated scf accuracy    <          1.2E-10 Ry

     iteration #  7     ecut=   124.00 Ry     beta= 0.70
     Davidson diagonalization with overlap
     ethr =  4.10E-13,  avg # of iterations =  2.2

     negative rho (up, down):  8.342E-04 0.000E+00

     total cpu time spent up to now is      360.1 secs

     total energy              =    -449.71643166 Ry
     estimated scf accuracy    <          2.3E-10 Ry

     iteration #  8     ecut=   124.00 Ry     beta= 0.70
     Davidson diagonalization with overlap
     ethr =  4.10E-13,  avg # of iterations =  2.0

     negative rho (up, down):  8.342E-04 0.000E+00

     total cpu time spent up to now is      363.2 secs

     End of self-consistent calculation

     Number of k-points >= 100: set verbosity='high' to print the bands.

     the Fermi energy is    16.3285 ev

!    total energy              =    -449.71643166 Ry
     estimated scf accuracy    <          7.8E-12 Ry
     smearing contrib. (-TS)   =      -0.00002271 Ry
     internal energy E=F+TS    =    -449.71640895 Ry

     The total energy is F=E-TS. E is the sum of the following terms:
     one-electron contribution =    -160.38701505 Ry
     hartree contribution      =      95.80992865 Ry
     xc contribution           =     -53.64150601 Ry
     ewald contribution        =    -255.34711211 Ry
     one-center paw contrib.   =     -76.15070443 Ry

     convergence has been achieved in   8 iterations

     negative rho (up, down):  8.342E-04 0.000E+00

     Forces acting on atoms (cartesian axes, Ry/au):

     atom    1 type  1   force =     0.00000000    0.00000000    0.00000000
     atom    2 type  2   force =     0.00000000    0.00000000    0.00000000
     atom    3 type  3   force =     0.00000000    0.00000000    0.00000000

     Total force =     0.000000     Total SCF correction =     0.000000


     Computing stress (Cartesian axis) and pressure


     negative rho (up, down):  8.342E-04 0.000E+00
          total   stress  (Ry/bohr**3)                   (kbar)     P=        0.08
   0.00000047   0.00000000   0.00000000            0.07        0.00        0.00
   0.00000000   0.00000047   0.00000000            0.00        0.07        0.00
   0.00000000   0.00000000   0.00000060            0.00        0.00        0.09

     Energy error            =      2.3E-07 Ry
     Gradient error          =      0.0E+00 Ry/Bohr
     Cell gradient error     =      8.9E-02 kbar

     bfgs converged in   8 scf cycles and   7 bfgs steps
     (criteria: energy <  1.0E-04 Ry, force <  1.0E-03 Ry/Bohr, cell <  1.0E-01 kbar)

     End of BFGS Geometry Optimization

     Final enthalpy           =    -449.7164316597 Ry

     File ./TiFe_H_edges_z.bfgs deleted, as requested
Begin final coordinates
     new unit-cell volume =    188.93900 a.u.^3 (    27.99787 Ang^3 )
     density =      6.21086 g/cm^3

CELL_PARAMETERS (alat=  5.58242261)
   0.912639866   0.000000000   0.000000000
   0.000000000   0.912639866   0.000000000
   0.000000000   0.000000000   1.303930981

ATOMIC_POSITIONS (crystal)
Fe               0.5000000000        0.5000000000        0.5000000000
Ti               0.0000000000        0.0000000000        0.0000000000
H                0.0000000000        0.0000000000        0.5000000000
End final coordinates



     Writing config-only to output data dir ./TiFe_H_edges_z.save/ :
     XML data file
     Final scf calculation at the relaxed structure.
     The G-vectors are recalculated for the final unit cell
     Results may differ from those at the preceding step.

     Parallelization info
     --------------------
     sticks:   dense  smooth     PW     G-vecs:    dense   smooth      PW
     Min         223      64     18                14419     2202     342
     Max         224      65     19                14426     2205     349
     Sum        3577    1033    293               230737    35259    5527

     Using Slab Decomposition



     bravais-lattice index     =            0
     lattice parameter (alat)  =       5.5824  a.u.
     unit-cell volume          =     188.9390 (a.u.)^3
     number of atoms/cell      =            3
     number of atomic types    =            3
     number of electrons       =        29.00
     number of Kohn-Sham states=           19
     kinetic-energy cutoff     =     124.0000  Ry
     charge density cutoff     =    1736.0000  Ry
     scf convergence threshold =      1.0E-10
     mixing beta               =       0.7000
     number of iterations used =            8  plain     mixing
     press convergence thresh. =      1.0E-01
     Exchange-correlation= PBE
                           (   1   4   3   4   0   0   0)

     celldm(1)=   5.582423  celldm(2)=   0.000000  celldm(3)=   0.000000
     celldm(4)=   0.000000  celldm(5)=   0.000000  celldm(6)=   0.000000

     crystal axes: (cart. coord. in units of alat)
               a(1) = (   0.912640   0.000000   0.000000 )  
               a(2) = (   0.000000   0.912640   0.000000 )  
               a(3) = (   0.000000   0.000000   1.303931 )  

     reciprocal axes: (cart. coord. in units 2 pi/alat)
               b(1) = (  1.095722  0.000000  0.000000 )  
               b(2) = (  0.000000  1.095722  0.000000 )  
               b(3) = (  0.000000  0.000000  0.766912 )  


     PseudoPot. # 1 for Fe read from file:
     ../../pseudos/Fe.pbe-spn-kjpaw_psl.0.2.1.UPF
     MD5 check sum: e86618425769142926afa95317d90200
     Pseudo is Projector augmented-wave + core cor, Zval = 16.0
     Generated using "atomic" code by A. Dal Corso  v.5.0.99 svn rev. 10869
     Shape of augmentation charge: PSQ
     Using radial grid of 1191 points,  6 beta functions with: 
                l(1) =   0
                l(2) =   0
                l(3) =   1
                l(4) =   1
                l(5) =   2
                l(6) =   2
     Q(r) pseudized with 0 coefficients 


     PseudoPot. # 2 for Ti read from file:
     ../../pseudos/ti_pbe_v1.4.uspp.F.UPF
     MD5 check sum: 88a00a6731bd790ddea75d31a80cb452
     Pseudo is Ultrasoft + core correction, Zval = 12.0
     Generated by new atomic code, or converted to UPF format
     Using radial grid of  851 points,  6 beta functions with: 
                l(1) =   0
                l(2) =   0
                l(3) =   1
                l(4) =   1
                l(5) =   2
                l(6) =   2
     Q(r) pseudized with  6 coefficients,  rinner =    1.000   1.000   1.000
                                                       1.000   1.000

     PseudoPot. # 3 for H  read from file:
     ../../pseudos/H.pbe-rrkjus_psl.1.0.0.UPF
     MD5 check sum: f52b6d4d1c606e5624b1dc7b2218f220
     Pseudo is Ultrasoft, Zval =  1.0
     Generated using "atomic" code by A. Dal Corso  v.5.1
     Using radial grid of  929 points,  2 beta functions with: 
                l(1) =   0
                l(2) =   0
     Q(r) pseudized with 0 coefficients 


     atomic species   valence    mass     pseudopotential
     Fe               16.00    55.84500     Fe( 1.00)
     Ti               12.00    47.86700     Ti( 1.00)
     H                 1.00     1.00750     H ( 1.00)

     16 Sym. Ops., with inversion, found



   Cartesian axes

     site n.     atom                  positions (alat units)
         1        Fe     tau(   1) = (   0.4563199   0.4563199   0.6519655  )
         2        Ti     tau(   2) = (   0.0000000   0.0000000   0.0000000  )
         3        H      tau(   3) = (   0.0000000   0.0000000   0.6519655  )

     number of k points=   288  Marzari-Vanderbilt smearing, width (Ry)=  0.0050

     Number of k-points >= 100: set verbosity='high' to print them.

     Dense  grid:   230737 G-vectors     FFT dimensions: (  72,  72, 100)

     Smooth grid:    35259 G-vectors     FFT dimensions: (  40,  40,  54)

     Estimated max dynamical RAM per process >      97.05 MB

     Estimated total dynamical RAM >       1.52 GB

     Check: negative core charge=   -0.000001

     Initial potential from superposition of free atoms

     starting charge      27.9995, renormalised to      29.0000

     negative rho (up, down):  1.318E-03 0.000E+00
     Starting wfcs are   24 randomized atomic wfcs
     Checking if some PAW data can be deallocated... 

     total cpu time spent up to now is      367.3 secs

     per-process dynamical memory:   163.1 Mb

     Self-consistent Calculation

     iteration #  1     ecut=   124.00 Ry     beta= 0.70
     Davidson diagonalization with overlap
     c_bands:  1 eigenvalues not converged
     c_bands:  1 eigenvalues not converged
     c_bands:  1 eigenvalues not converged
     c_bands:  1 eigenvalues not converged
     c_bands:  1 eigenvalues not converged
     c_bands:  1 eigenvalues not converged
     c_bands:  1 eigenvalues not converged
     c_bands:  1 eigenvalues not converged
     c_bands:  1 eigenvalues not converged
     c_bands:  1 eigenvalues not converged
     c_bands:  1 eigenvalues not converged
     c_bands:  1 eigenvalues not converged
     c_bands:  1 eigenvalues not converged
     c_bands:  1 eigenvalues not converged
     c_bands:  1 eigenvalues not converged
     c_bands:  1 eigenvalues not converged
     c_bands:  1 eigenvalues not converged
     c_bands:  1 eigenvalues not converged
     c_bands:  1 eigenvalues not converged
     c_bands:  1 eigenvalues not converged
     c_bands:  1 eigenvalues not converged
     c_bands:  2 eigenvalues not converged
     ethr =  1.00E-06,  avg # of iterations = 16.1

     negative rho (up, down):  1.694E-04 0.000E+00

     total cpu time spent up to now is      384.0 secs

     total energy              =    -428.90426865 Ry
     estimated scf accuracy    <      26.07075377 Ry

     iteration #  2     ecut=   124.00 Ry     beta= 0.70
     Davidson diagonalization with overlap
     ethr =  1.00E-02,  avg # of iterations =  7.6

     total cpu time spent up to now is      391.6 secs

     total energy              =    -438.94077539 Ry
     estimated scf accuracy    <     143.52416524 Ry

     iteration #  3     ecut=   124.00 Ry     beta= 0.70
     Davidson diagonalization with overlap
     ethr =  1.00E-02,  avg # of iterations =  4.3

     negative rho (up, down):  1.533E-05 0.000E+00

     total cpu time spent up to now is      396.4 secs

     total energy              =    -451.50001829 Ry
     estimated scf accuracy    <      22.49726497 Ry

     iteration #  4     ecut=   124.00 Ry     beta= 0.70
     Davidson diagonalization with overlap
     ethr =  1.00E-02,  avg # of iterations =  2.2

     negative rho (up, down):  1.749E-04 0.000E+00

     total cpu time spent up to now is      400.0 secs

     total energy              =    -450.00222416 Ry
     estimated scf accuracy    <      13.18186974 Ry

     iteration #  5     ecut=   124.00 Ry     beta= 0.70
     Davidson diagonalization with overlap
     ethr =  1.00E-02,  avg # of iterations =  2.0

     negative rho (up, down):  3.216E-04 0.000E+00

     total cpu time spent up to now is      403.2 secs

     total energy              =    -450.00777000 Ry
     estimated scf accuracy    <       5.07687914 Ry

     iteration #  6     ecut=   124.00 Ry     beta= 0.70
     Davidson diagonalization with overlap
     ethr =  1.00E-02,  avg # of iterations =  1.0

     negative rho (up, down):  4.359E-04 0.000E+00

     total cpu time spent up to now is      406.3 secs

     total energy              =    -449.91400107 Ry
     estimated scf accuracy    <       3.39714131 Ry

     iteration #  7     ecut=   124.00 Ry     beta= 0.70
     Davidson diagonalization with overlap
     ethr =  1.00E-02,  avg # of iterations =  1.0

     negative rho (up, down):  7.827E-04 0.000E+00

     total cpu time spent up to now is      409.3 secs

     total energy              =    -449.73638193 Ry
     estimated scf accuracy    <       2.49875569 Ry

     iteration #  8     ecut=   124.00 Ry     beta= 0.70
     Davidson diagonalization with overlap
     ethr =  8.62E-03,  avg # of iterations =  1.2

     negative rho (up, down):  9.205E-04 0.000E+00

     total cpu time spent up to now is      412.3 secs

     total energy              =    -449.60426197 Ry
     estimated scf accuracy    <       1.36764028 Ry

     iteration #  9     ecut=   124.00 Ry     beta= 0.70
     Davidson diagonalization with overlap
     ethr =  4.72E-03,  avg # of iterations =  1.3

     negative rho (up, down):  8.911E-04 0.000E+00

     total cpu time spent up to now is      415.4 secs

     total energy              =    -449.70263197 Ry
     estimated scf accuracy    <       0.13805315 Ry

     iteration # 10     ecut=   124.00 Ry     beta= 0.70
     Davidson diagonalization with overlap
     ethr =  4.76E-04,  avg # of iterations =  4.3

     negative rho (up, down):  1.054E-03 0.000E+00

     total cpu time spent up to now is      419.3 secs

     total energy              =    -449.73869061 Ry
     estimated scf accuracy    <       0.03736914 Ry

     iteration # 11     ecut=   124.00 Ry     beta= 0.70
     Davidson diagonalization with overlap
     ethr =  1.29E-04,  avg # of iterations =  4.7

     negative rho (up, down):  9.913E-04 0.000E+00

     total cpu time spent up to now is      424.0 secs

     total energy              =    -449.75456271 Ry
     estimated scf accuracy    <       1.82263508 Ry

     iteration # 12     ecut=   124.00 Ry     beta= 0.70
     Davidson diagonalization with overlap
     ethr =  1.29E-04,  avg # of iterations =  1.1

     negative rho (up, down):  6.506E-04 0.000E+00

     total cpu time spent up to now is      427.0 secs

     total energy              =    -449.62795995 Ry
     estimated scf accuracy    <       1.06669484 Ry

     iteration # 13     ecut=   124.00 Ry     beta= 0.70
     Davidson diagonalization with overlap
     ethr =  1.29E-04,  avg # of iterations =  4.8

     negative rho (up, down):  4.701E-04 0.000E+00

     total cpu time spent up to now is      431.8 secs

     total energy              =    -449.78535964 Ry
     estimated scf accuracy    <       0.18253347 Ry

     iteration # 14     ecut=   124.00 Ry     beta= 0.70
     Davidson diagonalization with overlap
     ethr =  1.29E-04,  avg # of iterations =  3.6

     negative rho (up, down):  5.810E-04 0.000E+00

     total cpu time spent up to now is      435.8 secs

     total energy              =    -449.76379866 Ry
     estimated scf accuracy    <       1.06492877 Ry

     iteration # 15     ecut=   124.00 Ry     beta= 0.70
     Davidson diagonalization with overlap
     ethr =  1.29E-04,  avg # of iterations =  1.5

     negative rho (up, down):  8.186E-04 0.000E+00

     total cpu time spent up to now is      439.0 secs

     total energy              =    -449.68716121 Ry
     estimated scf accuracy    <       0.66593075 Ry

     iteration # 16     ecut=   124.00 Ry     beta= 0.70
     Davidson diagonalization with overlap
     ethr =  1.29E-04,  avg # of iterations =  3.4

     negative rho (up, down):  8.073E-04 0.000E+00

     total cpu time spent up to now is      443.2 secs

     total energy              =    -449.71739604 Ry
     estimated scf accuracy    <       0.01075683 Ry

     iteration # 17     ecut=   124.00 Ry     beta= 0.70
     Davidson diagonalization with overlap
     ethr =  3.71E-05,  avg # of iterations =  1.3

     negative rho (up, down):  8.123E-04 0.000E+00

     total cpu time spent up to now is      446.3 secs

     total energy              =    -449.71741415 Ry
     estimated scf accuracy    <       0.01646252 Ry

     iteration # 18     ecut=   124.00 Ry     beta= 0.70
     Davidson diagonalization with overlap
     ethr =  3.71E-05,  avg # of iterations =  1.0

     negative rho (up, down):  8.185E-04 0.000E+00

     total cpu time spent up to now is      449.3 secs

     total energy              =    -449.71711271 Ry
     estimated scf accuracy    <       0.01244662 Ry

     iteration # 19     ecut=   124.00 Ry     beta= 0.70
     Davidson diagonalization with overlap
     ethr =  3.71E-05,  avg # of iterations =  1.0

     negative rho (up, down):  8.466E-04 0.000E+00

     total cpu time spent up to now is      452.3 secs

     total energy              =    -449.71639524 Ry
     estimated scf accuracy    <       0.00714580 Ry

     iteration # 20     ecut=   124.00 Ry     beta= 0.70
     Davidson diagonalization with overlap
     ethr =  2.46E-05,  avg # of iterations =  1.3

     negative rho (up, down):  8.751E-04 0.000E+00

     total cpu time spent up to now is      455.4 secs

     total energy              =    -449.71689358 Ry
     estimated scf accuracy    <       0.00007001 Ry

     iteration # 21     ecut=   124.00 Ry     beta= 0.70
     Davidson diagonalization with overlap
     ethr =  2.41E-07,  avg # of iterations =  5.8

     negative rho (up, down):  8.527E-04 0.000E+00

     total cpu time spent up to now is      460.9 secs

     total energy              =    -449.71648216 Ry
     estimated scf accuracy    <       0.00852435 Ry

     iteration # 22     ecut=   124.00 Ry     beta= 0.70
     Davidson diagonalization with overlap
     ethr =  2.41E-07,  avg # of iterations =  4.7

     negative rho (up, down):  8.544E-04 0.000E+00

     total cpu time spent up to now is      465.5 secs

     total energy              =    -449.71685355 Ry
     estimated scf accuracy    <       0.00000691 Ry

     iteration # 23     ecut=   124.00 Ry     beta= 0.70
     Davidson diagonalization with overlap
     ethr =  2.38E-08,  avg # of iterations =  2.7

     negative rho (up, down):  8.535E-04 0.000E+00

     total cpu time spent up to now is      469.0 secs

     total energy              =    -449.71685359 Ry
     estimated scf accuracy    <       0.00002343 Ry

     iteration # 24     ecut=   124.00 Ry     beta= 0.70
     Davidson diagonalization with overlap
     ethr =  2.38E-08,  avg # of iterations =  1.6

     negative rho (up, down):  8.536E-04 0.000E+00

     total cpu time spent up to now is      472.2 secs

     total energy              =    -449.71685486 Ry
     estimated scf accuracy    <       0.00000011 Ry

     iteration # 25     ecut=   124.00 Ry     beta= 0.70
     Davidson diagonalization with overlap
     ethr =  3.64E-10,  avg # of iterations =  4.9

     negative rho (up, down):  8.536E-04 0.000E+00

     total cpu time spent up to now is      476.9 secs

     total energy              =    -449.71685495 Ry
     estimated scf accuracy    <       0.00000005 Ry

     iteration # 26     ecut=   124.00 Ry     beta= 0.70
     Davidson diagonalization with overlap
     ethr =  1.67E-10,  avg # of iterations =  1.1

     negative rho (up, down):  8.536E-04 0.000E+00

     total cpu time spent up to now is      479.9 secs

     total energy              =    -449.71685495 Ry
     estimated scf accuracy    <       0.00000002 Ry

     iteration # 27     ecut=   124.00 Ry     beta= 0.70
     Davidson diagonalization with overlap
     ethr =  6.87E-11,  avg # of iterations =  1.3

     negative rho (up, down):  8.536E-04 0.000E+00

     total cpu time spent up to now is      483.0 secs

     total energy              =    -449.71685495 Ry
     estimated scf accuracy    <          2.5E-09 Ry

     iteration # 28     ecut=   124.00 Ry     beta= 0.70
     Davidson diagonalization with overlap
     ethr =  8.72E-12,  avg # of iterations =  2.7

     negative rho (up, down):  8.536E-04 0.000E+00

     total cpu time spent up to now is      486.5 secs

     total energy              =    -449.71685495 Ry
     estimated scf accuracy    <          1.3E-10 Ry

     iteration # 29     ecut=   124.00 Ry     beta= 0.70
     Davidson diagonalization with overlap
     ethr =  4.32E-13,  avg # of iterations =  4.7

     negative rho (up, down):  8.536E-04 0.000E+00

     total cpu time spent up to now is      491.1 secs

     End of self-consistent calculation

     Number of k-points >= 100: set verbosity='high' to print the bands.

     the Fermi energy is    16.3282 ev

!    total energy              =    -449.71685495 Ry
     estimated scf accuracy    <          8.4E-12 Ry
     smearing contrib. (-TS)   =      -0.00002276 Ry
     internal energy E=F+TS    =    -449.71683220 Ry

     The total energy is F=E-TS. E is the sum of the following terms:
     one-electron contribution =    -160.38688620 Ry
     hartree contribution      =      95.80957702 Ry
     xc contribution           =     -53.64162677 Ry
     ewald contribution        =    -255.34711211 Ry
     one-center paw contrib.   =     -76.15078413 Ry

     convergence has been achieved in  29 iterations

     negative rho (up, down):  8.536E-04 0.000E+00

     Forces acting on atoms (cartesian axes, Ry/au):

     atom    1 type  1   force =     0.00000000    0.00000000    0.00000000
     atom    2 type  2   force =     0.00000000    0.00000000    0.00000000
     atom    3 type  3   force =     0.00000000    0.00000000    0.00000000

     Total force =     0.000000     Total SCF correction =     0.000000


     Computing stress (Cartesian axis) and pressure


     negative rho (up, down):  8.536E-04 0.000E+00
          total   stress  (Ry/bohr**3)                   (kbar)     P=        0.66
  -0.00000530   0.00000000   0.00000000           -0.78        0.00        0.00
   0.00000000  -0.00000530   0.00000000            0.00       -0.78        0.00
   0.00000000   0.00000000   0.00002410            0.00        0.00        3.55


     Writing all to output data dir ./TiFe_H_edges_z.save/ :
     XML data file
     init_run     :      4.41s CPU      4.58s WALL (       2 calls)
     electrons    :    452.77s CPU    469.59s WALL (       9 calls)
     update_pot   :      0.55s CPU      0.69s WALL (       7 calls)
     forces       :      2.83s CPU      2.96s WALL (       9 calls)
     stress       :     12.20s CPU     12.60s WALL (       9 calls)

     Called by init_run:
     wfcinit      :      2.52s CPU      2.60s WALL (       2 calls)
     potinit      :      0.50s CPU      0.53s WALL (       2 calls)
     hinit0       :      0.83s CPU      0.87s WALL (       2 calls)

     Called by electrons:
     c_bands      :    374.29s CPU    386.18s WALL (     119 calls)
     sum_band     :     59.50s CPU     62.14s WALL (     119 calls)
     v_of_rho     :      1.86s CPU      2.08s WALL (     126 calls)
     newd         :     12.24s CPU     13.57s WALL (     126 calls)
     PAW_pot      :      6.13s CPU      7.04s WALL (     133 calls)
     mix_rho      :      0.20s CPU      0.22s WALL (     119 calls)

     Called by c_bands:
     init_us_2    :      7.82s CPU      8.20s WALL (   76320 calls)
     cegterg      :    361.10s CPU    372.16s WALL (   34272 calls)

     Called by *egterg:
     cdiaghg      :     64.71s CPU     66.40s WALL (  156549 calls)
     h_psi        :    254.98s CPU    263.40s WALL (  159717 calls)
     s_psi        :      5.43s CPU      5.62s WALL (  159717 calls)
     g_psi        :      1.41s CPU      1.45s WALL (  124869 calls)

     Called by h_psi:
     h_psi:calbec :     10.75s CPU     11.10s WALL (  159717 calls)
     vloc_psi     :    237.04s CPU    244.89s WALL (  159717 calls)
     add_vuspsi   :      5.73s CPU      5.94s WALL (  159717 calls)

     General routines
     calbec       :     16.66s CPU     17.20s WALL (  240069 calls)
     fft          :      1.92s CPU      2.20s WALL (    1854 calls)
     ffts         :      0.38s CPU      0.39s WALL (     245 calls)
     fftw         :    227.80s CPU    235.04s WALL ( 4547694 calls)
     interpolate  :      0.48s CPU      0.52s WALL (     126 calls)

     Parallel routines

     PWSCF        :    474.69s CPU    493.09s WALL


   This run was terminated on:  23:48:25  12Nov2025            

=------------------------------------------------------------------------------=
   JOB DONE.
=------------------------------------------------------------------------------=
