
     Program PWSCF v.7.4 starts on 12Nov2025 at 23:23:40 

     This program is part of the open-source Quantum ESPRESSO suite
     for quantum simulation of materials; please cite
         "P. Giannozzi et al., J. Phys.:Condens. Matter 21 395502 (2009);
         "P. Giannozzi et al., J. Phys.:Condens. Matter 29 465901 (2017);
         "P. Giannozzi et al., J. Chem. Phys. 152 154105 (2020);
          URL http://www.quantum-espresso.org", 
     in publications or presentations arising from this work. More details at
     http://www.quantum-espresso.org/quote

     Parallel version (MPI & OpenMP), running on      16 processor cores
     Number of MPI processes:                16
     Threads/MPI process:                     1

     MPI processes distributed on     1 nodes
     118409 MiB available memory on the printing compute node when the environment starts

     Reading input from TiFe_H_edges_y.in

     Current dimensions of program PWSCF are:
     Max number of different atomic species (ntypx) = 10
     Max number of k-points (npk) =  40000
     Max angular momentum in pseudopotentials (lmaxx) =  4
     file Fe.pbe-spn-kjpaw_psl.0.2.1.UPF: wavefunction(s)  3D renormalized

     IMPORTANT: XC functional enforced from input :
     Exchange-correlation= PBE
                           (   1   4   3   4   0   0   0)
     Any further DFT definition will be discarded
     Please, verify this is what you really want

     Message from routine setup:
     using ibrav=0 with symmetry is DISCOURAGED, use correct ibrav instead

     R & G space division:  proc/nbgrp/npool/nimage =      16
     Subspace diagonalization in iterative solution of the eigenvalue problem:
     a serial algorithm will be used


     Parallelization info
     --------------------
     sticks:   dense  smooth     PW     G-vecs:    dense   smooth      PW
     Min         269      76     22                13288     2024     320
     Max         271      77     23                13289     2027     323
     Sum        4309    1225    357               212623    32423    5137

     Using Slab Decomposition



     bravais-lattice index     =            0
     lattice parameter (alat)  =       5.5824  a.u.
     unit-cell volume          =     173.9675 (a.u.)^3
     number of atoms/cell      =            3
     number of atomic types    =            3
     number of electrons       =        29.00
     number of Kohn-Sham states=           19
     kinetic-energy cutoff     =     124.0000  Ry
     charge density cutoff     =    1736.0000  Ry
     scf convergence threshold =      1.0E-08
     mixing beta               =       0.7000
     number of iterations used =            8  plain     mixing
     energy convergence thresh.=      1.0E-04
     force convergence thresh. =      1.0E-03
     press convergence thresh. =      1.0E-01
     Exchange-correlation= PBE
                           (   1   4   3   4   0   0   0)
     nstep                     =           50


     celldm(1)=   5.582423  celldm(2)=   0.000000  celldm(3)=   0.000000
     celldm(4)=   0.000000  celldm(5)=   0.000000  celldm(6)=   0.000000

     crystal axes: (cart. coord. in units of alat)
               a(1) = (   1.000000   0.000000   0.000000 )  
               a(2) = (   0.000000   1.000000   0.000000 )  
               a(3) = (   0.000000   0.000000   1.000000 )  

     reciprocal axes: (cart. coord. in units 2 pi/alat)
               b(1) = (  1.000000  0.000000  0.000000 )  
               b(2) = (  0.000000  1.000000  0.000000 )  
               b(3) = (  0.000000  0.000000  1.000000 )  


     PseudoPot. # 1 for Fe read from file:
     ../../pseudos/Fe.pbe-spn-kjpaw_psl.0.2.1.UPF
     MD5 check sum: e86618425769142926afa95317d90200
     Pseudo is Projector augmented-wave + core cor, Zval = 16.0
     Generated using "atomic" code by A. Dal Corso  v.5.0.99 svn rev. 10869
     Shape of augmentation charge: PSQ
     Using radial grid of 1191 points,  6 beta functions with: 
                l(1) =   0
                l(2) =   0
                l(3) =   1
                l(4) =   1
                l(5) =   2
                l(6) =   2
     Q(r) pseudized with 0 coefficients 


     PseudoPot. # 2 for Ti read from file:
     ../../pseudos/ti_pbe_v1.4.uspp.F.UPF
     MD5 check sum: 88a00a6731bd790ddea75d31a80cb452
     Pseudo is Ultrasoft + core correction, Zval = 12.0
     Generated by new atomic code, or converted to UPF format
     Using radial grid of  851 points,  6 beta functions with: 
                l(1) =   0
                l(2) =   0
                l(3) =   1
                l(4) =   1
                l(5) =   2
                l(6) =   2
     Q(r) pseudized with  6 coefficients,  rinner =    1.000   1.000   1.000
                                                       1.000   1.000

     PseudoPot. # 3 for H  read from file:
     ../../pseudos/H.pbe-rrkjus_psl.1.0.0.UPF
     MD5 check sum: f52b6d4d1c606e5624b1dc7b2218f220
     Pseudo is Ultrasoft, Zval =  1.0
     Generated using "atomic" code by A. Dal Corso  v.5.1
     Using radial grid of  929 points,  2 beta functions with: 
                l(1) =   0
                l(2) =   0
     Q(r) pseudized with 0 coefficients 


     atomic species   valence    mass     pseudopotential
     Fe               16.00    55.84500     Fe( 1.00)
     Ti               12.00    47.86700     Ti( 1.00)
     H                 1.00     1.00750     H ( 1.00)

     16 Sym. Ops., with inversion, found



   Cartesian axes

     site n.     atom                  positions (alat units)
         1        Fe     tau(   1) = (   0.5000000   0.5000000   0.5000000  )
         2        Ti     tau(   2) = (   0.0000000   0.0000000   0.0000000  )
         3        H      tau(   3) = (   0.0000000   0.5000000   0.0000000  )

     number of k points=   288  Marzari-Vanderbilt smearing, width (Ry)=  0.0050

     Number of k-points >= 100: set verbosity='high' to print them.

     Dense  grid:   212623 G-vectors     FFT dimensions: (  75,  75,  75)

     Smooth grid:    32423 G-vectors     FFT dimensions: (  40,  40,  40)

     Estimated max dynamical RAM per process >      90.33 MB

     Estimated total dynamical RAM >       1.41 GB

     Check: negative core charge=   -0.000001

     Initial potential from superposition of free atoms

     starting charge      27.9995, renormalised to      29.0000

     negative rho (up, down):  1.312E-03 0.000E+00
     Starting wfcs are   24 randomized atomic wfcs
     Checking if some PAW data can be deallocated... 

     total cpu time spent up to now is        2.4 secs

     per-process dynamical memory:   160.2 Mb

     Self-consistent Calculation

     iteration #  1     ecut=   124.00 Ry     beta= 0.70
     Davidson diagonalization with overlap
     ethr =  1.00E-02,  avg # of iterations =  2.1

     negative rho (up, down):  1.115E-04 0.000E+00

     total cpu time spent up to now is        5.4 secs

     total energy              =    -434.92571806 Ry
     estimated scf accuracy    <      18.72740388 Ry

     iteration #  2     ecut=   124.00 Ry     beta= 0.70
     Davidson diagonalization with overlap
     ethr =  1.00E-02,  avg # of iterations =  6.3

     negative rho (up, down):  1.393E-05 0.000E+00

     total cpu time spent up to now is       11.0 secs

     total energy              =    -448.56966671 Ry
     estimated scf accuracy    <      73.30922615 Ry

     iteration #  3     ecut=   124.00 Ry     beta= 0.70
     Davidson diagonalization with overlap
     ethr =  1.00E-02,  avg # of iterations =  3.1

     negative rho (up, down):  1.456E-04 0.000E+00

     total cpu time spent up to now is       14.7 secs

     total energy              =    -449.73578813 Ry
     estimated scf accuracy    <      16.99088613 Ry

     iteration #  4     ecut=   124.00 Ry     beta= 0.70
     Davidson diagonalization with overlap
     ethr =  1.00E-02,  avg # of iterations =  2.3

     negative rho (up, down):  2.211E-04 0.000E+00

     total cpu time spent up to now is       17.7 secs

     total energy              =    -450.06819174 Ry
     estimated scf accuracy    <       5.10579388 Ry

     iteration #  5     ecut=   124.00 Ry     beta= 0.70
     Davidson diagonalization with overlap
     ethr =  1.00E-02,  avg # of iterations =  1.1

     negative rho (up, down):  8.240E-04 0.000E+00

     total cpu time spent up to now is       20.1 secs

     total energy              =    -449.32682677 Ry
     estimated scf accuracy    <       4.07246656 Ry

     iteration #  6     ecut=   124.00 Ry     beta= 0.70
     Davidson diagonalization with overlap
     ethr =  1.00E-02,  avg # of iterations =  2.1

     negative rho (up, down):  8.292E-04 0.000E+00

     total cpu time spent up to now is       22.8 secs

     total energy              =    -449.57001066 Ry
     estimated scf accuracy    <       0.08230663 Ry

     iteration #  7     ecut=   124.00 Ry     beta= 0.70
     Davidson diagonalization with overlap
     ethr =  2.84E-04,  avg # of iterations =  5.3

     negative rho (up, down):  6.856E-04 0.000E+00

     total cpu time spent up to now is       26.9 secs

     total energy              =    -449.59703003 Ry
     estimated scf accuracy    <       0.02008136 Ry

     iteration #  8     ecut=   124.00 Ry     beta= 0.70
     Davidson diagonalization with overlap
     ethr =  6.92E-05,  avg # of iterations =  4.3

     negative rho (up, down):  1.060E-03 0.000E+00

     total cpu time spent up to now is       30.8 secs

     total energy              =    -449.46026467 Ry
     estimated scf accuracy    <       1.56380824 Ry

     iteration #  9     ecut=   124.00 Ry     beta= 0.70
     Davidson diagonalization with overlap
     ethr =  6.92E-05,  avg # of iterations =  5.2

     negative rho (up, down):  8.928E-04 0.000E+00

     total cpu time spent up to now is       35.3 secs

     total energy              =    -449.58258273 Ry
     estimated scf accuracy    <       0.14825512 Ry

     iteration # 10     ecut=   124.00 Ry     beta= 0.70
     Davidson diagonalization with overlap
     ethr =  6.92E-05,  avg # of iterations =  3.0

     negative rho (up, down):  9.132E-04 0.000E+00

     total cpu time spent up to now is       38.5 secs

     total energy              =    -449.59512472 Ry
     estimated scf accuracy    <       0.01674852 Ry

     iteration # 11     ecut=   124.00 Ry     beta= 0.70
     Davidson diagonalization with overlap
     ethr =  5.78E-05,  avg # of iterations =  1.8

     negative rho (up, down):  9.067E-04 0.000E+00

     total cpu time spent up to now is       41.2 secs

     total energy              =    -449.59757896 Ry
     estimated scf accuracy    <       0.01716153 Ry

     iteration # 12     ecut=   124.00 Ry     beta= 0.70
     Davidson diagonalization with overlap
     ethr =  5.78E-05,  avg # of iterations =  1.0

     negative rho (up, down):  9.003E-04 0.000E+00

     total cpu time spent up to now is       43.6 secs

     total energy              =    -449.59770734 Ry
     estimated scf accuracy    <       0.00177357 Ry

     iteration # 13     ecut=   124.00 Ry     beta= 0.70
     Davidson diagonalization with overlap
     ethr =  6.12E-06,  avg # of iterations =  2.0

     negative rho (up, down):  9.036E-04 0.000E+00

     total cpu time spent up to now is       46.3 secs

     total energy              =    -449.59810117 Ry
     estimated scf accuracy    <       0.00256415 Ry

     iteration # 14     ecut=   124.00 Ry     beta= 0.70
     Davidson diagonalization with overlap
     ethr =  6.12E-06,  avg # of iterations =  1.0

     negative rho (up, down):  9.137E-04 0.000E+00

     total cpu time spent up to now is       48.8 secs

     total energy              =    -449.59792092 Ry
     estimated scf accuracy    <       0.00186624 Ry

     iteration # 15     ecut=   124.00 Ry     beta= 0.70
     Davidson diagonalization with overlap
     ethr =  6.12E-06,  avg # of iterations =  1.0

     negative rho (up, down):  9.229E-04 0.000E+00

     total cpu time spent up to now is       51.3 secs

     total energy              =    -449.59791906 Ry
     estimated scf accuracy    <       0.00024088 Ry

     iteration # 16     ecut=   124.00 Ry     beta= 0.70
     Davidson diagonalization with overlap
     ethr =  8.31E-07,  avg # of iterations =  2.1

     negative rho (up, down):  9.175E-04 0.000E+00

     total cpu time spent up to now is       54.0 secs

     total energy              =    -449.59795224 Ry
     estimated scf accuracy    <       0.00016550 Ry

     iteration # 17     ecut=   124.00 Ry     beta= 0.70
     Davidson diagonalization with overlap
     ethr =  5.71E-07,  avg # of iterations =  1.1

     negative rho (up, down):  9.174E-04 0.000E+00

     total cpu time spent up to now is       56.5 secs

     total energy              =    -449.59796525 Ry
     estimated scf accuracy    <       0.00000012 Ry

     iteration # 18     ecut=   124.00 Ry     beta= 0.70
     Davidson diagonalization with overlap
     c_bands:  1 eigenvalues not converged
     ethr =  4.24E-10,  avg # of iterations =  8.4

     negative rho (up, down):  9.174E-04 0.000E+00

     total cpu time spent up to now is       63.1 secs

     total energy              =    -449.59796690 Ry
     estimated scf accuracy    <       0.00000032 Ry

     iteration # 19     ecut=   124.00 Ry     beta= 0.70
     Davidson diagonalization with overlap
     ethr =  4.24E-10,  avg # of iterations =  2.0

     negative rho (up, down):  9.174E-04 0.000E+00

     total cpu time spent up to now is       65.9 secs

     total energy              =    -449.59796683 Ry
     estimated scf accuracy    <       0.00000012 Ry

     iteration # 20     ecut=   124.00 Ry     beta= 0.70
     Davidson diagonalization with overlap
     ethr =  4.18E-10,  avg # of iterations =  2.0

     negative rho (up, down):  9.174E-04 0.000E+00

     total cpu time spent up to now is       69.0 secs

     total energy              =    -449.59796686 Ry
     estimated scf accuracy    <       0.00000002 Ry

     iteration # 21     ecut=   124.00 Ry     beta= 0.70
     Davidson diagonalization with overlap
     ethr =  6.00E-11,  avg # of iterations =  3.6

     negative rho (up, down):  9.174E-04 0.000E+00

     total cpu time spent up to now is       72.0 secs

     End of self-consistent calculation

     Number of k-points >= 100: set verbosity='high' to print the bands.

     the Fermi energy is    18.0360 ev

!    total energy              =    -449.59796686 Ry
     estimated scf accuracy    <          6.1E-09 Ry
     smearing contrib. (-TS)   =      -0.00002982 Ry
     internal energy E=F+TS    =    -449.59793704 Ry

     The total energy is F=E-TS. E is the sum of the following terms:
     one-electron contribution =    -148.22806742 Ry
     hartree contribution      =      91.39720585 Ry
     xc contribution           =     -53.89096945 Ry
     ewald contribution        =    -262.72514085 Ry
     one-center paw contrib.   =     -76.15096516 Ry

     convergence has been achieved in  21 iterations

     negative rho (up, down):  9.174E-04 0.000E+00

     Forces acting on atoms (cartesian axes, Ry/au):

     atom    1 type  1   force =     0.00000000    0.00000000    0.00000000
     atom    2 type  2   force =     0.00000000    0.00000000    0.00000000
     atom    3 type  3   force =     0.00000000    0.00000000    0.00000000

     Total force =     0.000000     Total SCF correction =     0.000000


     Computing stress (Cartesian axis) and pressure


     negative rho (up, down):  9.174E-04 0.000E+00
          total   stress  (Ry/bohr**3)                   (kbar)     P=      365.89
   0.00080499   0.00000000   0.00000000          118.42        0.00        0.00
   0.00000000   0.00585180   0.00000000            0.00      860.83        0.00
   0.00000000   0.00000000   0.00080499            0.00        0.00      118.42


     BFGS Geometry Optimization
     Energy error            =      1.4E-01 Ry
     Gradient error          =      0.0E+00 Ry/Bohr
     Cell gradient error     =      8.6E+02 kbar

     number of scf cycles    =   1
     number of bfgs steps    =   0

     enthalpy           new  =    -449.5979668565 Ry

     new trust radius        =       0.3859167123 bohr
     new conv_thr            =       0.0000000100 Ry

     new unit-cell volume =    207.52535 a.u.^3 (    30.75208 Ang^3 )
     density =      5.65460 g/cm^3

CELL_PARAMETERS (alat=  5.58242261)
   1.020124808   0.000000000   0.000000000
   0.000000000   1.146295014   0.000000000
   0.000000000   0.000000000   1.020124808

ATOMIC_POSITIONS (crystal)
Fe               0.5000000000        0.5000000000        0.5000000000
Ti               0.0000000000        0.0000000000        0.0000000000
H                0.0000000000        0.5000000000        0.0000000000



     Writing config-only to output data dir ./TiFe_H_edges_y.save/ :
     XML data file     NEW-OLD atomic charge density approx. for the potential
     New effective cutoffs (rho, wfc): 1667.74  119.15

     Check: negative core charge=   -0.000002

     negative rho (up, down):  1.033E-03 0.000E+00

     total cpu time spent up to now is       74.0 secs

     per-process dynamical memory:   164.5 Mb

     Self-consistent Calculation

     iteration #  1     ecut=   124.00 Ry     beta= 0.70
     Davidson diagonalization with overlap
     c_bands:  1 eigenvalues not converged
     c_bands:  1 eigenvalues not converged
     c_bands:  1 eigenvalues not converged
     c_bands:  1 eigenvalues not converged
     c_bands:  1 eigenvalues not converged
     c_bands:  1 eigenvalues not converged
     c_bands:  1 eigenvalues not converged
     c_bands:  1 eigenvalues not converged
     ethr =  1.00E-06,  avg # of iterations = 14.6

     negative rho (up, down):  9.992E-04 0.000E+00

     total cpu time spent up to now is       86.0 secs

     total energy              =    -449.61810776 Ry
     estimated scf accuracy    <       0.07848866 Ry

     iteration #  2     ecut=   124.00 Ry     beta= 0.70
     Davidson diagonalization with overlap
     ethr =  2.71E-04,  avg # of iterations =  5.2

     negative rho (up, down):  8.241E-04 0.000E+00

     total cpu time spent up to now is       90.1 secs

     total energy              =    -449.16990549 Ry
     estimated scf accuracy    <      12.03650393 Ry

     iteration #  3     ecut=   124.00 Ry     beta= 0.70
     Davidson diagonalization with overlap
     ethr =  2.71E-04,  avg # of iterations =  4.6

     negative rho (up, down):  9.182E-04 0.000E+00

     total cpu time spent up to now is       94.1 secs

     total energy              =    -449.66420950 Ry
     estimated scf accuracy    <       0.02628609 Ry

     iteration #  4     ecut=   124.00 Ry     beta= 0.70
     Davidson diagonalization with overlap
     ethr =  9.06E-05,  avg # of iterations =  2.2

     negative rho (up, down):  9.102E-04 0.000E+00

     total cpu time spent up to now is       97.0 secs

     total energy              =    -449.66926398 Ry
     estimated scf accuracy    <       0.00690391 Ry

     iteration #  5     ecut=   124.00 Ry     beta= 0.70
     Davidson diagonalization with overlap
     ethr =  2.38E-05,  avg # of iterations =  1.8

     negative rho (up, down):  9.093E-04 0.000E+00

     total cpu time spent up to now is       99.6 secs

     total energy              =    -449.66975465 Ry
     estimated scf accuracy    <       0.00036731 Ry

     iteration #  6     ecut=   124.00 Ry     beta= 0.70
     Davidson diagonalization with overlap
     ethr =  1.27E-06,  avg # of iterations =  5.2

     negative rho (up, down):  9.075E-04 0.000E+00

     total cpu time spent up to now is      103.7 secs

     total energy              =    -449.66993717 Ry
     estimated scf accuracy    <       0.00009998 Ry

     iteration #  7     ecut=   124.00 Ry     beta= 0.70
     Davidson diagonalization with overlap
     ethr =  3.45E-07,  avg # of iterations =  1.4

     negative rho (up, down):  9.059E-04 0.000E+00

     total cpu time spent up to now is      106.2 secs

     total energy              =    -449.66993719 Ry
     estimated scf accuracy    <       0.00001737 Ry

     iteration #  8     ecut=   124.00 Ry     beta= 0.70
     Davidson diagonalization with overlap
     ethr =  5.99E-08,  avg # of iterations =  2.6

     negative rho (up, down):  9.066E-04 0.000E+00

     total cpu time spent up to now is      109.4 secs

     total energy              =    -449.66994125 Ry
     estimated scf accuracy    <       0.00000607 Ry

     iteration #  9     ecut=   124.00 Ry     beta= 0.70
     Davidson diagonalization with overlap
     ethr =  2.09E-08,  avg # of iterations =  2.0

     negative rho (up, down):  9.070E-04 0.000E+00

     total cpu time spent up to now is      112.3 secs

     total energy              =    -449.66994141 Ry
     estimated scf accuracy    <       0.00000106 Ry

     iteration # 10     ecut=   124.00 Ry     beta= 0.70
     Davidson diagonalization with overlap
     ethr =  3.64E-09,  avg # of iterations =  3.5

     negative rho (up, down):  9.068E-04 0.000E+00

     total cpu time spent up to now is      115.7 secs

     total energy              =    -449.66994172 Ry
     estimated scf accuracy    <       0.00000002 Ry

     iteration # 11     ecut=   124.00 Ry     beta= 0.70
     Davidson diagonalization with overlap
     ethr =  7.10E-11,  avg # of iterations =  5.4

     negative rho (up, down):  9.067E-04 0.000E+00

     total cpu time spent up to now is      120.3 secs

     End of self-consistent calculation

     Number of k-points >= 100: set verbosity='high' to print the bands.

     the Fermi energy is    14.8873 ev

!    total energy              =    -449.66994174 Ry
     estimated scf accuracy    <          1.5E-09 Ry
     smearing contrib. (-TS)   =      -0.00019099 Ry
     internal energy E=F+TS    =    -449.66975074 Ry

     The total energy is F=E-TS. E is the sum of the following terms:
     one-electron contribution =    -171.49495770 Ry
     hartree contribution      =      99.41715450 Ry
     xc contribution           =     -53.51969609 Ry
     ewald contribution        =    -247.92545668 Ry
     one-center paw contrib.   =     -76.14679477 Ry

     convergence has been achieved in  11 iterations

     negative rho (up, down):  9.067E-04 0.000E+00

     Forces acting on atoms (cartesian axes, Ry/au):

     atom    1 type  1   force =     0.00000000    0.00000000    0.00000000
     atom    2 type  2   force =     0.00000000    0.00000000    0.00000000
     atom    3 type  3   force =     0.00000000    0.00000000    0.00000000

     Total force =     0.000000     Total SCF correction =     0.000000


     Computing stress (Cartesian axis) and pressure


     negative rho (up, down):  9.067E-04 0.000E+00
          total   stress  (Ry/bohr**3)                   (kbar)     P=      -76.61
  -0.00124106   0.00000000   0.00000000         -182.57        0.00        0.00
   0.00000000   0.00091979   0.00000000            0.00      135.31        0.00
   0.00000000   0.00000000  -0.00124106            0.00        0.00     -182.57

     Energy error            =      7.2E-02 Ry
     Gradient error          =      0.0E+00 Ry/Bohr
     Cell gradient error     =      1.8E+02 kbar

     number of scf cycles    =   2
     number of bfgs steps    =   1

     enthalpy           old  =    -449.5979668565 Ry
     enthalpy           new  =    -449.6699417376 Ry

     CASE: enthalpy          _new < enthalpy          _old

     new trust radius        =       0.1268056239 bohr
     new conv_thr            =            1.0E-10 Ry

     new unit-cell volume =    201.37663 a.u.^3 (    29.84094 Ang^3 )
     density =      5.82726 g/cm^3

CELL_PARAMETERS (alat=  5.58242261)
   0.983488940   0.000000000   0.000000000
   0.000000000   1.196745963   0.000000000
   0.000000000   0.000000000   0.983488940

ATOMIC_POSITIONS (crystal)
Fe               0.5000000000        0.5000000000        0.5000000000
Ti               0.0000000000        0.0000000000        0.0000000000
H                0.0000000000        0.5000000000        0.0000000000



     Writing config-only to output data dir ./TiFe_H_edges_y.save/ :
     XML data file     NEW-OLD atomic charge density approx. for the potential
     New effective cutoffs (rho, wfc): 1794.30  128.19

     Check: negative core charge=   -0.000002

     negative rho (up, down):  8.810E-04 0.000E+00

     total cpu time spent up to now is      122.4 secs

     per-process dynamical memory:   164.5 Mb

     Self-consistent Calculation

     iteration #  1     ecut=   124.00 Ry     beta= 0.70
     Davidson diagonalization with overlap
     ethr =  1.00E-06,  avg # of iterations = 11.3

     negative rho (up, down):  8.784E-04 0.000E+00

     total cpu time spent up to now is      132.6 secs

     total energy              =    -449.69402670 Ry
     estimated scf accuracy    <       0.00423545 Ry

     iteration #  2     ecut=   124.00 Ry     beta= 0.70
     Davidson diagonalization with overlap
     ethr =  1.46E-05,  avg # of iterations =  2.8

     negative rho (up, down):  9.014E-04 0.000E+00

     total cpu time spent up to now is      135.7 secs

     total energy              =    -449.69124010 Ry
     estimated scf accuracy    <       0.01472326 Ry

     iteration #  3     ecut=   124.00 Ry     beta= 0.70
     Davidson diagonalization with overlap
     ethr =  1.46E-05,  avg # of iterations =  3.7

     negative rho (up, down):  8.905E-04 0.000E+00

     total cpu time spent up to now is      139.3 secs

     total energy              =    -449.69001606 Ry
     estimated scf accuracy    <       0.11361848 Ry

     iteration #  4     ecut=   124.00 Ry     beta= 0.70
     Davidson diagonalization with overlap
     ethr =  1.46E-05,  avg # of iterations =  3.1

     negative rho (up, down):  8.856E-04 0.000E+00

     total cpu time spent up to now is      142.5 secs

     total energy              =    -449.69520132 Ry
     estimated scf accuracy    <       0.00002849 Ry

     iteration #  5     ecut=   124.00 Ry     beta= 0.70
     Davidson diagonalization with overlap
     ethr =  9.82E-08,  avg # of iterations =  4.8

     negative rho (up, down):  8.883E-04 0.000E+00

     total cpu time spent up to now is      146.8 secs

     total energy              =    -449.69522488 Ry
     estimated scf accuracy    <       0.00001192 Ry

     iteration #  6     ecut=   124.00 Ry     beta= 0.70
     Davidson diagonalization with overlap
     ethr =  4.11E-08,  avg # of iterations =  2.3

     negative rho (up, down):  8.884E-04 0.000E+00

     total cpu time spent up to now is      149.9 secs

     total energy              =    -449.69522697 Ry
     estimated scf accuracy    <       0.00000027 Ry

     iteration #  7     ecut=   124.00 Ry     beta= 0.70
     Davidson diagonalization with overlap
     ethr =  9.36E-10,  avg # of iterations =  4.9

     negative rho (up, down):  8.882E-04 0.000E+00

     total cpu time spent up to now is      154.1 secs

     total energy              =    -449.69522720 Ry
     estimated scf accuracy    <       0.00000010 Ry

     iteration #  8     ecut=   124.00 Ry     beta= 0.70
     Davidson diagonalization with overlap
     ethr =  3.29E-10,  avg # of iterations =  1.6

     negative rho (up, down):  8.882E-04 0.000E+00

     total cpu time spent up to now is      156.8 secs

     total energy              =    -449.69522721 Ry
     estimated scf accuracy    <          4.3E-09 Ry

     iteration #  9     ecut=   124.00 Ry     beta= 0.70
     Davidson diagonalization with overlap
     ethr =  1.47E-11,  avg # of iterations =  4.3

     negative rho (up, down):  8.882E-04 0.000E+00

     total cpu time spent up to now is      160.5 secs

     total energy              =    -449.69522721 Ry
     estimated scf accuracy    <          1.1E-09 Ry

     iteration # 10     ecut=   124.00 Ry     beta= 0.70
     Davidson diagonalization with overlap
     ethr =  3.90E-12,  avg # of iterations =  2.2

     negative rho (up, down):  8.882E-04 0.000E+00

     total cpu time spent up to now is      163.4 secs

     total energy              =    -449.69522721 Ry
     estimated scf accuracy    <          1.8E-10 Ry

     iteration # 11     ecut=   124.00 Ry     beta= 0.70
     Davidson diagonalization with overlap
     ethr =  6.35E-13,  avg # of iterations =  3.6

     negative rho (up, down):  8.882E-04 0.000E+00

     total cpu time spent up to now is      166.8 secs

     End of self-consistent calculation

     Number of k-points >= 100: set verbosity='high' to print the bands.

     the Fermi energy is    15.3956 ev

!    total energy              =    -449.69522721 Ry
     estimated scf accuracy    <          7.6E-12 Ry
     smearing contrib. (-TS)   =      -0.00008849 Ry
     internal energy E=F+TS    =    -449.69513872 Ry

     The total energy is F=E-TS. E is the sum of the following terms:
     one-electron contribution =    -167.73930379 Ry
     hartree contribution      =      98.14201989 Ry
     xc contribution           =     -53.54673199 Ry
     ewald contribution        =    -250.40308992 Ry
     one-center paw contrib.   =     -76.14803291 Ry

     convergence has been achieved in  11 iterations

     negative rho (up, down):  8.882E-04 0.000E+00

     Forces acting on atoms (cartesian axes, Ry/au):

     atom    1 type  1   force =     0.00000000    0.00000000    0.00000000
     atom    2 type  2   force =     0.00000000    0.00000000    0.00000000
     atom    3 type  3   force =     0.00000000    0.00000000    0.00000000

     Total force =     0.000000     Total SCF correction =     0.000000


     Computing stress (Cartesian axis) and pressure


     negative rho (up, down):  8.882E-04 0.000E+00
          total   stress  (Ry/bohr**3)                   (kbar)     P=      -69.30
  -0.00106049   0.00000000   0.00000000         -156.00        0.00        0.00
   0.00000000   0.00070779   0.00000000            0.00      104.12        0.00
   0.00000000   0.00000000  -0.00106049            0.00        0.00     -156.00

     Energy error            =      2.5E-02 Ry
     Gradient error          =      0.0E+00 Ry/Bohr
     Cell gradient error     =      1.6E+02 kbar

     number of scf cycles    =   3
     number of bfgs steps    =   2

     enthalpy           old  =    -449.6699417376 Ry
     enthalpy           new  =    -449.6952272127 Ry

     CASE: enthalpy          _new < enthalpy          _old


     WARNING: bfgs curvature condition failed, Theta= 0.982
     new trust radius        =       0.1794705368 bohr
     new conv_thr            =            1.0E-10 Ry

     new unit-cell volume =    188.71251 a.u.^3 (    27.96431 Ang^3 )
     density =      6.21831 g/cm^3

CELL_PARAMETERS (alat=  5.58242261)
   0.923316566   0.000000000   0.000000000
   0.000000000   1.272422388   0.000000000
   0.000000000   0.000000000   0.923316566

ATOMIC_POSITIONS (crystal)
Fe               0.5000000000        0.5000000000        0.5000000000
Ti               0.0000000000        0.0000000000        0.0000000000
H                0.0000000000        0.5000000000        0.0000000000



     Writing config-only to output data dir ./TiFe_H_edges_y.save/ :
     XML data file     NEW-OLD atomic charge density approx. for the potential
     New effective cutoffs (rho, wfc): 2035.79  145.44

     Check: negative core charge=   -0.000002

     negative rho (up, down):  8.343E-04 0.000E+00

     total cpu time spent up to now is      168.9 secs

     per-process dynamical memory:   164.5 Mb

     Self-consistent Calculation

     iteration #  1     ecut=   124.00 Ry     beta= 0.70
     Davidson diagonalization with overlap
     c_bands:  1 eigenvalues not converged
     ethr =  1.00E-06,  avg # of iterations = 13.0

     negative rho (up, down):  7.874E-04 0.000E+00

     total cpu time spent up to now is      180.8 secs

     total energy              =    -449.70811818 Ry
     estimated scf accuracy    <       0.01308713 Ry

     iteration #  2     ecut=   124.00 Ry     beta= 0.70
     Davidson diagonalization with overlap
     ethr =  4.51E-05,  avg # of iterations =  4.5

     negative rho (up, down):  8.409E-04 0.000E+00

     total cpu time spent up to now is      184.9 secs

     total energy              =    -449.66637419 Ry
     estimated scf accuracy    <       0.85541650 Ry

     iteration #  3     ecut=   124.00 Ry     beta= 0.70
     Davidson diagonalization with overlap
     ethr =  4.51E-05,  avg # of iterations =  4.3

     negative rho (up, down):  8.573E-04 0.000E+00

     total cpu time spent up to now is      188.8 secs

     total energy              =    -449.71476349 Ry
     estimated scf accuracy    <       0.01127691 Ry

     iteration #  4     ecut=   124.00 Ry     beta= 0.70
     Davidson diagonalization with overlap
     ethr =  3.89E-05,  avg # of iterations =  1.0

     negative rho (up, down):  8.530E-04 0.000E+00

     total cpu time spent up to now is      191.4 secs

     total energy              =    -449.71553344 Ry
     estimated scf accuracy    <       0.00007880 Ry

     iteration #  5     ecut=   124.00 Ry     beta= 0.70
     Davidson diagonalization with overlap
     ethr =  2.72E-07,  avg # of iterations =  4.7

     negative rho (up, down):  8.534E-04 0.000E+00

     total cpu time spent up to now is      195.7 secs

     total energy              =    -449.71560899 Ry
     estimated scf accuracy    <       0.00000736 Ry

     iteration #  6     ecut=   124.00 Ry     beta= 0.70
     Davidson diagonalization with overlap
     ethr =  2.54E-08,  avg # of iterations =  3.6

     negative rho (up, down):  8.545E-04 0.000E+00

     total cpu time spent up to now is      199.2 secs

     total energy              =    -449.71561098 Ry
     estimated scf accuracy    <       0.00000182 Ry

     iteration #  7     ecut=   124.00 Ry     beta= 0.70
     Davidson diagonalization with overlap
     ethr =  6.26E-09,  avg # of iterations =  2.5

     negative rho (up, down):  8.544E-04 0.000E+00

     total cpu time spent up to now is      202.4 secs

     total energy              =    -449.71561132 Ry
     estimated scf accuracy    <       0.00000058 Ry

     iteration #  8     ecut=   124.00 Ry     beta= 0.70
     Davidson diagonalization with overlap
     ethr =  2.01E-09,  avg # of iterations =  1.9

     negative rho (up, down):  8.545E-04 0.000E+00

     total cpu time spent up to now is      205.2 secs

     total energy              =    -449.71561141 Ry
     estimated scf accuracy    <       0.00000006 Ry

     iteration #  9     ecut=   124.00 Ry     beta= 0.70
     Davidson diagonalization with overlap
     ethr =  2.03E-10,  avg # of iterations =  4.4

     negative rho (up, down):  8.544E-04 0.000E+00

     total cpu time spent up to now is      208.9 secs

     total energy              =    -449.71561143 Ry
     estimated scf accuracy    <          1.9E-09 Ry

     iteration # 10     ecut=   124.00 Ry     beta= 0.70
     Davidson diagonalization with overlap
     ethr =  6.43E-12,  avg # of iterations =  4.4

     negative rho (up, down):  8.544E-04 0.000E+00

     total cpu time spent up to now is      212.8 secs

     total energy              =    -449.71561143 Ry
     estimated scf accuracy    <          2.1E-10 Ry

     iteration # 11     ecut=   124.00 Ry     beta= 0.70
     Davidson diagonalization with overlap
     ethr =  7.22E-13,  avg # of iterations =  2.8

     negative rho (up, down):  8.544E-04 0.000E+00

     total cpu time spent up to now is      216.1 secs

     End of self-consistent calculation

     Number of k-points >= 100: set verbosity='high' to print the bands.

     the Fermi energy is    16.3987 ev

!    total energy              =    -449.71561143 Ry
     estimated scf accuracy    <          1.6E-12 Ry
     smearing contrib. (-TS)   =      -0.00002838 Ry
     internal energy E=F+TS    =    -449.71558305 Ry

     The total energy is F=E-TS. E is the sum of the following terms:
     one-electron contribution =    -159.91179258 Ry
     hartree contribution      =      95.59493436 Ry
     xc contribution           =     -53.64593781 Ry
     ewald contribution        =    -255.60237322 Ry
     one-center paw contrib.   =     -76.15041380 Ry

     convergence has been achieved in  11 iterations

     negative rho (up, down):  8.544E-04 0.000E+00

     Forces acting on atoms (cartesian axes, Ry/au):

     atom    1 type  1   force =     0.00000000    0.00000000    0.00000000
     atom    2 type  2   force =     0.00000000    0.00000000    0.00000000
     atom    3 type  3   force =     0.00000000    0.00000000    0.00000000

     Total force =     0.000000     Total SCF correction =     0.000000


     Computing stress (Cartesian axis) and pressure


     negative rho (up, down):  8.544E-04 0.000E+00
          total   stress  (Ry/bohr**3)                   (kbar)     P=        7.62
  -0.00006340   0.00000000   0.00000000           -9.33        0.00        0.00
   0.00000000   0.00028225   0.00000000            0.00       41.52        0.00
   0.00000000   0.00000000  -0.00006340            0.00        0.00       -9.33

     Energy error            =      2.0E-02 Ry
     Gradient error          =      0.0E+00 Ry/Bohr
     Cell gradient error     =      4.2E+01 kbar

     number of scf cycles    =   4
     number of bfgs steps    =   3

     enthalpy           old  =    -449.6952272127 Ry
     enthalpy           new  =    -449.7156114301 Ry

     CASE: enthalpy          _new < enthalpy          _old

     new trust radius        =       0.0364999895 bohr
     new conv_thr            =            1.0E-10 Ry

     new unit-cell volume =    187.76494 a.u.^3 (    27.82389 Ang^3 )
     density =      6.24969 g/cm^3

CELL_PARAMETERS (alat=  5.58242261)
   0.914938130   0.000000000   0.000000000
   0.000000000   1.289326552   0.000000000
   0.000000000   0.000000000   0.914938130

ATOMIC_POSITIONS (crystal)
Fe               0.5000000000        0.5000000000        0.5000000000
Ti               0.0000000000        0.0000000000        0.0000000000
H                0.0000000000        0.5000000000        0.0000000000



     Writing config-only to output data dir ./TiFe_H_edges_y.save/ :
     XML data file     NEW-OLD atomic charge density approx. for the potential
     New effective cutoffs (rho, wfc): 2073.25  148.11

     Check: negative core charge=   -0.000002

     negative rho (up, down):  8.519E-04 0.000E+00

     total cpu time spent up to now is      218.2 secs

     per-process dynamical memory:   164.5 Mb

     Self-consistent Calculation

     iteration #  1     ecut=   124.00 Ry     beta= 0.70
     Davidson diagonalization with overlap
     ethr =  1.00E-06,  avg # of iterations =  7.2

     negative rho (up, down):  8.015E-04 0.000E+00

     total cpu time spent up to now is      224.9 secs

     total energy              =    -449.71354378 Ry
     estimated scf accuracy    <       0.00304275 Ry

     iteration #  2     ecut=   124.00 Ry     beta= 0.70
     Davidson diagonalization with overlap
     ethr =  1.05E-05,  avg # of iterations =  5.3

     negative rho (up, down):  8.326E-04 0.000E+00

     total cpu time spent up to now is      229.4 secs

     total energy              =    -449.69704733 Ry
     estimated scf accuracy    <       0.42470120 Ry

     iteration #  3     ecut=   124.00 Ry     beta= 0.70
     Davidson diagonalization with overlap
     ethr =  1.05E-05,  avg # of iterations =  4.8

     negative rho (up, down):  8.427E-04 0.000E+00

     total cpu time spent up to now is      233.6 secs

     total energy              =    -449.71618413 Ry
     estimated scf accuracy    <       0.00024669 Ry

     iteration #  4     ecut=   124.00 Ry     beta= 0.70
     Davidson diagonalization with overlap
     ethr =  8.51E-07,  avg # of iterations =  3.1

     negative rho (up, down):  8.442E-04 0.000E+00

     total cpu time spent up to now is      237.0 secs

     total energy              =    -449.71623974 Ry
     estimated scf accuracy    <       0.00003013 Ry

     iteration #  5     ecut=   124.00 Ry     beta= 0.70
     Davidson diagonalization with overlap
     ethr =  1.04E-07,  avg # of iterations =  3.5

     negative rho (up, down):  8.434E-04 0.000E+00

     total cpu time spent up to now is      240.2 secs

     total energy              =    -449.71624594 Ry
     estimated scf accuracy    <       0.00000053 Ry

     iteration #  6     ecut=   124.00 Ry     beta= 0.70
     Davidson diagonalization with overlap
     ethr =  1.83E-09,  avg # of iterations =  5.3

     negative rho (up, down):  8.433E-04 0.000E+00

     total cpu time spent up to now is      245.0 secs

     total energy              =    -449.71624666 Ry
     estimated scf accuracy    <       0.00000010 Ry

     iteration #  7     ecut=   124.00 Ry     beta= 0.70
     Davidson diagonalization with overlap
     ethr =  3.34E-10,  avg # of iterations =  2.2

     negative rho (up, down):  8.433E-04 0.000E+00

     total cpu time spent up to now is      247.8 secs

     total energy              =    -449.71624667 Ry
     estimated scf accuracy    <       0.00000001 Ry

     iteration #  8     ecut=   124.00 Ry     beta= 0.70
     Davidson diagonalization with overlap
     ethr =  5.00E-11,  avg # of iterations =  2.8

     negative rho (up, down):  8.433E-04 0.000E+00

     total cpu time spent up to now is      250.8 secs

     total energy              =    -449.71624667 Ry
     estimated scf accuracy    <          1.5E-09 Ry

     iteration #  9     ecut=   124.00 Ry     beta= 0.70
     Davidson diagonalization with overlap
     ethr =  5.24E-12,  avg # of iterations =  4.5

     negative rho (up, down):  8.433E-04 0.000E+00

     total cpu time spent up to now is      254.6 secs

     End of self-consistent calculation

     Number of k-points >= 100: set verbosity='high' to print the bands.

     the Fermi energy is    16.4680 ev

!    total energy              =    -449.71624667 Ry
     estimated scf accuracy    <          5.4E-11 Ry
     smearing contrib. (-TS)   =      -0.00004543 Ry
     internal energy E=F+TS    =    -449.71620124 Ry

     The total energy is F=E-TS. E is the sum of the following terms:
     one-electron contribution =    -159.43559285 Ry
     hartree contribution      =      95.46565038 Ry
     xc contribution           =     -53.65409959 Ry
     ewald contribution        =    -255.94142875 Ry
     one-center paw contrib.   =     -76.15073044 Ry

     convergence has been achieved in   9 iterations

     negative rho (up, down):  8.433E-04 0.000E+00

     Forces acting on atoms (cartesian axes, Ry/au):

     atom    1 type  1   force =     0.00000000    0.00000000    0.00000000
     atom    2 type  2   force =     0.00000000    0.00000000    0.00000000
     atom    3 type  3   force =     0.00000000    0.00000000    0.00000000

     Total force =     0.000000     Total SCF correction =     0.000000


     Computing stress (Cartesian axis) and pressure


     negative rho (up, down):  8.433E-04 0.000E+00
          total   stress  (Ry/bohr**3)                   (kbar)     P=       13.50
   0.00004149   0.00000000   0.00000000            6.10        0.00        0.00
   0.00000000   0.00019234   0.00000000            0.00       28.29        0.00
   0.00000000   0.00000000   0.00004149            0.00        0.00        6.10

     Energy error            =      6.4E-04 Ry
     Gradient error          =      0.0E+00 Ry/Bohr
     Cell gradient error     =      2.8E+01 kbar

     number of scf cycles    =   5
     number of bfgs steps    =   4

     enthalpy           old  =    -449.7156114301 Ry
     enthalpy           new  =    -449.7162466728 Ry

     CASE: enthalpy          _new < enthalpy          _old

     new trust radius        =       0.0287516205 bohr
     new conv_thr            =            1.0E-10 Ry

     new unit-cell volume =    188.35190 a.u.^3 (    27.91087 Ang^3 )
     density =      6.23022 g/cm^3

CELL_PARAMETERS (alat=  5.58242261)
   0.911597662   0.000000000   0.000000000
   0.000000000   1.302853132   0.000000000
   0.000000000   0.000000000   0.911597662

ATOMIC_POSITIONS (crystal)
Fe               0.5000000000        0.5000000000        0.5000000000
Ti               0.0000000000        0.0000000000        0.0000000000
H                0.0000000000        0.5000000000        0.0000000000



     Writing config-only to output data dir ./TiFe_H_edges_y.save/ :
     XML data file     NEW-OLD atomic charge density approx. for the potential
     New effective cutoffs (rho, wfc): 2088.47  149.20

     Check: negative core charge=   -0.000002

     negative rho (up, down):  8.416E-04 0.000E+00

     total cpu time spent up to now is      256.7 secs

     per-process dynamical memory:   164.6 Mb

     Self-consistent Calculation

     iteration #  1     ecut=   124.00 Ry     beta= 0.70
     Davidson diagonalization with overlap
     ethr =  1.00E-06,  avg # of iterations =  6.1

     negative rho (up, down):  8.043E-04 0.000E+00

     total cpu time spent up to now is      262.5 secs

     total energy              =    -449.71472992 Ry
     estimated scf accuracy    <       0.00205474 Ry

     iteration #  2     ecut=   124.00 Ry     beta= 0.70
     Davidson diagonalization with overlap
     ethr =  7.09E-06,  avg # of iterations =  5.4

     negative rho (up, down):  8.305E-04 0.000E+00

     total cpu time spent up to now is      267.1 secs

     total energy              =    -449.70200975 Ry
     estimated scf accuracy    <       0.34695824 Ry

     iteration #  3     ecut=   124.00 Ry     beta= 0.70
     Davidson diagonalization with overlap
     ethr =  7.09E-06,  avg # of iterations =  4.8

     negative rho (up, down):  8.361E-04 0.000E+00

     total cpu time spent up to now is      271.3 secs

     total energy              =    -449.71638698 Ry
     estimated scf accuracy    <       0.00008804 Ry

     iteration #  4     ecut=   124.00 Ry     beta= 0.70
     Davidson diagonalization with overlap
     ethr =  3.04E-07,  avg # of iterations =  3.8

     negative rho (up, down):  8.352E-04 0.000E+00

     total cpu time spent up to now is      275.0 secs

     total energy              =    -449.71641819 Ry
     estimated scf accuracy    <       0.00000123 Ry

     iteration #  5     ecut=   124.00 Ry     beta= 0.70
     Davidson diagonalization with overlap
     ethr =  4.25E-09,  avg # of iterations =  5.4

     negative rho (up, down):  8.348E-04 0.000E+00

     total cpu time spent up to now is      279.6 secs

     total energy              =    -449.71641997 Ry
     estimated scf accuracy    <       0.00000031 Ry

     iteration #  6     ecut=   124.00 Ry     beta= 0.70
     Davidson diagonalization with overlap
     ethr =  1.06E-09,  avg # of iterations =  1.7

     negative rho (up, down):  8.347E-04 0.000E+00

     total cpu time spent up to now is      282.3 secs

     total energy              =    -449.71641998 Ry
     estimated scf accuracy    <       0.00000002 Ry

     iteration #  7     ecut=   124.00 Ry     beta= 0.70
     Davidson diagonalization with overlap
     ethr =  7.06E-11,  avg # of iterations =  3.7

     negative rho (up, down):  8.347E-04 0.000E+00

     total cpu time spent up to now is      285.8 secs

     total energy              =    -449.71641998 Ry
     estimated scf accuracy    <          1.6E-09 Ry

     iteration #  8     ecut=   124.00 Ry     beta= 0.70
     Davidson diagonalization with overlap
     ethr =  5.63E-12,  avg # of iterations =  4.5

     negative rho (up, down):  8.347E-04 0.000E+00

     total cpu time spent up to now is      289.6 secs

     End of self-consistent calculation

     Number of k-points >= 100: set verbosity='high' to print the bands.

     the Fermi energy is    16.3875 ev

!    total energy              =    -449.71641998 Ry
     estimated scf accuracy    <          5.9E-11 Ry
     smearing contrib. (-TS)   =      -0.00002170 Ry
     internal energy E=F+TS    =    -449.71639828 Ry

     The total energy is F=E-TS. E is the sum of the following terms:
     one-electron contribution =    -159.97916395 Ry
     hartree contribution      =      95.67156187 Ry
     xc contribution           =     -53.64738225 Ry
     ewald contribution        =    -255.61062849 Ry
     one-center paw contrib.   =     -76.15078547 Ry

     convergence has been achieved in   8 iterations

     negative rho (up, down):  8.347E-04 0.000E+00

     Forces acting on atoms (cartesian axes, Ry/au):

     atom    1 type  1   force =     0.00000000    0.00000000    0.00000000
     atom    2 type  2   force =     0.00000000    0.00000000    0.00000000
     atom    3 type  3   force =     0.00000000    0.00000000    0.00000000

     Total force =     0.000000     Total SCF correction =     0.000000


     Computing stress (Cartesian axis) and pressure


     negative rho (up, down):  8.347E-04 0.000E+00
          total   stress  (Ry/bohr**3)                   (kbar)     P=        5.79
   0.00003927   0.00000000   0.00000000            5.78        0.00        0.00
   0.00000000   0.00003950   0.00000000            0.00        5.81        0.00
   0.00000000   0.00000000   0.00003927            0.00        0.00        5.78

     Energy error            =      1.7E-04 Ry
     Gradient error          =      0.0E+00 Ry/Bohr
     Cell gradient error     =      5.8E+00 kbar

     number of scf cycles    =   6
     number of bfgs steps    =   5

     enthalpy           old  =    -449.7162466728 Ry
     enthalpy           new  =    -449.7164199833 Ry

     CASE: enthalpy          _new < enthalpy          _old

     new trust radius        =       0.0026404291 bohr
     new conv_thr            =            1.0E-10 Ry

     new unit-cell volume =    188.85950 a.u.^3 (    27.98609 Ang^3 )
     density =      6.21347 g/cm^3

CELL_PARAMETERS (alat=  5.58242261)
   0.912474587   0.000000000   0.000000000
   0.000000000   1.303854554   0.000000000
   0.000000000   0.000000000   0.912474587

ATOMIC_POSITIONS (crystal)
Fe               0.5000000000        0.5000000000        0.5000000000
Ti               0.0000000000        0.0000000000        0.0000000000
H                0.0000000000        0.5000000000        0.0000000000



     Writing config-only to output data dir ./TiFe_H_edges_y.save/ :
     XML data file     NEW-OLD atomic charge density approx. for the potential
     New effective cutoffs (rho, wfc): 2084.46  148.91

     Check: negative core charge=   -0.000002

     negative rho (up, down):  8.359E-04 0.000E+00

     total cpu time spent up to now is      291.7 secs

     per-process dynamical memory:   164.5 Mb

     Self-consistent Calculation

     iteration #  1     ecut=   124.00 Ry     beta= 0.70
     Davidson diagonalization with overlap
     ethr =  1.00E-06,  avg # of iterations =  2.0

     Threshold (ethr) on eigenvalues was too large:
     Diagonalizing with lowered threshold

     Davidson diagonalization with overlap
     ethr =  3.82E-09,  avg # of iterations =  6.3

     negative rho (up, down):  8.344E-04 0.000E+00

     total cpu time spent up to now is      299.6 secs

     total energy              =    -449.71642478 Ry
     estimated scf accuracy    <       0.00000207 Ry

     iteration #  2     ecut=   124.00 Ry     beta= 0.70
     Davidson diagonalization with overlap
     ethr =  7.15E-09,  avg # of iterations =  4.1

     negative rho (up, down):  8.338E-04 0.000E+00

     total cpu time spent up to now is      303.5 secs

     total energy              =    -449.71641964 Ry
     estimated scf accuracy    <       0.00022346 Ry

     iteration #  3     ecut=   124.00 Ry     beta= 0.70
     Davidson diagonalization with overlap
     ethr =  7.15E-09,  avg # of iterations =  4.1

     negative rho (up, down):  8.344E-04 0.000E+00

     total cpu time spent up to now is      307.1 secs

     total energy              =    -449.71643101 Ry
     estimated scf accuracy    <       0.00000677 Ry

     iteration #  4     ecut=   124.00 Ry     beta= 0.70
     Davidson diagonalization with overlap
     ethr =  7.15E-09,  avg # of iterations =  2.0

     negative rho (up, down):  8.343E-04 0.000E+00

     total cpu time spent up to now is      310.0 secs

     total energy              =    -449.71643139 Ry
     estimated scf accuracy    <       0.00000032 Ry

     iteration #  5     ecut=   124.00 Ry     beta= 0.70
     Davidson diagonalization with overlap
     ethr =  1.11E-09,  avg # of iterations =  2.6

     negative rho (up, down):  8.342E-04 0.000E+00

     total cpu time spent up to now is      312.9 secs

     total energy              =    -449.71643142 Ry
     estimated scf accuracy    <       0.00000001 Ry

     iteration #  6     ecut=   124.00 Ry     beta= 0.70
     Davidson diagonalization with overlap
     ethr =  3.54E-11,  avg # of iterations =  5.0

     negative rho (up, down):  8.342E-04 0.000E+00

     total cpu time spent up to now is      317.1 secs

     total energy              =    -449.71643142 Ry
     estimated scf accuracy    <          4.8E-09 Ry

     iteration #  7     ecut=   124.00 Ry     beta= 0.70
     Davidson diagonalization with overlap
     ethr =  1.67E-11,  avg # of iterations =  1.9

     negative rho (up, down):  8.342E-04 0.000E+00

     total cpu time spent up to now is      319.9 secs

     total energy              =    -449.71643142 Ry
     estimated scf accuracy    <          1.6E-09 Ry

     iteration #  8     ecut=   124.00 Ry     beta= 0.70
     Davidson diagonalization with overlap
     ethr =  5.47E-12,  avg # of iterations =  2.0

     negative rho (up, down):  8.342E-04 0.000E+00

     total cpu time spent up to now is      323.0 secs

     End of self-consistent calculation

     Number of k-points >= 100: set verbosity='high' to print the bands.

     the Fermi energy is    16.3363 ev

!    total energy              =    -449.71643142 Ry
     estimated scf accuracy    <          6.6E-11 Ry
     smearing contrib. (-TS)   =      -0.00002241 Ry
     internal energy E=F+TS    =    -449.71640901 Ry

     The total energy is F=E-TS. E is the sum of the following terms:
     one-electron contribution =    -160.33256528 Ry
     hartree contribution      =      95.79149781 Ry
     xc contribution           =     -53.64227828 Ry
     ewald contribution        =    -255.38234714 Ry
     one-center paw contrib.   =     -76.15071612 Ry

     convergence has been achieved in   8 iterations

     negative rho (up, down):  8.342E-04 0.000E+00

     Forces acting on atoms (cartesian axes, Ry/au):

     atom    1 type  1   force =     0.00000000    0.00000000    0.00000000
     atom    2 type  2   force =     0.00000000    0.00000000    0.00000000
     atom    3 type  3   force =     0.00000000    0.00000000    0.00000000

     Total force =     0.000000     Total SCF correction =     0.000000


     Computing stress (Cartesian axis) and pressure


     negative rho (up, down):  8.342E-04 0.000E+00
          total   stress  (Ry/bohr**3)                   (kbar)     P=        0.77
   0.00000553   0.00000000   0.00000000            0.81        0.00        0.00
   0.00000000   0.00000471   0.00000000            0.00        0.69        0.00
   0.00000000   0.00000000   0.00000553            0.00        0.00        0.81

     Energy error            =      1.1E-05 Ry
     Gradient error          =      0.0E+00 Ry/Bohr
     Cell gradient error     =      8.1E-01 kbar

     number of scf cycles    =   7
     number of bfgs steps    =   6

     enthalpy           old  =    -449.7164199833 Ry
     enthalpy           new  =    -449.7164314201 Ry

     CASE: enthalpy          _new < enthalpy          _old

     new trust radius        =       0.0004983725 bohr
     new conv_thr            =            1.0E-10 Ry

     new unit-cell volume =    188.93906 a.u.^3 (    27.99788 Ang^3 )
     density =      6.21086 g/cm^3

CELL_PARAMETERS (alat=  5.58242261)
   0.912640041   0.000000000   0.000000000
   0.000000000   1.303930940   0.000000000
   0.000000000   0.000000000   0.912640041

ATOMIC_POSITIONS (crystal)
Fe               0.5000000000        0.5000000000        0.5000000000
Ti               0.0000000000        0.0000000000        0.0000000000
H                0.0000000000        0.5000000000        0.0000000000



     Writing config-only to output data dir ./TiFe_H_edges_y.save/ :
     XML data file     NEW-OLD atomic charge density approx. for the potential
     New effective cutoffs (rho, wfc): 2083.70  148.86

     Check: negative core charge=   -0.000002

     negative rho (up, down):  8.344E-04 0.000E+00

     total cpu time spent up to now is      325.0 secs

     per-process dynamical memory:   164.5 Mb

     Self-consistent Calculation

     iteration #  1     ecut=   124.00 Ry     beta= 0.70
     Davidson diagonalization with overlap
     ethr =  1.00E-06,  avg # of iterations =  2.0

     Threshold (ethr) on eigenvalues was too large:
     Diagonalizing with lowered threshold

     Davidson diagonalization with overlap
     ethr =  5.24E-10,  avg # of iterations =  5.0

     negative rho (up, down):  8.344E-04 0.000E+00

     total cpu time spent up to now is      332.4 secs

     total energy              =    -449.71643132 Ry
     estimated scf accuracy    <       0.00000023 Ry

     iteration #  2     ecut=   124.00 Ry     beta= 0.70
     Davidson diagonalization with overlap
     ethr =  8.08E-10,  avg # of iterations =  4.3

     negative rho (up, down):  8.341E-04 0.000E+00

     total cpu time spent up to now is      336.3 secs

     total energy              =    -449.71642969 Ry
     estimated scf accuracy    <       0.00004717 Ry

     iteration #  3     ecut=   124.00 Ry     beta= 0.70
     Davidson diagonalization with overlap
     ethr =  8.08E-10,  avg # of iterations =  4.3

     negative rho (up, down):  8.342E-04 0.000E+00

     total cpu time spent up to now is      340.1 secs

     total energy              =    -449.71643166 Ry
     estimated scf accuracy    <       0.00000007 Ry

     iteration #  4     ecut=   124.00 Ry     beta= 0.70
     Davidson diagonalization with overlap
     ethr =  2.52E-10,  avg # of iterations =  2.0

     negative rho (up, down):  8.342E-04 0.000E+00

     total cpu time spent up to now is      342.9 secs

     total energy              =    -449.71643166 Ry
     estimated scf accuracy    <       0.00000001 Ry

     iteration #  5     ecut=   124.00 Ry     beta= 0.70
     Davidson diagonalization with overlap
     ethr =  3.68E-11,  avg # of iterations =  2.3

     negative rho (up, down):  8.342E-04 0.000E+00

     total cpu time spent up to now is      345.8 secs

     total energy              =    -449.71643166 Ry
     estimated scf accuracy    <          4.3E-10 Ry

     iteration #  6     ecut=   124.00 Ry     beta= 0.70
     Davidson diagonalization with overlap
     ethr =  1.48E-12,  avg # of iterations =  4.9

     negative rho (up, down):  8.342E-04 0.000E+00

     total cpu time spent up to now is      350.2 secs

     total energy              =    -449.71643166 Ry
     estimated scf accuracy    <          1.2E-10 Ry

     iteration #  7     ecut=   124.00 Ry     beta= 0.70
     Davidson diagonalization with overlap
     ethr =  4.22E-13,  avg # of iterations =  2.1

     negative rho (up, down):  8.342E-04 0.000E+00

     total cpu time spent up to now is      353.0 secs

     total energy              =    -449.71643166 Ry
     estimated scf accuracy    <          2.4E-10 Ry

     iteration #  8     ecut=   124.00 Ry     beta= 0.70
     Davidson diagonalization with overlap
     ethr =  4.22E-13,  avg # of iterations =  2.0

     negative rho (up, down):  8.342E-04 0.000E+00

     total cpu time spent up to now is      356.0 secs

     End of self-consistent calculation

     Number of k-points >= 100: set verbosity='high' to print the bands.

     the Fermi energy is    16.3285 ev

!    total energy              =    -449.71643166 Ry
     estimated scf accuracy    <          8.5E-12 Ry
     smearing contrib. (-TS)   =      -0.00002271 Ry
     internal energy E=F+TS    =    -449.71640895 Ry

     The total energy is F=E-TS. E is the sum of the following terms:
     one-electron contribution =    -160.38706013 Ry
     hartree contribution      =      95.80994451 Ry
     xc contribution           =     -53.64150559 Ry
     ewald contribution        =    -255.34708331 Ry
     one-center paw contrib.   =     -76.15070443 Ry

     convergence has been achieved in   8 iterations

     negative rho (up, down):  8.342E-04 0.000E+00

     Forces acting on atoms (cartesian axes, Ry/au):

     atom    1 type  1   force =     0.00000000    0.00000000    0.00000000
     atom    2 type  2   force =     0.00000000    0.00000000    0.00000000
     atom    3 type  3   force =     0.00000000    0.00000000    0.00000000

     Total force =     0.000000     Total SCF correction =     0.000000


     Computing stress (Cartesian axis) and pressure


     negative rho (up, down):  8.342E-04 0.000E+00
          total   stress  (Ry/bohr**3)                   (kbar)     P=        0.08
   0.00000047   0.00000000   0.00000000            0.07        0.00        0.00
   0.00000000   0.00000061   0.00000000            0.00        0.09        0.00
   0.00000000   0.00000000   0.00000047            0.00        0.00        0.07

     Energy error            =      2.4E-07 Ry
     Gradient error          =      0.0E+00 Ry/Bohr
     Cell gradient error     =      9.0E-02 kbar

     bfgs converged in   8 scf cycles and   7 bfgs steps
     (criteria: energy <  1.0E-04 Ry, force <  1.0E-03 Ry/Bohr, cell <  1.0E-01 kbar)

     End of BFGS Geometry Optimization

     Final enthalpy           =    -449.7164316601 Ry

     File ./TiFe_H_edges_y.bfgs deleted, as requested
Begin final coordinates
     new unit-cell volume =    188.93906 a.u.^3 (    27.99788 Ang^3 )
     density =      6.21086 g/cm^3

CELL_PARAMETERS (alat=  5.58242261)
   0.912640041   0.000000000   0.000000000
   0.000000000   1.303930940   0.000000000
   0.000000000   0.000000000   0.912640041

ATOMIC_POSITIONS (crystal)
Fe               0.5000000000        0.5000000000        0.5000000000
Ti               0.0000000000        0.0000000000        0.0000000000
H                0.0000000000        0.5000000000        0.0000000000
End final coordinates



     Writing config-only to output data dir ./TiFe_H_edges_y.save/ :
     XML data file
     Final scf calculation at the relaxed structure.
     The G-vectors are recalculated for the final unit cell
     Results may differ from those at the preceding step.

     Parallelization info
     --------------------
     sticks:   dense  smooth     PW     G-vecs:    dense   smooth      PW
     Min         319      91     26                14420     2203     344
     Max         321      92     27                14422     2206     347
     Sum        5119    1463    425               230737    35259    5527

     Using Slab Decomposition



     bravais-lattice index     =            0
     lattice parameter (alat)  =       5.5824  a.u.
     unit-cell volume          =     188.9391 (a.u.)^3
     number of atoms/cell      =            3
     number of atomic types    =            3
     number of electrons       =        29.00
     number of Kohn-Sham states=           19
     kinetic-energy cutoff     =     124.0000  Ry
     charge density cutoff     =    1736.0000  Ry
     scf convergence threshold =      1.0E-10
     mixing beta               =       0.7000
     number of iterations used =            8  plain     mixing
     press convergence thresh. =      1.0E-01
     Exchange-correlation= PBE
                           (   1   4   3   4   0   0   0)

     celldm(1)=   5.582423  celldm(2)=   0.000000  celldm(3)=   0.000000
     celldm(4)=   0.000000  celldm(5)=   0.000000  celldm(6)=   0.000000

     crystal axes: (cart. coord. in units of alat)
               a(1) = (   0.912640   0.000000   0.000000 )  
               a(2) = (   0.000000   1.303931   0.000000 )  
               a(3) = (   0.000000   0.000000   0.912640 )  

     reciprocal axes: (cart. coord. in units 2 pi/alat)
               b(1) = (  1.095722  0.000000  0.000000 )  
               b(2) = (  0.000000  0.766912  0.000000 )  
               b(3) = (  0.000000  0.000000  1.095722 )  


     PseudoPot. # 1 for Fe read from file:
     ../../pseudos/Fe.pbe-spn-kjpaw_psl.0.2.1.UPF
     MD5 check sum: e86618425769142926afa95317d90200
     Pseudo is Projector augmented-wave + core cor, Zval = 16.0
     Generated using "atomic" code by A. Dal Corso  v.5.0.99 svn rev. 10869
     Shape of augmentation charge: PSQ
     Using radial grid of 1191 points,  6 beta functions with: 
                l(1) =   0
                l(2) =   0
                l(3) =   1
                l(4) =   1
                l(5) =   2
                l(6) =   2
     Q(r) pseudized with 0 coefficients 


     PseudoPot. # 2 for Ti read from file:
     ../../pseudos/ti_pbe_v1.4.uspp.F.UPF
     MD5 check sum: 88a00a6731bd790ddea75d31a80cb452
     Pseudo is Ultrasoft + core correction, Zval = 12.0
     Generated by new atomic code, or converted to UPF format
     Using radial grid of  851 points,  6 beta functions with: 
                l(1) =   0
                l(2) =   0
                l(3) =   1
                l(4) =   1
                l(5) =   2
                l(6) =   2
     Q(r) pseudized with  6 coefficients,  rinner =    1.000   1.000   1.000
                                                       1.000   1.000

     PseudoPot. # 3 for H  read from file:
     ../../pseudos/H.pbe-rrkjus_psl.1.0.0.UPF
     MD5 check sum: f52b6d4d1c606e5624b1dc7b2218f220
     Pseudo is Ultrasoft, Zval =  1.0
     Generated using "atomic" code by A. Dal Corso  v.5.1
     Using radial grid of  929 points,  2 beta functions with: 
                l(1) =   0
                l(2) =   0
     Q(r) pseudized with 0 coefficients 


     atomic species   valence    mass     pseudopotential
     Fe               16.00    55.84500     Fe( 1.00)
     Ti               12.00    47.86700     Ti( 1.00)
     H                 1.00     1.00750     H ( 1.00)

     16 Sym. Ops., with inversion, found



   Cartesian axes

     site n.     atom                  positions (alat units)
         1        Fe     tau(   1) = (   0.4563200   0.6519655   0.4563200  )
         2        Ti     tau(   2) = (   0.0000000   0.0000000   0.0000000  )
         3        H      tau(   3) = (   0.0000000   0.6519655   0.0000000  )

     number of k points=   288  Marzari-Vanderbilt smearing, width (Ry)=  0.0050

     Number of k-points >= 100: set verbosity='high' to print them.

     Dense  grid:   230737 G-vectors     FFT dimensions: (  72, 100,  72)

     Smooth grid:    35259 G-vectors     FFT dimensions: (  40,  54,  40)

     Estimated max dynamical RAM per process >      97.03 MB

     Estimated total dynamical RAM >       1.52 GB

     Check: negative core charge=   -0.000001

     Initial potential from superposition of free atoms

     starting charge      27.9995, renormalised to      29.0000

     negative rho (up, down):  1.318E-03 0.000E+00
     Starting wfcs are   24 randomized atomic wfcs
     Checking if some PAW data can be deallocated... 

     total cpu time spent up to now is      360.3 secs

     per-process dynamical memory:   163.3 Mb

     Self-consistent Calculation

     iteration #  1     ecut=   124.00 Ry     beta= 0.70
     Davidson diagonalization with overlap
     c_bands:  1 eigenvalues not converged
     c_bands:  1 eigenvalues not converged
     c_bands:  1 eigenvalues not converged
     c_bands:  1 eigenvalues not converged
     c_bands:  1 eigenvalues not converged
     c_bands:  1 eigenvalues not converged
     c_bands:  1 eigenvalues not converged
     c_bands:  1 eigenvalues not converged
     c_bands:  1 eigenvalues not converged
     c_bands:  1 eigenvalues not converged
     c_bands:  1 eigenvalues not converged
     c_bands:  1 eigenvalues not converged
     c_bands:  2 eigenvalues not converged
     c_bands:  1 eigenvalues not converged
     c_bands:  1 eigenvalues not converged
     c_bands:  2 eigenvalues not converged
     c_bands:  1 eigenvalues not converged
     c_bands:  1 eigenvalues not converged
     c_bands:  1 eigenvalues not converged
     c_bands:  1 eigenvalues not converged
     c_bands:  1 eigenvalues not converged
     c_bands:  1 eigenvalues not converged
     c_bands:  1 eigenvalues not converged
     c_bands:  1 eigenvalues not converged
     c_bands:  1 eigenvalues not converged
     c_bands:  1 eigenvalues not converged
     c_bands:  1 eigenvalues not converged
     c_bands:  1 eigenvalues not converged
     c_bands:  1 eigenvalues not converged
     c_bands:  1 eigenvalues not converged
     c_bands:  1 eigenvalues not converged
     ethr =  1.00E-06,  avg # of iterations = 16.2

     negative rho (up, down):  1.694E-04 0.000E+00

     total cpu time spent up to now is      377.3 secs

     total energy              =    -428.90485864 Ry
     estimated scf accuracy    <      26.07008440 Ry

     iteration #  2     ecut=   124.00 Ry     beta= 0.70
     Davidson diagonalization with overlap
     ethr =  1.00E-02,  avg # of iterations =  7.6

     total cpu time spent up to now is      385.0 secs

     total energy              =    -438.93978434 Ry
     estimated scf accuracy    <     143.52560535 Ry

     iteration #  3     ecut=   124.00 Ry     beta= 0.70
     Davidson diagonalization with overlap
     ethr =  1.00E-02,  avg # of iterations =  4.3

     negative rho (up, down):  1.533E-05 0.000E+00

     total cpu time spent up to now is      389.9 secs

     total energy              =    -451.49978609 Ry
     estimated scf accuracy    <      22.49628483 Ry

     iteration #  4     ecut=   124.00 Ry     beta= 0.70
     Davidson diagonalization with overlap
     ethr =  1.00E-02,  avg # of iterations =  2.2

     negative rho (up, down):  1.749E-04 0.000E+00

     total cpu time spent up to now is      393.4 secs

     total energy              =    -450.00212938 Ry
     estimated scf accuracy    <      13.18067497 Ry

     iteration #  5     ecut=   124.00 Ry     beta= 0.70
     Davidson diagonalization with overlap
     ethr =  1.00E-02,  avg # of iterations =  2.0

     negative rho (up, down):  3.216E-04 0.000E+00

     total cpu time spent up to now is      396.7 secs

     total energy              =    -450.00781165 Ry
     estimated scf accuracy    <       5.07650923 Ry

     iteration #  6     ecut=   124.00 Ry     beta= 0.70
     Davidson diagonalization with overlap
     ethr =  1.00E-02,  avg # of iterations =  1.0

     negative rho (up, down):  4.357E-04 0.000E+00

     total cpu time spent up to now is      399.7 secs

     total energy              =    -449.91419959 Ry
     estimated scf accuracy    <       3.39750746 Ry

     iteration #  7     ecut=   124.00 Ry     beta= 0.70
     Davidson diagonalization with overlap
     ethr =  1.00E-02,  avg # of iterations =  1.0

     negative rho (up, down):  7.824E-04 0.000E+00

     total cpu time spent up to now is      402.7 secs

     total energy              =    -449.73656177 Ry
     estimated scf accuracy    <       2.49998157 Ry

     iteration #  8     ecut=   124.00 Ry     beta= 0.70
     Davidson diagonalization with overlap
     ethr =  8.62E-03,  avg # of iterations =  1.2

     negative rho (up, down):  9.196E-04 0.000E+00

     total cpu time spent up to now is      405.8 secs

     total energy              =    -449.60449950 Ry
     estimated scf accuracy    <       1.36997556 Ry

     iteration #  9     ecut=   124.00 Ry     beta= 0.70
     Davidson diagonalization with overlap
     ethr =  4.72E-03,  avg # of iterations =  1.3

     negative rho (up, down):  8.905E-04 0.000E+00

     total cpu time spent up to now is      408.9 secs

     total energy              =    -449.70253569 Ry
     estimated scf accuracy    <       0.13254776 Ry

     iteration # 10     ecut=   124.00 Ry     beta= 0.70
     Davidson diagonalization with overlap
     ethr =  4.57E-04,  avg # of iterations =  4.4

     negative rho (up, down):  1.052E-03 0.000E+00

     total cpu time spent up to now is      412.9 secs

     total energy              =    -449.73829915 Ry
     estimated scf accuracy    <       0.03644185 Ry

     iteration # 11     ecut=   124.00 Ry     beta= 0.70
     Davidson diagonalization with overlap
     ethr =  1.26E-04,  avg # of iterations =  4.7

     negative rho (up, down):  9.931E-04 0.000E+00

     total cpu time spent up to now is      417.6 secs

     total energy              =    -449.75364024 Ry
     estimated scf accuracy    <       1.77108012 Ry

     iteration # 12     ecut=   124.00 Ry     beta= 0.70
     Davidson diagonalization with overlap
     ethr =  1.26E-04,  avg # of iterations =  1.1

     negative rho (up, down):  6.660E-04 0.000E+00

     total cpu time spent up to now is      420.6 secs

     total energy              =    -449.63664076 Ry
     estimated scf accuracy    <       1.03282047 Ry

     iteration # 13     ecut=   124.00 Ry     beta= 0.70
     Davidson diagonalization with overlap
     ethr =  1.26E-04,  avg # of iterations =  4.7

     negative rho (up, down):  4.705E-04 0.000E+00

     total cpu time spent up to now is      425.4 secs

     total energy              =    -449.77923000 Ry
     estimated scf accuracy    <       0.13529960 Ry

     iteration # 14     ecut=   124.00 Ry     beta= 0.70
     Davidson diagonalization with overlap
     ethr =  1.26E-04,  avg # of iterations =  4.0

     negative rho (up, down):  5.778E-04 0.000E+00

     total cpu time spent up to now is      429.7 secs

     total energy              =    -449.76549084 Ry
     estimated scf accuracy    <       1.06019416 Ry

     iteration # 15     ecut=   124.00 Ry     beta= 0.70
     Davidson diagonalization with overlap
     ethr =  1.26E-04,  avg # of iterations =  1.4

     negative rho (up, down):  8.018E-04 0.000E+00

     total cpu time spent up to now is      432.8 secs

     total energy              =    -449.69268153 Ry
     estimated scf accuracy    <       0.68232318 Ry

     iteration # 16     ecut=   124.00 Ry     beta= 0.70
     Davidson diagonalization with overlap
     ethr =  1.26E-04,  avg # of iterations =  3.3

     negative rho (up, down):  7.963E-04 0.000E+00

     total cpu time spent up to now is      437.1 secs

     total energy              =    -449.71817047 Ry
     estimated scf accuracy    <       0.03434670 Ry

     iteration # 17     ecut=   124.00 Ry     beta= 0.70
     Davidson diagonalization with overlap
     ethr =  1.18E-04,  avg # of iterations =  1.0

     negative rho (up, down):  8.019E-04 0.000E+00

     total cpu time spent up to now is      440.2 secs

     total energy              =    -449.71792529 Ry
     estimated scf accuracy    <       0.03123455 Ry

     iteration # 18     ecut=   124.00 Ry     beta= 0.70
     Davidson diagonalization with overlap
     ethr =  1.08E-04,  avg # of iterations =  1.0

     negative rho (up, down):  8.070E-04 0.000E+00

     total cpu time spent up to now is      443.2 secs

     total energy              =    -449.71769360 Ry
     estimated scf accuracy    <       0.02294213 Ry

     iteration # 19     ecut=   124.00 Ry     beta= 0.70
     Davidson diagonalization with overlap
     ethr =  7.91E-05,  avg # of iterations =  1.0

     negative rho (up, down):  8.386E-04 0.000E+00

     total cpu time spent up to now is      446.2 secs

     total energy              =    -449.71640224 Ry
     estimated scf accuracy    <       0.01825822 Ry

     iteration # 20     ecut=   124.00 Ry     beta= 0.70
     Davidson diagonalization with overlap
     ethr =  6.30E-05,  avg # of iterations =  1.1

     negative rho (up, down):  8.806E-04 0.000E+00

     total cpu time spent up to now is      449.3 secs

     total energy              =    -449.71639490 Ry
     estimated scf accuracy    <       0.00162595 Ry

     iteration # 21     ecut=   124.00 Ry     beta= 0.70
     Davidson diagonalization with overlap
     ethr =  5.61E-06,  avg # of iterations =  4.5

     negative rho (up, down):  8.502E-04 0.000E+00

     total cpu time spent up to now is      453.5 secs

     total energy              =    -449.71628157 Ry
     estimated scf accuracy    <       0.01039601 Ry

     iteration # 22     ecut=   124.00 Ry     beta= 0.70
     Davidson diagonalization with overlap
     ethr =  5.61E-06,  avg # of iterations =  2.1

     negative rho (up, down):  8.530E-04 0.000E+00

     total cpu time spent up to now is      456.8 secs

     total energy              =    -449.71684009 Ry
     estimated scf accuracy    <       0.00012945 Ry

     iteration # 23     ecut=   124.00 Ry     beta= 0.70
     Davidson diagonalization with overlap
     ethr =  4.46E-07,  avg # of iterations =  2.4

     negative rho (up, down):  8.529E-04 0.000E+00

     total cpu time spent up to now is      460.2 secs

     total energy              =    -449.71685288 Ry
     estimated scf accuracy    <       0.00000040 Ry

     iteration # 24     ecut=   124.00 Ry     beta= 0.70
     Davidson diagonalization with overlap
     ethr =  1.37E-09,  avg # of iterations =  6.3

     negative rho (up, down):  8.536E-04 0.000E+00

     total cpu time spent up to now is      466.4 secs

     total energy              =    -449.71685478 Ry
     estimated scf accuracy    <       0.00000356 Ry

     iteration # 25     ecut=   124.00 Ry     beta= 0.70
     Davidson diagonalization with overlap
     ethr =  1.37E-09,  avg # of iterations =  2.4

     negative rho (up, down):  8.536E-04 0.000E+00

     total cpu time spent up to now is      469.8 secs

     total energy              =    -449.71685495 Ry
     estimated scf accuracy    <          3.8E-09 Ry

     iteration # 26     ecut=   124.00 Ry     beta= 0.70
     Davidson diagonalization with overlap
     ethr =  1.32E-11,  avg # of iterations =  5.1

     negative rho (up, down):  8.536E-04 0.000E+00

     total cpu time spent up to now is      475.0 secs

     total energy              =    -449.71685495 Ry
     estimated scf accuracy    <          9.2E-09 Ry

     iteration # 27     ecut=   124.00 Ry     beta= 0.70
     Davidson diagonalization with overlap
     ethr =  1.32E-11,  avg # of iterations =  1.0

     negative rho (up, down):  8.536E-04 0.000E+00

     total cpu time spent up to now is      478.1 secs

     total energy              =    -449.71685495 Ry
     estimated scf accuracy    <          2.3E-10 Ry

     iteration # 28     ecut=   124.00 Ry     beta= 0.70
     Davidson diagonalization with overlap
     ethr =  7.87E-13,  avg # of iterations =  4.0

     negative rho (up, down):  8.536E-04 0.000E+00

     total cpu time spent up to now is      482.2 secs

     End of self-consistent calculation

     Number of k-points >= 100: set verbosity='high' to print the bands.

     the Fermi energy is    16.3282 ev

!    total energy              =    -449.71685495 Ry
     estimated scf accuracy    <          5.0E-11 Ry
     smearing contrib. (-TS)   =      -0.00002276 Ry
     internal energy E=F+TS    =    -449.71683220 Ry

     The total energy is F=E-TS. E is the sum of the following terms:
     one-electron contribution =    -160.38688656 Ry
     hartree contribution      =      95.80954352 Ry
     xc contribution           =     -53.64162162 Ry
     ewald contribution        =    -255.34708331 Ry
     one-center paw contrib.   =     -76.15078422 Ry

     convergence has been achieved in  28 iterations

     negative rho (up, down):  8.536E-04 0.000E+00

     Forces acting on atoms (cartesian axes, Ry/au):

     atom    1 type  1   force =     0.00000000    0.00000000    0.00000000
     atom    2 type  2   force =     0.00000000    0.00000000    0.00000000
     atom    3 type  3   force =     0.00000000    0.00000000    0.00000000

     Total force =     0.000000     Total SCF correction =     0.000000


     Computing stress (Cartesian axis) and pressure


     negative rho (up, down):  8.536E-04 0.000E+00
          total   stress  (Ry/bohr**3)                   (kbar)     P=        0.67
  -0.00000524   0.00000000   0.00000000           -0.77        0.00        0.00
   0.00000000   0.00002416   0.00000000            0.00        3.55        0.00
   0.00000000   0.00000000  -0.00000524            0.00        0.00       -0.77


     Writing all to output data dir ./TiFe_H_edges_y.save/ :
     XML data file
     init_run     :      4.45s CPU      4.63s WALL (       2 calls)
     electrons    :    444.17s CPU    461.06s WALL (       9 calls)
     update_pot   :      0.53s CPU      0.64s WALL (       7 calls)
     forces       :      2.68s CPU      2.80s WALL (       9 calls)
     stress       :     12.06s CPU     12.47s WALL (       9 calls)

     Called by init_run:
     wfcinit      :      2.50s CPU      2.60s WALL (       2 calls)
     potinit      :      0.59s CPU      0.61s WALL (       2 calls)
     hinit0       :      0.84s CPU      0.87s WALL (       2 calls)

     Called by electrons:
     c_bands      :    369.76s CPU    381.80s WALL (     117 calls)
     sum_band     :     57.04s CPU     59.66s WALL (     117 calls)
     v_of_rho     :      1.76s CPU      2.00s WALL (     124 calls)
     newd         :     10.81s CPU     12.09s WALL (     124 calls)
     PAW_pot      :      6.00s CPU      6.83s WALL (     131 calls)
     mix_rho      :      0.19s CPU      0.21s WALL (     117 calls)

     Called by c_bands:
     init_us_2    :      7.64s CPU      8.02s WALL (   75168 calls)
     cegterg      :    357.13s CPU    368.33s WALL (   33696 calls)

     Called by *egterg:
     cdiaghg      :     63.27s CPU     64.95s WALL (  153963 calls)
     h_psi        :    253.67s CPU    262.26s WALL (  157131 calls)
     s_psi        :      5.41s CPU      5.60s WALL (  157131 calls)
     g_psi        :      1.40s CPU      1.44s WALL (  122859 calls)

     Called by h_psi:
     h_psi:calbec :     10.57s CPU     10.91s WALL (  157131 calls)
     vloc_psi     :    235.94s CPU    243.97s WALL (  157131 calls)
     add_vuspsi   :      5.71s CPU      5.92s WALL (  157131 calls)

     General routines
     calbec       :     16.38s CPU     16.90s WALL (  236907 calls)
     fft          :      1.86s CPU      2.15s WALL (    1828 calls)
     ffts         :      0.48s CPU      0.48s WALL (     241 calls)
     fftw         :    224.76s CPU    232.18s WALL ( 4509294 calls)
     interpolate  :      0.56s CPU      0.61s WALL (     124 calls)

     Parallel routines

     PWSCF        :    465.71s CPU    484.15s WALL


   This run was terminated on:  23:31:44  12Nov2025            

=------------------------------------------------------------------------------=
   JOB DONE.
=------------------------------------------------------------------------------=
