
     Program PWSCF v.7.4 starts on 12Nov2025 at 23:31:45 

     This program is part of the open-source Quantum ESPRESSO suite
     for quantum simulation of materials; please cite
         "P. Giannozzi et al., J. Phys.:Condens. Matter 21 395502 (2009);
         "P. Giannozzi et al., J. Phys.:Condens. Matter 29 465901 (2017);
         "P. Giannozzi et al., J. Chem. Phys. 152 154105 (2020);
          URL http://www.quantum-espresso.org", 
     in publications or presentations arising from this work. More details at
     http://www.quantum-espresso.org/quote

     Parallel version (MPI & OpenMP), running on      16 processor cores
     Number of MPI processes:                16
     Threads/MPI process:                     1

     MPI processes distributed on     1 nodes
     141710 MiB available memory on the printing compute node when the environment starts

     Reading input from TiFe_H_edges_yz.in

     Current dimensions of program PWSCF are:
     Max number of different atomic species (ntypx) = 10
     Max number of k-points (npk) =  40000
     Max angular momentum in pseudopotentials (lmaxx) =  4
     file Fe.pbe-spn-kjpaw_psl.0.2.1.UPF: wavefunction(s)  3D renormalized

     IMPORTANT: XC functional enforced from input :
     Exchange-correlation= PBE
                           (   1   4   3   4   0   0   0)
     Any further DFT definition will be discarded
     Please, verify this is what you really want

     Message from routine setup:
     using ibrav=0 with symmetry is DISCOURAGED, use correct ibrav instead

     R & G space division:  proc/nbgrp/npool/nimage =      16
     Subspace diagonalization in iterative solution of the eigenvalue problem:
     a serial algorithm will be used


     Parallelization info
     --------------------
     sticks:   dense  smooth     PW     G-vecs:    dense   smooth      PW
     Min         269      76     22                13288     2024     320
     Max         271      77     23                13289     2027     323
     Sum        4309    1225    357               212623    32423    5137

     Using Slab Decomposition



     bravais-lattice index     =            0
     lattice parameter (alat)  =       5.5824  a.u.
     unit-cell volume          =     173.9675 (a.u.)^3
     number of atoms/cell      =            4
     number of atomic types    =            3
     number of electrons       =        30.00
     number of Kohn-Sham states=           19
     kinetic-energy cutoff     =     124.0000  Ry
     charge density cutoff     =    1736.0000  Ry
     scf convergence threshold =      1.0E-08
     mixing beta               =       0.7000
     number of iterations used =            8  plain     mixing
     energy convergence thresh.=      1.0E-04
     force convergence thresh. =      1.0E-03
     press convergence thresh. =      1.0E-01
     Exchange-correlation= PBE
                           (   1   4   3   4   0   0   0)
     nstep                     =           50


     celldm(1)=   5.582423  celldm(2)=   0.000000  celldm(3)=   0.000000
     celldm(4)=   0.000000  celldm(5)=   0.000000  celldm(6)=   0.000000

     crystal axes: (cart. coord. in units of alat)
               a(1) = (   1.000000   0.000000   0.000000 )  
               a(2) = (   0.000000   1.000000   0.000000 )  
               a(3) = (   0.000000   0.000000   1.000000 )  

     reciprocal axes: (cart. coord. in units 2 pi/alat)
               b(1) = (  1.000000  0.000000  0.000000 )  
               b(2) = (  0.000000  1.000000  0.000000 )  
               b(3) = (  0.000000  0.000000  1.000000 )  


     PseudoPot. # 1 for Fe read from file:
     ../../pseudos/Fe.pbe-spn-kjpaw_psl.0.2.1.UPF
     MD5 check sum: e86618425769142926afa95317d90200
     Pseudo is Projector augmented-wave + core cor, Zval = 16.0
     Generated using "atomic" code by A. Dal Corso  v.5.0.99 svn rev. 10869
     Shape of augmentation charge: PSQ
     Using radial grid of 1191 points,  6 beta functions with: 
                l(1) =   0
                l(2) =   0
                l(3) =   1
                l(4) =   1
                l(5) =   2
                l(6) =   2
     Q(r) pseudized with 0 coefficients 


     PseudoPot. # 2 for Ti read from file:
     ../../pseudos/ti_pbe_v1.4.uspp.F.UPF
     MD5 check sum: 88a00a6731bd790ddea75d31a80cb452
     Pseudo is Ultrasoft + core correction, Zval = 12.0
     Generated by new atomic code, or converted to UPF format
     Using radial grid of  851 points,  6 beta functions with: 
                l(1) =   0
                l(2) =   0
                l(3) =   1
                l(4) =   1
                l(5) =   2
                l(6) =   2
     Q(r) pseudized with  6 coefficients,  rinner =    1.000   1.000   1.000
                                                       1.000   1.000

     PseudoPot. # 3 for H  read from file:
     ../../pseudos/H.pbe-rrkjus_psl.1.0.0.UPF
     MD5 check sum: f52b6d4d1c606e5624b1dc7b2218f220
     Pseudo is Ultrasoft, Zval =  1.0
     Generated using "atomic" code by A. Dal Corso  v.5.1
     Using radial grid of  929 points,  2 beta functions with: 
                l(1) =   0
                l(2) =   0
     Q(r) pseudized with 0 coefficients 


     atomic species   valence    mass     pseudopotential
     Fe               16.00    55.84500     Fe( 1.00)
     Ti               12.00    47.86700     Ti( 1.00)
     H                 1.00     1.00750     H ( 1.00)

     16 Sym. Ops., with inversion, found



   Cartesian axes

     site n.     atom                  positions (alat units)
         1        Fe     tau(   1) = (   0.5000000   0.5000000   0.5000000  )
         2        Ti     tau(   2) = (   0.0000000   0.0000000   0.0000000  )
         3        H      tau(   3) = (   0.0000000   0.5000000   0.0000000  )
         4        H      tau(   4) = (   0.0000000   0.0000000   0.5000000  )

     number of k points=   288  Marzari-Vanderbilt smearing, width (Ry)=  0.0050

     Number of k-points >= 100: set verbosity='high' to print them.

     Dense  grid:   212623 G-vectors     FFT dimensions: (  75,  75,  75)

     Smooth grid:    32423 G-vectors     FFT dimensions: (  40,  40,  40)

     Estimated max dynamical RAM per process >      90.34 MB

     Estimated total dynamical RAM >       1.41 GB

     Check: negative core charge=   -0.000001

     Initial potential from superposition of free atoms

     starting charge      28.9995, renormalised to      30.0000

     negative rho (up, down):  1.270E-03 0.000E+00
     Starting wfcs are   25 randomized atomic wfcs
     Checking if some PAW data can be deallocated... 

     total cpu time spent up to now is        2.5 secs

     per-process dynamical memory:   160.1 Mb

     Self-consistent Calculation

     iteration #  1     ecut=   124.00 Ry     beta= 0.70
     Davidson diagonalization with overlap
     ethr =  1.00E-02,  avg # of iterations =  2.1

     negative rho (up, down):  1.331E-04 0.000E+00

     total cpu time spent up to now is        5.7 secs

     total energy              =    -435.20775167 Ry
     estimated scf accuracy    <      19.67326328 Ry

     iteration #  2     ecut=   124.00 Ry     beta= 0.70
     Davidson diagonalization with overlap
     ethr =  1.00E-02,  avg # of iterations =  6.4

     negative rho (up, down):  7.742E-06 0.000E+00

     total cpu time spent up to now is       11.7 secs

     total energy              =    -448.70730782 Ry
     estimated scf accuracy    <      79.30456145 Ry

     iteration #  3     ecut=   124.00 Ry     beta= 0.70
     Davidson diagonalization with overlap
     ethr =  1.00E-02,  avg # of iterations =  3.2

     negative rho (up, down):  1.042E-04 0.000E+00

     total cpu time spent up to now is       15.6 secs

     total energy              =    -450.86275082 Ry
     estimated scf accuracy    <      16.66251492 Ry

     iteration #  4     ecut=   124.00 Ry     beta= 0.70
     Davidson diagonalization with overlap
     ethr =  1.00E-02,  avg # of iterations =  2.2

     negative rho (up, down):  1.709E-04 0.000E+00

     total cpu time spent up to now is       18.6 secs

     total energy              =    -451.03131556 Ry
     estimated scf accuracy    <       5.29354326 Ry

     iteration #  5     ecut=   124.00 Ry     beta= 0.70
     Davidson diagonalization with overlap
     ethr =  1.00E-02,  avg # of iterations =  1.1

     negative rho (up, down):  8.254E-04 0.000E+00

     total cpu time spent up to now is       21.2 secs

     total energy              =    -450.29336805 Ry
     estimated scf accuracy    <       3.66645652 Ry

     iteration #  6     ecut=   124.00 Ry     beta= 0.70
     Davidson diagonalization with overlap
     ethr =  1.00E-02,  avg # of iterations =  2.3

     negative rho (up, down):  8.553E-04 0.000E+00

     total cpu time spent up to now is       24.1 secs

     total energy              =    -450.58701260 Ry
     estimated scf accuracy    <       0.01898337 Ry

     iteration #  7     ecut=   124.00 Ry     beta= 0.70
     Davidson diagonalization with overlap
     ethr =  6.33E-05,  avg # of iterations =  7.9

     negative rho (up, down):  6.687E-04 0.000E+00

     total cpu time spent up to now is       30.2 secs

     total energy              =    -450.57865324 Ry
     estimated scf accuracy    <       0.15083491 Ry

     iteration #  8     ecut=   124.00 Ry     beta= 0.70
     Davidson diagonalization with overlap
     ethr =  6.33E-05,  avg # of iterations =  4.5

     negative rho (up, down):  1.114E-03 0.000E+00

     total cpu time spent up to now is       34.3 secs

     total energy              =    -450.52056240 Ry
     estimated scf accuracy    <       0.38637329 Ry

     iteration #  9     ecut=   124.00 Ry     beta= 0.70
     Davidson diagonalization with overlap
     ethr =  6.33E-05,  avg # of iterations =  5.5

     negative rho (up, down):  9.478E-04 0.000E+00

     total cpu time spent up to now is       39.1 secs

     total energy              =    -450.59496301 Ry
     estimated scf accuracy    <       1.39456621 Ry

     iteration # 10     ecut=   124.00 Ry     beta= 0.70
     Davidson diagonalization with overlap
     ethr =  6.33E-05,  avg # of iterations =  3.7

     negative rho (up, down):  8.504E-04 0.000E+00

     total cpu time spent up to now is       42.9 secs

     total energy              =    -450.59589172 Ry
     estimated scf accuracy    <       0.19052037 Ry

     iteration # 11     ecut=   124.00 Ry     beta= 0.70
     Davidson diagonalization with overlap
     ethr =  6.33E-05,  avg # of iterations =  3.5

     negative rho (up, down):  8.755E-04 0.000E+00

     total cpu time spent up to now is       46.3 secs

     total energy              =    -450.61201539 Ry
     estimated scf accuracy    <       0.02180785 Ry

     iteration # 12     ecut=   124.00 Ry     beta= 0.70
     Davidson diagonalization with overlap
     ethr =  6.33E-05,  avg # of iterations =  1.1

     negative rho (up, down):  8.673E-04 0.000E+00

     total cpu time spent up to now is       49.0 secs

     total energy              =    -450.61374004 Ry
     estimated scf accuracy    <       0.00297533 Ry

     iteration # 13     ecut=   124.00 Ry     beta= 0.70
     Davidson diagonalization with overlap
     ethr =  9.92E-06,  avg # of iterations =  1.8

     negative rho (up, down):  8.679E-04 0.000E+00

     total cpu time spent up to now is       51.7 secs

     total energy              =    -450.61419015 Ry
     estimated scf accuracy    <       0.00143929 Ry

     iteration # 14     ecut=   124.00 Ry     beta= 0.70
     Davidson diagonalization with overlap
     ethr =  4.80E-06,  avg # of iterations =  1.1

     negative rho (up, down):  8.661E-04 0.000E+00

     total cpu time spent up to now is       54.3 secs

     total energy              =    -450.61422975 Ry
     estimated scf accuracy    <       0.00127085 Ry

     iteration # 15     ecut=   124.00 Ry     beta= 0.70
     Davidson diagonalization with overlap
     ethr =  4.24E-06,  avg # of iterations =  1.0

     negative rho (up, down):  8.609E-04 0.000E+00

     total cpu time spent up to now is       56.9 secs

     total energy              =    -450.61420214 Ry
     estimated scf accuracy    <       0.00168912 Ry

     iteration # 16     ecut=   124.00 Ry     beta= 0.70
     Davidson diagonalization with overlap
     ethr =  4.24E-06,  avg # of iterations =  1.0

     negative rho (up, down):  8.629E-04 0.000E+00

     total cpu time spent up to now is       59.5 secs

     total energy              =    -450.61420925 Ry
     estimated scf accuracy    <       0.00120267 Ry

     iteration # 17     ecut=   124.00 Ry     beta= 0.70
     Davidson diagonalization with overlap
     ethr =  4.01E-06,  avg # of iterations =  1.0

     negative rho (up, down):  8.768E-04 0.000E+00

     total cpu time spent up to now is       62.1 secs

     total energy              =    -450.61405125 Ry
     estimated scf accuracy    <       0.00110621 Ry

     iteration # 18     ecut=   124.00 Ry     beta= 0.70
     Davidson diagonalization with overlap
     ethr =  3.69E-06,  avg # of iterations =  1.1

     negative rho (up, down):  8.810E-04 0.000E+00

     total cpu time spent up to now is       64.7 secs

     total energy              =    -450.61406988 Ry
     estimated scf accuracy    <       0.00013628 Ry

     iteration # 19     ecut=   124.00 Ry     beta= 0.70
     Davidson diagonalization with overlap
     ethr =  4.54E-07,  avg # of iterations =  2.1

     negative rho (up, down):  8.835E-04 0.000E+00

     total cpu time spent up to now is       67.6 secs

     total energy              =    -450.61407634 Ry
     estimated scf accuracy    <       0.00001530 Ry

     iteration # 20     ecut=   124.00 Ry     beta= 0.70
     Davidson diagonalization with overlap
     ethr =  5.10E-08,  avg # of iterations =  2.8

     negative rho (up, down):  8.831E-04 0.000E+00

     total cpu time spent up to now is       70.6 secs

     total energy              =    -450.61407927 Ry
     estimated scf accuracy    <       0.00000126 Ry

     iteration # 21     ecut=   124.00 Ry     beta= 0.70
     Davidson diagonalization with overlap
     ethr =  4.19E-09,  avg # of iterations =  3.5

     negative rho (up, down):  8.829E-04 0.000E+00

     total cpu time spent up to now is       73.8 secs

     total energy              =    -450.61407943 Ry
     estimated scf accuracy    <       0.00000015 Ry

     iteration # 22     ecut=   124.00 Ry     beta= 0.70
     Davidson diagonalization with overlap
     ethr =  5.10E-10,  avg # of iterations =  3.7

     negative rho (up, down):  8.829E-04 0.000E+00

     total cpu time spent up to now is       77.3 secs

     End of self-consistent calculation

     Number of k-points >= 100: set verbosity='high' to print the bands.

     the Fermi energy is    18.7963 ev

!    total energy              =    -450.61407946 Ry
     estimated scf accuracy    <          8.3E-09 Ry
     smearing contrib. (-TS)   =      -0.00026262 Ry
     internal energy E=F+TS    =    -450.61381683 Ry

     The total energy is F=E-TS. E is the sum of the following terms:
     one-electron contribution =    -142.74842576 Ry
     hartree contribution      =      90.40058289 Ry
     xc contribution           =     -54.92460682 Ry
     ewald contribution        =    -267.19370345 Ry
     one-center paw contrib.   =     -76.14766370 Ry

     convergence has been achieved in  22 iterations

     negative rho (up, down):  8.829E-04 0.000E+00

     Forces acting on atoms (cartesian axes, Ry/au):

     atom    1 type  1   force =     0.00000000    0.00000000    0.00000000
     atom    2 type  2   force =     0.00000000    0.00000000    0.00000000
     atom    3 type  3   force =     0.00000000    0.00000000    0.00000000
     atom    4 type  3   force =     0.00000000    0.00000000    0.00000000

     Total force =     0.000000     Total SCF correction =     0.000000


     Computing stress (Cartesian axis) and pressure


     negative rho (up, down):  8.829E-04 0.000E+00
          total   stress  (Ry/bohr**3)                   (kbar)     P=      732.79
   0.00151392   0.00000000   0.00000000          222.71        0.00        0.00
   0.00000000   0.00671517   0.00000000            0.00      987.84        0.00
   0.00000000   0.00000000   0.00671517            0.00        0.00      987.84


     BFGS Geometry Optimization
     Energy error            =      3.1E-01 Ry
     Gradient error          =      0.0E+00 Ry/Bohr
     Cell gradient error     =      9.9E+02 kbar

     number of scf cycles    =   1
     number of bfgs steps    =   0

     enthalpy           new  =    -450.6140794560 Ry

     new trust radius        =       0.4428543266 bohr
     new conv_thr            =       0.0000000100 Ry

     new unit-cell volume =    246.26217 a.u.^3 (    36.49229 Ang^3 )
     density =      4.81098 g/cm^3

CELL_PARAMETERS (alat=  5.58242261)
   1.037847981   0.000000000   0.000000000
   0.000000000   1.167879176   0.000000000
   0.000000000   0.000000000   1.167879176

ATOMIC_POSITIONS (crystal)
Fe               0.5000000000        0.5000000000        0.5000000000
Ti               0.0000000000        0.0000000000        0.0000000000
H                0.0000000000        0.5000000000        0.0000000000
H                0.0000000000        0.0000000000        0.5000000000



     Writing config-only to output data dir ./TiFe_H_edges_yz.save/ :
     XML data file     NEW-OLD atomic charge density approx. for the potential
     New effective cutoffs (rho, wfc): 1611.02  114.98

     Check: negative core charge=   -0.000002

     negative rho (up, down):  1.071E-03 0.000E+00

     total cpu time spent up to now is       79.4 secs

     per-process dynamical memory:   164.2 Mb

     Self-consistent Calculation

     iteration #  1     ecut=   124.00 Ry     beta= 0.70
     Davidson diagonalization with overlap
     c_bands:  1 eigenvalues not converged
     c_bands:  1 eigenvalues not converged
     c_bands:  1 eigenvalues not converged
     c_bands:  1 eigenvalues not converged
     c_bands:  1 eigenvalues not converged
     c_bands:  1 eigenvalues not converged
     c_bands:  1 eigenvalues not converged
     c_bands:  1 eigenvalues not converged
     c_bands:  2 eigenvalues not converged
     c_bands:  1 eigenvalues not converged
     c_bands:  1 eigenvalues not converged
     c_bands:  1 eigenvalues not converged
     c_bands:  1 eigenvalues not converged
     c_bands:  1 eigenvalues not converged
     c_bands:  1 eigenvalues not converged
     c_bands:  1 eigenvalues not converged
     c_bands:  1 eigenvalues not converged
     c_bands:  1 eigenvalues not converged
     c_bands:  1 eigenvalues not converged
     ethr =  1.00E-06,  avg # of iterations = 16.9

     negative rho (up, down):  1.101E-03 0.000E+00

     total cpu time spent up to now is       94.0 secs

     total energy              =    -450.49321317 Ry
     estimated scf accuracy    <       0.33473509 Ry

     iteration #  2     ecut=   124.00 Ry     beta= 0.70
     Davidson diagonalization with overlap
     ethr =  1.12E-03,  avg # of iterations =  6.7

     negative rho (up, down):  6.862E-04 0.000E+00

     total cpu time spent up to now is       98.9 secs

     total energy              =    -449.60014221 Ry
     estimated scf accuracy    <      35.89148178 Ry

     iteration #  3     ecut=   124.00 Ry     beta= 0.70
     Davidson diagonalization with overlap
     ethr =  1.12E-03,  avg # of iterations =  5.9

     negative rho (up, down):  8.672E-04 0.000E+00

     total cpu time spent up to now is      103.6 secs

     total energy              =    -450.71086370 Ry
     estimated scf accuracy    <       0.57035289 Ry

     iteration #  4     ecut=   124.00 Ry     beta= 0.70
     Davidson diagonalization with overlap
     ethr =  1.12E-03,  avg # of iterations =  2.1

     negative rho (up, down):  8.864E-04 0.000E+00

     total cpu time spent up to now is      106.6 secs

     total energy              =    -450.74762766 Ry
     estimated scf accuracy    <       0.00886149 Ry

     iteration #  5     ecut=   124.00 Ry     beta= 0.70
     Davidson diagonalization with overlap
     ethr =  2.95E-05,  avg # of iterations =  5.4

     negative rho (up, down):  8.855E-04 0.000E+00

     total cpu time spent up to now is      111.5 secs

     total energy              =    -450.75559198 Ry
     estimated scf accuracy    <       0.00169111 Ry

     iteration #  6     ecut=   124.00 Ry     beta= 0.70
     Davidson diagonalization with overlap
     ethr =  5.64E-06,  avg # of iterations =  3.0

     negative rho (up, down):  8.810E-04 0.000E+00

     total cpu time spent up to now is      114.6 secs

     total energy              =    -450.75568540 Ry
     estimated scf accuracy    <       0.00106835 Ry

     iteration #  7     ecut=   124.00 Ry     beta= 0.70
     Davidson diagonalization with overlap
     ethr =  3.56E-06,  avg # of iterations =  1.2

     negative rho (up, down):  8.726E-04 0.000E+00

     total cpu time spent up to now is      117.2 secs

     total energy              =    -450.75557548 Ry
     estimated scf accuracy    <       0.00049138 Ry

     iteration #  8     ecut=   124.00 Ry     beta= 0.70
     Davidson diagonalization with overlap
     ethr =  1.64E-06,  avg # of iterations =  2.1

     negative rho (up, down):  8.700E-04 0.000E+00

     total cpu time spent up to now is      120.3 secs

     total energy              =    -450.75563735 Ry
     estimated scf accuracy    <       0.00001236 Ry

     iteration #  9     ecut=   124.00 Ry     beta= 0.70
     Davidson diagonalization with overlap
     ethr =  4.12E-08,  avg # of iterations =  4.9

     negative rho (up, down):  8.705E-04 0.000E+00

     total cpu time spent up to now is      124.6 secs

     total energy              =    -450.75564523 Ry
     estimated scf accuracy    <       0.00000592 Ry

     iteration # 10     ecut=   124.00 Ry     beta= 0.70
     Davidson diagonalization with overlap
     ethr =  1.97E-08,  avg # of iterations =  2.3

     negative rho (up, down):  8.707E-04 0.000E+00

     total cpu time spent up to now is      127.7 secs

     total energy              =    -450.75564624 Ry
     estimated scf accuracy    <       0.00000079 Ry

     iteration # 11     ecut=   124.00 Ry     beta= 0.70
     Davidson diagonalization with overlap
     ethr =  2.62E-09,  avg # of iterations =  3.1

     negative rho (up, down):  8.706E-04 0.000E+00

     total cpu time spent up to now is      130.9 secs

     total energy              =    -450.75564636 Ry
     estimated scf accuracy    <       0.00000002 Ry

     iteration # 12     ecut=   124.00 Ry     beta= 0.70
     Davidson diagonalization with overlap
     ethr =  5.83E-11,  avg # of iterations =  5.8

     negative rho (up, down):  8.706E-04 0.000E+00

     total cpu time spent up to now is      136.0 secs

     End of self-consistent calculation

     Number of k-points >= 100: set verbosity='high' to print the bands.

     the Fermi energy is    12.4688 ev

!    total energy              =    -450.75564638 Ry
     estimated scf accuracy    <          6.7E-09 Ry
     smearing contrib. (-TS)   =      -0.00014783 Ry
     internal energy E=F+TS    =    -450.75549856 Ry

     The total energy is F=E-TS. E is the sum of the following terms:
     one-electron contribution =    -188.38142520 Ry
     hartree contribution      =     106.19761156 Ry
     xc contribution           =     -54.18739493 Ry
     ewald contribution        =    -238.24465785 Ry
     one-center paw contrib.   =     -76.13963214 Ry

     convergence has been achieved in  12 iterations

     negative rho (up, down):  8.706E-04 0.000E+00

     Forces acting on atoms (cartesian axes, Ry/au):

     atom    1 type  1   force =     0.00000000    0.00000000    0.00000000
     atom    2 type  2   force =     0.00000000    0.00000000    0.00000000
     atom    3 type  3   force =     0.00000000    0.00000000    0.00000000
     atom    4 type  3   force =     0.00000000    0.00000000    0.00000000

     Total force =     0.000000     Total SCF correction =     0.000000


     Computing stress (Cartesian axis) and pressure


     negative rho (up, down):  8.706E-04 0.000E+00
          total   stress  (Ry/bohr**3)                   (kbar)     P=     -106.66
  -0.00133891   0.00000000   0.00000000         -196.96        0.00        0.00
   0.00000000  -0.00041809   0.00000000            0.00      -61.50        0.00
   0.00000000   0.00000000  -0.00041809            0.00        0.00      -61.50

     Energy error            =      1.4E-01 Ry
     Gradient error          =      0.0E+00 Ry/Bohr
     Cell gradient error     =      2.0E+02 kbar

     number of scf cycles    =   2
     number of bfgs steps    =   1

     enthalpy           old  =    -450.6140794560 Ry
     enthalpy           new  =    -450.7556463847 Ry

     CASE: enthalpy          _new < enthalpy          _old

     new trust radius        =       0.1222110180 bohr
     new conv_thr            =            1.0E-10 Ry

     new unit-cell volume =    233.75582 a.u.^3 (    34.63904 Ang^3 )
     density =      5.06838 g/cm^3

CELL_PARAMETERS (alat=  5.58242261)
   0.997435524   0.000000000   0.000000000
   0.000000000   1.160659233   0.000000000
   0.000000000   0.000000000   1.160659233

ATOMIC_POSITIONS (crystal)
Fe               0.5000000000        0.5000000000        0.5000000000
Ti               0.0000000000        0.0000000000        0.0000000000
H                0.0000000000        0.5000000000        0.0000000000
H                0.0000000000        0.0000000000        0.5000000000



     Writing config-only to output data dir ./TiFe_H_edges_yz.save/ :
     XML data file     NEW-OLD atomic charge density approx. for the potential
     New effective cutoffs (rho, wfc): 1744.14  124.45

     Check: negative core charge=   -0.000002

     negative rho (up, down):  8.332E-04 0.000E+00

     total cpu time spent up to now is      138.1 secs

     per-process dynamical memory:   164.6 Mb

     Self-consistent Calculation

     iteration #  1     ecut=   124.00 Ry     beta= 0.70
     Davidson diagonalization with overlap
     ethr =  1.00E-06,  avg # of iterations =  9.6

     negative rho (up, down):  8.359E-04 0.000E+00

     total cpu time spent up to now is      146.8 secs

     total energy              =    -450.76591951 Ry
     estimated scf accuracy    <       0.00312014 Ry

     iteration #  2     ecut=   124.00 Ry     beta= 0.70
     Davidson diagonalization with overlap
     ethr =  1.04E-05,  avg # of iterations =  5.0

     negative rho (up, down):  8.565E-04 0.000E+00

     total cpu time spent up to now is      151.1 secs

     total energy              =    -450.74890312 Ry
     estimated scf accuracy    <       0.40536494 Ry

     iteration #  3     ecut=   124.00 Ry     beta= 0.70
     Davidson diagonalization with overlap
     ethr =  1.04E-05,  avg # of iterations =  4.7

     negative rho (up, down):  8.522E-04 0.000E+00

     total cpu time spent up to now is      155.1 secs

     total energy              =    -450.76767228 Ry
     estimated scf accuracy    <       0.00330609 Ry

     iteration #  4     ecut=   124.00 Ry     beta= 0.70
     Davidson diagonalization with overlap
     ethr =  1.04E-05,  avg # of iterations =  1.0

     negative rho (up, down):  8.546E-04 0.000E+00

     total cpu time spent up to now is      157.7 secs

     total energy              =    -450.76787799 Ry
     estimated scf accuracy    <       0.00006823 Ry

     iteration #  5     ecut=   124.00 Ry     beta= 0.70
     Davidson diagonalization with overlap
     ethr =  2.27E-07,  avg # of iterations =  4.3

     negative rho (up, down):  8.560E-04 0.000E+00

     total cpu time spent up to now is      161.4 secs

     total energy              =    -450.76789677 Ry
     estimated scf accuracy    <       0.00000700 Ry

     iteration #  6     ecut=   124.00 Ry     beta= 0.70
     Davidson diagonalization with overlap
     ethr =  2.33E-08,  avg # of iterations =  4.2

     negative rho (up, down):  8.560E-04 0.000E+00

     total cpu time spent up to now is      165.2 secs

     total energy              =    -450.76789929 Ry
     estimated scf accuracy    <       0.00000071 Ry

     iteration #  7     ecut=   124.00 Ry     beta= 0.70
     Davidson diagonalization with overlap
     ethr =  2.35E-09,  avg # of iterations =  3.3

     negative rho (up, down):  8.561E-04 0.000E+00

     total cpu time spent up to now is      168.6 secs

     total energy              =    -450.76789944 Ry
     estimated scf accuracy    <       0.00000013 Ry

     iteration #  8     ecut=   124.00 Ry     beta= 0.70
     Davidson diagonalization with overlap
     ethr =  4.30E-10,  avg # of iterations =  4.5

     negative rho (up, down):  8.561E-04 0.000E+00

     total cpu time spent up to now is      172.3 secs

     total energy              =    -450.76789948 Ry
     estimated scf accuracy    <          6.0E-09 Ry

     iteration #  9     ecut=   124.00 Ry     beta= 0.70
     Davidson diagonalization with overlap
     ethr =  2.01E-11,  avg # of iterations =  4.2

     negative rho (up, down):  8.561E-04 0.000E+00

     total cpu time spent up to now is      176.2 secs

     total energy              =    -450.76789948 Ry
     estimated scf accuracy    <          2.1E-09 Ry

     iteration # 10     ecut=   124.00 Ry     beta= 0.70
     Davidson diagonalization with overlap
     ethr =  6.96E-12,  avg # of iterations =  2.1

     negative rho (up, down):  8.561E-04 0.000E+00

     total cpu time spent up to now is      179.1 secs

     End of self-consistent calculation

     Number of k-points >= 100: set verbosity='high' to print the bands.

     the Fermi energy is    13.3118 ev

!    total energy              =    -450.76789948 Ry
     estimated scf accuracy    <          1.2E-11 Ry
     smearing contrib. (-TS)   =      -0.00005933 Ry
     internal energy E=F+TS    =    -450.76784015 Ry

     The total energy is F=E-TS. E is the sum of the following terms:
     one-electron contribution =    -181.76666309 Ry
     hartree contribution      =     103.84003491 Ry
     xc contribution           =     -54.26291786 Ry
     ewald contribution        =    -242.43740346 Ry
     one-center paw contrib.   =     -76.14089066 Ry

     convergence has been achieved in  10 iterations

     negative rho (up, down):  8.561E-04 0.000E+00

     Forces acting on atoms (cartesian axes, Ry/au):

     atom    1 type  1   force =     0.00000000    0.00000000    0.00000000
     atom    2 type  2   force =     0.00000000    0.00000000    0.00000000
     atom    3 type  3   force =     0.00000000    0.00000000    0.00000000
     atom    4 type  3   force =     0.00000000    0.00000000    0.00000000

     Total force =     0.000000     Total SCF correction =     0.000000


     Computing stress (Cartesian axis) and pressure


     negative rho (up, down):  8.561E-04 0.000E+00
          total   stress  (Ry/bohr**3)                   (kbar)     P=      -62.63
  -0.00103889   0.00000000   0.00000000         -152.83        0.00        0.00
   0.00000000  -0.00011914   0.00000000            0.00      -17.53        0.00
   0.00000000   0.00000000  -0.00011914            0.00        0.00      -17.53

     Energy error            =      1.2E-02 Ry
     Gradient error          =      0.0E+00 Ry/Bohr
     Cell gradient error     =      1.5E+02 kbar

     number of scf cycles    =   3
     number of bfgs steps    =   2

     enthalpy           old  =    -450.7556463847 Ry
     enthalpy           new  =    -450.7678994826 Ry

     CASE: enthalpy          _new < enthalpy          _old

     new trust radius        =       0.1362806886 bohr
     new conv_thr            =            1.0E-10 Ry

     new unit-cell volume =    223.19503 a.u.^3 (    33.07409 Ang^3 )
     density =      5.30820 g/cm^3

CELL_PARAMETERS (alat=  5.58242261)
   0.952981821   0.000000000   0.000000000
   0.000000000   1.160288231   0.000000000
   0.000000000   0.000000000   1.160288231

ATOMIC_POSITIONS (crystal)
Fe               0.5000000000        0.5000000000        0.5000000000
Ti               0.0000000000        0.0000000000        0.0000000000
H                0.0000000000        0.5000000000        0.0000000000
H                0.0000000000        0.0000000000        0.5000000000



     Writing config-only to output data dir ./TiFe_H_edges_yz.save/ :
     XML data file     NEW-OLD atomic charge density approx. for the potential
     New effective cutoffs (rho, wfc): 1910.57  136.29

     Check: negative core charge=   -0.000002

     negative rho (up, down):  8.197E-04 0.000E+00

     total cpu time spent up to now is      181.3 secs

     per-process dynamical memory:   164.6 Mb

     Self-consistent Calculation

     iteration #  1     ecut=   124.00 Ry     beta= 0.70
     Davidson diagonalization with overlap
     ethr =  1.00E-06,  avg # of iterations =  9.5

     negative rho (up, down):  8.030E-04 0.000E+00

     total cpu time spent up to now is      189.9 secs

     total energy              =    -450.77335113 Ry
     estimated scf accuracy    <       0.00563881 Ry

     iteration #  2     ecut=   124.00 Ry     beta= 0.70
     Davidson diagonalization with overlap
     ethr =  1.88E-05,  avg # of iterations =  4.8

     negative rho (up, down):  8.296E-04 0.000E+00

     total cpu time spent up to now is      194.1 secs

     total energy              =    -450.74511746 Ry
     estimated scf accuracy    <       0.64461988 Ry

     iteration #  3     ecut=   124.00 Ry     beta= 0.70
     Davidson diagonalization with overlap
     ethr =  1.88E-05,  avg # of iterations =  4.7

     negative rho (up, down):  8.324E-04 0.000E+00

     total cpu time spent up to now is      198.2 secs

     total energy              =    -450.77646329 Ry
     estimated scf accuracy    <       0.00456318 Ry

     iteration #  4     ecut=   124.00 Ry     beta= 0.70
     Davidson diagonalization with overlap
     ethr =  1.52E-05,  avg # of iterations =  1.0

     negative rho (up, down):  8.318E-04 0.000E+00

     total cpu time spent up to now is      200.8 secs

     total energy              =    -450.77671571 Ry
     estimated scf accuracy    <       0.00013567 Ry

     iteration #  5     ecut=   124.00 Ry     beta= 0.70
     Davidson diagonalization with overlap
     ethr =  4.52E-07,  avg # of iterations =  4.3

     negative rho (up, down):  8.332E-04 0.000E+00

     total cpu time spent up to now is      204.4 secs

     total energy              =    -450.77674898 Ry
     estimated scf accuracy    <       0.00000487 Ry

     iteration #  6     ecut=   124.00 Ry     beta= 0.70
     Davidson diagonalization with overlap
     ethr =  1.62E-08,  avg # of iterations =  4.8

     negative rho (up, down):  8.329E-04 0.000E+00

     total cpu time spent up to now is      208.6 secs

     total energy              =    -450.77675212 Ry
     estimated scf accuracy    <       0.00000099 Ry

     iteration #  7     ecut=   124.00 Ry     beta= 0.70
     Davidson diagonalization with overlap
     ethr =  3.29E-09,  avg # of iterations =  2.2

     negative rho (up, down):  8.331E-04 0.000E+00

     total cpu time spent up to now is      211.6 secs

     total energy              =    -450.77675218 Ry
     estimated scf accuracy    <       0.00000029 Ry

     iteration #  8     ecut=   124.00 Ry     beta= 0.70
     Davidson diagonalization with overlap
     ethr =  9.61E-10,  avg # of iterations =  3.9

     negative rho (up, down):  8.332E-04 0.000E+00

     total cpu time spent up to now is      215.0 secs

     total energy              =    -450.77675223 Ry
     estimated scf accuracy    <       0.00000002 Ry

     iteration #  9     ecut=   124.00 Ry     beta= 0.70
     Davidson diagonalization with overlap
     ethr =  6.99E-11,  avg # of iterations =  3.7

     negative rho (up, down):  8.332E-04 0.000E+00

     total cpu time spent up to now is      218.6 secs

     total energy              =    -450.77675224 Ry
     estimated scf accuracy    <          1.5E-09 Ry

     iteration # 10     ecut=   124.00 Ry     beta= 0.70
     Davidson diagonalization with overlap
     ethr =  5.08E-12,  avg # of iterations =  4.6

     negative rho (up, down):  8.332E-04 0.000E+00

     total cpu time spent up to now is      222.5 secs

     total energy              =    -450.77675224 Ry
     estimated scf accuracy    <          1.5E-10 Ry

     iteration # 11     ecut=   124.00 Ry     beta= 0.70
     Davidson diagonalization with overlap
     ethr =  5.07E-13,  avg # of iterations =  3.4

     negative rho (up, down):  8.332E-04 0.000E+00

     total cpu time spent up to now is      225.8 secs

     End of self-consistent calculation

     Number of k-points >= 100: set verbosity='high' to print the bands.

     the Fermi energy is    14.0821 ev

!    total energy              =    -450.77675224 Ry
     estimated scf accuracy    <          1.9E-12 Ry
     smearing contrib. (-TS)   =       0.00000177 Ry
     internal energy E=F+TS    =    -450.77675401 Ry

     The total energy is F=E-TS. E is the sum of the following terms:
     one-electron contribution =    -175.98073203 Ry
     hartree contribution      =     101.83852666 Ry
     xc contribution           =     -54.33255512 Ry
     ewald contribution        =    -246.15983173 Ry
     one-center paw contrib.   =     -76.14216179 Ry

     convergence has been achieved in  11 iterations

     negative rho (up, down):  8.332E-04 0.000E+00

     Forces acting on atoms (cartesian axes, Ry/au):

     atom    1 type  1   force =     0.00000000    0.00000000    0.00000000
     atom    2 type  2   force =     0.00000000    0.00000000    0.00000000
     atom    3 type  3   force =     0.00000000    0.00000000    0.00000000
     atom    4 type  3   force =     0.00000000    0.00000000    0.00000000

     Total force =     0.000000     Total SCF correction =     0.000000


     Computing stress (Cartesian axis) and pressure


     negative rho (up, down):  8.332E-04 0.000E+00
          total   stress  (Ry/bohr**3)                   (kbar)     P=      -18.56
  -0.00063190   0.00000000   0.00000000          -92.96        0.00        0.00
   0.00000000   0.00012673   0.00000000            0.00       18.64        0.00
   0.00000000   0.00000000   0.00012673            0.00        0.00       18.64

     Energy error            =      8.9E-03 Ry
     Gradient error          =      0.0E+00 Ry/Bohr
     Cell gradient error     =      9.3E+01 kbar

     number of scf cycles    =   4
     number of bfgs steps    =   3

     enthalpy           old  =    -450.7678994826 Ry
     enthalpy           new  =    -450.7767522363 Ry

     CASE: enthalpy          _new < enthalpy          _old

     new trust radius        =       0.2090676523 bohr
     new conv_thr            =            1.0E-10 Ry

     new unit-cell volume =    210.94916 a.u.^3 (    31.25944 Ang^3 )
     density =      5.61635 g/cm^3

CELL_PARAMETERS (alat=  5.58242261)
   0.886301267   0.000000000   0.000000000
   0.000000000   1.169672148   0.000000000
   0.000000000   0.000000000   1.169672148

ATOMIC_POSITIONS (crystal)
Fe               0.5000000000        0.5000000000        0.5000000000
Ti               0.0000000000        0.0000000000        0.0000000000
H                0.0000000000        0.5000000000        0.0000000000
H                0.0000000000        0.0000000000        0.5000000000



     Writing config-only to output data dir ./TiFe_H_edges_yz.save/ :
     XML data file     NEW-OLD atomic charge density approx. for the potential
     New effective cutoffs (rho, wfc): 2208.70  157.48

     Check: negative core charge=   -0.000002

     negative rho (up, down):  8.024E-04 0.000E+00

     total cpu time spent up to now is      227.9 secs

     per-process dynamical memory:   164.6 Mb

     Self-consistent Calculation

     iteration #  1     ecut=   124.00 Ry     beta= 0.70
     Davidson diagonalization with overlap
     ethr =  1.00E-06,  avg # of iterations = 10.5

     negative rho (up, down):  7.509E-04 0.000E+00

     total cpu time spent up to now is      237.3 secs

     total energy              =    -450.77302296 Ry
     estimated scf accuracy    <       0.01256010 Ry

     iteration #  2     ecut=   124.00 Ry     beta= 0.70
     Davidson diagonalization with overlap
     ethr =  4.19E-05,  avg # of iterations =  4.9

     negative rho (up, down):  7.925E-04 0.000E+00

     total cpu time spent up to now is      241.5 secs

     total energy              =    -450.71482100 Ry
     estimated scf accuracy    <       1.25076788 Ry

     iteration #  3     ecut=   124.00 Ry     beta= 0.70
     Davidson diagonalization with overlap
     ethr =  4.19E-05,  avg # of iterations =  4.6

     negative rho (up, down):  8.087E-04 0.000E+00

     total cpu time spent up to now is      245.6 secs

     total energy              =    -450.78021298 Ry
     estimated scf accuracy    <       0.00747864 Ry

     iteration #  4     ecut=   124.00 Ry     beta= 0.70
     Davidson diagonalization with overlap
     ethr =  2.49E-05,  avg # of iterations =  1.4

     negative rho (up, down):  8.024E-04 0.000E+00

     total cpu time spent up to now is      248.3 secs

     total energy              =    -450.78067277 Ry
     estimated scf accuracy    <       0.00040656 Ry

     iteration #  5     ecut=   124.00 Ry     beta= 0.70
     Davidson diagonalization with overlap
     ethr =  1.36E-06,  avg # of iterations =  3.2

     negative rho (up, down):  8.036E-04 0.000E+00

     total cpu time spent up to now is      251.6 secs

     total energy              =    -450.78074513 Ry
     estimated scf accuracy    <       0.00001544 Ry

     iteration #  6     ecut=   124.00 Ry     beta= 0.70
     Davidson diagonalization with overlap
     ethr =  5.15E-08,  avg # of iterations =  4.6

     negative rho (up, down):  8.038E-04 0.000E+00

     total cpu time spent up to now is      255.5 secs

     total energy              =    -450.78075241 Ry
     estimated scf accuracy    <       0.00000115 Ry

     iteration #  7     ecut=   124.00 Ry     beta= 0.70
     Davidson diagonalization with overlap
     ethr =  3.83E-09,  avg # of iterations =  3.5

     negative rho (up, down):  8.039E-04 0.000E+00

     total cpu time spent up to now is      259.0 secs

     total energy              =    -450.78075267 Ry
     estimated scf accuracy    <       0.00000018 Ry

     iteration #  8     ecut=   124.00 Ry     beta= 0.70
     Davidson diagonalization with overlap
     ethr =  6.07E-10,  avg # of iterations =  3.0

     negative rho (up, down):  8.039E-04 0.000E+00

     total cpu time spent up to now is      262.3 secs

     total energy              =    -450.78075270 Ry
     estimated scf accuracy    <       0.00000001 Ry

     iteration #  9     ecut=   124.00 Ry     beta= 0.70
     Davidson diagonalization with overlap
     ethr =  3.92E-11,  avg # of iterations =  4.6

     negative rho (up, down):  8.039E-04 0.000E+00

     total cpu time spent up to now is      266.3 secs

     total energy              =    -450.78075271 Ry
     estimated scf accuracy    <          6.0E-10 Ry

     iteration # 10     ecut=   124.00 Ry     beta= 0.70
     Davidson diagonalization with overlap
     ethr =  1.99E-12,  avg # of iterations =  4.5

     negative rho (up, down):  8.039E-04 0.000E+00

     total cpu time spent up to now is      270.2 secs

     End of self-consistent calculation

     Number of k-points >= 100: set verbosity='high' to print the bands.

     the Fermi energy is    15.0617 ev

!    total energy              =    -450.78075271 Ry
     estimated scf accuracy    <          2.1E-11 Ry
     smearing contrib. (-TS)   =       0.00004961 Ry
     internal energy E=F+TS    =    -450.78080231 Ry

     The total energy is F=E-TS. E is the sum of the following terms:
     one-electron contribution =    -169.43036976 Ry
     hartree contribution      =      99.72555777 Ry
     xc contribution           =     -54.42766755 Ry
     ewald contribution        =    -250.50434677 Ry
     one-center paw contrib.   =     -76.14397602 Ry

     convergence has been achieved in  10 iterations

     negative rho (up, down):  8.039E-04 0.000E+00

     Forces acting on atoms (cartesian axes, Ry/au):

     atom    1 type  1   force =     0.00000000    0.00000000    0.00000000
     atom    2 type  2   force =     0.00000000    0.00000000    0.00000000
     atom    3 type  3   force =     0.00000000    0.00000000    0.00000000
     atom    4 type  3   force =     0.00000000    0.00000000    0.00000000

     Total force =     0.000000     Total SCF correction =     0.000000


     Computing stress (Cartesian axis) and pressure


     negative rho (up, down):  8.039E-04 0.000E+00
          total   stress  (Ry/bohr**3)                   (kbar)     P=       45.94
   0.00030930   0.00000000   0.00000000           45.50        0.00        0.00
   0.00000000   0.00031377   0.00000000            0.00       46.16        0.00
   0.00000000   0.00000000   0.00031377            0.00        0.00       46.16

     Energy error            =      4.0E-03 Ry
     Gradient error          =      0.0E+00 Ry/Bohr
     Cell gradient error     =      4.6E+01 kbar

     number of scf cycles    =   5
     number of bfgs steps    =   4

     enthalpy           old  =    -450.7767522363 Ry
     enthalpy           new  =    -450.7807527067 Ry

     CASE: enthalpy          _new < enthalpy          _old

     new trust radius        =       0.0541749901 bohr
     new conv_thr            =            1.0E-10 Ry

     new unit-cell volume =    215.93172 a.u.^3 (    31.99778 Ang^3 )
     density =      5.48675 g/cm^3

CELL_PARAMETERS (alat=  5.58242261)
   0.902830828   0.000000000   0.000000000
   0.000000000   1.172521902   0.000000000
   0.000000000   0.000000000   1.172521902

ATOMIC_POSITIONS (crystal)
Fe               0.5000000000        0.5000000000        0.5000000000
Ti               0.0000000000        0.0000000000        0.0000000000
H                0.0000000000        0.5000000000        0.0000000000
H                0.0000000000        0.0000000000        0.5000000000



     Writing config-only to output data dir ./TiFe_H_edges_yz.save/ :
     XML data file     NEW-OLD atomic charge density approx. for the potential
     New effective cutoffs (rho, wfc): 2128.60  151.78

     Check: negative core charge=   -0.000002

     negative rho (up, down):  8.187E-04 0.000E+00

     total cpu time spent up to now is      272.4 secs

     per-process dynamical memory:   165.2 Mb

     Self-consistent Calculation

     iteration #  1     ecut=   124.00 Ry     beta= 0.70
     Davidson diagonalization with overlap
     ethr =  1.00E-06,  avg # of iterations =  7.8

     negative rho (up, down):  8.287E-04 0.000E+00

     total cpu time spent up to now is      279.2 secs

     total energy              =    -450.77965704 Ry
     estimated scf accuracy    <       0.00181998 Ry

     iteration #  2     ecut=   124.00 Ry     beta= 0.70
     Davidson diagonalization with overlap
     ethr =  6.07E-06,  avg # of iterations =  5.5

     negative rho (up, down):  8.087E-04 0.000E+00

     total cpu time spent up to now is      283.8 secs

     total energy              =    -450.76537997 Ry
     estimated scf accuracy    <       0.38409023 Ry

     iteration #  3     ecut=   124.00 Ry     beta= 0.70
     Davidson diagonalization with overlap
     ethr =  6.07E-06,  avg # of iterations =  5.1

     negative rho (up, down):  8.138E-04 0.000E+00

     total cpu time spent up to now is      288.2 secs

     total energy              =    -450.78147408 Ry
     estimated scf accuracy    <       0.00007396 Ry

     iteration #  4     ecut=   124.00 Ry     beta= 0.70
     Davidson diagonalization with overlap
     ethr =  2.47E-07,  avg # of iterations =  4.2

     negative rho (up, down):  8.125E-04 0.000E+00

     total cpu time spent up to now is      292.3 secs

     total energy              =    -450.78151321 Ry
     estimated scf accuracy    <       0.00002294 Ry

     iteration #  5     ecut=   124.00 Ry     beta= 0.70
     Davidson diagonalization with overlap
     ethr =  7.65E-08,  avg # of iterations =  2.1

     negative rho (up, down):  8.123E-04 0.000E+00

     total cpu time spent up to now is      295.3 secs

     total energy              =    -450.78151608 Ry
     estimated scf accuracy    <       0.00000248 Ry

     iteration #  6     ecut=   124.00 Ry     beta= 0.70
     Davidson diagonalization with overlap
     ethr =  8.25E-09,  avg # of iterations =  3.5

     negative rho (up, down):  8.124E-04 0.000E+00

     total cpu time spent up to now is      298.7 secs

     total energy              =    -450.78151664 Ry
     estimated scf accuracy    <       0.00000008 Ry

     iteration #  7     ecut=   124.00 Ry     beta= 0.70
     Davidson diagonalization with overlap
     ethr =  2.64E-10,  avg # of iterations =  5.0

     negative rho (up, down):  8.124E-04 0.000E+00

     total cpu time spent up to now is      303.0 secs

     total energy              =    -450.78151671 Ry
     estimated scf accuracy    <       0.00000002 Ry

     iteration #  8     ecut=   124.00 Ry     beta= 0.70
     Davidson diagonalization with overlap
     ethr =  5.70E-11,  avg # of iterations =  1.9

     negative rho (up, down):  8.124E-04 0.000E+00

     total cpu time spent up to now is      305.8 secs

     total energy              =    -450.78151671 Ry
     estimated scf accuracy    <          1.1E-09 Ry

     iteration #  9     ecut=   124.00 Ry     beta= 0.70
     Davidson diagonalization with overlap
     ethr =  3.54E-12,  avg # of iterations =  4.6

     negative rho (up, down):  8.124E-04 0.000E+00

     total cpu time spent up to now is      309.7 secs

     End of self-consistent calculation

     Number of k-points >= 100: set verbosity='high' to print the bands.

     the Fermi energy is    14.6501 ev

!    total energy              =    -450.78151671 Ry
     estimated scf accuracy    <          5.9E-11 Ry
     smearing contrib. (-TS)   =       0.00002624 Ry
     internal energy E=F+TS    =    -450.78154295 Ry

     The total energy is F=E-TS. E is the sum of the following terms:
     one-electron contribution =    -172.26285882 Ry
     hartree contribution      =     100.66624394 Ry
     xc contribution           =     -54.38403997 Ry
     ewald contribution        =    -248.65757569 Ry
     one-center paw contrib.   =     -76.14331242 Ry

     convergence has been achieved in   9 iterations

     negative rho (up, down):  8.124E-04 0.000E+00

     Forces acting on atoms (cartesian axes, Ry/au):

     atom    1 type  1   force =     0.00000000    0.00000000    0.00000000
     atom    2 type  2   force =     0.00000000    0.00000000    0.00000000
     atom    3 type  3   force =     0.00000000    0.00000000    0.00000000
     atom    4 type  3   force =     0.00000000    0.00000000    0.00000000

     Total force =     0.000000     Total SCF correction =     0.000000


     Computing stress (Cartesian axis) and pressure


     negative rho (up, down):  8.124E-04 0.000E+00
          total   stress  (Ry/bohr**3)                   (kbar)     P=       11.47
  -0.00002901   0.00000000   0.00000000           -4.27        0.00        0.00
   0.00000000   0.00013144   0.00000000            0.00       19.34        0.00
   0.00000000   0.00000000   0.00013144            0.00        0.00       19.34

     Energy error            =      7.6E-04 Ry
     Gradient error          =      0.0E+00 Ry/Bohr
     Cell gradient error     =      1.9E+01 kbar

     number of scf cycles    =   6
     number of bfgs steps    =   5

     enthalpy           old  =    -450.7807527067 Ry
     enthalpy           new  =    -450.7815167071 Ry

     CASE: enthalpy          _new < enthalpy          _old

     new trust radius        =       0.0100893598 bohr
     new conv_thr            =            1.0E-10 Ry

     new unit-cell volume =    216.70711 a.u.^3 (    32.11268 Ang^3 )
     density =      5.46712 g/cm^3

CELL_PARAMETERS (alat=  5.58242261)
   0.899883592   0.000000000   0.000000000
   0.000000000   1.176547184   0.000000000
   0.000000000   0.000000000   1.176547184

ATOMIC_POSITIONS (crystal)
Fe               0.5000000000        0.5000000000        0.5000000000
Ti               0.0000000000        0.0000000000        0.0000000000
H                0.0000000000        0.5000000000        0.0000000000
H                0.0000000000        0.0000000000        0.5000000000



     Writing config-only to output data dir ./TiFe_H_edges_yz.save/ :
     XML data file     NEW-OLD atomic charge density approx. for the potential
     New effective cutoffs (rho, wfc): 2142.55  152.77

     Check: negative core charge=   -0.000002

     negative rho (up, down):  8.151E-04 0.000E+00

     total cpu time spent up to now is      311.9 secs

     per-process dynamical memory:   165.2 Mb

     Self-consistent Calculation

     iteration #  1     ecut=   124.00 Ry     beta= 0.70
     Davidson diagonalization with overlap
     ethr =  1.00E-06,  avg # of iterations =  4.2

     negative rho (up, down):  8.068E-04 0.000E+00

     total cpu time spent up to now is      316.6 secs

     total energy              =    -450.78161299 Ry
     estimated scf accuracy    <       0.00006294 Ry

     iteration #  2     ecut=   124.00 Ry     beta= 0.70
     Davidson diagonalization with overlap
     ethr =  2.10E-07,  avg # of iterations =  4.7

     negative rho (up, down):  8.098E-04 0.000E+00

     total cpu time spent up to now is      320.8 secs

     total energy              =    -450.78143092 Ry
     estimated scf accuracy    <       0.00420013 Ry

     iteration #  3     ecut=   124.00 Ry     beta= 0.70
     Davidson diagonalization with overlap
     ethr =  2.10E-07,  avg # of iterations =  4.5

     negative rho (up, down):  8.118E-04 0.000E+00

     total cpu time spent up to now is      324.5 secs

     total energy              =    -450.78165700 Ry
     estimated scf accuracy    <       0.00011639 Ry

     iteration #  4     ecut=   124.00 Ry     beta= 0.70
     Davidson diagonalization with overlap
     ethr =  2.10E-07,  avg # of iterations =  2.0

     negative rho (up, down):  8.113E-04 0.000E+00

     total cpu time spent up to now is      327.5 secs

     total energy              =    -450.78166681 Ry
     estimated scf accuracy    <       0.00000045 Ry

     iteration #  5     ecut=   124.00 Ry     beta= 0.70
     Davidson diagonalization with overlap
     ethr =  1.50E-09,  avg # of iterations =  5.1

     negative rho (up, down):  8.108E-04 0.000E+00

     total cpu time spent up to now is      332.0 secs

     total energy              =    -450.78166713 Ry
     estimated scf accuracy    <       0.00000032 Ry

     iteration #  6     ecut=   124.00 Ry     beta= 0.70
     Davidson diagonalization with overlap
     ethr =  1.08E-09,  avg # of iterations =  2.4

     negative rho (up, down):  8.108E-04 0.000E+00

     total cpu time spent up to now is      335.2 secs

     total energy              =    -450.78166720 Ry
     estimated scf accuracy    <       0.00000002 Ry

     iteration #  7     ecut=   124.00 Ry     beta= 0.70
     Davidson diagonalization with overlap
     ethr =  5.31E-11,  avg # of iterations =  4.5

     negative rho (up, down):  8.108E-04 0.000E+00

     total cpu time spent up to now is      339.0 secs

     total energy              =    -450.78166721 Ry
     estimated scf accuracy    <          3.4E-09 Ry

     iteration #  8     ecut=   124.00 Ry     beta= 0.70
     Davidson diagonalization with overlap
     ethr =  1.14E-11,  avg # of iterations =  2.7

     negative rho (up, down):  8.108E-04 0.000E+00

     total cpu time spent up to now is      342.2 secs

     total energy              =    -450.78166721 Ry
     estimated scf accuracy    <          2.0E-10 Ry

     iteration #  9     ecut=   124.00 Ry     beta= 0.70
     Davidson diagonalization with overlap
     ethr =  6.63E-13,  avg # of iterations =  4.7

     negative rho (up, down):  8.108E-04 0.000E+00

     total cpu time spent up to now is      346.5 secs

     End of self-consistent calculation

     Number of k-points >= 100: set verbosity='high' to print the bands.

     the Fermi energy is    14.5857 ev

!    total energy              =    -450.78166721 Ry
     estimated scf accuracy    <          9.2E-11 Ry
     smearing contrib. (-TS)   =       0.00003815 Ry
     internal energy E=F+TS    =    -450.78170536 Ry

     The total energy is F=E-TS. E is the sum of the following terms:
     one-electron contribution =    -172.81522029 Ry
     hartree contribution      =     100.87640883 Ry
     xc contribution           =     -54.37658654 Ry
     ewald contribution        =    -248.32302431 Ry
     one-center paw contrib.   =     -76.14328305 Ry

     convergence has been achieved in   9 iterations

     negative rho (up, down):  8.108E-04 0.000E+00

     Forces acting on atoms (cartesian axes, Ry/au):

     atom    1 type  1   force =     0.00000000    0.00000000    0.00000000
     atom    2 type  2   force =     0.00000000    0.00000000    0.00000000
     atom    3 type  3   force =     0.00000000    0.00000000    0.00000000
     atom    4 type  3   force =     0.00000000    0.00000000    0.00000000

     Total force =     0.000000     Total SCF correction =     0.000000


     Computing stress (Cartesian axis) and pressure


     negative rho (up, down):  8.108E-04 0.000E+00
          total   stress  (Ry/bohr**3)                   (kbar)     P=        4.33
  -0.00001433   0.00000000   0.00000000           -2.11        0.00        0.00
   0.00000000   0.00005131   0.00000000            0.00        7.55        0.00
   0.00000000   0.00000000   0.00005131            0.00        0.00        7.55

     Energy error            =      1.5E-04 Ry
     Gradient error          =      0.0E+00 Ry/Bohr
     Cell gradient error     =      7.5E+00 kbar

     number of scf cycles    =   7
     number of bfgs steps    =   6

     enthalpy           old  =    -450.7815167071 Ry
     enthalpy           new  =    -450.7816672076 Ry

     CASE: enthalpy          _new < enthalpy          _old

     new trust radius        =       0.0072161989 bohr
     new conv_thr            =            1.0E-10 Ry

     new unit-cell volume =    217.15538 a.u.^3 (    32.17911 Ang^3 )
     density =      5.45583 g/cm^3

CELL_PARAMETERS (alat=  5.58242261)
   0.897677984   0.000000000   0.000000000
   0.000000000   1.179209416   0.000000000
   0.000000000   0.000000000   1.179209416

ATOMIC_POSITIONS (crystal)
Fe               0.5000000000        0.5000000000        0.5000000000
Ti               0.0000000000        0.0000000000        0.0000000000
H                0.0000000000        0.5000000000        0.0000000000
H                0.0000000000        0.0000000000        0.5000000000



     Writing config-only to output data dir ./TiFe_H_edges_yz.save/ :
     XML data file     NEW-OLD atomic charge density approx. for the potential
     New effective cutoffs (rho, wfc): 2153.08  153.52

     Check: negative core charge=   -0.000002

     negative rho (up, down):  8.123E-04 0.000E+00

     total cpu time spent up to now is      348.6 secs

     per-process dynamical memory:   165.3 Mb

     Self-consistent Calculation

     iteration #  1     ecut=   124.00 Ry     beta= 0.70
     Davidson diagonalization with overlap
     ethr =  1.00E-06,  avg # of iterations =  3.3

     negative rho (up, down):  8.065E-04 0.000E+00

     total cpu time spent up to now is      352.9 secs

     total energy              =    -450.78166319 Ry
     estimated scf accuracy    <       0.00003381 Ry

     iteration #  2     ecut=   124.00 Ry     beta= 0.70
     Davidson diagonalization with overlap
     ethr =  1.13E-07,  avg # of iterations =  5.0

     negative rho (up, down):  8.087E-04 0.000E+00

     total cpu time spent up to now is      357.3 secs

     total energy              =    -450.78154497 Ry
     estimated scf accuracy    <       0.00293353 Ry

     iteration #  3     ecut=   124.00 Ry     beta= 0.70
     Davidson diagonalization with overlap
     ethr =  1.13E-07,  avg # of iterations =  4.5

     negative rho (up, down):  8.102E-04 0.000E+00

     total cpu time spent up to now is      361.1 secs

     total energy              =    -450.78169246 Ry
     estimated scf accuracy    <       0.00003266 Ry

     iteration #  4     ecut=   124.00 Ry     beta= 0.70
     Davidson diagonalization with overlap
     ethr =  1.09E-07,  avg # of iterations =  2.0

     negative rho (up, down):  8.099E-04 0.000E+00

     total cpu time spent up to now is      364.0 secs

     total energy              =    -450.78169596 Ry
     estimated scf accuracy    <       0.00000025 Ry

     iteration #  5     ecut=   124.00 Ry     beta= 0.70
     Davidson diagonalization with overlap
     ethr =  8.30E-10,  avg # of iterations =  5.0

     negative rho (up, down):  8.096E-04 0.000E+00

     total cpu time spent up to now is      368.6 secs

     total energy              =    -450.78169616 Ry
     estimated scf accuracy    <       0.00000008 Ry

     iteration #  6     ecut=   124.00 Ry     beta= 0.70
     Davidson diagonalization with overlap
     ethr =  2.77E-10,  avg # of iterations =  3.1

     negative rho (up, down):  8.096E-04 0.000E+00

     total cpu time spent up to now is      372.0 secs

     total energy              =    -450.78169618 Ry
     estimated scf accuracy    <          2.0E-09 Ry

     iteration #  7     ecut=   124.00 Ry     beta= 0.70
     Davidson diagonalization with overlap
     ethr =  6.81E-12,  avg # of iterations =  5.1

     negative rho (up, down):  8.096E-04 0.000E+00

     total cpu time spent up to now is      376.5 secs

     total energy              =    -450.78169618 Ry
     estimated scf accuracy    <          5.4E-10 Ry

     iteration #  8     ecut=   124.00 Ry     beta= 0.70
     Davidson diagonalization with overlap
     ethr =  1.78E-12,  avg # of iterations =  2.5

     negative rho (up, down):  8.096E-04 0.000E+00

     total cpu time spent up to now is      379.6 secs

     End of self-consistent calculation

     Number of k-points >= 100: set verbosity='high' to print the bands.

     the Fermi energy is    14.5487 ev

!    total energy              =    -450.78169618 Ry
     estimated scf accuracy    <          8.6E-11 Ry
     smearing contrib. (-TS)   =       0.00004897 Ry
     internal energy E=F+TS    =    -450.78174515 Ry

     The total energy is F=E-TS. E is the sum of the following terms:
     one-electron contribution =    -173.14717799 Ry
     hartree contribution      =     101.00479160 Ry
     xc contribution           =     -54.37220624 Ry
     ewald contribution        =    -248.12387820 Ry
     one-center paw contrib.   =     -76.14327432 Ry

     convergence has been achieved in   8 iterations

     negative rho (up, down):  8.096E-04 0.000E+00

     Forces acting on atoms (cartesian axes, Ry/au):

     atom    1 type  1   force =     0.00000000    0.00000000    0.00000000
     atom    2 type  2   force =     0.00000000    0.00000000    0.00000000
     atom    3 type  3   force =     0.00000000    0.00000000    0.00000000
     atom    4 type  3   force =     0.00000000    0.00000000    0.00000000

     Total force =     0.000000     Total SCF correction =     0.000000


     Computing stress (Cartesian axis) and pressure


     negative rho (up, down):  8.096E-04 0.000E+00
          total   stress  (Ry/bohr**3)                   (kbar)     P=        0.01
  -0.00000025   0.00000000   0.00000000           -0.04        0.00        0.00
   0.00000000   0.00000020   0.00000000            0.00        0.03        0.00
   0.00000000   0.00000000   0.00000020            0.00        0.00        0.03

     Energy error            =      2.9E-05 Ry
     Gradient error          =      0.0E+00 Ry/Bohr
     Cell gradient error     =      3.7E-02 kbar

     bfgs converged in   8 scf cycles and   7 bfgs steps
     (criteria: energy <  1.0E-04 Ry, force <  1.0E-03 Ry/Bohr, cell <  1.0E-01 kbar)

     End of BFGS Geometry Optimization

     Final enthalpy           =    -450.7816961778 Ry

     File ./TiFe_H_edges_yz.bfgs deleted, as requested
Begin final coordinates
     new unit-cell volume =    217.15538 a.u.^3 (    32.17911 Ang^3 )
     density =      5.45583 g/cm^3

CELL_PARAMETERS (alat=  5.58242261)
   0.897677984   0.000000000   0.000000000
   0.000000000   1.179209416   0.000000000
   0.000000000   0.000000000   1.179209416

ATOMIC_POSITIONS (crystal)
Fe               0.5000000000        0.5000000000        0.5000000000
Ti               0.0000000000        0.0000000000        0.0000000000
H                0.0000000000        0.5000000000        0.0000000000
H                0.0000000000        0.0000000000        0.5000000000
End final coordinates



     Writing config-only to output data dir ./TiFe_H_edges_yz.save/ :
     XML data file
     Final scf calculation at the relaxed structure.
     The G-vectors are recalculated for the final unit cell
     Results may differ from those at the preceding step.

     Parallelization info
     --------------------
     sticks:   dense  smooth     PW     G-vecs:    dense   smooth      PW
     Min         284      81     23                16570     2531     393
     Max         285      82     24                16575     2534     398
     Sum        4557    1301    375               265159    40503    6331

     Using Slab Decomposition



     bravais-lattice index     =            0
     lattice parameter (alat)  =       5.5824  a.u.
     unit-cell volume          =     217.1554 (a.u.)^3
     number of atoms/cell      =            4
     number of atomic types    =            3
     number of electrons       =        30.00
     number of Kohn-Sham states=           19
     kinetic-energy cutoff     =     124.0000  Ry
     charge density cutoff     =    1736.0000  Ry
     scf convergence threshold =      1.0E-10
     mixing beta               =       0.7000
     number of iterations used =            8  plain     mixing
     press convergence thresh. =      1.0E-01
     Exchange-correlation= PBE
                           (   1   4   3   4   0   0   0)

     celldm(1)=   5.582423  celldm(2)=   0.000000  celldm(3)=   0.000000
     celldm(4)=   0.000000  celldm(5)=   0.000000  celldm(6)=   0.000000

     crystal axes: (cart. coord. in units of alat)
               a(1) = (   0.897678   0.000000   0.000000 )  
               a(2) = (   0.000000   1.179209   0.000000 )  
               a(3) = (   0.000000   0.000000   1.179209 )  

     reciprocal axes: (cart. coord. in units 2 pi/alat)
               b(1) = (  1.113985  0.000000  0.000000 )  
               b(2) = (  0.000000  0.848026  0.000000 )  
               b(3) = (  0.000000  0.000000  0.848026 )  


     PseudoPot. # 1 for Fe read from file:
     ../../pseudos/Fe.pbe-spn-kjpaw_psl.0.2.1.UPF
     MD5 check sum: e86618425769142926afa95317d90200
     Pseudo is Projector augmented-wave + core cor, Zval = 16.0
     Generated using "atomic" code by A. Dal Corso  v.5.0.99 svn rev. 10869
     Shape of augmentation charge: PSQ
     Using radial grid of 1191 points,  6 beta functions with: 
                l(1) =   0
                l(2) =   0
                l(3) =   1
                l(4) =   1
                l(5) =   2
                l(6) =   2
     Q(r) pseudized with 0 coefficients 


     PseudoPot. # 2 for Ti read from file:
     ../../pseudos/ti_pbe_v1.4.uspp.F.UPF
     MD5 check sum: 88a00a6731bd790ddea75d31a80cb452
     Pseudo is Ultrasoft + core correction, Zval = 12.0
     Generated by new atomic code, or converted to UPF format
     Using radial grid of  851 points,  6 beta functions with: 
                l(1) =   0
                l(2) =   0
                l(3) =   1
                l(4) =   1
                l(5) =   2
                l(6) =   2
     Q(r) pseudized with  6 coefficients,  rinner =    1.000   1.000   1.000
                                                       1.000   1.000

     PseudoPot. # 3 for H  read from file:
     ../../pseudos/H.pbe-rrkjus_psl.1.0.0.UPF
     MD5 check sum: f52b6d4d1c606e5624b1dc7b2218f220
     Pseudo is Ultrasoft, Zval =  1.0
     Generated using "atomic" code by A. Dal Corso  v.5.1
     Using radial grid of  929 points,  2 beta functions with: 
                l(1) =   0
                l(2) =   0
     Q(r) pseudized with 0 coefficients 


     atomic species   valence    mass     pseudopotential
     Fe               16.00    55.84500     Fe( 1.00)
     Ti               12.00    47.86700     Ti( 1.00)
     H                 1.00     1.00750     H ( 1.00)

     16 Sym. Ops., with inversion, found



   Cartesian axes

     site n.     atom                  positions (alat units)
         1        Fe     tau(   1) = (   0.4488390   0.5896047   0.5896047  )
         2        Ti     tau(   2) = (   0.0000000   0.0000000   0.0000000  )
         3        H      tau(   3) = (   0.0000000   0.5896047   0.0000000  )
         4        H      tau(   4) = (   0.0000000   0.0000000   0.5896047  )

     number of k points=   288  Marzari-Vanderbilt smearing, width (Ry)=  0.0050

     Number of k-points >= 100: set verbosity='high' to print them.

     Dense  grid:   265159 G-vectors     FFT dimensions: (  72,  90,  90)

     Smooth grid:    40503 G-vectors     FFT dimensions: (  36,  48,  48)

     Estimated max dynamical RAM per process >     108.31 MB

     Estimated total dynamical RAM >       1.69 GB

     Check: negative core charge=   -0.000001

     Initial potential from superposition of free atoms

     starting charge      28.9995, renormalised to      30.0000

     negative rho (up, down):  1.317E-03 0.000E+00
     Starting wfcs are   25 randomized atomic wfcs
     Checking if some PAW data can be deallocated... 

     total cpu time spent up to now is      384.1 secs

     per-process dynamical memory:   167.6 Mb

     Self-consistent Calculation

     iteration #  1     ecut=   124.00 Ry     beta= 0.70
     Davidson diagonalization with overlap
     c_bands:  2 eigenvalues not converged
     c_bands:  3 eigenvalues not converged
     c_bands:  2 eigenvalues not converged
     c_bands:  1 eigenvalues not converged
     c_bands:  2 eigenvalues not converged
     c_bands:  4 eigenvalues not converged
     c_bands:  1 eigenvalues not converged
     c_bands:  1 eigenvalues not converged
     c_bands:  1 eigenvalues not converged
     c_bands:  1 eigenvalues not converged
     c_bands:  1 eigenvalues not converged
     c_bands:  1 eigenvalues not converged
     c_bands:  1 eigenvalues not converged
     c_bands:  1 eigenvalues not converged
     c_bands:  1 eigenvalues not converged
     c_bands:  1 eigenvalues not converged
     c_bands:  1 eigenvalues not converged
     c_bands:  1 eigenvalues not converged
     c_bands:  1 eigenvalues not converged
     c_bands:  1 eigenvalues not converged
     c_bands:  1 eigenvalues not converged
     c_bands:  1 eigenvalues not converged
     c_bands:  2 eigenvalues not converged
     c_bands:  2 eigenvalues not converged
     c_bands:  1 eigenvalues not converged
     c_bands:  1 eigenvalues not converged
     c_bands:  1 eigenvalues not converged
     c_bands:  1 eigenvalues not converged
     c_bands:  1 eigenvalues not converged
     c_bands:  2 eigenvalues not converged
     c_bands:  1 eigenvalues not converged
     c_bands:  1 eigenvalues not converged
     c_bands:  1 eigenvalues not converged
     c_bands:  1 eigenvalues not converged
     c_bands:  1 eigenvalues not converged
     c_bands:  1 eigenvalues not converged
     c_bands:  1 eigenvalues not converged
     c_bands:  1 eigenvalues not converged
     c_bands:  1 eigenvalues not converged
     c_bands:  1 eigenvalues not converged
     c_bands:  1 eigenvalues not converged
     c_bands:  1 eigenvalues not converged
     c_bands:  1 eigenvalues not converged
     c_bands:  1 eigenvalues not converged
     c_bands:  1 eigenvalues not converged
     c_bands:  1 eigenvalues not converged
     c_bands:  1 eigenvalues not converged
     c_bands:  1 eigenvalues not converged
     c_bands:  1 eigenvalues not converged
     c_bands:  1 eigenvalues not converged
     c_bands:  1 eigenvalues not converged
     c_bands:  1 eigenvalues not converged
     c_bands:  1 eigenvalues not converged
     c_bands:  1 eigenvalues not converged
     c_bands:  1 eigenvalues not converged
     c_bands:  1 eigenvalues not converged
     c_bands:  1 eigenvalues not converged
     c_bands:  1 eigenvalues not converged
     c_bands:  1 eigenvalues not converged
     c_bands:  1 eigenvalues not converged
     c_bands:  1 eigenvalues not converged
     c_bands:  1 eigenvalues not converged
     c_bands:  1 eigenvalues not converged
     c_bands:  1 eigenvalues not converged
     c_bands:  1 eigenvalues not converged
     c_bands:  1 eigenvalues not converged
     c_bands:  1 eigenvalues not converged
     c_bands:  1 eigenvalues not converged
     c_bands:  1 eigenvalues not converged
     c_bands:  1 eigenvalues not converged
     c_bands:  1 eigenvalues not converged
     c_bands:  1 eigenvalues not converged
     c_bands:  1 eigenvalues not converged
     c_bands:  1 eigenvalues not converged
     c_bands:  1 eigenvalues not converged
     c_bands:  1 eigenvalues not converged
     c_bands:  1 eigenvalues not converged
     c_bands:  1 eigenvalues not converged
     c_bands:  1 eigenvalues not converged
     c_bands:  1 eigenvalues not converged
     c_bands:  1 eigenvalues not converged
     c_bands:  1 eigenvalues not converged
     c_bands:  1 eigenvalues not converged
     c_bands:  1 eigenvalues not converged
     c_bands:  2 eigenvalues not converged
     c_bands:  2 eigenvalues not converged
     c_bands:  1 eigenvalues not converged
     c_bands:  1 eigenvalues not converged
     c_bands:  1 eigenvalues not converged
     c_bands:  1 eigenvalues not converged
     c_bands:  1 eigenvalues not converged
     c_bands:  1 eigenvalues not converged
     c_bands:  1 eigenvalues not converged
     c_bands:  2 eigenvalues not converged
     c_bands:  1 eigenvalues not converged
     c_bands:  1 eigenvalues not converged
     c_bands:  1 eigenvalues not converged
     c_bands:  1 eigenvalues not converged
     c_bands:  1 eigenvalues not converged
     c_bands:  1 eigenvalues not converged
     c_bands:  1 eigenvalues not converged
     c_bands:  1 eigenvalues not converged
     c_bands:  1 eigenvalues not converged
     c_bands:  1 eigenvalues not converged
     c_bands:  2 eigenvalues not converged
     c_bands:  1 eigenvalues not converged
     c_bands:  1 eigenvalues not converged
     c_bands:  1 eigenvalues not converged
     c_bands:  1 eigenvalues not converged
     c_bands:  1 eigenvalues not converged
     c_bands:  1 eigenvalues not converged
     c_bands:  1 eigenvalues not converged
     c_bands:  1 eigenvalues not converged
     c_bands:  1 eigenvalues not converged
     c_bands:  1 eigenvalues not converged
     c_bands:  1 eigenvalues not converged
     c_bands:  1 eigenvalues not converged
     c_bands:  1 eigenvalues not converged
     c_bands:  1 eigenvalues not converged
     ethr =  1.00E-06,  avg # of iterations = 18.3

     negative rho (up, down):  2.193E-04 0.000E+00

     total cpu time spent up to now is      401.3 secs

     total energy              =    -428.74101851 Ry
     estimated scf accuracy    <      27.56170066 Ry

     iteration #  2     ecut=   124.00 Ry     beta= 0.70
     Davidson diagonalization with overlap
     ethr =  1.00E-02,  avg # of iterations =  8.2

     total cpu time spent up to now is      409.0 secs

     total energy              =    -440.73682688 Ry
     estimated scf accuracy    <     144.66877705 Ry

     iteration #  3     ecut=   124.00 Ry     beta= 0.70
     Davidson diagonalization with overlap
     ethr =  1.00E-02,  avg # of iterations =  3.5

     negative rho (up, down):  8.795E-06 0.000E+00

     total cpu time spent up to now is      413.7 secs

     total energy              =    -453.15818226 Ry
     estimated scf accuracy    <      22.01107635 Ry

     iteration #  4     ecut=   124.00 Ry     beta= 0.70
     Davidson diagonalization with overlap
     ethr =  1.00E-02,  avg # of iterations =  2.0

     negative rho (up, down):  1.132E-04 0.000E+00

     total cpu time spent up to now is      416.9 secs

     total energy              =    -451.34998132 Ry
     estimated scf accuracy    <      14.17360110 Ry

     iteration #  5     ecut=   124.00 Ry     beta= 0.70
     Davidson diagonalization with overlap
     ethr =  1.00E-02,  avg # of iterations =  2.0

     negative rho (up, down):  4.001E-04 0.000E+00

     total cpu time spent up to now is      420.1 secs

     total energy              =    -450.81731341 Ry
     estimated scf accuracy    <       6.77750486 Ry

     iteration #  6     ecut=   124.00 Ry     beta= 0.70
     Davidson diagonalization with overlap
     ethr =  1.00E-02,  avg # of iterations =  1.9

     negative rho (up, down):  8.432E-04 0.000E+00

     total cpu time spent up to now is      423.2 secs

     total energy              =    -450.52581364 Ry
     estimated scf accuracy    <       2.74825254 Ry

     iteration #  7     ecut=   124.00 Ry     beta= 0.70
     Davidson diagonalization with overlap
     ethr =  9.16E-03,  avg # of iterations =  2.3

     negative rho (up, down):  7.430E-04 0.000E+00

     total cpu time spent up to now is      426.4 secs

     total energy              =    -450.74258190 Ry
     estimated scf accuracy    <       0.14943210 Ry

     iteration #  8     ecut=   124.00 Ry     beta= 0.70
     Davidson diagonalization with overlap
     ethr =  4.98E-04,  avg # of iterations =  4.8

     negative rho (up, down):  6.778E-04 0.000E+00

     total cpu time spent up to now is      430.8 secs

     total energy              =    -450.78460266 Ry
     estimated scf accuracy    <       0.01744336 Ry

     iteration #  9     ecut=   124.00 Ry     beta= 0.70
     Davidson diagonalization with overlap
     ethr =  5.81E-05,  avg # of iterations =  3.9

     negative rho (up, down):  8.440E-04 0.000E+00

     total cpu time spent up to now is      434.9 secs

     total energy              =    -450.76024816 Ry
     estimated scf accuracy    <       0.29174421 Ry

     iteration # 10     ecut=   124.00 Ry     beta= 0.70
     Davidson diagonalization with overlap
     ethr =  5.81E-05,  avg # of iterations =  4.5

     negative rho (up, down):  9.078E-04 0.000E+00

     total cpu time spent up to now is      439.5 secs

     total energy              =    -450.79598875 Ry
     estimated scf accuracy    <       0.03682830 Ry

     iteration # 11     ecut=   124.00 Ry     beta= 0.70
     Davidson diagonalization with overlap
     ethr =  5.81E-05,  avg # of iterations =  3.9

     negative rho (up, down):  8.679E-04 0.000E+00

     total cpu time spent up to now is      443.4 secs

     total energy              =    -450.79814378 Ry
     estimated scf accuracy    <       0.74527119 Ry

     iteration # 12     ecut=   124.00 Ry     beta= 0.70
     Davidson diagonalization with overlap
     ethr =  5.81E-05,  avg # of iterations =  1.5

     negative rho (up, down):  7.919E-04 0.000E+00

     total cpu time spent up to now is      446.4 secs

     total energy              =    -450.76353211 Ry
     estimated scf accuracy    <       0.47026082 Ry

     iteration # 13     ecut=   124.00 Ry     beta= 0.70
     Davidson diagonalization with overlap
     ethr =  5.81E-05,  avg # of iterations =  3.4

     negative rho (up, down):  7.860E-04 0.000E+00

     total cpu time spent up to now is      450.3 secs

     total energy              =    -450.78217343 Ry
     estimated scf accuracy    <       0.00331864 Ry

     iteration # 14     ecut=   124.00 Ry     beta= 0.70
     Davidson diagonalization with overlap
     ethr =  1.11E-05,  avg # of iterations =  3.9

     negative rho (up, down):  8.064E-04 0.000E+00

     total cpu time spent up to now is      454.1 secs

     total energy              =    -450.78251324 Ry
     estimated scf accuracy    <       0.03291273 Ry

     iteration # 15     ecut=   124.00 Ry     beta= 0.70
     Davidson diagonalization with overlap
     ethr =  1.11E-05,  avg # of iterations =  1.2

     negative rho (up, down):  8.030E-04 0.000E+00

     total cpu time spent up to now is      457.1 secs

     total energy              =    -450.78237616 Ry
     estimated scf accuracy    <       0.01290990 Ry

     iteration # 16     ecut=   124.00 Ry     beta= 0.70
     Davidson diagonalization with overlap
     ethr =  1.11E-05,  avg # of iterations =  1.0

     negative rho (up, down):  8.313E-04 0.000E+00

     total cpu time spent up to now is      460.0 secs

     total energy              =    -450.78136212 Ry
     estimated scf accuracy    <       0.00741848 Ry

     iteration # 17     ecut=   124.00 Ry     beta= 0.70
     Davidson diagonalization with overlap
     ethr =  1.11E-05,  avg # of iterations =  2.7

     negative rho (up, down):  8.233E-04 0.000E+00

     total cpu time spent up to now is      463.4 secs

     total energy              =    -450.78202317 Ry
     estimated scf accuracy    <       0.00081249 Ry

     iteration # 18     ecut=   124.00 Ry     beta= 0.70
     Davidson diagonalization with overlap
     ethr =  2.71E-06,  avg # of iterations =  1.4

     negative rho (up, down):  8.226E-04 0.000E+00

     total cpu time spent up to now is      466.4 secs

     total energy              =    -450.78206453 Ry
     estimated scf accuracy    <       0.00003230 Ry

     iteration # 19     ecut=   124.00 Ry     beta= 0.70
     Davidson diagonalization with overlap
     ethr =  1.08E-07,  avg # of iterations =  4.1

     negative rho (up, down):  8.225E-04 0.000E+00

     total cpu time spent up to now is      470.3 secs

     total energy              =    -450.78207274 Ry
     estimated scf accuracy    <       0.00001079 Ry

     iteration # 20     ecut=   124.00 Ry     beta= 0.70
     Davidson diagonalization with overlap
     ethr =  3.60E-08,  avg # of iterations =  2.0

     negative rho (up, down):  8.229E-04 0.000E+00

     total cpu time spent up to now is      473.5 secs

     total energy              =    -450.78207372 Ry
     estimated scf accuracy    <       0.00000011 Ry

     iteration # 21     ecut=   124.00 Ry     beta= 0.70
     Davidson diagonalization with overlap
     ethr =  3.63E-10,  avg # of iterations =  6.3

     negative rho (up, down):  8.229E-04 0.000E+00

     total cpu time spent up to now is      479.3 secs

     total energy              =    -450.78207402 Ry
     estimated scf accuracy    <       0.00000018 Ry

     iteration # 22     ecut=   124.00 Ry     beta= 0.70
     Davidson diagonalization with overlap
     ethr =  3.63E-10,  avg # of iterations =  1.0

     negative rho (up, down):  8.227E-04 0.000E+00

     total cpu time spent up to now is      482.4 secs

     total energy              =    -450.78207402 Ry
     estimated scf accuracy    <       0.00000004 Ry

     iteration # 23     ecut=   124.00 Ry     beta= 0.70
     Davidson diagonalization with overlap
     ethr =  1.46E-10,  avg # of iterations =  3.3

     negative rho (up, down):  8.227E-04 0.000E+00

     total cpu time spent up to now is      486.2 secs

     total energy              =    -450.78207403 Ry
     estimated scf accuracy    <       0.00000004 Ry

     iteration # 24     ecut=   124.00 Ry     beta= 0.70
     Davidson diagonalization with overlap
     ethr =  1.32E-10,  avg # of iterations =  1.0

     negative rho (up, down):  8.227E-04 0.000E+00

     total cpu time spent up to now is      489.1 secs

     total energy              =    -450.78207403 Ry
     estimated scf accuracy    <       0.00000004 Ry

     iteration # 25     ecut=   124.00 Ry     beta= 0.70
     Davidson diagonalization with overlap
     ethr =  1.32E-10,  avg # of iterations =  1.0

     negative rho (up, down):  8.227E-04 0.000E+00

     total cpu time spent up to now is      492.0 secs

     total energy              =    -450.78207400 Ry
     estimated scf accuracy    <       0.00000003 Ry

     iteration # 26     ecut=   124.00 Ry     beta= 0.70
     Davidson diagonalization with overlap
     ethr =  9.88E-11,  avg # of iterations =  2.0

     negative rho (up, down):  8.227E-04 0.000E+00

     total cpu time spent up to now is      495.4 secs

     total energy              =    -450.78207401 Ry
     estimated scf accuracy    <          5.4E-10 Ry

     iteration # 27     ecut=   124.00 Ry     beta= 0.70
     Davidson diagonalization with overlap
     ethr =  1.79E-12,  avg # of iterations =  5.4

     negative rho (up, down):  8.227E-04 0.000E+00

     total cpu time spent up to now is      500.4 secs

     total energy              =    -450.78207401 Ry
     estimated scf accuracy    <          2.2E-10 Ry

     iteration # 28     ecut=   124.00 Ry     beta= 0.70
     Davidson diagonalization with overlap
     ethr =  7.22E-13,  avg # of iterations =  2.0

     negative rho (up, down):  8.227E-04 0.000E+00

     total cpu time spent up to now is      503.8 secs

     End of self-consistent calculation

     Number of k-points >= 100: set verbosity='high' to print the bands.

     the Fermi energy is    14.5486 ev

!    total energy              =    -450.78207401 Ry
     estimated scf accuracy    <          3.5E-12 Ry
     smearing contrib. (-TS)   =       0.00004916 Ry
     internal energy E=F+TS    =    -450.78212317 Ry

     The total energy is F=E-TS. E is the sum of the following terms:
     one-electron contribution =    -173.14654130 Ry
     hartree contribution      =     101.00418038 Ry
     xc contribution           =     -54.37254359 Ry
     ewald contribution        =    -248.12387820 Ry
     one-center paw contrib.   =     -76.14334046 Ry

     convergence has been achieved in  28 iterations

     negative rho (up, down):  8.227E-04 0.000E+00

     Forces acting on atoms (cartesian axes, Ry/au):

     atom    1 type  1   force =     0.00000000    0.00000000    0.00000000
     atom    2 type  2   force =     0.00000000    0.00000000    0.00000000
     atom    3 type  3   force =     0.00000000    0.00000000    0.00000000
     atom    4 type  3   force =     0.00000000    0.00000000    0.00000000

     Total force =     0.000000     Total SCF correction =     0.000000


     Computing stress (Cartesian axis) and pressure


     negative rho (up, down):  8.227E-04 0.000E+00
          total   stress  (Ry/bohr**3)                   (kbar)     P=       -0.36
  -0.00000493   0.00000000   0.00000000           -0.73        0.00        0.00
   0.00000000  -0.00000121   0.00000000            0.00       -0.18        0.00
   0.00000000   0.00000000  -0.00000121            0.00        0.00       -0.18


     Writing all to output data dir ./TiFe_H_edges_yz.save/ :
     XML data file
     init_run     :      4.71s CPU      4.90s WALL (       2 calls)
     electrons    :    464.16s CPU    481.68s WALL (       9 calls)
     update_pot   :      0.63s CPU      0.73s WALL (       7 calls)
     forces       :      2.93s CPU      3.08s WALL (       9 calls)
     stress       :     12.56s CPU     12.97s WALL (       9 calls)

     Called by init_run:
     wfcinit      :      2.56s CPU      2.68s WALL (       2 calls)
     potinit      :      0.77s CPU      0.79s WALL (       2 calls)
     hinit0       :      0.78s CPU      0.81s WALL (       2 calls)

     Called by electrons:
     c_bands      :    384.66s CPU    397.06s WALL (     119 calls)
     sum_band     :     58.36s CPU     61.10s WALL (     119 calls)
     v_of_rho     :      1.96s CPU      2.17s WALL (     128 calls)
     newd         :     12.86s CPU     14.28s WALL (     128 calls)
     PAW_pot      :      7.71s CPU      8.61s WALL (     135 calls)
     mix_rho      :      0.22s CPU      0.24s WALL (     119 calls)

     Called by c_bands:
     init_us_2    :      8.15s CPU      8.57s WALL (   76320 calls)
     cegterg      :    371.06s CPU    382.55s WALL (   34272 calls)

     Called by *egterg:
     cdiaghg      :     68.33s CPU     70.11s WALL (  164877 calls)
     h_psi        :    258.06s CPU    266.73s WALL (  167469 calls)
     s_psi        :      6.15s CPU      6.37s WALL (  167469 calls)
     g_psi        :      1.52s CPU      1.56s WALL (  132621 calls)

     Called by h_psi:
     h_psi:calbec :     11.80s CPU     12.21s WALL (  167469 calls)
     vloc_psi     :    238.27s CPU    246.28s WALL (  167469 calls)
     add_vuspsi   :      6.46s CPU      6.69s WALL (  167469 calls)

     General routines
     calbec       :     18.07s CPU     18.67s WALL (  247821 calls)
     fft          :      1.98s CPU      2.25s WALL (    1878 calls)
     ffts         :      0.63s CPU      0.64s WALL (     247 calls)
     fftw         :    226.46s CPU    233.88s WALL ( 4688276 calls)
     interpolate  :      0.74s CPU      0.78s WALL (     128 calls)

     Parallel routines

     PWSCF        :    486.96s CPU    506.11s WALL


   This run was terminated on:  23:40:11  12Nov2025            

=------------------------------------------------------------------------------=
   JOB DONE.
=------------------------------------------------------------------------------=
