
     Program PWSCF v.7.4 starts on 12Nov2025 at 23: 3:50 

     This program is part of the open-source Quantum ESPRESSO suite
     for quantum simulation of materials; please cite
         "P. Giannozzi et al., J. Phys.:Condens. Matter 21 395502 (2009);
         "P. Giannozzi et al., J. Phys.:Condens. Matter 29 465901 (2017);
         "P. Giannozzi et al., J. Chem. Phys. 152 154105 (2020);
          URL http://www.quantum-espresso.org", 
     in publications or presentations arising from this work. More details at
     http://www.quantum-espresso.org/quote

     Parallel version (MPI & OpenMP), running on      16 processor cores
     Number of MPI processes:                16
     Threads/MPI process:                     1

     MPI processes distributed on     1 nodes
     114210 MiB available memory on the printing compute node when the environment starts

     Reading input from TiFe_H_edges_xy.in

     Current dimensions of program PWSCF are:
     Max number of different atomic species (ntypx) = 10
     Max number of k-points (npk) =  40000
     Max angular momentum in pseudopotentials (lmaxx) =  4
     file Fe.pbe-spn-kjpaw_psl.0.2.1.UPF: wavefunction(s)  3D renormalized

     IMPORTANT: XC functional enforced from input :
     Exchange-correlation= PBE
                           (   1   4   3   4   0   0   0)
     Any further DFT definition will be discarded
     Please, verify this is what you really want

     Message from routine setup:
     using ibrav=0 with symmetry is DISCOURAGED, use correct ibrav instead

     R & G space division:  proc/nbgrp/npool/nimage =      16
     Subspace diagonalization in iterative solution of the eigenvalue problem:
     a serial algorithm will be used


     Parallelization info
     --------------------
     sticks:   dense  smooth     PW     G-vecs:    dense   smooth      PW
     Min         269      76     22                13288     2024     320
     Max         271      77     23                13289     2027     323
     Sum        4309    1225    357               212623    32423    5137

     Using Slab Decomposition



     bravais-lattice index     =            0
     lattice parameter (alat)  =       5.5824  a.u.
     unit-cell volume          =     173.9675 (a.u.)^3
     number of atoms/cell      =            4
     number of atomic types    =            3
     number of electrons       =        30.00
     number of Kohn-Sham states=           19
     kinetic-energy cutoff     =     124.0000  Ry
     charge density cutoff     =    1736.0000  Ry
     scf convergence threshold =      1.0E-08
     mixing beta               =       0.7000
     number of iterations used =            8  plain     mixing
     energy convergence thresh.=      1.0E-04
     force convergence thresh. =      1.0E-03
     press convergence thresh. =      1.0E-01
     Exchange-correlation= PBE
                           (   1   4   3   4   0   0   0)
     nstep                     =           50


     celldm(1)=   5.582423  celldm(2)=   0.000000  celldm(3)=   0.000000
     celldm(4)=   0.000000  celldm(5)=   0.000000  celldm(6)=   0.000000

     crystal axes: (cart. coord. in units of alat)
               a(1) = (   1.000000   0.000000   0.000000 )  
               a(2) = (   0.000000   1.000000   0.000000 )  
               a(3) = (   0.000000   0.000000   1.000000 )  

     reciprocal axes: (cart. coord. in units 2 pi/alat)
               b(1) = (  1.000000  0.000000  0.000000 )  
               b(2) = (  0.000000  1.000000  0.000000 )  
               b(3) = (  0.000000  0.000000  1.000000 )  


     PseudoPot. # 1 for Fe read from file:
     ../../pseudos/Fe.pbe-spn-kjpaw_psl.0.2.1.UPF
     MD5 check sum: e86618425769142926afa95317d90200
     Pseudo is Projector augmented-wave + core cor, Zval = 16.0
     Generated using "atomic" code by A. Dal Corso  v.5.0.99 svn rev. 10869
     Shape of augmentation charge: PSQ
     Using radial grid of 1191 points,  6 beta functions with: 
                l(1) =   0
                l(2) =   0
                l(3) =   1
                l(4) =   1
                l(5) =   2
                l(6) =   2
     Q(r) pseudized with 0 coefficients 


     PseudoPot. # 2 for Ti read from file:
     ../../pseudos/ti_pbe_v1.4.uspp.F.UPF
     MD5 check sum: 88a00a6731bd790ddea75d31a80cb452
     Pseudo is Ultrasoft + core correction, Zval = 12.0
     Generated by new atomic code, or converted to UPF format
     Using radial grid of  851 points,  6 beta functions with: 
                l(1) =   0
                l(2) =   0
                l(3) =   1
                l(4) =   1
                l(5) =   2
                l(6) =   2
     Q(r) pseudized with  6 coefficients,  rinner =    1.000   1.000   1.000
                                                       1.000   1.000

     PseudoPot. # 3 for H  read from file:
     ../../pseudos/H.pbe-rrkjus_psl.1.0.0.UPF
     MD5 check sum: f52b6d4d1c606e5624b1dc7b2218f220
     Pseudo is Ultrasoft, Zval =  1.0
     Generated using "atomic" code by A. Dal Corso  v.5.1
     Using radial grid of  929 points,  2 beta functions with: 
                l(1) =   0
                l(2) =   0
     Q(r) pseudized with 0 coefficients 


     atomic species   valence    mass     pseudopotential
     Fe               16.00    55.84500     Fe( 1.00)
     Ti               12.00    47.86700     Ti( 1.00)
     H                 1.00     1.00750     H ( 1.00)

     16 Sym. Ops., with inversion, found



   Cartesian axes

     site n.     atom                  positions (alat units)
         1        Fe     tau(   1) = (   0.5000000   0.5000000   0.5000000  )
         2        Ti     tau(   2) = (   0.0000000   0.0000000   0.0000000  )
         3        H      tau(   3) = (   0.5000000   0.0000000   0.0000000  )
         4        H      tau(   4) = (   0.0000000   0.5000000   0.0000000  )

     number of k points=   288  Marzari-Vanderbilt smearing, width (Ry)=  0.0050

     Number of k-points >= 100: set verbosity='high' to print them.

     Dense  grid:   212623 G-vectors     FFT dimensions: (  75,  75,  75)

     Smooth grid:    32423 G-vectors     FFT dimensions: (  40,  40,  40)

     Estimated max dynamical RAM per process >      90.34 MB

     Estimated total dynamical RAM >       1.41 GB

     Check: negative core charge=   -0.000001

     Initial potential from superposition of free atoms

     starting charge      28.9995, renormalised to      30.0000

     negative rho (up, down):  1.270E-03 0.000E+00
     Starting wfcs are   25 randomized atomic wfcs
     Checking if some PAW data can be deallocated... 

     total cpu time spent up to now is        2.4 secs

     per-process dynamical memory:   160.1 Mb

     Self-consistent Calculation

     iteration #  1     ecut=   124.00 Ry     beta= 0.70
     Davidson diagonalization with overlap
     ethr =  1.00E-02,  avg # of iterations =  2.1

     negative rho (up, down):  1.328E-04 0.000E+00

     total cpu time spent up to now is        5.4 secs

     total energy              =    -435.20760850 Ry
     estimated scf accuracy    <      19.67348828 Ry

     iteration #  2     ecut=   124.00 Ry     beta= 0.70
     Davidson diagonalization with overlap
     ethr =  1.00E-02,  avg # of iterations =  6.4

     negative rho (up, down):  7.741E-06 0.000E+00

     total cpu time spent up to now is       11.1 secs

     total energy              =    -448.70755641 Ry
     estimated scf accuracy    <      79.30884517 Ry

     iteration #  3     ecut=   124.00 Ry     beta= 0.70
     Davidson diagonalization with overlap
     ethr =  1.00E-02,  avg # of iterations =  3.2

     negative rho (up, down):  1.041E-04 0.000E+00

     total cpu time spent up to now is       14.9 secs

     total energy              =    -450.86489656 Ry
     estimated scf accuracy    <      16.66144444 Ry

     iteration #  4     ecut=   124.00 Ry     beta= 0.70
     Davidson diagonalization with overlap
     ethr =  1.00E-02,  avg # of iterations =  2.2

     negative rho (up, down):  1.707E-04 0.000E+00

     total cpu time spent up to now is       17.8 secs

     total energy              =    -451.03266684 Ry
     estimated scf accuracy    <       5.30196786 Ry

     iteration #  5     ecut=   124.00 Ry     beta= 0.70
     Davidson diagonalization with overlap
     ethr =  1.00E-02,  avg # of iterations =  1.1

     negative rho (up, down):  8.263E-04 0.000E+00

     total cpu time spent up to now is       20.2 secs

     total energy              =    -450.29025425 Ry
     estimated scf accuracy    <       3.67768890 Ry

     iteration #  6     ecut=   124.00 Ry     beta= 0.70
     Davidson diagonalization with overlap
     ethr =  1.00E-02,  avg # of iterations =  2.3

     negative rho (up, down):  8.554E-04 0.000E+00

     total cpu time spent up to now is       23.0 secs

     total energy              =    -450.58766690 Ry
     estimated scf accuracy    <       0.01876428 Ry

     iteration #  7     ecut=   124.00 Ry     beta= 0.70
     Davidson diagonalization with overlap
     ethr =  6.25E-05,  avg # of iterations =  8.0

     negative rho (up, down):  6.672E-04 0.000E+00

     total cpu time spent up to now is       28.7 secs

     total energy              =    -450.57785523 Ry
     estimated scf accuracy    <       0.15469347 Ry

     iteration #  8     ecut=   124.00 Ry     beta= 0.70
     Davidson diagonalization with overlap
     ethr =  6.25E-05,  avg # of iterations =  4.5

     negative rho (up, down):  1.114E-03 0.000E+00

     total cpu time spent up to now is       32.7 secs

     total energy              =    -450.51982723 Ry
     estimated scf accuracy    <       0.39107524 Ry

     iteration #  9     ecut=   124.00 Ry     beta= 0.70
     Davidson diagonalization with overlap
     ethr =  6.25E-05,  avg # of iterations =  5.5

     negative rho (up, down):  9.462E-04 0.000E+00

     total cpu time spent up to now is       37.3 secs

     total energy              =    -450.59408979 Ry
     estimated scf accuracy    <       1.39332534 Ry

     iteration # 10     ecut=   124.00 Ry     beta= 0.70
     Davidson diagonalization with overlap
     ethr =  6.25E-05,  avg # of iterations =  3.8

     negative rho (up, down):  8.500E-04 0.000E+00

     total cpu time spent up to now is       40.8 secs

     total energy              =    -450.59634830 Ry
     estimated scf accuracy    <       0.18425614 Ry

     iteration # 11     ecut=   124.00 Ry     beta= 0.70
     Davidson diagonalization with overlap
     ethr =  6.25E-05,  avg # of iterations =  3.5

     negative rho (up, down):  8.744E-04 0.000E+00

     total cpu time spent up to now is       44.1 secs

     total energy              =    -450.61207947 Ry
     estimated scf accuracy    <       0.02195997 Ry

     iteration # 12     ecut=   124.00 Ry     beta= 0.70
     Davidson diagonalization with overlap
     ethr =  6.25E-05,  avg # of iterations =  1.1

     negative rho (up, down):  8.666E-04 0.000E+00

     total cpu time spent up to now is       46.6 secs

     total energy              =    -450.61378120 Ry
     estimated scf accuracy    <       0.00255468 Ry

     iteration # 13     ecut=   124.00 Ry     beta= 0.70
     Davidson diagonalization with overlap
     ethr =  8.52E-06,  avg # of iterations =  1.9

     negative rho (up, down):  8.674E-04 0.000E+00

     total cpu time spent up to now is       49.2 secs

     total energy              =    -450.61419930 Ry
     estimated scf accuracy    <       0.00156783 Ry

     iteration # 14     ecut=   124.00 Ry     beta= 0.70
     Davidson diagonalization with overlap
     ethr =  5.23E-06,  avg # of iterations =  1.0

     negative rho (up, down):  8.662E-04 0.000E+00

     total cpu time spent up to now is       51.7 secs

     total energy              =    -450.61422868 Ry
     estimated scf accuracy    <       0.00134635 Ry

     iteration # 15     ecut=   124.00 Ry     beta= 0.70
     Davidson diagonalization with overlap
     ethr =  4.49E-06,  avg # of iterations =  1.0

     negative rho (up, down):  8.723E-04 0.000E+00

     total cpu time spent up to now is       54.2 secs

     total energy              =    -450.61408027 Ry
     estimated scf accuracy    <       0.00164450 Ry

     iteration # 16     ecut=   124.00 Ry     beta= 0.70
     Davidson diagonalization with overlap
     ethr =  4.49E-06,  avg # of iterations =  1.1

     negative rho (up, down):  8.703E-04 0.000E+00

     total cpu time spent up to now is       56.6 secs

     total energy              =    -450.61415491 Ry
     estimated scf accuracy    <       0.00041359 Ry

     iteration # 17     ecut=   124.00 Ry     beta= 0.70
     Davidson diagonalization with overlap
     ethr =  1.38E-06,  avg # of iterations =  1.0

     negative rho (up, down):  8.815E-04 0.000E+00

     total cpu time spent up to now is       59.1 secs

     total energy              =    -450.61404575 Ry
     estimated scf accuracy    <       0.00079162 Ry

     iteration # 18     ecut=   124.00 Ry     beta= 0.70
     Davidson diagonalization with overlap
     ethr =  1.38E-06,  avg # of iterations =  1.3

     negative rho (up, down):  8.823E-04 0.000E+00

     total cpu time spent up to now is       61.6 secs

     total energy              =    -450.61407177 Ry
     estimated scf accuracy    <       0.00006072 Ry

     iteration # 19     ecut=   124.00 Ry     beta= 0.70
     Davidson diagonalization with overlap
     ethr =  2.02E-07,  avg # of iterations =  3.0

     negative rho (up, down):  8.829E-04 0.000E+00

     total cpu time spent up to now is       64.5 secs

     total energy              =    -450.61407862 Ry
     estimated scf accuracy    <       0.00000320 Ry

     iteration # 20     ecut=   124.00 Ry     beta= 0.70
     Davidson diagonalization with overlap
     ethr =  1.07E-08,  avg # of iterations =  3.6

     negative rho (up, down):  8.829E-04 0.000E+00

     total cpu time spent up to now is       67.7 secs

     total energy              =    -450.61407940 Ry
     estimated scf accuracy    <       0.00000035 Ry

     iteration # 21     ecut=   124.00 Ry     beta= 0.70
     Davidson diagonalization with overlap
     ethr =  1.18E-09,  avg # of iterations =  3.4

     negative rho (up, down):  8.830E-04 0.000E+00

     total cpu time spent up to now is       70.9 secs

     End of self-consistent calculation

     Number of k-points >= 100: set verbosity='high' to print the bands.

     the Fermi energy is    18.7963 ev

!    total energy              =    -450.61407946 Ry
     estimated scf accuracy    <          9.8E-09 Ry
     smearing contrib. (-TS)   =      -0.00026263 Ry
     internal energy E=F+TS    =    -450.61381682 Ry

     The total energy is F=E-TS. E is the sum of the following terms:
     one-electron contribution =    -142.74848232 Ry
     hartree contribution      =      90.40062191 Ry
     xc contribution           =     -54.92459104 Ry
     ewald contribution        =    -267.19370345 Ry
     one-center paw contrib.   =     -76.14766192 Ry

     convergence has been achieved in  21 iterations

     negative rho (up, down):  8.830E-04 0.000E+00

     Forces acting on atoms (cartesian axes, Ry/au):

     atom    1 type  1   force =     0.00000000    0.00000000    0.00000000
     atom    2 type  2   force =     0.00000000    0.00000000    0.00000000
     atom    3 type  3   force =     0.00000000    0.00000000    0.00000000
     atom    4 type  3   force =     0.00000000    0.00000000    0.00000000

     Total force =     0.000000     Total SCF correction =     0.000000


     Computing stress (Cartesian axis) and pressure


     negative rho (up, down):  8.830E-04 0.000E+00
          total   stress  (Ry/bohr**3)                   (kbar)     P=      732.60
   0.00671436   0.00000000   0.00000000          987.72        0.00        0.00
   0.00000000   0.00671436   0.00000000            0.00      987.72        0.00
   0.00000000   0.00000000   0.00151168            0.00        0.00      222.38


     BFGS Geometry Optimization
     Energy error            =      3.1E-01 Ry
     Gradient error          =      0.0E+00 Ry/Bohr
     Cell gradient error     =      9.9E+02 kbar

     number of scf cycles    =   1
     number of bfgs steps    =   0

     enthalpy           new  =    -450.6140794552 Ry

     new trust radius        =       0.4428008147 bohr
     new conv_thr            =       0.0000000100 Ry

     new unit-cell volume =    246.24034 a.u.^3 (    36.48905 Ang^3 )
     density =      4.81141 g/cm^3

CELL_PARAMETERS (alat=  5.58242261)
   1.167858891   0.000000000   0.000000000
   0.000000000   1.167858891   0.000000000
   0.000000000   0.000000000   1.037792040

ATOMIC_POSITIONS (crystal)
Fe               0.5000000000        0.5000000000        0.5000000000
Ti               0.0000000000        0.0000000000        0.0000000000
H                0.5000000000        0.0000000000        0.0000000000
H                0.0000000000        0.5000000000        0.0000000000



     Writing config-only to output data dir ./TiFe_H_edges_xy.save/ :
     XML data file     NEW-OLD atomic charge density approx. for the potential
     New effective cutoffs (rho, wfc): 1611.19  114.99

     Check: negative core charge=   -0.000002

     negative rho (up, down):  1.071E-03 0.000E+00

     total cpu time spent up to now is       72.9 secs

     per-process dynamical memory:   164.0 Mb

     Self-consistent Calculation

     iteration #  1     ecut=   124.00 Ry     beta= 0.70
     Davidson diagonalization with overlap
     c_bands:  1 eigenvalues not converged
     c_bands:  1 eigenvalues not converged
     c_bands:  1 eigenvalues not converged
     c_bands:  1 eigenvalues not converged
     c_bands:  1 eigenvalues not converged
     c_bands:  1 eigenvalues not converged
     c_bands:  1 eigenvalues not converged
     c_bands:  1 eigenvalues not converged
     c_bands:  1 eigenvalues not converged
     c_bands:  1 eigenvalues not converged
     c_bands:  1 eigenvalues not converged
     c_bands:  1 eigenvalues not converged
     c_bands:  1 eigenvalues not converged
     c_bands:  1 eigenvalues not converged
     c_bands:  2 eigenvalues not converged
     c_bands:  1 eigenvalues not converged
     c_bands:  1 eigenvalues not converged
     c_bands:  1 eigenvalues not converged
     ethr =  1.00E-06,  avg # of iterations = 16.9

     negative rho (up, down):  1.101E-03 0.000E+00

     total cpu time spent up to now is       86.8 secs

     total energy              =    -450.49375972 Ry
     estimated scf accuracy    <       0.33409812 Ry

     iteration #  2     ecut=   124.00 Ry     beta= 0.70
     Davidson diagonalization with overlap
     ethr =  1.11E-03,  avg # of iterations =  6.7

     negative rho (up, down):  6.864E-04 0.000E+00

     total cpu time spent up to now is       91.4 secs

     total energy              =    -449.60059580 Ry
     estimated scf accuracy    <      35.86034598 Ry

     iteration #  3     ecut=   124.00 Ry     beta= 0.70
     Davidson diagonalization with overlap
     ethr =  1.11E-03,  avg # of iterations =  5.9

     negative rho (up, down):  8.672E-04 0.000E+00

     total cpu time spent up to now is       95.9 secs

     total energy              =    -450.71106703 Ry
     estimated scf accuracy    <       0.56767174 Ry

     iteration #  4     ecut=   124.00 Ry     beta= 0.70
     Davidson diagonalization with overlap
     ethr =  1.11E-03,  avg # of iterations =  2.1

     negative rho (up, down):  8.862E-04 0.000E+00

     total cpu time spent up to now is       98.7 secs

     total energy              =    -450.74781243 Ry
     estimated scf accuracy    <       0.00874486 Ry

     iteration #  5     ecut=   124.00 Ry     beta= 0.70
     Davidson diagonalization with overlap
     ethr =  2.91E-05,  avg # of iterations =  5.5

     negative rho (up, down):  8.855E-04 0.000E+00

     total cpu time spent up to now is      103.4 secs

     total energy              =    -450.75561003 Ry
     estimated scf accuracy    <       0.00174748 Ry

     iteration #  6     ecut=   124.00 Ry     beta= 0.70
     Davidson diagonalization with overlap
     ethr =  5.82E-06,  avg # of iterations =  2.9

     negative rho (up, down):  8.810E-04 0.000E+00

     total cpu time spent up to now is      106.3 secs

     total energy              =    -450.75570706 Ry
     estimated scf accuracy    <       0.00103337 Ry

     iteration #  7     ecut=   124.00 Ry     beta= 0.70
     Davidson diagonalization with overlap
     ethr =  3.44E-06,  avg # of iterations =  1.2

     negative rho (up, down):  8.726E-04 0.000E+00

     total cpu time spent up to now is      108.8 secs

     total energy              =    -450.75559802 Ry
     estimated scf accuracy    <       0.00048197 Ry

     iteration #  8     ecut=   124.00 Ry     beta= 0.70
     Davidson diagonalization with overlap
     ethr =  1.61E-06,  avg # of iterations =  2.1

     negative rho (up, down):  8.700E-04 0.000E+00

     total cpu time spent up to now is      111.7 secs

     total energy              =    -450.75565834 Ry
     estimated scf accuracy    <       0.00001343 Ry

     iteration #  9     ecut=   124.00 Ry     beta= 0.70
     Davidson diagonalization with overlap
     ethr =  4.48E-08,  avg # of iterations =  4.8

     negative rho (up, down):  8.705E-04 0.000E+00

     total cpu time spent up to now is      115.8 secs

     total energy              =    -450.75566659 Ry
     estimated scf accuracy    <       0.00000581 Ry

     iteration # 10     ecut=   124.00 Ry     beta= 0.70
     Davidson diagonalization with overlap
     ethr =  1.94E-08,  avg # of iterations =  2.3

     negative rho (up, down):  8.707E-04 0.000E+00

     total cpu time spent up to now is      118.7 secs

     total energy              =    -450.75566757 Ry
     estimated scf accuracy    <       0.00000084 Ry

     iteration # 11     ecut=   124.00 Ry     beta= 0.70
     Davidson diagonalization with overlap
     ethr =  2.80E-09,  avg # of iterations =  3.0

     negative rho (up, down):  8.706E-04 0.000E+00

     total cpu time spent up to now is      121.7 secs

     total energy              =    -450.75566770 Ry
     estimated scf accuracy    <       0.00000001 Ry

     iteration # 12     ecut=   124.00 Ry     beta= 0.70
     Davidson diagonalization with overlap
     ethr =  3.84E-11,  avg # of iterations =  6.4

     negative rho (up, down):  8.706E-04 0.000E+00

     total cpu time spent up to now is      127.0 secs

     End of self-consistent calculation

     Number of k-points >= 100: set verbosity='high' to print the bands.

     the Fermi energy is    12.4702 ev

!    total energy              =    -450.75566773 Ry
     estimated scf accuracy    <          4.1E-09 Ry
     smearing contrib. (-TS)   =      -0.00014768 Ry
     internal energy E=F+TS    =    -450.75552004 Ry

     The total energy is F=E-TS. E is the sum of the following terms:
     one-electron contribution =    -188.37006304 Ry
     hartree contribution      =     106.19342903 Ry
     xc contribution           =     -54.18751676 Ry
     ewald contribution        =    -238.25173520 Ry
     one-center paw contrib.   =     -76.13963407 Ry

     convergence has been achieved in  12 iterations

     negative rho (up, down):  8.706E-04 0.000E+00

     Forces acting on atoms (cartesian axes, Ry/au):

     atom    1 type  1   force =     0.00000000    0.00000000    0.00000000
     atom    2 type  2   force =     0.00000000    0.00000000    0.00000000
     atom    3 type  3   force =     0.00000000    0.00000000    0.00000000
     atom    4 type  3   force =     0.00000000    0.00000000    0.00000000

     Total force =     0.000000     Total SCF correction =     0.000000


     Computing stress (Cartesian axis) and pressure


     negative rho (up, down):  8.706E-04 0.000E+00
          total   stress  (Ry/bohr**3)                   (kbar)     P=     -106.53
  -0.00041717   0.00000000   0.00000000          -61.37        0.00        0.00
   0.00000000  -0.00041717   0.00000000            0.00      -61.37        0.00
   0.00000000   0.00000000  -0.00133810            0.00        0.00     -196.84

     Energy error            =      1.4E-01 Ry
     Gradient error          =      0.0E+00 Ry/Bohr
     Cell gradient error     =      2.0E+02 kbar

     number of scf cycles    =   2
     number of bfgs steps    =   1

     enthalpy           old  =    -450.6140794552 Ry
     enthalpy           new  =    -450.7556677258 Ry

     CASE: enthalpy          _new < enthalpy          _old

     new trust radius        =       0.1221609024 bohr
     new conv_thr            =            1.0E-10 Ry

     new unit-cell volume =    233.74775 a.u.^3 (    34.63784 Ang^3 )
     density =      5.06855 g/cm^3

CELL_PARAMETERS (alat=  5.58242261)
   1.160661901   0.000000000   0.000000000
   0.000000000   1.160661901   0.000000000
   0.000000000   0.000000000   0.997396542

ATOMIC_POSITIONS (crystal)
Fe               0.5000000000        0.5000000000        0.5000000000
Ti               0.0000000000        0.0000000000        0.0000000000
H                0.5000000000        0.0000000000        0.0000000000
H                0.0000000000        0.5000000000        0.0000000000



     Writing config-only to output data dir ./TiFe_H_edges_xy.save/ :
     XML data file     NEW-OLD atomic charge density approx. for the potential
     New effective cutoffs (rho, wfc): 1744.28  124.46

     Check: negative core charge=   -0.000002

     negative rho (up, down):  8.332E-04 0.000E+00

     total cpu time spent up to now is      129.0 secs

     per-process dynamical memory:   164.2 Mb

     Self-consistent Calculation

     iteration #  1     ecut=   124.00 Ry     beta= 0.70
     Davidson diagonalization with overlap
     ethr =  1.00E-06,  avg # of iterations =  9.6

     negative rho (up, down):  8.361E-04 0.000E+00

     total cpu time spent up to now is      137.3 secs

     total energy              =    -450.76596425 Ry
     estimated scf accuracy    <       0.00307533 Ry

     iteration #  2     ecut=   124.00 Ry     beta= 0.70
     Davidson diagonalization with overlap
     ethr =  1.03E-05,  avg # of iterations =  5.0

     negative rho (up, down):  8.566E-04 0.000E+00

     total cpu time spent up to now is      141.3 secs

     total energy              =    -450.74926678 Ry
     estimated scf accuracy    <       0.39684822 Ry

     iteration #  3     ecut=   124.00 Ry     beta= 0.70
     Davidson diagonalization with overlap
     ethr =  1.03E-05,  avg # of iterations =  4.7

     negative rho (up, down):  8.522E-04 0.000E+00

     total cpu time spent up to now is      145.2 secs

     total energy              =    -450.76768065 Ry
     estimated scf accuracy    <       0.00335426 Ry

     iteration #  4     ecut=   124.00 Ry     beta= 0.70
     Davidson diagonalization with overlap
     ethr =  1.03E-05,  avg # of iterations =  1.0

     negative rho (up, down):  8.545E-04 0.000E+00

     total cpu time spent up to now is      147.7 secs

     total energy              =    -450.76788748 Ry
     estimated scf accuracy    <       0.00006833 Ry

     iteration #  5     ecut=   124.00 Ry     beta= 0.70
     Davidson diagonalization with overlap
     ethr =  2.28E-07,  avg # of iterations =  4.3

     negative rho (up, down):  8.560E-04 0.000E+00

     total cpu time spent up to now is      151.1 secs

     total energy              =    -450.76790608 Ry
     estimated scf accuracy    <       0.00000693 Ry

     iteration #  6     ecut=   124.00 Ry     beta= 0.70
     Davidson diagonalization with overlap
     ethr =  2.31E-08,  avg # of iterations =  4.3

     negative rho (up, down):  8.560E-04 0.000E+00

     total cpu time spent up to now is      154.7 secs

     total energy              =    -450.76790866 Ry
     estimated scf accuracy    <       0.00000070 Ry

     iteration #  7     ecut=   124.00 Ry     beta= 0.70
     Davidson diagonalization with overlap
     ethr =  2.32E-09,  avg # of iterations =  3.2

     negative rho (up, down):  8.561E-04 0.000E+00

     total cpu time spent up to now is      157.9 secs

     total energy              =    -450.76790880 Ry
     estimated scf accuracy    <       0.00000013 Ry

     iteration #  8     ecut=   124.00 Ry     beta= 0.70
     Davidson diagonalization with overlap
     ethr =  4.31E-10,  avg # of iterations =  4.4

     negative rho (up, down):  8.561E-04 0.000E+00

     total cpu time spent up to now is      161.5 secs

     total energy              =    -450.76790884 Ry
     estimated scf accuracy    <          6.3E-09 Ry

     iteration #  9     ecut=   124.00 Ry     beta= 0.70
     Davidson diagonalization with overlap
     ethr =  2.09E-11,  avg # of iterations =  4.2

     negative rho (up, down):  8.561E-04 0.000E+00

     total cpu time spent up to now is      165.2 secs

     total energy              =    -450.76790884 Ry
     estimated scf accuracy    <          2.0E-09 Ry

     iteration # 10     ecut=   124.00 Ry     beta= 0.70
     Davidson diagonalization with overlap
     ethr =  6.70E-12,  avg # of iterations =  2.1

     negative rho (up, down):  8.561E-04 0.000E+00

     total cpu time spent up to now is      168.0 secs

     End of self-consistent calculation

     Number of k-points >= 100: set verbosity='high' to print the bands.

     the Fermi energy is    13.3124 ev

!    total energy              =    -450.76790884 Ry
     estimated scf accuracy    <          1.1E-11 Ry
     smearing contrib. (-TS)   =      -0.00005934 Ry
     internal energy E=F+TS    =    -450.76784950 Ry

     The total energy is F=E-TS. E is the sum of the following terms:
     one-electron contribution =    -181.76232601 Ry
     hartree contribution      =     103.83852090 Ry
     xc contribution           =     -54.26296414 Ry
     ewald contribution        =    -242.44018869 Ry
     one-center paw contrib.   =     -76.14089157 Ry

     convergence has been achieved in  10 iterations

     negative rho (up, down):  8.561E-04 0.000E+00

     Forces acting on atoms (cartesian axes, Ry/au):

     atom    1 type  1   force =     0.00000000    0.00000000    0.00000000
     atom    2 type  2   force =     0.00000000    0.00000000    0.00000000
     atom    3 type  3   force =     0.00000000    0.00000000    0.00000000
     atom    4 type  3   force =     0.00000000    0.00000000    0.00000000

     Total force =     0.000000     Total SCF correction =     0.000000


     Computing stress (Cartesian axis) and pressure


     negative rho (up, down):  8.561E-04 0.000E+00
          total   stress  (Ry/bohr**3)                   (kbar)     P=      -62.60
  -0.00011902   0.00000000   0.00000000          -17.51        0.00        0.00
   0.00000000  -0.00011902   0.00000000            0.00      -17.51        0.00
   0.00000000   0.00000000  -0.00103862            0.00        0.00     -152.79

     Energy error            =      1.2E-02 Ry
     Gradient error          =      0.0E+00 Ry/Bohr
     Cell gradient error     =      1.5E+02 kbar

     number of scf cycles    =   3
     number of bfgs steps    =   2

     enthalpy           old  =    -450.7556677258 Ry
     enthalpy           new  =    -450.7679088433 Ry

     CASE: enthalpy          _new < enthalpy          _old

     new trust radius        =       0.1362264732 bohr
     new conv_thr            =            1.0E-10 Ry

     new unit-cell volume =    223.19379 a.u.^3 (    33.07391 Ang^3 )
     density =      5.30823 g/cm^3

CELL_PARAMETERS (alat=  5.58242261)
   1.160297375   0.000000000   0.000000000
   0.000000000   1.160297375   0.000000000
   0.000000000   0.000000000   0.952961494

ATOMIC_POSITIONS (crystal)
Fe               0.5000000000        0.5000000000        0.5000000000
Ti               0.0000000000        0.0000000000        0.0000000000
H                0.5000000000        0.0000000000        0.0000000000
H                0.0000000000        0.5000000000        0.0000000000



     Writing config-only to output data dir ./TiFe_H_edges_xy.save/ :
     XML data file     NEW-OLD atomic charge density approx. for the potential
     New effective cutoffs (rho, wfc): 1910.65  136.29

     Check: negative core charge=   -0.000002

     negative rho (up, down):  8.197E-04 0.000E+00

     total cpu time spent up to now is      170.1 secs

     per-process dynamical memory:   164.2 Mb

     Self-consistent Calculation

     iteration #  1     ecut=   124.00 Ry     beta= 0.70
     Davidson diagonalization with overlap
     ethr =  1.00E-06,  avg # of iterations =  9.5

     negative rho (up, down):  8.030E-04 0.000E+00

     total cpu time spent up to now is      178.2 secs

     total energy              =    -450.77335561 Ry
     estimated scf accuracy    <       0.00563676 Ry

     iteration #  2     ecut=   124.00 Ry     beta= 0.70
     Davidson diagonalization with overlap
     ethr =  1.88E-05,  avg # of iterations =  4.8

     negative rho (up, down):  8.296E-04 0.000E+00

     total cpu time spent up to now is      182.2 secs

     total energy              =    -450.74512908 Ry
     estimated scf accuracy    <       0.64447754 Ry

     iteration #  3     ecut=   124.00 Ry     beta= 0.70
     Davidson diagonalization with overlap
     ethr =  1.88E-05,  avg # of iterations =  4.7

     negative rho (up, down):  8.324E-04 0.000E+00

     total cpu time spent up to now is      186.2 secs

     total energy              =    -450.77646698 Ry
     estimated scf accuracy    <       0.00455837 Ry

     iteration #  4     ecut=   124.00 Ry     beta= 0.70
     Davidson diagonalization with overlap
     ethr =  1.52E-05,  avg # of iterations =  1.0

     negative rho (up, down):  8.318E-04 0.000E+00

     total cpu time spent up to now is      188.6 secs

     total energy              =    -450.77671918 Ry
     estimated scf accuracy    <       0.00013573 Ry

     iteration #  5     ecut=   124.00 Ry     beta= 0.70
     Davidson diagonalization with overlap
     ethr =  4.52E-07,  avg # of iterations =  4.3

     negative rho (up, down):  8.332E-04 0.000E+00

     total cpu time spent up to now is      192.0 secs

     total energy              =    -450.77675244 Ry
     estimated scf accuracy    <       0.00000485 Ry

     iteration #  6     ecut=   124.00 Ry     beta= 0.70
     Davidson diagonalization with overlap
     ethr =  1.62E-08,  avg # of iterations =  4.7

     negative rho (up, down):  8.329E-04 0.000E+00

     total cpu time spent up to now is      196.0 secs

     total energy              =    -450.77675558 Ry
     estimated scf accuracy    <       0.00000098 Ry

     iteration #  7     ecut=   124.00 Ry     beta= 0.70
     Davidson diagonalization with overlap
     ethr =  3.28E-09,  avg # of iterations =  2.2

     negative rho (up, down):  8.331E-04 0.000E+00

     total cpu time spent up to now is      198.9 secs

     total energy              =    -450.77675563 Ry
     estimated scf accuracy    <       0.00000029 Ry

     iteration #  8     ecut=   124.00 Ry     beta= 0.70
     Davidson diagonalization with overlap
     ethr =  9.56E-10,  avg # of iterations =  3.9

     negative rho (up, down):  8.332E-04 0.000E+00

     total cpu time spent up to now is      202.2 secs

     total energy              =    -450.77675568 Ry
     estimated scf accuracy    <       0.00000002 Ry

     iteration #  9     ecut=   124.00 Ry     beta= 0.70
     Davidson diagonalization with overlap
     ethr =  7.01E-11,  avg # of iterations =  3.7

     negative rho (up, down):  8.332E-04 0.000E+00

     total cpu time spent up to now is      205.6 secs

     total energy              =    -450.77675569 Ry
     estimated scf accuracy    <          1.5E-09 Ry

     iteration # 10     ecut=   124.00 Ry     beta= 0.70
     Davidson diagonalization with overlap
     ethr =  5.07E-12,  avg # of iterations =  4.6

     negative rho (up, down):  8.332E-04 0.000E+00

     total cpu time spent up to now is      209.3 secs

     total energy              =    -450.77675569 Ry
     estimated scf accuracy    <          1.6E-10 Ry

     iteration # 11     ecut=   124.00 Ry     beta= 0.70
     Davidson diagonalization with overlap
     ethr =  5.18E-13,  avg # of iterations =  3.3

     negative rho (up, down):  8.332E-04 0.000E+00

     total cpu time spent up to now is      212.4 secs

     End of self-consistent calculation

     Number of k-points >= 100: set verbosity='high' to print the bands.

     the Fermi energy is    14.0822 ev

!    total energy              =    -450.77675569 Ry
     estimated scf accuracy    <          2.3E-12 Ry
     smearing contrib. (-TS)   =       0.00000179 Ry
     internal energy E=F+TS    =    -450.77675748 Ry

     The total energy is F=E-TS. E is the sum of the following terms:
     one-electron contribution =    -175.98018071 Ry
     hartree contribution      =     101.83837727 Ry
     xc contribution           =     -54.33255910 Ry
     ewald contribution        =    -246.16023288 Ry
     one-center paw contrib.   =     -76.14216206 Ry

     convergence has been achieved in  11 iterations

     negative rho (up, down):  8.332E-04 0.000E+00

     Forces acting on atoms (cartesian axes, Ry/au):

     atom    1 type  1   force =     0.00000000    0.00000000    0.00000000
     atom    2 type  2   force =     0.00000000    0.00000000    0.00000000
     atom    3 type  3   force =     0.00000000    0.00000000    0.00000000
     atom    4 type  3   force =     0.00000000    0.00000000    0.00000000

     Total force =     0.000000     Total SCF correction =     0.000000


     Computing stress (Cartesian axis) and pressure


     negative rho (up, down):  8.332E-04 0.000E+00
          total   stress  (Ry/bohr**3)                   (kbar)     P=      -18.56
   0.00012663   0.00000000   0.00000000           18.63        0.00        0.00
   0.00000000   0.00012663   0.00000000            0.00       18.63        0.00
   0.00000000   0.00000000  -0.00063175            0.00        0.00      -92.93

     Energy error            =      8.8E-03 Ry
     Gradient error          =      0.0E+00 Ry/Bohr
     Cell gradient error     =      9.3E+01 kbar

     number of scf cycles    =   4
     number of bfgs steps    =   3

     enthalpy           old  =    -450.7679088433 Ry
     enthalpy           new  =    -450.7767556899 Ry

     CASE: enthalpy          _new < enthalpy          _old

     new trust radius        =       0.2089837924 bohr
     new conv_thr            =            1.0E-10 Ry

     new unit-cell volume =    210.95572 a.u.^3 (    31.26041 Ang^3 )
     density =      5.61617 g/cm^3

CELL_PARAMETERS (alat=  5.58242261)
   1.169685295   0.000000000   0.000000000
   0.000000000   1.169685295   0.000000000
   0.000000000   0.000000000   0.886308922

ATOMIC_POSITIONS (crystal)
Fe               0.5000000000        0.5000000000        0.5000000000
Ti               0.0000000000        0.0000000000        0.0000000000
H                0.5000000000        0.0000000000        0.0000000000
H                0.0000000000        0.5000000000        0.0000000000



     Writing config-only to output data dir ./TiFe_H_edges_xy.save/ :
     XML data file     NEW-OLD atomic charge density approx. for the potential
     New effective cutoffs (rho, wfc): 2208.66  157.48

     Check: negative core charge=   -0.000002

     negative rho (up, down):  8.025E-04 0.000E+00

     total cpu time spent up to now is      214.5 secs

     per-process dynamical memory:   164.2 Mb

     Self-consistent Calculation

     iteration #  1     ecut=   124.00 Ry     beta= 0.70
     Davidson diagonalization with overlap
     ethr =  1.00E-06,  avg # of iterations = 10.5

     negative rho (up, down):  7.509E-04 0.000E+00

     total cpu time spent up to now is      223.5 secs

     total energy              =    -450.77303090 Ry
     estimated scf accuracy    <       0.01255008 Ry

     iteration #  2     ecut=   124.00 Ry     beta= 0.70
     Davidson diagonalization with overlap
     ethr =  4.18E-05,  avg # of iterations =  4.9

     negative rho (up, down):  7.925E-04 0.000E+00

     total cpu time spent up to now is      227.5 secs

     total energy              =    -450.71487297 Ry
     estimated scf accuracy    <       1.24986387 Ry

     iteration #  3     ecut=   124.00 Ry     beta= 0.70
     Davidson diagonalization with overlap
     ethr =  4.18E-05,  avg # of iterations =  4.6

     negative rho (up, down):  8.087E-04 0.000E+00

     total cpu time spent up to now is      231.4 secs

     total energy              =    -450.78021546 Ry
     estimated scf accuracy    <       0.00747423 Ry

     iteration #  4     ecut=   124.00 Ry     beta= 0.70
     Davidson diagonalization with overlap
     ethr =  2.49E-05,  avg # of iterations =  1.4

     negative rho (up, down):  8.024E-04 0.000E+00

     total cpu time spent up to now is      233.9 secs

     total energy              =    -450.78067487 Ry
     estimated scf accuracy    <       0.00040629 Ry

     iteration #  5     ecut=   124.00 Ry     beta= 0.70
     Davidson diagonalization with overlap
     ethr =  1.35E-06,  avg # of iterations =  3.2

     negative rho (up, down):  8.036E-04 0.000E+00

     total cpu time spent up to now is      237.1 secs

     total energy              =    -450.78074719 Ry
     estimated scf accuracy    <       0.00001542 Ry

     iteration #  6     ecut=   124.00 Ry     beta= 0.70
     Davidson diagonalization with overlap
     ethr =  5.14E-08,  avg # of iterations =  4.6

     negative rho (up, down):  8.038E-04 0.000E+00

     total cpu time spent up to now is      240.8 secs

     total energy              =    -450.78075446 Ry
     estimated scf accuracy    <       0.00000114 Ry

     iteration #  7     ecut=   124.00 Ry     beta= 0.70
     Davidson diagonalization with overlap
     ethr =  3.81E-09,  avg # of iterations =  3.5

     negative rho (up, down):  8.039E-04 0.000E+00

     total cpu time spent up to now is      244.2 secs

     total energy              =    -450.78075472 Ry
     estimated scf accuracy    <       0.00000018 Ry

     iteration #  8     ecut=   124.00 Ry     beta= 0.70
     Davidson diagonalization with overlap
     ethr =  5.99E-10,  avg # of iterations =  3.0

     negative rho (up, down):  8.039E-04 0.000E+00

     total cpu time spent up to now is      247.3 secs

     total energy              =    -450.78075475 Ry
     estimated scf accuracy    <       0.00000001 Ry

     iteration #  9     ecut=   124.00 Ry     beta= 0.70
     Davidson diagonalization with overlap
     ethr =  3.87E-11,  avg # of iterations =  4.6

     negative rho (up, down):  8.039E-04 0.000E+00

     total cpu time spent up to now is      251.2 secs

     total energy              =    -450.78075476 Ry
     estimated scf accuracy    <          5.8E-10 Ry

     iteration # 10     ecut=   124.00 Ry     beta= 0.70
     Davidson diagonalization with overlap
     ethr =  1.95E-12,  avg # of iterations =  4.5

     negative rho (up, down):  8.039E-04 0.000E+00

     total cpu time spent up to now is      254.9 secs

     End of self-consistent calculation

     Number of k-points >= 100: set verbosity='high' to print the bands.

     the Fermi energy is    15.0611 ev

!    total energy              =    -450.78075476 Ry
     estimated scf accuracy    <          2.1E-11 Ry
     smearing contrib. (-TS)   =       0.00004962 Ry
     internal energy E=F+TS    =    -450.78080438 Ry

     The total energy is F=E-TS. E is the sum of the following terms:
     one-electron contribution =    -169.43447969 Ry
     hartree contribution      =      99.72698854 Ry
     xc contribution           =     -54.42760633 Ry
     ewald contribution        =    -250.50173158 Ry
     one-center paw contrib.   =     -76.14397532 Ry

     convergence has been achieved in  10 iterations

     negative rho (up, down):  8.039E-04 0.000E+00

     Forces acting on atoms (cartesian axes, Ry/au):

     atom    1 type  1   force =     0.00000000    0.00000000    0.00000000
     atom    2 type  2   force =     0.00000000    0.00000000    0.00000000
     atom    3 type  3   force =     0.00000000    0.00000000    0.00000000
     atom    4 type  3   force =     0.00000000    0.00000000    0.00000000

     Total force =     0.000000     Total SCF correction =     0.000000


     Computing stress (Cartesian axis) and pressure


     negative rho (up, down):  8.039E-04 0.000E+00
          total   stress  (Ry/bohr**3)                   (kbar)     P=       45.88
   0.00031337   0.00000000   0.00000000           46.10        0.00        0.00
   0.00000000   0.00031337   0.00000000            0.00       46.10        0.00
   0.00000000   0.00000000   0.00030900            0.00        0.00       45.46

     Energy error            =      4.0E-03 Ry
     Gradient error          =      0.0E+00 Ry/Bohr
     Cell gradient error     =      4.6E+01 kbar

     number of scf cycles    =   5
     number of bfgs steps    =   4

     enthalpy           old  =    -450.7767556899 Ry
     enthalpy           new  =    -450.7807547571 Ry

     CASE: enthalpy          _new < enthalpy          _old

     new trust radius        =       0.0541232492 bohr
     new conv_thr            =            1.0E-10 Ry

     new unit-cell volume =    215.93327 a.u.^3 (    31.99801 Ang^3 )
     density =      5.48671 g/cm^3

CELL_PARAMETERS (alat=  5.58242261)
   1.172531465   0.000000000   0.000000000
   0.000000000   1.172531465   0.000000000
   0.000000000   0.000000000   0.902822582

ATOMIC_POSITIONS (crystal)
Fe               0.5000000000        0.5000000000        0.5000000000
Ti               0.0000000000        0.0000000000        0.0000000000
H                0.5000000000        0.0000000000        0.0000000000
H                0.0000000000        0.5000000000        0.0000000000



     Writing config-only to output data dir ./TiFe_H_edges_xy.save/ :
     XML data file     NEW-OLD atomic charge density approx. for the potential
     New effective cutoffs (rho, wfc): 2128.63  151.78

     Check: negative core charge=   -0.000002

     negative rho (up, down):  8.187E-04 0.000E+00

     total cpu time spent up to now is      256.9 secs

     per-process dynamical memory:   164.2 Mb

     Self-consistent Calculation

     iteration #  1     ecut=   124.00 Ry     beta= 0.70
     Davidson diagonalization with overlap
     ethr =  1.00E-06,  avg # of iterations =  7.8

     negative rho (up, down):  8.287E-04 0.000E+00

     total cpu time spent up to now is      263.5 secs

     total energy              =    -450.77966058 Ry
     estimated scf accuracy    <       0.00181634 Ry

     iteration #  2     ecut=   124.00 Ry     beta= 0.70
     Davidson diagonalization with overlap
     ethr =  6.05E-06,  avg # of iterations =  5.5

     negative rho (up, down):  8.088E-04 0.000E+00

     total cpu time spent up to now is      267.9 secs

     total energy              =    -450.76541679 Ry
     estimated scf accuracy    <       0.38319839 Ry

     iteration #  3     ecut=   124.00 Ry     beta= 0.70
     Davidson diagonalization with overlap
     ethr =  6.05E-06,  avg # of iterations =  5.1

     negative rho (up, down):  8.138E-04 0.000E+00

     total cpu time spent up to now is      272.1 secs

     total energy              =    -450.78147469 Ry
     estimated scf accuracy    <       0.00007385 Ry

     iteration #  4     ecut=   124.00 Ry     beta= 0.70
     Davidson diagonalization with overlap
     ethr =  2.46E-07,  avg # of iterations =  4.2

     negative rho (up, down):  8.125E-04 0.000E+00

     total cpu time spent up to now is      276.0 secs

     total energy              =    -450.78151373 Ry
     estimated scf accuracy    <       0.00002282 Ry

     iteration #  5     ecut=   124.00 Ry     beta= 0.70
     Davidson diagonalization with overlap
     ethr =  7.61E-08,  avg # of iterations =  2.1

     negative rho (up, down):  8.123E-04 0.000E+00

     total cpu time spent up to now is      278.8 secs

     total energy              =    -450.78151660 Ry
     estimated scf accuracy    <       0.00000245 Ry

     iteration #  6     ecut=   124.00 Ry     beta= 0.70
     Davidson diagonalization with overlap
     ethr =  8.17E-09,  avg # of iterations =  3.5

     negative rho (up, down):  8.124E-04 0.000E+00

     total cpu time spent up to now is      282.0 secs

     total energy              =    -450.78151716 Ry
     estimated scf accuracy    <       0.00000008 Ry

     iteration #  7     ecut=   124.00 Ry     beta= 0.70
     Davidson diagonalization with overlap
     ethr =  2.67E-10,  avg # of iterations =  5.0

     negative rho (up, down):  8.124E-04 0.000E+00

     total cpu time spent up to now is      286.1 secs

     total energy              =    -450.78151723 Ry
     estimated scf accuracy    <       0.00000002 Ry

     iteration #  8     ecut=   124.00 Ry     beta= 0.70
     Davidson diagonalization with overlap
     ethr =  5.78E-11,  avg # of iterations =  1.9

     negative rho (up, down):  8.124E-04 0.000E+00

     total cpu time spent up to now is      288.7 secs

     total energy              =    -450.78151723 Ry
     estimated scf accuracy    <          1.1E-09 Ry

     iteration #  9     ecut=   124.00 Ry     beta= 0.70
     Davidson diagonalization with overlap
     ethr =  3.65E-12,  avg # of iterations =  4.6

     negative rho (up, down):  8.124E-04 0.000E+00

     total cpu time spent up to now is      292.5 secs

     End of self-consistent calculation

     Number of k-points >= 100: set verbosity='high' to print the bands.

     the Fermi energy is    14.6500 ev

!    total energy              =    -450.78151723 Ry
     estimated scf accuracy    <          5.8E-11 Ry
     smearing contrib. (-TS)   =       0.00002627 Ry
     internal energy E=F+TS    =    -450.78154350 Ry

     The total energy is F=E-TS. E is the sum of the following terms:
     one-electron contribution =    -172.26400955 Ry
     hartree contribution      =     100.66669024 Ry
     xc contribution           =     -54.38402475 Ry
     ewald contribution        =    -248.65688706 Ry
     one-center paw contrib.   =     -76.14331239 Ry

     convergence has been achieved in   9 iterations

     negative rho (up, down):  8.124E-04 0.000E+00

     Forces acting on atoms (cartesian axes, Ry/au):

     atom    1 type  1   force =     0.00000000    0.00000000    0.00000000
     atom    2 type  2   force =     0.00000000    0.00000000    0.00000000
     atom    3 type  3   force =     0.00000000    0.00000000    0.00000000
     atom    4 type  3   force =     0.00000000    0.00000000    0.00000000

     Total force =     0.000000     Total SCF correction =     0.000000


     Computing stress (Cartesian axis) and pressure


     negative rho (up, down):  8.124E-04 0.000E+00
          total   stress  (Ry/bohr**3)                   (kbar)     P=       11.45
   0.00013126   0.00000000   0.00000000           19.31        0.00        0.00
   0.00000000   0.00013126   0.00000000            0.00       19.31        0.00
   0.00000000   0.00000000  -0.00002895            0.00        0.00       -4.26

     Energy error            =      7.6E-04 Ry
     Gradient error          =      0.0E+00 Ry/Bohr
     Cell gradient error     =      1.9E+01 kbar

     number of scf cycles    =   6
     number of bfgs steps    =   5

     enthalpy           old  =    -450.7807547571 Ry
     enthalpy           new  =    -450.7815172278 Ry

     CASE: enthalpy          _new < enthalpy          _old

     new trust radius        =       0.0100784348 bohr
     new conv_thr            =            1.0E-10 Ry

     new unit-cell volume =    216.70798 a.u.^3 (    32.11281 Ang^3 )
     density =      5.46710 g/cm^3

CELL_PARAMETERS (alat=  5.58242261)
   1.176552407   0.000000000   0.000000000
   0.000000000   1.176552407   0.000000000
   0.000000000   0.000000000   0.899879227

ATOMIC_POSITIONS (crystal)
Fe               0.5000000000        0.5000000000        0.5000000000
Ti               0.0000000000        0.0000000000        0.0000000000
H                0.5000000000        0.0000000000        0.0000000000
H                0.0000000000        0.5000000000        0.0000000000



     Writing config-only to output data dir ./TiFe_H_edges_xy.save/ :
     XML data file     NEW-OLD atomic charge density approx. for the potential
     New effective cutoffs (rho, wfc): 2142.57  152.77

     Check: negative core charge=   -0.000002

     negative rho (up, down):  8.151E-04 0.000E+00

     total cpu time spent up to now is      294.5 secs

     per-process dynamical memory:   164.2 Mb

     Self-consistent Calculation

     iteration #  1     ecut=   124.00 Ry     beta= 0.70
     Davidson diagonalization with overlap
     ethr =  1.00E-06,  avg # of iterations =  4.2

     negative rho (up, down):  8.068E-04 0.000E+00

     total cpu time spent up to now is      299.0 secs

     total energy              =    -450.78161317 Ry
     estimated scf accuracy    <       0.00006285 Ry

     iteration #  2     ecut=   124.00 Ry     beta= 0.70
     Davidson diagonalization with overlap
     ethr =  2.09E-07,  avg # of iterations =  4.7

     negative rho (up, down):  8.098E-04 0.000E+00

     total cpu time spent up to now is      303.0 secs

     total energy              =    -450.78143115 Ry
     estimated scf accuracy    <       0.00420091 Ry

     iteration #  3     ecut=   124.00 Ry     beta= 0.70
     Davidson diagonalization with overlap
     ethr =  2.09E-07,  avg # of iterations =  4.5

     negative rho (up, down):  8.118E-04 0.000E+00

     total cpu time spent up to now is      306.6 secs

     total energy              =    -450.78165715 Ry
     estimated scf accuracy    <       0.00011582 Ry

     iteration #  4     ecut=   124.00 Ry     beta= 0.70
     Davidson diagonalization with overlap
     ethr =  2.09E-07,  avg # of iterations =  2.0

     negative rho (up, down):  8.113E-04 0.000E+00

     total cpu time spent up to now is      309.4 secs

     total energy              =    -450.78166692 Ry
     estimated scf accuracy    <       0.00000045 Ry

     iteration #  5     ecut=   124.00 Ry     beta= 0.70
     Davidson diagonalization with overlap
     ethr =  1.50E-09,  avg # of iterations =  5.1

     negative rho (up, down):  8.108E-04 0.000E+00

     total cpu time spent up to now is      313.7 secs

     total energy              =    -450.78166725 Ry
     estimated scf accuracy    <       0.00000032 Ry

     iteration #  6     ecut=   124.00 Ry     beta= 0.70
     Davidson diagonalization with overlap
     ethr =  1.07E-09,  avg # of iterations =  2.4

     negative rho (up, down):  8.108E-04 0.000E+00

     total cpu time spent up to now is      316.7 secs

     total energy              =    -450.78166732 Ry
     estimated scf accuracy    <       0.00000002 Ry

     iteration #  7     ecut=   124.00 Ry     beta= 0.70
     Davidson diagonalization with overlap
     ethr =  5.26E-11,  avg # of iterations =  4.5

     negative rho (up, down):  8.108E-04 0.000E+00

     total cpu time spent up to now is      320.3 secs

     total energy              =    -450.78166732 Ry
     estimated scf accuracy    <          3.4E-09 Ry

     iteration #  8     ecut=   124.00 Ry     beta= 0.70
     Davidson diagonalization with overlap
     ethr =  1.14E-11,  avg # of iterations =  2.7

     negative rho (up, down):  8.108E-04 0.000E+00

     total cpu time spent up to now is      323.3 secs

     total energy              =    -450.78166732 Ry
     estimated scf accuracy    <          1.9E-10 Ry

     iteration #  9     ecut=   124.00 Ry     beta= 0.70
     Davidson diagonalization with overlap
     ethr =  6.49E-13,  avg # of iterations =  4.8

     negative rho (up, down):  8.108E-04 0.000E+00

     total cpu time spent up to now is      327.5 secs

     End of self-consistent calculation

     Number of k-points >= 100: set verbosity='high' to print the bands.

     the Fermi energy is    14.5856 ev

!    total energy              =    -450.78166732 Ry
     estimated scf accuracy    <          9.2E-11 Ry
     smearing contrib. (-TS)   =       0.00003817 Ry
     internal energy E=F+TS    =    -450.78170549 Ry

     The total energy is F=E-TS. E is the sum of the following terms:
     one-electron contribution =    -172.81586721 Ry
     hartree contribution      =     100.87665965 Ry
     xc contribution           =     -54.37657811 Ry
     ewald contribution        =    -248.32263678 Ry
     one-center paw contrib.   =     -76.14328304 Ry

     convergence has been achieved in   9 iterations

     negative rho (up, down):  8.108E-04 0.000E+00

     Forces acting on atoms (cartesian axes, Ry/au):

     atom    1 type  1   force =     0.00000000    0.00000000    0.00000000
     atom    2 type  2   force =     0.00000000    0.00000000    0.00000000
     atom    3 type  3   force =     0.00000000    0.00000000    0.00000000
     atom    4 type  3   force =     0.00000000    0.00000000    0.00000000

     Total force =     0.000000     Total SCF correction =     0.000000


     Computing stress (Cartesian axis) and pressure


     negative rho (up, down):  8.108E-04 0.000E+00
          total   stress  (Ry/bohr**3)                   (kbar)     P=        4.32
   0.00005121   0.00000000   0.00000000            7.53        0.00        0.00
   0.00000000   0.00005121   0.00000000            0.00        7.53        0.00
   0.00000000   0.00000000  -0.00001430            0.00        0.00       -2.10

     Energy error            =      1.5E-04 Ry
     Gradient error          =      0.0E+00 Ry/Bohr
     Cell gradient error     =      7.5E+00 kbar

     number of scf cycles    =   7
     number of bfgs steps    =   6

     enthalpy           old  =    -450.7815172278 Ry
     enthalpy           new  =    -450.7816673215 Ry

     CASE: enthalpy          _new < enthalpy          _old

     new trust radius        =       0.0072020094 bohr
     new conv_thr            =            1.0E-10 Ry

     new unit-cell volume =    217.15542 a.u.^3 (    32.17911 Ang^3 )
     density =      5.45583 g/cm^3

CELL_PARAMETERS (alat=  5.58242261)
   1.179209532   0.000000000   0.000000000
   0.000000000   1.179209532   0.000000000
   0.000000000   0.000000000   0.897677972

ATOMIC_POSITIONS (crystal)
Fe               0.5000000000        0.5000000000        0.5000000000
Ti               0.0000000000        0.0000000000        0.0000000000
H                0.5000000000        0.0000000000        0.0000000000
H                0.0000000000        0.5000000000        0.0000000000



     Writing config-only to output data dir ./TiFe_H_edges_xy.save/ :
     XML data file     NEW-OLD atomic charge density approx. for the potential
     New effective cutoffs (rho, wfc): 2153.08  153.52

     Check: negative core charge=   -0.000002

     negative rho (up, down):  8.123E-04 0.000E+00

     total cpu time spent up to now is      329.5 secs

     per-process dynamical memory:   164.2 Mb

     Self-consistent Calculation

     iteration #  1     ecut=   124.00 Ry     beta= 0.70
     Davidson diagonalization with overlap
     ethr =  1.00E-06,  avg # of iterations =  3.3

     negative rho (up, down):  8.065E-04 0.000E+00

     total cpu time spent up to now is      333.5 secs

     total energy              =    -450.78166329 Ry
     estimated scf accuracy    <       0.00003369 Ry

     iteration #  2     ecut=   124.00 Ry     beta= 0.70
     Davidson diagonalization with overlap
     ethr =  1.12E-07,  avg # of iterations =  5.0

     negative rho (up, down):  8.087E-04 0.000E+00

     total cpu time spent up to now is      337.7 secs

     total energy              =    -450.78154535 Ry
     estimated scf accuracy    <       0.00292734 Ry

     iteration #  3     ecut=   124.00 Ry     beta= 0.70
     Davidson diagonalization with overlap
     ethr =  1.12E-07,  avg # of iterations =  4.5

     negative rho (up, down):  8.102E-04 0.000E+00

     total cpu time spent up to now is      341.3 secs

     total energy              =    -450.78169249 Ry
     estimated scf accuracy    <       0.00003243 Ry

     iteration #  4     ecut=   124.00 Ry     beta= 0.70
     Davidson diagonalization with overlap
     ethr =  1.08E-07,  avg # of iterations =  2.0

     negative rho (up, down):  8.099E-04 0.000E+00

     total cpu time spent up to now is      344.1 secs

     total energy              =    -450.78169596 Ry
     estimated scf accuracy    <       0.00000025 Ry

     iteration #  5     ecut=   124.00 Ry     beta= 0.70
     Davidson diagonalization with overlap
     ethr =  8.27E-10,  avg # of iterations =  5.0

     negative rho (up, down):  8.096E-04 0.000E+00

     total cpu time spent up to now is      348.4 secs

     total energy              =    -450.78169616 Ry
     estimated scf accuracy    <       0.00000008 Ry

     iteration #  6     ecut=   124.00 Ry     beta= 0.70
     Davidson diagonalization with overlap
     ethr =  2.76E-10,  avg # of iterations =  3.1

     negative rho (up, down):  8.096E-04 0.000E+00

     total cpu time spent up to now is      351.6 secs

     total energy              =    -450.78169618 Ry
     estimated scf accuracy    <          2.0E-09 Ry

     iteration #  7     ecut=   124.00 Ry     beta= 0.70
     Davidson diagonalization with overlap
     ethr =  6.76E-12,  avg # of iterations =  5.1

     negative rho (up, down):  8.096E-04 0.000E+00

     total cpu time spent up to now is      355.8 secs

     total energy              =    -450.78169618 Ry
     estimated scf accuracy    <          5.4E-10 Ry

     iteration #  8     ecut=   124.00 Ry     beta= 0.70
     Davidson diagonalization with overlap
     ethr =  1.79E-12,  avg # of iterations =  2.5

     negative rho (up, down):  8.096E-04 0.000E+00

     total cpu time spent up to now is      358.8 secs

     End of self-consistent calculation

     Number of k-points >= 100: set verbosity='high' to print the bands.

     the Fermi energy is    14.5487 ev

!    total energy              =    -450.78169618 Ry
     estimated scf accuracy    <          8.6E-11 Ry
     smearing contrib. (-TS)   =       0.00004897 Ry
     internal energy E=F+TS    =    -450.78174515 Ry

     The total energy is F=E-TS. E is the sum of the following terms:
     one-electron contribution =    -173.14720291 Ry
     hartree contribution      =     101.00480022 Ry
     xc contribution           =     -54.37220581 Ry
     ewald contribution        =    -248.12386233 Ry
     one-center paw contrib.   =     -76.14327431 Ry

     convergence has been achieved in   8 iterations

     negative rho (up, down):  8.096E-04 0.000E+00

     Forces acting on atoms (cartesian axes, Ry/au):

     atom    1 type  1   force =     0.00000000    0.00000000    0.00000000
     atom    2 type  2   force =     0.00000000    0.00000000    0.00000000
     atom    3 type  3   force =     0.00000000    0.00000000    0.00000000
     atom    4 type  3   force =     0.00000000    0.00000000    0.00000000

     Total force =     0.000000     Total SCF correction =     0.000000


     Computing stress (Cartesian axis) and pressure


     negative rho (up, down):  8.096E-04 0.000E+00
          total   stress  (Ry/bohr**3)                   (kbar)     P=        0.01
   0.00000019   0.00000000   0.00000000            0.03        0.00        0.00
   0.00000000   0.00000019   0.00000000            0.00        0.03        0.00
   0.00000000   0.00000000  -0.00000026            0.00        0.00       -0.04

     Energy error            =      2.9E-05 Ry
     Gradient error          =      0.0E+00 Ry/Bohr
     Cell gradient error     =      3.8E-02 kbar

     bfgs converged in   8 scf cycles and   7 bfgs steps
     (criteria: energy <  1.0E-04 Ry, force <  1.0E-03 Ry/Bohr, cell <  1.0E-01 kbar)

     End of BFGS Geometry Optimization

     Final enthalpy           =    -450.7816961785 Ry

     File ./TiFe_H_edges_xy.bfgs deleted, as requested
Begin final coordinates
     new unit-cell volume =    217.15542 a.u.^3 (    32.17911 Ang^3 )
     density =      5.45583 g/cm^3

CELL_PARAMETERS (alat=  5.58242261)
   1.179209532   0.000000000   0.000000000
   0.000000000   1.179209532   0.000000000
   0.000000000   0.000000000   0.897677972

ATOMIC_POSITIONS (crystal)
Fe               0.5000000000        0.5000000000        0.5000000000
Ti               0.0000000000        0.0000000000        0.0000000000
H                0.5000000000        0.0000000000        0.0000000000
H                0.0000000000        0.5000000000        0.0000000000
End final coordinates



     Writing config-only to output data dir ./TiFe_H_edges_xy.save/ :
     XML data file
     Final scf calculation at the relaxed structure.
     The G-vectors are recalculated for the final unit cell
     Results may differ from those at the preceding step.

     Parallelization info
     --------------------
     sticks:   dense  smooth     PW     G-vecs:    dense   smooth      PW
     Min         373     106     31                16571     2530     395
     Max         374     107     32                16574     2533     397
     Sum        5981    1709    497               265159    40503    6331

     Using Slab Decomposition



     bravais-lattice index     =            0
     lattice parameter (alat)  =       5.5824  a.u.
     unit-cell volume          =     217.1554 (a.u.)^3
     number of atoms/cell      =            4
     number of atomic types    =            3
     number of electrons       =        30.00
     number of Kohn-Sham states=           19
     kinetic-energy cutoff     =     124.0000  Ry
     charge density cutoff     =    1736.0000  Ry
     scf convergence threshold =      1.0E-10
     mixing beta               =       0.7000
     number of iterations used =            8  plain     mixing
     press convergence thresh. =      1.0E-01
     Exchange-correlation= PBE
                           (   1   4   3   4   0   0   0)

     celldm(1)=   5.582423  celldm(2)=   0.000000  celldm(3)=   0.000000
     celldm(4)=   0.000000  celldm(5)=   0.000000  celldm(6)=   0.000000

     crystal axes: (cart. coord. in units of alat)
               a(1) = (   1.179210   0.000000   0.000000 )  
               a(2) = (   0.000000   1.179210   0.000000 )  
               a(3) = (   0.000000   0.000000   0.897678 )  

     reciprocal axes: (cart. coord. in units 2 pi/alat)
               b(1) = (  0.848026  0.000000  0.000000 )  
               b(2) = (  0.000000  0.848026  0.000000 )  
               b(3) = (  0.000000  0.000000  1.113985 )  


     PseudoPot. # 1 for Fe read from file:
     ../../pseudos/Fe.pbe-spn-kjpaw_psl.0.2.1.UPF
     MD5 check sum: e86618425769142926afa95317d90200
     Pseudo is Projector augmented-wave + core cor, Zval = 16.0
     Generated using "atomic" code by A. Dal Corso  v.5.0.99 svn rev. 10869
     Shape of augmentation charge: PSQ
     Using radial grid of 1191 points,  6 beta functions with: 
                l(1) =   0
                l(2) =   0
                l(3) =   1
                l(4) =   1
                l(5) =   2
                l(6) =   2
     Q(r) pseudized with 0 coefficients 


     PseudoPot. # 2 for Ti read from file:
     ../../pseudos/ti_pbe_v1.4.uspp.F.UPF
     MD5 check sum: 88a00a6731bd790ddea75d31a80cb452
     Pseudo is Ultrasoft + core correction, Zval = 12.0
     Generated by new atomic code, or converted to UPF format
     Using radial grid of  851 points,  6 beta functions with: 
                l(1) =   0
                l(2) =   0
                l(3) =   1
                l(4) =   1
                l(5) =   2
                l(6) =   2
     Q(r) pseudized with  6 coefficients,  rinner =    1.000   1.000   1.000
                                                       1.000   1.000

     PseudoPot. # 3 for H  read from file:
     ../../pseudos/H.pbe-rrkjus_psl.1.0.0.UPF
     MD5 check sum: f52b6d4d1c606e5624b1dc7b2218f220
     Pseudo is Ultrasoft, Zval =  1.0
     Generated using "atomic" code by A. Dal Corso  v.5.1
     Using radial grid of  929 points,  2 beta functions with: 
                l(1) =   0
                l(2) =   0
     Q(r) pseudized with 0 coefficients 


     atomic species   valence    mass     pseudopotential
     Fe               16.00    55.84500     Fe( 1.00)
     Ti               12.00    47.86700     Ti( 1.00)
     H                 1.00     1.00750     H ( 1.00)

     16 Sym. Ops., with inversion, found



   Cartesian axes

     site n.     atom                  positions (alat units)
         1        Fe     tau(   1) = (   0.5896048   0.5896048   0.4488390  )
         2        Ti     tau(   2) = (   0.0000000   0.0000000   0.0000000  )
         3        H      tau(   3) = (   0.5896048   0.0000000   0.0000000  )
         4        H      tau(   4) = (   0.0000000   0.5896048   0.0000000  )

     number of k points=   288  Marzari-Vanderbilt smearing, width (Ry)=  0.0050

     Number of k-points >= 100: set verbosity='high' to print them.

     Dense  grid:   265159 G-vectors     FFT dimensions: (  90,  90,  72)

     Smooth grid:    40503 G-vectors     FFT dimensions: (  48,  48,  36)

     Estimated max dynamical RAM per process >     108.42 MB

     Estimated total dynamical RAM >       1.69 GB

     Check: negative core charge=   -0.000001

     Initial potential from superposition of free atoms

     starting charge      28.9995, renormalised to      30.0000

     negative rho (up, down):  1.317E-03 0.000E+00
     Starting wfcs are   25 randomized atomic wfcs
     Checking if some PAW data can be deallocated... 

     total cpu time spent up to now is      363.2 secs

     per-process dynamical memory:   167.4 Mb

     Self-consistent Calculation

     iteration #  1     ecut=   124.00 Ry     beta= 0.70
     Davidson diagonalization with overlap
     c_bands:  1 eigenvalues not converged
     c_bands:  2 eigenvalues not converged
     c_bands:  1 eigenvalues not converged
     c_bands:  1 eigenvalues not converged
     c_bands:  1 eigenvalues not converged
     c_bands:  1 eigenvalues not converged
     c_bands:  1 eigenvalues not converged
     c_bands:  1 eigenvalues not converged
     c_bands:  1 eigenvalues not converged
     c_bands:  1 eigenvalues not converged
     c_bands:  1 eigenvalues not converged
     c_bands:  1 eigenvalues not converged
     c_bands:  1 eigenvalues not converged
     c_bands:  1 eigenvalues not converged
     c_bands:  1 eigenvalues not converged
     c_bands:  1 eigenvalues not converged
     c_bands:  1 eigenvalues not converged
     c_bands:  1 eigenvalues not converged
     c_bands:  1 eigenvalues not converged
     c_bands:  1 eigenvalues not converged
     c_bands:  1 eigenvalues not converged
     c_bands:  1 eigenvalues not converged
     c_bands:  2 eigenvalues not converged
     c_bands:  3 eigenvalues not converged
     c_bands:  1 eigenvalues not converged
     c_bands:  2 eigenvalues not converged
     c_bands:  4 eigenvalues not converged
     c_bands:  1 eigenvalues not converged
     c_bands:  1 eigenvalues not converged
     c_bands:  1 eigenvalues not converged
     c_bands:  1 eigenvalues not converged
     c_bands:  1 eigenvalues not converged
     c_bands:  1 eigenvalues not converged
     c_bands:  1 eigenvalues not converged
     c_bands:  1 eigenvalues not converged
     c_bands:  1 eigenvalues not converged
     c_bands:  1 eigenvalues not converged
     c_bands:  1 eigenvalues not converged
     c_bands:  1 eigenvalues not converged
     c_bands:  1 eigenvalues not converged
     c_bands:  1 eigenvalues not converged
     c_bands:  1 eigenvalues not converged
     c_bands:  1 eigenvalues not converged
     c_bands:  3 eigenvalues not converged
     c_bands:  1 eigenvalues not converged
     c_bands:  1 eigenvalues not converged
     c_bands:  1 eigenvalues not converged
     c_bands:  1 eigenvalues not converged
     c_bands:  2 eigenvalues not converged
     c_bands:  2 eigenvalues not converged
     c_bands:  1 eigenvalues not converged
     c_bands:  1 eigenvalues not converged
     c_bands:  1 eigenvalues not converged
     c_bands:  1 eigenvalues not converged
     c_bands:  2 eigenvalues not converged
     c_bands:  1 eigenvalues not converged
     c_bands:  1 eigenvalues not converged
     c_bands:  1 eigenvalues not converged
     c_bands:  1 eigenvalues not converged
     c_bands:  1 eigenvalues not converged
     c_bands:  1 eigenvalues not converged
     c_bands:  1 eigenvalues not converged
     c_bands:  1 eigenvalues not converged
     c_bands:  1 eigenvalues not converged
     c_bands:  1 eigenvalues not converged
     c_bands:  1 eigenvalues not converged
     c_bands:  1 eigenvalues not converged
     c_bands:  1 eigenvalues not converged
     c_bands:  1 eigenvalues not converged
     c_bands:  1 eigenvalues not converged
     c_bands:  2 eigenvalues not converged
     c_bands:  1 eigenvalues not converged
     c_bands:  1 eigenvalues not converged
     c_bands:  1 eigenvalues not converged
     c_bands:  1 eigenvalues not converged
     c_bands:  1 eigenvalues not converged
     c_bands:  1 eigenvalues not converged
     c_bands:  1 eigenvalues not converged
     c_bands:  1 eigenvalues not converged
     c_bands:  2 eigenvalues not converged
     c_bands:  1 eigenvalues not converged
     c_bands:  1 eigenvalues not converged
     c_bands:  1 eigenvalues not converged
     c_bands:  1 eigenvalues not converged
     c_bands:  1 eigenvalues not converged
     c_bands:  1 eigenvalues not converged
     c_bands:  1 eigenvalues not converged
     c_bands:  1 eigenvalues not converged
     c_bands:  1 eigenvalues not converged
     c_bands:  1 eigenvalues not converged
     c_bands:  1 eigenvalues not converged
     c_bands:  1 eigenvalues not converged
     c_bands:  1 eigenvalues not converged
     c_bands:  1 eigenvalues not converged
     c_bands:  1 eigenvalues not converged
     c_bands:  1 eigenvalues not converged
     c_bands:  2 eigenvalues not converged
     c_bands:  1 eigenvalues not converged
     c_bands:  1 eigenvalues not converged
     c_bands:  1 eigenvalues not converged
     c_bands:  1 eigenvalues not converged
     c_bands:  1 eigenvalues not converged
     c_bands:  1 eigenvalues not converged
     c_bands:  1 eigenvalues not converged
     c_bands:  1 eigenvalues not converged
     c_bands:  1 eigenvalues not converged
     c_bands:  1 eigenvalues not converged
     c_bands:  1 eigenvalues not converged
     c_bands:  1 eigenvalues not converged
     c_bands:  1 eigenvalues not converged
     c_bands:  1 eigenvalues not converged
     c_bands:  1 eigenvalues not converged
     c_bands:  1 eigenvalues not converged
     c_bands:  1 eigenvalues not converged
     c_bands:  1 eigenvalues not converged
     c_bands:  1 eigenvalues not converged
     c_bands:  1 eigenvalues not converged
     c_bands:  1 eigenvalues not converged
     c_bands:  1 eigenvalues not converged
     c_bands:  1 eigenvalues not converged
     c_bands:  1 eigenvalues not converged
     c_bands:  1 eigenvalues not converged
     ethr =  1.00E-06,  avg # of iterations = 18.3

     negative rho (up, down):  2.194E-04 0.000E+00

     total cpu time spent up to now is      381.3 secs

     total energy              =    -428.73984482 Ry
     estimated scf accuracy    <      27.56305540 Ry

     iteration #  2     ecut=   124.00 Ry     beta= 0.70
     Davidson diagonalization with overlap
     ethr =  1.00E-02,  avg # of iterations =  8.2

     total cpu time spent up to now is      389.4 secs

     total energy              =    -440.72764166 Ry
     estimated scf accuracy    <     144.71690807 Ry

     iteration #  3     ecut=   124.00 Ry     beta= 0.70
     Davidson diagonalization with overlap
     ethr =  1.00E-02,  avg # of iterations =  3.5

     negative rho (up, down):  8.789E-06 0.000E+00

     total cpu time spent up to now is      394.3 secs

     total energy              =    -453.15825629 Ry
     estimated scf accuracy    <      22.00891398 Ry

     iteration #  4     ecut=   124.00 Ry     beta= 0.70
     Davidson diagonalization with overlap
     ethr =  1.00E-02,  avg # of iterations =  2.0

     negative rho (up, down):  1.132E-04 0.000E+00

     total cpu time spent up to now is      397.7 secs

     total energy              =    -451.35022008 Ry
     estimated scf accuracy    <      14.17350525 Ry

     iteration #  5     ecut=   124.00 Ry     beta= 0.70
     Davidson diagonalization with overlap
     ethr =  1.00E-02,  avg # of iterations =  2.0

     negative rho (up, down):  3.997E-04 0.000E+00

     total cpu time spent up to now is      401.1 secs

     total energy              =    -450.81777102 Ry
     estimated scf accuracy    <       6.77986447 Ry

     iteration #  6     ecut=   124.00 Ry     beta= 0.70
     Davidson diagonalization with overlap
     ethr =  1.00E-02,  avg # of iterations =  1.8

     negative rho (up, down):  8.428E-04 0.000E+00

     total cpu time spent up to now is      404.3 secs

     total energy              =    -450.52548759 Ry
     estimated scf accuracy    <       2.75513232 Ry

     iteration #  7     ecut=   124.00 Ry     beta= 0.70
     Davidson diagonalization with overlap
     ethr =  9.18E-03,  avg # of iterations =  2.3

     negative rho (up, down):  7.434E-04 0.000E+00

     total cpu time spent up to now is      407.7 secs

     total energy              =    -450.74282046 Ry
     estimated scf accuracy    <       0.14720550 Ry

     iteration #  8     ecut=   124.00 Ry     beta= 0.70
     Davidson diagonalization with overlap
     ethr =  4.91E-04,  avg # of iterations =  4.9

     negative rho (up, down):  6.766E-04 0.000E+00

     total cpu time spent up to now is      412.4 secs

     total energy              =    -450.78448892 Ry
     estimated scf accuracy    <       0.01764758 Ry

     iteration #  9     ecut=   124.00 Ry     beta= 0.70
     Davidson diagonalization with overlap
     ethr =  5.88E-05,  avg # of iterations =  3.8

     negative rho (up, down):  8.443E-04 0.000E+00

     total cpu time spent up to now is      416.7 secs

     total energy              =    -450.75914821 Ry
     estimated scf accuracy    <       0.30170660 Ry

     iteration # 10     ecut=   124.00 Ry     beta= 0.70
     Davidson diagonalization with overlap
     ethr =  5.88E-05,  avg # of iterations =  4.5

     negative rho (up, down):  9.049E-04 0.000E+00

     total cpu time spent up to now is      421.4 secs

     total energy              =    -450.79616352 Ry
     estimated scf accuracy    <       0.04153525 Ry

     iteration # 11     ecut=   124.00 Ry     beta= 0.70
     Davidson diagonalization with overlap
     ethr =  5.88E-05,  avg # of iterations =  3.7

     negative rho (up, down):  8.517E-04 0.000E+00

     total cpu time spent up to now is      425.4 secs

     total energy              =    -450.78949435 Ry
     estimated scf accuracy    <       0.70369015 Ry

     iteration # 12     ecut=   124.00 Ry     beta= 0.70
     Davidson diagonalization with overlap
     ethr =  5.88E-05,  avg # of iterations =  2.0

     negative rho (up, down):  7.873E-04 0.000E+00

     total cpu time spent up to now is      428.8 secs

     total energy              =    -450.76926573 Ry
     estimated scf accuracy    <       0.29007048 Ry

     iteration # 13     ecut=   124.00 Ry     beta= 0.70
     Davidson diagonalization with overlap
     ethr =  5.88E-05,  avg # of iterations =  3.5

     negative rho (up, down):  8.081E-04 0.000E+00

     total cpu time spent up to now is      432.8 secs

     total energy              =    -450.78229583 Ry
     estimated scf accuracy    <       0.00271883 Ry

     iteration # 14     ecut=   124.00 Ry     beta= 0.70
     Davidson diagonalization with overlap
     ethr =  9.06E-06,  avg # of iterations =  2.4

     negative rho (up, down):  8.082E-04 0.000E+00

     total cpu time spent up to now is      436.3 secs

     total energy              =    -450.78277170 Ry
     estimated scf accuracy    <       0.00693383 Ry

     iteration # 15     ecut=   124.00 Ry     beta= 0.70
     Davidson diagonalization with overlap
     ethr =  9.06E-06,  avg # of iterations =  1.1

     negative rho (up, down):  8.204E-04 0.000E+00

     total cpu time spent up to now is      439.4 secs

     total energy              =    -450.78155410 Ry
     estimated scf accuracy    <       0.01320773 Ry

     iteration # 16     ecut=   124.00 Ry     beta= 0.70
     Davidson diagonalization with overlap
     ethr =  9.06E-06,  avg # of iterations =  1.8

     negative rho (up, down):  8.242E-04 0.000E+00

     total cpu time spent up to now is      442.7 secs

     total energy              =    -450.78201521 Ry
     estimated scf accuracy    <       0.00030378 Ry

     iteration # 17     ecut=   124.00 Ry     beta= 0.70
     Davidson diagonalization with overlap
     ethr =  1.01E-06,  avg # of iterations =  3.4

     negative rho (up, down):  8.219E-04 0.000E+00

     total cpu time spent up to now is      446.6 secs

     total energy              =    -450.78206770 Ry
     estimated scf accuracy    <       0.00002668 Ry

     iteration # 18     ecut=   124.00 Ry     beta= 0.70
     Davidson diagonalization with overlap
     ethr =  8.89E-08,  avg # of iterations =  3.4

     negative rho (up, down):  8.222E-04 0.000E+00

     total cpu time spent up to now is      450.4 secs

     total energy              =    -450.78207337 Ry
     estimated scf accuracy    <       0.00000210 Ry

     iteration # 19     ecut=   124.00 Ry     beta= 0.70
     Davidson diagonalization with overlap
     ethr =  7.01E-09,  avg # of iterations =  4.7

     negative rho (up, down):  8.226E-04 0.000E+00

     total cpu time spent up to now is      455.0 secs

     total energy              =    -450.78207393 Ry
     estimated scf accuracy    <       0.00000192 Ry

     iteration # 20     ecut=   124.00 Ry     beta= 0.70
     Davidson diagonalization with overlap
     ethr =  6.40E-09,  avg # of iterations =  1.1

     negative rho (up, down):  8.227E-04 0.000E+00

     total cpu time spent up to now is      458.1 secs

     total energy              =    -450.78207399 Ry
     estimated scf accuracy    <       0.00000012 Ry

     iteration # 21     ecut=   124.00 Ry     beta= 0.70
     Davidson diagonalization with overlap
     ethr =  3.90E-10,  avg # of iterations =  3.5

     negative rho (up, down):  8.227E-04 0.000E+00

     total cpu time spent up to now is      462.0 secs

     total energy              =    -450.78207401 Ry
     estimated scf accuracy    <          8.4E-09 Ry

     iteration # 22     ecut=   124.00 Ry     beta= 0.70
     Davidson diagonalization with overlap
     ethr =  2.80E-11,  avg # of iterations =  4.5

     negative rho (up, down):  8.227E-04 0.000E+00

     total cpu time spent up to now is      466.5 secs

     total energy              =    -450.78207401 Ry
     estimated scf accuracy    <          4.0E-10 Ry

     iteration # 23     ecut=   124.00 Ry     beta= 0.70
     Davidson diagonalization with overlap
     ethr =  1.34E-12,  avg # of iterations =  4.7

     negative rho (up, down):  8.227E-04 0.000E+00

     total cpu time spent up to now is      471.1 secs

     total energy              =    -450.78207401 Ry
     estimated scf accuracy    <          1.7E-10 Ry

     iteration # 24     ecut=   124.00 Ry     beta= 0.70
     Davidson diagonalization with overlap
     ethr =  5.64E-13,  avg # of iterations =  2.2

     negative rho (up, down):  8.227E-04 0.000E+00

     total cpu time spent up to now is      474.8 secs

     End of self-consistent calculation

     Number of k-points >= 100: set verbosity='high' to print the bands.

     the Fermi energy is    14.5486 ev

!    total energy              =    -450.78207401 Ry
     estimated scf accuracy    <          9.8E-12 Ry
     smearing contrib. (-TS)   =       0.00004916 Ry
     internal energy E=F+TS    =    -450.78212317 Ry

     The total energy is F=E-TS. E is the sum of the following terms:
     one-electron contribution =    -173.14654284 Ry
     hartree contribution      =     101.00416459 Ry
     xc contribution           =     -54.37254201 Ry
     ewald contribution        =    -248.12386233 Ry
     one-center paw contrib.   =     -76.14334058 Ry

     convergence has been achieved in  24 iterations

     negative rho (up, down):  8.227E-04 0.000E+00

     Forces acting on atoms (cartesian axes, Ry/au):

     atom    1 type  1   force =     0.00000000    0.00000000    0.00000000
     atom    2 type  2   force =     0.00000000    0.00000000    0.00000000
     atom    3 type  3   force =     0.00000000    0.00000000    0.00000000
     atom    4 type  3   force =     0.00000000    0.00000000    0.00000000

     Total force =     0.000000     Total SCF correction =     0.000000


     Computing stress (Cartesian axis) and pressure


     negative rho (up, down):  8.227E-04 0.000E+00
          total   stress  (Ry/bohr**3)                   (kbar)     P=       -0.35
  -0.00000116   0.00000000   0.00000000           -0.17        0.00        0.00
   0.00000000  -0.00000116   0.00000000            0.00       -0.17        0.00
   0.00000000   0.00000000  -0.00000486            0.00        0.00       -0.71


     Writing all to output data dir ./TiFe_H_edges_xy.save/ :
     XML data file
     init_run     :      4.66s CPU      4.82s WALL (       2 calls)
     electrons    :    436.99s CPU    453.58s WALL (       9 calls)
     update_pot   :      0.59s CPU      0.69s WALL (       7 calls)
     forces       :      2.69s CPU      2.84s WALL (       9 calls)
     stress       :     11.98s CPU     12.43s WALL (       9 calls)

     Called by init_run:
     wfcinit      :      2.62s CPU      2.71s WALL (       2 calls)
     potinit      :      0.75s CPU      0.77s WALL (       2 calls)
     hinit0       :      0.71s CPU      0.72s WALL (       2 calls)

     Called by electrons:
     c_bands      :    364.81s CPU    376.42s WALL (     114 calls)
     sum_band     :     53.69s CPU     56.30s WALL (     114 calls)
     v_of_rho     :      1.72s CPU      1.96s WALL (     123 calls)
     newd         :     11.11s CPU     12.49s WALL (     123 calls)
     PAW_pot      :      7.02s CPU      7.87s WALL (     130 calls)
     mix_rho      :      0.19s CPU      0.22s WALL (     114 calls)

     Called by c_bands:
     init_us_2    :      7.47s CPU      7.85s WALL (   73440 calls)
     cegterg      :    352.53s CPU    363.33s WALL (   32832 calls)

     Called by *egterg:
     cdiaghg      :     63.55s CPU     65.20s WALL (  161532 calls)
     h_psi        :    246.07s CPU    254.22s WALL (  164124 calls)
     s_psi        :      5.78s CPU      5.98s WALL (  164124 calls)
     g_psi        :      1.42s CPU      1.45s WALL (  130716 calls)

     Called by h_psi:
     h_psi:calbec :     10.90s CPU     11.25s WALL (  164124 calls)
     vloc_psi     :    227.67s CPU    235.24s WALL (  164124 calls)
     add_vuspsi   :      6.10s CPU      6.31s WALL (  164124 calls)

     General routines
     calbec       :     16.74s CPU     17.27s WALL (  243036 calls)
     fft          :      1.70s CPU      2.01s WALL (    1813 calls)
     ffts         :      0.62s CPU      0.63s WALL (     237 calls)
     fftw         :    216.06s CPU    223.00s WALL ( 4536966 calls)
     interpolate  :      0.71s CPU      0.75s WALL (     123 calls)

     Parallel routines

     PWSCF        :    458.78s CPU    477.00s WALL


   This run was terminated on:  23:11:47  12Nov2025            

=------------------------------------------------------------------------------=
   JOB DONE.
=------------------------------------------------------------------------------=
