
     Program PWSCF v.7.4 starts on 12Nov2025 at 23:15:56 

     This program is part of the open-source Quantum ESPRESSO suite
     for quantum simulation of materials; please cite
         "P. Giannozzi et al., J. Phys.:Condens. Matter 21 395502 (2009);
         "P. Giannozzi et al., J. Phys.:Condens. Matter 29 465901 (2017);
         "P. Giannozzi et al., J. Chem. Phys. 152 154105 (2020);
          URL http://www.quantum-espresso.org", 
     in publications or presentations arising from this work. More details at
     http://www.quantum-espresso.org/quote

     Parallel version (MPI & OpenMP), running on      16 processor cores
     Number of MPI processes:                16
     Threads/MPI process:                     1

     MPI processes distributed on     1 nodes
     117382 MiB available memory on the printing compute node when the environment starts

     Reading input from TiFe_H_edges_xz.in

     Current dimensions of program PWSCF are:
     Max number of different atomic species (ntypx) = 10
     Max number of k-points (npk) =  40000
     Max angular momentum in pseudopotentials (lmaxx) =  4
     file Fe.pbe-spn-kjpaw_psl.0.2.1.UPF: wavefunction(s)  3D renormalized

     IMPORTANT: XC functional enforced from input :
     Exchange-correlation= PBE
                           (   1   4   3   4   0   0   0)
     Any further DFT definition will be discarded
     Please, verify this is what you really want

     Message from routine setup:
     using ibrav=0 with symmetry is DISCOURAGED, use correct ibrav instead

     R & G space division:  proc/nbgrp/npool/nimage =      16
     Subspace diagonalization in iterative solution of the eigenvalue problem:
     a serial algorithm will be used


     Parallelization info
     --------------------
     sticks:   dense  smooth     PW     G-vecs:    dense   smooth      PW
     Min         269      76     22                13288     2024     320
     Max         271      77     23                13289     2027     323
     Sum        4309    1225    357               212623    32423    5137

     Using Slab Decomposition



     bravais-lattice index     =            0
     lattice parameter (alat)  =       5.5824  a.u.
     unit-cell volume          =     173.9675 (a.u.)^3
     number of atoms/cell      =            4
     number of atomic types    =            3
     number of electrons       =        30.00
     number of Kohn-Sham states=           19
     kinetic-energy cutoff     =     124.0000  Ry
     charge density cutoff     =    1736.0000  Ry
     scf convergence threshold =      1.0E-08
     mixing beta               =       0.7000
     number of iterations used =            8  plain     mixing
     energy convergence thresh.=      1.0E-04
     force convergence thresh. =      1.0E-03
     press convergence thresh. =      1.0E-01
     Exchange-correlation= PBE
                           (   1   4   3   4   0   0   0)
     nstep                     =           50


     celldm(1)=   5.582423  celldm(2)=   0.000000  celldm(3)=   0.000000
     celldm(4)=   0.000000  celldm(5)=   0.000000  celldm(6)=   0.000000

     crystal axes: (cart. coord. in units of alat)
               a(1) = (   1.000000   0.000000   0.000000 )  
               a(2) = (   0.000000   1.000000   0.000000 )  
               a(3) = (   0.000000   0.000000   1.000000 )  

     reciprocal axes: (cart. coord. in units 2 pi/alat)
               b(1) = (  1.000000  0.000000  0.000000 )  
               b(2) = (  0.000000  1.000000  0.000000 )  
               b(3) = (  0.000000  0.000000  1.000000 )  


     PseudoPot. # 1 for Fe read from file:
     ../../pseudos/Fe.pbe-spn-kjpaw_psl.0.2.1.UPF
     MD5 check sum: e86618425769142926afa95317d90200
     Pseudo is Projector augmented-wave + core cor, Zval = 16.0
     Generated using "atomic" code by A. Dal Corso  v.5.0.99 svn rev. 10869
     Shape of augmentation charge: PSQ
     Using radial grid of 1191 points,  6 beta functions with: 
                l(1) =   0
                l(2) =   0
                l(3) =   1
                l(4) =   1
                l(5) =   2
                l(6) =   2
     Q(r) pseudized with 0 coefficients 


     PseudoPot. # 2 for Ti read from file:
     ../../pseudos/ti_pbe_v1.4.uspp.F.UPF
     MD5 check sum: 88a00a6731bd790ddea75d31a80cb452
     Pseudo is Ultrasoft + core correction, Zval = 12.0
     Generated by new atomic code, or converted to UPF format
     Using radial grid of  851 points,  6 beta functions with: 
                l(1) =   0
                l(2) =   0
                l(3) =   1
                l(4) =   1
                l(5) =   2
                l(6) =   2
     Q(r) pseudized with  6 coefficients,  rinner =    1.000   1.000   1.000
                                                       1.000   1.000

     PseudoPot. # 3 for H  read from file:
     ../../pseudos/H.pbe-rrkjus_psl.1.0.0.UPF
     MD5 check sum: f52b6d4d1c606e5624b1dc7b2218f220
     Pseudo is Ultrasoft, Zval =  1.0
     Generated using "atomic" code by A. Dal Corso  v.5.1
     Using radial grid of  929 points,  2 beta functions with: 
                l(1) =   0
                l(2) =   0
     Q(r) pseudized with 0 coefficients 


     atomic species   valence    mass     pseudopotential
     Fe               16.00    55.84500     Fe( 1.00)
     Ti               12.00    47.86700     Ti( 1.00)
     H                 1.00     1.00750     H ( 1.00)

     16 Sym. Ops., with inversion, found



   Cartesian axes

     site n.     atom                  positions (alat units)
         1        Fe     tau(   1) = (   0.5000000   0.5000000   0.5000000  )
         2        Ti     tau(   2) = (   0.0000000   0.0000000   0.0000000  )
         3        H      tau(   3) = (   0.5000000   0.0000000   0.0000000  )
         4        H      tau(   4) = (   0.0000000   0.0000000   0.5000000  )

     number of k points=   288  Marzari-Vanderbilt smearing, width (Ry)=  0.0050

     Number of k-points >= 100: set verbosity='high' to print them.

     Dense  grid:   212623 G-vectors     FFT dimensions: (  75,  75,  75)

     Smooth grid:    32423 G-vectors     FFT dimensions: (  40,  40,  40)

     Estimated max dynamical RAM per process >      90.34 MB

     Estimated total dynamical RAM >       1.41 GB

     Check: negative core charge=   -0.000001

     Initial potential from superposition of free atoms

     starting charge      28.9995, renormalised to      30.0000

     negative rho (up, down):  1.270E-03 0.000E+00
     Starting wfcs are   25 randomized atomic wfcs
     Checking if some PAW data can be deallocated... 

     total cpu time spent up to now is        2.8 secs

     per-process dynamical memory:   160.1 Mb

     Self-consistent Calculation

     iteration #  1     ecut=   124.00 Ry     beta= 0.70
     Davidson diagonalization with overlap
     ethr =  1.00E-02,  avg # of iterations =  2.1

     negative rho (up, down):  1.327E-04 0.000E+00

     total cpu time spent up to now is        5.9 secs

     total energy              =    -435.20755285 Ry
     estimated scf accuracy    <      19.67352060 Ry

     iteration #  2     ecut=   124.00 Ry     beta= 0.70
     Davidson diagonalization with overlap
     ethr =  1.00E-02,  avg # of iterations =  6.4

     negative rho (up, down):  7.738E-06 0.000E+00

     total cpu time spent up to now is       11.7 secs

     total energy              =    -448.70072175 Ry
     estimated scf accuracy    <      79.33088807 Ry

     iteration #  3     ecut=   124.00 Ry     beta= 0.70
     Davidson diagonalization with overlap
     ethr =  1.00E-02,  avg # of iterations =  3.2

     negative rho (up, down):  1.041E-04 0.000E+00

     total cpu time spent up to now is       15.4 secs

     total energy              =    -450.86454440 Ry
     estimated scf accuracy    <      16.65588315 Ry

     iteration #  4     ecut=   124.00 Ry     beta= 0.70
     Davidson diagonalization with overlap
     ethr =  1.00E-02,  avg # of iterations =  2.2

     negative rho (up, down):  1.708E-04 0.000E+00

     total cpu time spent up to now is       18.4 secs

     total energy              =    -451.03180475 Ry
     estimated scf accuracy    <       5.29674240 Ry

     iteration #  5     ecut=   124.00 Ry     beta= 0.70
     Davidson diagonalization with overlap
     ethr =  1.00E-02,  avg # of iterations =  1.1

     negative rho (up, down):  8.261E-04 0.000E+00

     total cpu time spent up to now is       20.8 secs

     total energy              =    -450.29296389 Ry
     estimated scf accuracy    <       3.66920038 Ry

     iteration #  6     ecut=   124.00 Ry     beta= 0.70
     Davidson diagonalization with overlap
     ethr =  1.00E-02,  avg # of iterations =  2.3

     negative rho (up, down):  8.560E-04 0.000E+00

     total cpu time spent up to now is       23.6 secs

     total energy              =    -450.58725403 Ry
     estimated scf accuracy    <       0.01885551 Ry

     iteration #  7     ecut=   124.00 Ry     beta= 0.70
     Davidson diagonalization with overlap
     ethr =  6.29E-05,  avg # of iterations =  8.0

     negative rho (up, down):  6.690E-04 0.000E+00

     total cpu time spent up to now is       29.5 secs

     total energy              =    -450.57880399 Ry
     estimated scf accuracy    <       0.15057965 Ry

     iteration #  8     ecut=   124.00 Ry     beta= 0.70
     Davidson diagonalization with overlap
     ethr =  6.29E-05,  avg # of iterations =  4.5

     negative rho (up, down):  1.113E-03 0.000E+00

     total cpu time spent up to now is       33.4 secs

     total energy              =    -450.52148311 Ry
     estimated scf accuracy    <       0.38223333 Ry

     iteration #  9     ecut=   124.00 Ry     beta= 0.70
     Davidson diagonalization with overlap
     ethr =  6.29E-05,  avg # of iterations =  5.5

     negative rho (up, down):  9.472E-04 0.000E+00

     total cpu time spent up to now is       38.1 secs

     total energy              =    -450.59458938 Ry
     estimated scf accuracy    <       1.38052466 Ry

     iteration # 10     ecut=   124.00 Ry     beta= 0.70
     Davidson diagonalization with overlap
     ethr =  6.29E-05,  avg # of iterations =  3.8

     negative rho (up, down):  8.507E-04 0.000E+00

     total cpu time spent up to now is       41.6 secs

     total energy              =    -450.59632429 Ry
     estimated scf accuracy    <       0.18454521 Ry

     iteration # 11     ecut=   124.00 Ry     beta= 0.70
     Davidson diagonalization with overlap
     ethr =  6.29E-05,  avg # of iterations =  3.5

     negative rho (up, down):  8.755E-04 0.000E+00

     total cpu time spent up to now is       45.0 secs

     total energy              =    -450.61202396 Ry
     estimated scf accuracy    <       0.02189394 Ry

     iteration # 12     ecut=   124.00 Ry     beta= 0.70
     Davidson diagonalization with overlap
     ethr =  6.29E-05,  avg # of iterations =  1.1

     negative rho (up, down):  8.671E-04 0.000E+00

     total cpu time spent up to now is       47.5 secs

     total energy              =    -450.61374762 Ry
     estimated scf accuracy    <       0.00285153 Ry

     iteration # 13     ecut=   124.00 Ry     beta= 0.70
     Davidson diagonalization with overlap
     ethr =  9.51E-06,  avg # of iterations =  1.9

     negative rho (up, down):  8.677E-04 0.000E+00

     total cpu time spent up to now is       50.1 secs

     total energy              =    -450.61419592 Ry
     estimated scf accuracy    <       0.00151721 Ry

     iteration # 14     ecut=   124.00 Ry     beta= 0.70
     Davidson diagonalization with overlap
     ethr =  5.06E-06,  avg # of iterations =  1.0

     negative rho (up, down):  8.663E-04 0.000E+00

     total cpu time spent up to now is       52.6 secs

     total energy              =    -450.61422664 Ry
     estimated scf accuracy    <       0.00133580 Ry

     iteration # 15     ecut=   124.00 Ry     beta= 0.70
     Davidson diagonalization with overlap
     ethr =  4.45E-06,  avg # of iterations =  1.0

     negative rho (up, down):  8.674E-04 0.000E+00

     total cpu time spent up to now is       55.1 secs

     total energy              =    -450.61411309 Ry
     estimated scf accuracy    <       0.00164012 Ry

     iteration # 16     ecut=   124.00 Ry     beta= 0.70
     Davidson diagonalization with overlap
     ethr =  4.45E-06,  avg # of iterations =  1.0

     negative rho (up, down):  8.670E-04 0.000E+00

     total cpu time spent up to now is       57.6 secs

     total energy              =    -450.61416932 Ry
     estimated scf accuracy    <       0.00060084 Ry

     iteration # 17     ecut=   124.00 Ry     beta= 0.70
     Davidson diagonalization with overlap
     ethr =  2.00E-06,  avg # of iterations =  1.0

     negative rho (up, down):  8.783E-04 0.000E+00

     total cpu time spent up to now is       60.1 secs

     total energy              =    -450.61407088 Ry
     estimated scf accuracy    <       0.00086245 Ry

     iteration # 18     ecut=   124.00 Ry     beta= 0.70
     Davidson diagonalization with overlap
     ethr =  2.00E-06,  avg # of iterations =  1.0

     negative rho (up, down):  8.822E-04 0.000E+00

     total cpu time spent up to now is       62.6 secs

     total energy              =    -450.61406620 Ry
     estimated scf accuracy    <       0.00016455 Ry

     iteration # 19     ecut=   124.00 Ry     beta= 0.70
     Davidson diagonalization with overlap
     ethr =  5.49E-07,  avg # of iterations =  2.0

     negative rho (up, down):  8.833E-04 0.000E+00

     total cpu time spent up to now is       65.3 secs

     total energy              =    -450.61407773 Ry
     estimated scf accuracy    <       0.00000715 Ry

     iteration # 20     ecut=   124.00 Ry     beta= 0.70
     Davidson diagonalization with overlap
     ethr =  2.38E-08,  avg # of iterations =  3.5

     negative rho (up, down):  8.830E-04 0.000E+00

     total cpu time spent up to now is       68.4 secs

     total energy              =    -450.61407927 Ry
     estimated scf accuracy    <       0.00000225 Ry

     iteration # 21     ecut=   124.00 Ry     beta= 0.70
     Davidson diagonalization with overlap
     ethr =  7.52E-09,  avg # of iterations =  1.8

     negative rho (up, down):  8.830E-04 0.000E+00

     total cpu time spent up to now is       71.0 secs

     total energy              =    -450.61407942 Ry
     estimated scf accuracy    <       0.00000007 Ry

     iteration # 22     ecut=   124.00 Ry     beta= 0.70
     Davidson diagonalization with overlap
     c_bands:  1 eigenvalues not converged
     ethr =  2.25E-10,  avg # of iterations =  4.9

     negative rho (up, down):  8.830E-04 0.000E+00

     total cpu time spent up to now is       75.1 secs

     End of self-consistent calculation

     Number of k-points >= 100: set verbosity='high' to print the bands.

     the Fermi energy is    18.7963 ev

!    total energy              =    -450.61407946 Ry
     estimated scf accuracy    <          3.1E-09 Ry
     smearing contrib. (-TS)   =      -0.00026261 Ry
     internal energy E=F+TS    =    -450.61381686 Ry

     The total energy is F=E-TS. E is the sum of the following terms:
     one-electron contribution =    -142.74883092 Ry
     hartree contribution      =      90.40103302 Ry
     xc contribution           =     -54.92465219 Ry
     ewald contribution        =    -267.19370345 Ry
     one-center paw contrib.   =     -76.14766332 Ry

     convergence has been achieved in  22 iterations

     negative rho (up, down):  8.830E-04 0.000E+00

     Forces acting on atoms (cartesian axes, Ry/au):

     atom    1 type  1   force =     0.00000000    0.00000000    0.00000000
     atom    2 type  2   force =     0.00000000    0.00000000    0.00000000
     atom    3 type  3   force =     0.00000000    0.00000000    0.00000000
     atom    4 type  3   force =     0.00000000    0.00000000    0.00000000

     Total force =     0.000000     Total SCF correction =     0.000000


     Computing stress (Cartesian axis) and pressure


     negative rho (up, down):  8.830E-04 0.000E+00
          total   stress  (Ry/bohr**3)                   (kbar)     P=      732.74
   0.00671506   0.00000000   0.00000000          987.82        0.00        0.00
   0.00000000   0.00151315   0.00000000            0.00      222.59        0.00
   0.00000000   0.00000000   0.00671506            0.00        0.00      987.82


     BFGS Geometry Optimization
     Energy error            =      3.1E-01 Ry
     Gradient error          =      0.0E+00 Ry/Bohr
     Cell gradient error     =      9.9E+02 kbar

     number of scf cycles    =   1
     number of bfgs steps    =   0

     enthalpy           new  =    -450.6140794635 Ry

     new trust radius        =       0.4428473741 bohr
     new conv_thr            =       0.0000000100 Ry

     new unit-cell volume =    246.25652 a.u.^3 (    36.49145 Ang^3 )
     density =      4.81109 g/cm^3

CELL_PARAMETERS (alat=  5.58242261)
   1.167876541   0.000000000   0.000000000
   0.000000000   1.037828860   0.000000000
   0.000000000   0.000000000   1.167876541

ATOMIC_POSITIONS (crystal)
Fe               0.5000000000        0.5000000000        0.5000000000
Ti               0.0000000000        0.0000000000        0.0000000000
H                0.5000000000        0.0000000000        0.0000000000
H                0.0000000000        0.0000000000        0.5000000000



     Writing config-only to output data dir ./TiFe_H_edges_xz.save/ :
     XML data file     NEW-OLD atomic charge density approx. for the potential
     New effective cutoffs (rho, wfc): 1611.08  114.98

     Check: negative core charge=   -0.000002

     negative rho (up, down):  1.071E-03 0.000E+00

     total cpu time spent up to now is       77.2 secs

     per-process dynamical memory:   164.0 Mb

     Self-consistent Calculation

     iteration #  1     ecut=   124.00 Ry     beta= 0.70
     Davidson diagonalization with overlap
     c_bands:  1 eigenvalues not converged
     c_bands:  1 eigenvalues not converged
     c_bands:  1 eigenvalues not converged
     c_bands:  1 eigenvalues not converged
     c_bands:  1 eigenvalues not converged
     c_bands:  1 eigenvalues not converged
     c_bands:  1 eigenvalues not converged
     c_bands:  1 eigenvalues not converged
     c_bands:  1 eigenvalues not converged
     c_bands:  1 eigenvalues not converged
     c_bands:  1 eigenvalues not converged
     c_bands:  1 eigenvalues not converged
     c_bands:  1 eigenvalues not converged
     c_bands:  1 eigenvalues not converged
     c_bands:  2 eigenvalues not converged
     c_bands:  1 eigenvalues not converged
     c_bands:  1 eigenvalues not converged
     c_bands:  1 eigenvalues not converged
     c_bands:  1 eigenvalues not converged
     ethr =  1.00E-06,  avg # of iterations = 16.9

     negative rho (up, down):  1.101E-03 0.000E+00

     total cpu time spent up to now is       91.2 secs

     total energy              =    -450.49412936 Ry
     estimated scf accuracy    <       0.33362654 Ry

     iteration #  2     ecut=   124.00 Ry     beta= 0.70
     Davidson diagonalization with overlap
     ethr =  1.11E-03,  avg # of iterations =  6.7

     negative rho (up, down):  6.865E-04 0.000E+00

     total cpu time spent up to now is       95.9 secs

     total energy              =    -449.60097111 Ry
     estimated scf accuracy    <      35.85368394 Ry

     iteration #  3     ecut=   124.00 Ry     beta= 0.70
     Davidson diagonalization with overlap
     ethr =  1.11E-03,  avg # of iterations =  5.9

     negative rho (up, down):  8.673E-04 0.000E+00

     total cpu time spent up to now is      100.4 secs

     total energy              =    -450.71098963 Ry
     estimated scf accuracy    <       0.56714171 Ry

     iteration #  4     ecut=   124.00 Ry     beta= 0.70
     Davidson diagonalization with overlap
     ethr =  1.11E-03,  avg # of iterations =  2.1

     negative rho (up, down):  8.861E-04 0.000E+00

     total cpu time spent up to now is      103.3 secs

     total energy              =    -450.74780398 Ry
     estimated scf accuracy    <       0.00861696 Ry

     iteration #  5     ecut=   124.00 Ry     beta= 0.70
     Davidson diagonalization with overlap
     ethr =  2.87E-05,  avg # of iterations =  5.5

     negative rho (up, down):  8.854E-04 0.000E+00

     total cpu time spent up to now is      108.0 secs

     total energy              =    -450.75559381 Ry
     estimated scf accuracy    <       0.00176316 Ry

     iteration #  6     ecut=   124.00 Ry     beta= 0.70
     Davidson diagonalization with overlap
     ethr =  5.88E-06,  avg # of iterations =  2.8

     negative rho (up, down):  8.810E-04 0.000E+00

     total cpu time spent up to now is      110.9 secs

     total energy              =    -450.75569310 Ry
     estimated scf accuracy    <       0.00101426 Ry

     iteration #  7     ecut=   124.00 Ry     beta= 0.70
     Davidson diagonalization with overlap
     ethr =  3.38E-06,  avg # of iterations =  1.2

     negative rho (up, down):  8.726E-04 0.000E+00

     total cpu time spent up to now is      113.4 secs

     total energy              =    -450.75558400 Ry
     estimated scf accuracy    <       0.00047904 Ry

     iteration #  8     ecut=   124.00 Ry     beta= 0.70
     Davidson diagonalization with overlap
     ethr =  1.60E-06,  avg # of iterations =  2.1

     negative rho (up, down):  8.700E-04 0.000E+00

     total cpu time spent up to now is      116.4 secs

     total energy              =    -450.75564345 Ry
     estimated scf accuracy    <       0.00001386 Ry

     iteration #  9     ecut=   124.00 Ry     beta= 0.70
     Davidson diagonalization with overlap
     ethr =  4.62E-08,  avg # of iterations =  4.8

     negative rho (up, down):  8.705E-04 0.000E+00

     total cpu time spent up to now is      120.5 secs

     total energy              =    -450.75565180 Ry
     estimated scf accuracy    <       0.00000579 Ry

     iteration # 10     ecut=   124.00 Ry     beta= 0.70
     Davidson diagonalization with overlap
     ethr =  1.93E-08,  avg # of iterations =  2.3

     negative rho (up, down):  8.707E-04 0.000E+00

     total cpu time spent up to now is      123.5 secs

     total energy              =    -450.75565276 Ry
     estimated scf accuracy    <       0.00000100 Ry

     iteration # 11     ecut=   124.00 Ry     beta= 0.70
     Davidson diagonalization with overlap
     ethr =  3.32E-09,  avg # of iterations =  2.7

     negative rho (up, down):  8.706E-04 0.000E+00

     total cpu time spent up to now is      126.4 secs

     End of self-consistent calculation

     Number of k-points >= 100: set verbosity='high' to print the bands.

     the Fermi energy is    12.4688 ev

!    total energy              =    -450.75565289 Ry
     estimated scf accuracy    <          9.9E-09 Ry
     smearing contrib. (-TS)   =      -0.00014785 Ry
     internal energy E=F+TS    =    -450.75550504 Ry

     The total energy is F=E-TS. E is the sum of the following terms:
     one-electron contribution =    -188.37800635 Ry
     hartree contribution      =     106.19602408 Ry
     xc contribution           =     -54.18739499 Ry
     ewald contribution        =    -238.24649610 Ry
     one-center paw contrib.   =     -76.13963168 Ry

     convergence has been achieved in  11 iterations

     negative rho (up, down):  8.706E-04 0.000E+00

     Forces acting on atoms (cartesian axes, Ry/au):

     atom    1 type  1   force =     0.00000000    0.00000000    0.00000000
     atom    2 type  2   force =     0.00000000    0.00000000    0.00000000
     atom    3 type  3   force =     0.00000000    0.00000000    0.00000000
     atom    4 type  3   force =     0.00000000    0.00000000    0.00000000

     Total force =     0.000000     Total SCF correction =     0.000000


     Computing stress (Cartesian axis) and pressure


     negative rho (up, down):  8.706E-04 0.000E+00
          total   stress  (Ry/bohr**3)                   (kbar)     P=     -106.30
  -0.00041608   0.00000000   0.00000000          -61.21        0.00        0.00
   0.00000000  -0.00133567   0.00000000            0.00     -196.48        0.00
   0.00000000   0.00000000  -0.00041608            0.00        0.00      -61.21

     Energy error            =      1.4E-01 Ry
     Gradient error          =      0.0E+00 Ry/Bohr
     Cell gradient error     =      2.0E+02 kbar

     number of scf cycles    =   2
     number of bfgs steps    =   1

     enthalpy           old  =    -450.6140794635 Ry
     enthalpy           new  =    -450.7556528938 Ry

     CASE: enthalpy          _new < enthalpy          _old

     new trust radius        =       0.1219699471 bohr
     new conv_thr            =            1.0E-10 Ry

     new unit-cell volume =    233.78335 a.u.^3 (    34.64312 Ang^3 )
     density =      5.06778 g/cm^3

CELL_PARAMETERS (alat=  5.58242261)
   1.160692171   0.000000000   0.000000000
   0.000000000   0.997496401   0.000000000
   0.000000000   0.000000000   1.160692171

ATOMIC_POSITIONS (crystal)
Fe               0.5000000000        0.5000000000        0.5000000000
Ti               0.0000000000        0.0000000000        0.0000000000
H                0.5000000000        0.0000000000        0.0000000000
H                0.0000000000        0.0000000000        0.5000000000



     Writing config-only to output data dir ./TiFe_H_edges_xz.save/ :
     XML data file     NEW-OLD atomic charge density approx. for the potential
     New effective cutoffs (rho, wfc): 1743.93  124.43

     Check: negative core charge=   -0.000002

     negative rho (up, down):  8.332E-04 0.000E+00

     total cpu time spent up to now is      128.5 secs

     per-process dynamical memory:   164.4 Mb

     Self-consistent Calculation

     iteration #  1     ecut=   124.00 Ry     beta= 0.70
     Davidson diagonalization with overlap
     ethr =  1.00E-06,  avg # of iterations =  9.6

     negative rho (up, down):  8.367E-04 0.000E+00

     total cpu time spent up to now is      136.9 secs

     total energy              =    -450.76601970 Ry
     estimated scf accuracy    <       0.00297121 Ry

     iteration #  2     ecut=   124.00 Ry     beta= 0.70
     Davidson diagonalization with overlap
     ethr =  9.90E-06,  avg # of iterations =  5.0

     negative rho (up, down):  8.567E-04 0.000E+00

     total cpu time spent up to now is      141.0 secs

     total energy              =    -450.75005078 Ry
     estimated scf accuracy    <       0.37759201 Ry

     iteration #  3     ecut=   124.00 Ry     beta= 0.70
     Davidson diagonalization with overlap
     ethr =  9.90E-06,  avg # of iterations =  4.7

     negative rho (up, down):  8.522E-04 0.000E+00

     total cpu time spent up to now is      144.9 secs

     total energy              =    -450.76765220 Ry
     estimated scf accuracy    <       0.00347176 Ry

     iteration #  4     ecut=   124.00 Ry     beta= 0.70
     Davidson diagonalization with overlap
     ethr =  9.90E-06,  avg # of iterations =  1.0

     negative rho (up, down):  8.546E-04 0.000E+00

     total cpu time spent up to now is      147.4 secs

     total energy              =    -450.76786186 Ry
     estimated scf accuracy    <       0.00006923 Ry

     iteration #  5     ecut=   124.00 Ry     beta= 0.70
     Davidson diagonalization with overlap
     ethr =  2.31E-07,  avg # of iterations =  4.2

     negative rho (up, down):  8.560E-04 0.000E+00

     total cpu time spent up to now is      150.8 secs

     total energy              =    -450.76788017 Ry
     estimated scf accuracy    <       0.00000706 Ry

     iteration #  6     ecut=   124.00 Ry     beta= 0.70
     Davidson diagonalization with overlap
     ethr =  2.35E-08,  avg # of iterations =  4.4

     negative rho (up, down):  8.560E-04 0.000E+00

     total cpu time spent up to now is      154.6 secs

     total energy              =    -450.76788289 Ry
     estimated scf accuracy    <       0.00000069 Ry

     iteration #  7     ecut=   124.00 Ry     beta= 0.70
     Davidson diagonalization with overlap
     ethr =  2.31E-09,  avg # of iterations =  3.1

     negative rho (up, down):  8.561E-04 0.000E+00

     total cpu time spent up to now is      157.8 secs

     total energy              =    -450.76788303 Ry
     estimated scf accuracy    <       0.00000013 Ry

     iteration #  8     ecut=   124.00 Ry     beta= 0.70
     Davidson diagonalization with overlap
     ethr =  4.25E-10,  avg # of iterations =  4.4

     negative rho (up, down):  8.561E-04 0.000E+00

     total cpu time spent up to now is      161.4 secs

     total energy              =    -450.76788306 Ry
     estimated scf accuracy    <          6.5E-09 Ry

     iteration #  9     ecut=   124.00 Ry     beta= 0.70
     Davidson diagonalization with overlap
     ethr =  2.17E-11,  avg # of iterations =  4.3

     negative rho (up, down):  8.561E-04 0.000E+00

     total cpu time spent up to now is      165.1 secs

     total energy              =    -450.76788307 Ry
     estimated scf accuracy    <          2.3E-09 Ry

     iteration # 10     ecut=   124.00 Ry     beta= 0.70
     Davidson diagonalization with overlap
     ethr =  7.68E-12,  avg # of iterations =  2.0

     negative rho (up, down):  8.561E-04 0.000E+00

     total cpu time spent up to now is      167.9 secs

     End of self-consistent calculation

     Number of k-points >= 100: set verbosity='high' to print the bands.

     the Fermi energy is    13.3099 ev

!    total energy              =    -450.76788307 Ry
     estimated scf accuracy    <          1.8E-11 Ry
     smearing contrib. (-TS)   =      -0.00005938 Ry
     internal energy E=F+TS    =    -450.76782368 Ry

     The total energy is F=E-TS. E is the sum of the following terms:
     one-electron contribution =    -181.78169481 Ry
     hartree contribution      =     103.84537048 Ry
     xc contribution           =     -54.26272518 Ry
     ewald contribution        =    -242.42788636 Ry
     one-center paw contrib.   =     -76.14088781 Ry

     convergence has been achieved in  10 iterations

     negative rho (up, down):  8.561E-04 0.000E+00

     Forces acting on atoms (cartesian axes, Ry/au):

     atom    1 type  1   force =     0.00000000    0.00000000    0.00000000
     atom    2 type  2   force =     0.00000000    0.00000000    0.00000000
     atom    3 type  3   force =     0.00000000    0.00000000    0.00000000
     atom    4 type  3   force =     0.00000000    0.00000000    0.00000000

     Total force =     0.000000     Total SCF correction =     0.000000


     Computing stress (Cartesian axis) and pressure


     negative rho (up, down):  8.561E-04 0.000E+00
          total   stress  (Ry/bohr**3)                   (kbar)     P=      -62.75
  -0.00012011   0.00000000   0.00000000          -17.67        0.00        0.00
   0.00000000  -0.00103956   0.00000000            0.00     -152.93        0.00
   0.00000000   0.00000000  -0.00012011            0.00        0.00      -17.67

     Energy error            =      1.2E-02 Ry
     Gradient error          =      0.0E+00 Ry/Bohr
     Cell gradient error     =      1.5E+02 kbar

     number of scf cycles    =   3
     number of bfgs steps    =   2

     enthalpy           old  =    -450.7556528938 Ry
     enthalpy           new  =    -450.7678830666 Ry

     CASE: enthalpy          _new < enthalpy          _old

     new trust radius        =       0.1360106275 bohr
     new conv_thr            =            1.0E-10 Ry

     new unit-cell volume =    223.22954 a.u.^3 (    33.07921 Ang^3 )
     density =      5.30738 g/cm^3

CELL_PARAMETERS (alat=  5.58242261)
   1.160287301   0.000000000   0.000000000
   0.000000000   0.953130695   0.000000000
   0.000000000   0.000000000   1.160287301

ATOMIC_POSITIONS (crystal)
Fe               0.5000000000        0.5000000000        0.5000000000
Ti               0.0000000000        0.0000000000        0.0000000000
H                0.5000000000        0.0000000000        0.0000000000
H                0.0000000000        0.0000000000        0.5000000000



     Writing config-only to output data dir ./TiFe_H_edges_xz.save/ :
     XML data file     NEW-OLD atomic charge density approx. for the potential
     New effective cutoffs (rho, wfc): 1909.97  136.24

     Check: negative core charge=   -0.000002

     negative rho (up, down):  8.197E-04 0.000E+00

     total cpu time spent up to now is      169.9 secs

     per-process dynamical memory:   164.5 Mb

     Self-consistent Calculation

     iteration #  1     ecut=   124.00 Ry     beta= 0.70
     Davidson diagonalization with overlap
     ethr =  1.00E-06,  avg # of iterations =  9.5

     negative rho (up, down):  8.031E-04 0.000E+00

     total cpu time spent up to now is      178.2 secs

     total energy              =    -450.77333759 Ry
     estimated scf accuracy    <       0.00562146 Ry

     iteration #  2     ecut=   124.00 Ry     beta= 0.70
     Davidson diagonalization with overlap
     ethr =  1.87E-05,  avg # of iterations =  4.8

     negative rho (up, down):  8.297E-04 0.000E+00

     total cpu time spent up to now is      182.3 secs

     total energy              =    -450.74516752 Ry
     estimated scf accuracy    <       0.64347351 Ry

     iteration #  3     ecut=   124.00 Ry     beta= 0.70
     Davidson diagonalization with overlap
     ethr =  1.87E-05,  avg # of iterations =  4.7

     negative rho (up, down):  8.325E-04 0.000E+00

     total cpu time spent up to now is      186.2 secs

     total energy              =    -450.77644214 Ry
     estimated scf accuracy    <       0.00454058 Ry

     iteration #  4     ecut=   124.00 Ry     beta= 0.70
     Davidson diagonalization with overlap
     ethr =  1.51E-05,  avg # of iterations =  1.0

     negative rho (up, down):  8.319E-04 0.000E+00

     total cpu time spent up to now is      188.7 secs

     total energy              =    -450.77669373 Ry
     estimated scf accuracy    <       0.00013451 Ry

     iteration #  5     ecut=   124.00 Ry     beta= 0.70
     Davidson diagonalization with overlap
     ethr =  4.48E-07,  avg # of iterations =  4.3

     negative rho (up, down):  8.333E-04 0.000E+00

     total cpu time spent up to now is      192.1 secs

     total energy              =    -450.77672689 Ry
     estimated scf accuracy    <       0.00000485 Ry

     iteration #  6     ecut=   124.00 Ry     beta= 0.70
     Davidson diagonalization with overlap
     ethr =  1.62E-08,  avg # of iterations =  4.7

     negative rho (up, down):  8.330E-04 0.000E+00

     total cpu time spent up to now is      196.1 secs

     total energy              =    -450.77673001 Ry
     estimated scf accuracy    <       0.00000098 Ry

     iteration #  7     ecut=   124.00 Ry     beta= 0.70
     Davidson diagonalization with overlap
     ethr =  3.28E-09,  avg # of iterations =  2.2

     negative rho (up, down):  8.332E-04 0.000E+00

     total cpu time spent up to now is      199.0 secs

     total energy              =    -450.77673007 Ry
     estimated scf accuracy    <       0.00000029 Ry

     iteration #  8     ecut=   124.00 Ry     beta= 0.70
     Davidson diagonalization with overlap
     ethr =  9.61E-10,  avg # of iterations =  3.9

     negative rho (up, down):  8.333E-04 0.000E+00

     total cpu time spent up to now is      202.3 secs

     total energy              =    -450.77673012 Ry
     estimated scf accuracy    <       0.00000002 Ry

     iteration #  9     ecut=   124.00 Ry     beta= 0.70
     Davidson diagonalization with overlap
     ethr =  7.12E-11,  avg # of iterations =  3.6

     negative rho (up, down):  8.333E-04 0.000E+00

     total cpu time spent up to now is      205.7 secs

     total energy              =    -450.77673013 Ry
     estimated scf accuracy    <          1.5E-09 Ry

     iteration # 10     ecut=   124.00 Ry     beta= 0.70
     Davidson diagonalization with overlap
     ethr =  5.10E-12,  avg # of iterations =  4.6

     negative rho (up, down):  8.333E-04 0.000E+00

     total cpu time spent up to now is      209.5 secs

     total energy              =    -450.77673013 Ry
     estimated scf accuracy    <          1.6E-10 Ry

     iteration # 11     ecut=   124.00 Ry     beta= 0.70
     Davidson diagonalization with overlap
     ethr =  5.47E-13,  avg # of iterations =  3.3

     negative rho (up, down):  8.333E-04 0.000E+00

     total cpu time spent up to now is      212.6 secs

     End of self-consistent calculation

     Number of k-points >= 100: set verbosity='high' to print the bands.

     the Fermi energy is    14.0795 ev

!    total energy              =    -450.77673013 Ry
     estimated scf accuracy    <          1.7E-12 Ry
     smearing contrib. (-TS)   =       0.00000162 Ry
     internal energy E=F+TS    =    -450.77673175 Ry

     The total energy is F=E-TS. E is the sum of the following terms:
     one-electron contribution =    -175.99984715 Ry
     hartree contribution      =     101.84502593 Ry
     xc contribution           =     -54.33230745 Ry
     ewald contribution        =    -246.14744556 Ry
     one-center paw contrib.   =     -76.14215752 Ry

     convergence has been achieved in  11 iterations

     negative rho (up, down):  8.333E-04 0.000E+00

     Forces acting on atoms (cartesian axes, Ry/au):

     atom    1 type  1   force =     0.00000000    0.00000000    0.00000000
     atom    2 type  2   force =     0.00000000    0.00000000    0.00000000
     atom    3 type  3   force =     0.00000000    0.00000000    0.00000000
     atom    4 type  3   force =     0.00000000    0.00000000    0.00000000

     Total force =     0.000000     Total SCF correction =     0.000000


     Computing stress (Cartesian axis) and pressure


     negative rho (up, down):  8.333E-04 0.000E+00
          total   stress  (Ry/bohr**3)                   (kbar)     P=      -18.72
   0.00012590   0.00000000   0.00000000           18.52        0.00        0.00
   0.00000000  -0.00063360   0.00000000            0.00      -93.21        0.00
   0.00000000   0.00000000   0.00012590            0.00        0.00       18.52

     Energy error            =      8.8E-03 Ry
     Gradient error          =      0.0E+00 Ry/Bohr
     Cell gradient error     =      9.3E+01 kbar

     number of scf cycles    =   4
     number of bfgs steps    =   3

     enthalpy           old  =    -450.7678830666 Ry
     enthalpy           new  =    -450.7767301293 Ry

     CASE: enthalpy          _new < enthalpy          _old

     new trust radius        =       0.2086373355 bohr
     new conv_thr            =            1.0E-10 Ry

     new unit-cell volume =    210.99176 a.u.^3 (    31.26575 Ang^3 )
     density =      5.61521 g/cm^3

CELL_PARAMETERS (alat=  5.58242261)
   1.169604947   0.000000000   0.000000000
   0.000000000   0.886582136   0.000000000
   0.000000000   0.000000000   1.169604947

ATOMIC_POSITIONS (crystal)
Fe               0.5000000000        0.5000000000        0.5000000000
Ti               0.0000000000        0.0000000000        0.0000000000
H                0.5000000000        0.0000000000        0.0000000000
H                0.0000000000        0.0000000000        0.5000000000



     Writing config-only to output data dir ./TiFe_H_edges_xz.save/ :
     XML data file     NEW-OLD atomic charge density approx. for the potential
     New effective cutoffs (rho, wfc): 2207.30  157.38

     Check: negative core charge=   -0.000002

     negative rho (up, down):  8.025E-04 0.000E+00

     total cpu time spent up to now is      214.6 secs

     per-process dynamical memory:   164.5 Mb

     Self-consistent Calculation

     iteration #  1     ecut=   124.00 Ry     beta= 0.70
     Davidson diagonalization with overlap
     ethr =  1.00E-06,  avg # of iterations = 10.5

     negative rho (up, down):  7.512E-04 0.000E+00

     total cpu time spent up to now is      223.7 secs

     total energy              =    -450.77308452 Ry
     estimated scf accuracy    <       0.01248745 Ry

     iteration #  2     ecut=   124.00 Ry     beta= 0.70
     Davidson diagonalization with overlap
     ethr =  4.16E-05,  avg # of iterations =  4.9

     negative rho (up, down):  7.927E-04 0.000E+00

     total cpu time spent up to now is      227.8 secs

     total energy              =    -450.71522044 Ry
     estimated scf accuracy    <       1.24341201 Ry

     iteration #  3     ecut=   124.00 Ry     beta= 0.70
     Davidson diagonalization with overlap
     ethr =  4.16E-05,  avg # of iterations =  4.6

     negative rho (up, down):  8.088E-04 0.000E+00

     total cpu time spent up to now is      231.8 secs

     total energy              =    -450.78022932 Ry
     estimated scf accuracy    <       0.00746538 Ry

     iteration #  4     ecut=   124.00 Ry     beta= 0.70
     Davidson diagonalization with overlap
     ethr =  2.49E-05,  avg # of iterations =  1.4

     negative rho (up, down):  8.025E-04 0.000E+00

     total cpu time spent up to now is      234.3 secs

     total energy              =    -450.78068592 Ry
     estimated scf accuracy    <       0.00040716 Ry

     iteration #  5     ecut=   124.00 Ry     beta= 0.70
     Davidson diagonalization with overlap
     ethr =  1.36E-06,  avg # of iterations =  3.2

     negative rho (up, down):  8.038E-04 0.000E+00

     total cpu time spent up to now is      237.5 secs

     total energy              =    -450.78075804 Ry
     estimated scf accuracy    <       0.00001522 Ry

     iteration #  6     ecut=   124.00 Ry     beta= 0.70
     Davidson diagonalization with overlap
     ethr =  5.07E-08,  avg # of iterations =  4.6

     negative rho (up, down):  8.039E-04 0.000E+00

     total cpu time spent up to now is      241.3 secs

     total energy              =    -450.78076531 Ry
     estimated scf accuracy    <       0.00000114 Ry

     iteration #  7     ecut=   124.00 Ry     beta= 0.70
     Davidson diagonalization with overlap
     ethr =  3.80E-09,  avg # of iterations =  3.5

     negative rho (up, down):  8.041E-04 0.000E+00

     total cpu time spent up to now is      244.6 secs

     total energy              =    -450.78076556 Ry
     estimated scf accuracy    <       0.00000018 Ry

     iteration #  8     ecut=   124.00 Ry     beta= 0.70
     Davidson diagonalization with overlap
     ethr =  5.98E-10,  avg # of iterations =  3.0

     negative rho (up, down):  8.041E-04 0.000E+00

     total cpu time spent up to now is      247.8 secs

     total energy              =    -450.78076560 Ry
     estimated scf accuracy    <       0.00000001 Ry

     iteration #  9     ecut=   124.00 Ry     beta= 0.70
     Davidson diagonalization with overlap
     ethr =  4.00E-11,  avg # of iterations =  4.5

     negative rho (up, down):  8.041E-04 0.000E+00

     total cpu time spent up to now is      251.7 secs

     total energy              =    -450.78076560 Ry
     estimated scf accuracy    <          6.4E-10 Ry

     iteration # 10     ecut=   124.00 Ry     beta= 0.70
     Davidson diagonalization with overlap
     ethr =  2.13E-12,  avg # of iterations =  4.5

     negative rho (up, down):  8.041E-04 0.000E+00

     total cpu time spent up to now is      255.4 secs

     End of self-consistent calculation

     Number of k-points >= 100: set verbosity='high' to print the bands.

     the Fermi energy is    15.0581 ev

!    total energy              =    -450.78076560 Ry
     estimated scf accuracy    <          2.0E-11 Ry
     smearing contrib. (-TS)   =       0.00004906 Ry
     internal energy E=F+TS    =    -450.78081466 Ry

     The total energy is F=E-TS. E is the sum of the following terms:
     one-electron contribution =    -169.45143414 Ry
     hartree contribution      =      99.73180278 Ry
     xc contribution           =     -54.42730695 Ry
     ewald contribution        =    -250.48990832 Ry
     one-center paw contrib.   =     -76.14396804 Ry

     convergence has been achieved in  10 iterations

     negative rho (up, down):  8.041E-04 0.000E+00

     Forces acting on atoms (cartesian axes, Ry/au):

     atom    1 type  1   force =     0.00000000    0.00000000    0.00000000
     atom    2 type  2   force =     0.00000000    0.00000000    0.00000000
     atom    3 type  3   force =     0.00000000    0.00000000    0.00000000
     atom    4 type  3   force =     0.00000000    0.00000000    0.00000000

     Total force =     0.000000     Total SCF correction =     0.000000


     Computing stress (Cartesian axis) and pressure


     negative rho (up, down):  8.041E-04 0.000E+00
          total   stress  (Ry/bohr**3)                   (kbar)     P=       45.68
   0.00031359   0.00000000   0.00000000           46.13        0.00        0.00
   0.00000000   0.00030429   0.00000000            0.00       44.76        0.00
   0.00000000   0.00000000   0.00031359            0.00        0.00       46.13

     Energy error            =      4.0E-03 Ry
     Gradient error          =      0.0E+00 Ry/Bohr
     Cell gradient error     =      4.6E+01 kbar

     number of scf cycles    =   5
     number of bfgs steps    =   4

     enthalpy           old  =    -450.7767301293 Ry
     enthalpy           new  =    -450.7807656025 Ry

     CASE: enthalpy          _new < enthalpy          _old

     new trust radius        =       0.0530706916 bohr
     new conv_thr            =            1.0E-10 Ry

     new unit-cell volume =    215.91912 a.u.^3 (    31.99591 Ang^3 )
     density =      5.48707 g/cm^3

CELL_PARAMETERS (alat=  5.58242261)
   1.172521830   0.000000000   0.000000000
   0.000000000   0.902778256   0.000000000
   0.000000000   0.000000000   1.172521830

ATOMIC_POSITIONS (crystal)
Fe               0.5000000000        0.5000000000        0.5000000000
Ti               0.0000000000        0.0000000000        0.0000000000
H                0.5000000000        0.0000000000        0.0000000000
H                0.0000000000        0.0000000000        0.5000000000



     Writing config-only to output data dir ./TiFe_H_edges_xz.save/ :
     XML data file     NEW-OLD atomic charge density approx. for the potential
     New effective cutoffs (rho, wfc): 2128.84  151.80

     Check: negative core charge=   -0.000002

     negative rho (up, down):  8.187E-04 0.000E+00

     total cpu time spent up to now is      257.5 secs

     per-process dynamical memory:   164.5 Mb

     Self-consistent Calculation

     iteration #  1     ecut=   124.00 Ry     beta= 0.70
     Davidson diagonalization with overlap
     ethr =  1.00E-06,  avg # of iterations =  7.8

     negative rho (up, down):  8.283E-04 0.000E+00

     total cpu time spent up to now is      264.1 secs

     total energy              =    -450.77971184 Ry
     estimated scf accuracy    <       0.00175331 Ry

     iteration #  2     ecut=   124.00 Ry     beta= 0.70
     Davidson diagonalization with overlap
     ethr =  5.84E-06,  avg # of iterations =  5.5

     negative rho (up, down):  8.088E-04 0.000E+00

     total cpu time spent up to now is      268.5 secs

     total energy              =    -450.76604852 Ry
     estimated scf accuracy    <       0.36757522 Ry

     iteration #  3     ecut=   124.00 Ry     beta= 0.70
     Davidson diagonalization with overlap
     ethr =  5.84E-06,  avg # of iterations =  5.1

     negative rho (up, down):  8.138E-04 0.000E+00

     total cpu time spent up to now is      272.8 secs

     total energy              =    -450.78147599 Ry
     estimated scf accuracy    <       0.00007139 Ry

     iteration #  4     ecut=   124.00 Ry     beta= 0.70
     Davidson diagonalization with overlap
     ethr =  2.38E-07,  avg # of iterations =  4.2

     negative rho (up, down):  8.125E-04 0.000E+00

     total cpu time spent up to now is      276.7 secs

     total energy              =    -450.78151371 Ry
     estimated scf accuracy    <       0.00002096 Ry

     iteration #  5     ecut=   124.00 Ry     beta= 0.70
     Davidson diagonalization with overlap
     ethr =  6.99E-08,  avg # of iterations =  2.2

     negative rho (up, down):  8.123E-04 0.000E+00

     total cpu time spent up to now is      279.6 secs

     total energy              =    -450.78151647 Ry
     estimated scf accuracy    <       0.00000229 Ry

     iteration #  6     ecut=   124.00 Ry     beta= 0.70
     Davidson diagonalization with overlap
     ethr =  7.65E-09,  avg # of iterations =  3.6

     negative rho (up, down):  8.124E-04 0.000E+00

     total cpu time spent up to now is      282.9 secs

     total energy              =    -450.78151700 Ry
     estimated scf accuracy    <       0.00000008 Ry

     iteration #  7     ecut=   124.00 Ry     beta= 0.70
     Davidson diagonalization with overlap
     ethr =  2.54E-10,  avg # of iterations =  5.0

     negative rho (up, down):  8.124E-04 0.000E+00

     total cpu time spent up to now is      287.1 secs

     total energy              =    -450.78151706 Ry
     estimated scf accuracy    <       0.00000002 Ry

     iteration #  8     ecut=   124.00 Ry     beta= 0.70
     Davidson diagonalization with overlap
     ethr =  5.74E-11,  avg # of iterations =  1.8

     negative rho (up, down):  8.124E-04 0.000E+00

     total cpu time spent up to now is      289.7 secs

     total energy              =    -450.78151706 Ry
     estimated scf accuracy    <          1.1E-09 Ry

     iteration #  9     ecut=   124.00 Ry     beta= 0.70
     Davidson diagonalization with overlap
     ethr =  3.57E-12,  avg # of iterations =  4.6

     negative rho (up, down):  8.124E-04 0.000E+00

     total cpu time spent up to now is      293.5 secs

     End of self-consistent calculation

     Number of k-points >= 100: set verbosity='high' to print the bands.

     the Fermi energy is    14.6511 ev

!    total energy              =    -450.78151706 Ry
     estimated scf accuracy    <          4.6E-11 Ry
     smearing contrib. (-TS)   =       0.00002631 Ry
     internal energy E=F+TS    =    -450.78154337 Ry

     The total energy is F=E-TS. E is the sum of the following terms:
     one-electron contribution =    -172.25599272 Ry
     hartree contribution      =     100.66400728 Ry
     xc contribution           =     -54.38414640 Ry
     ewald contribution        =    -248.66209735 Ry
     one-center paw contrib.   =     -76.14331420 Ry

     convergence has been achieved in   9 iterations

     negative rho (up, down):  8.124E-04 0.000E+00

     Forces acting on atoms (cartesian axes, Ry/au):

     atom    1 type  1   force =     0.00000000    0.00000000    0.00000000
     atom    2 type  2   force =     0.00000000    0.00000000    0.00000000
     atom    3 type  3   force =     0.00000000    0.00000000    0.00000000
     atom    4 type  3   force =     0.00000000    0.00000000    0.00000000

     Total force =     0.000000     Total SCF correction =     0.000000


     Computing stress (Cartesian axis) and pressure


     negative rho (up, down):  8.124E-04 0.000E+00
          total   stress  (Ry/bohr**3)                   (kbar)     P=       11.54
   0.00013176   0.00000000   0.00000000           19.38        0.00        0.00
   0.00000000  -0.00002811   0.00000000            0.00       -4.14        0.00
   0.00000000   0.00000000   0.00013176            0.00        0.00       19.38

     Energy error            =      7.5E-04 Ry
     Gradient error          =      0.0E+00 Ry/Bohr
     Cell gradient error     =      1.9E+01 kbar

     number of scf cycles    =   6
     number of bfgs steps    =   5

     enthalpy           old  =    -450.7807656025 Ry
     enthalpy           new  =    -450.7815170612 Ry

     CASE: enthalpy          _new < enthalpy          _old

     new trust radius        =       0.0101840796 bohr
     new conv_thr            =            1.0E-10 Ry

     new unit-cell volume =    216.71865 a.u.^3 (    32.11439 Ang^3 )
     density =      5.46683 g/cm^3

CELL_PARAMETERS (alat=  5.58242261)
   1.176585020   0.000000000   0.000000000
   0.000000000   0.899873628   0.000000000
   0.000000000   0.000000000   1.176585020

ATOMIC_POSITIONS (crystal)
Fe               0.5000000000        0.5000000000        0.5000000000
Ti               0.0000000000        0.0000000000        0.0000000000
H                0.5000000000        0.0000000000        0.0000000000
H                0.0000000000        0.0000000000        0.5000000000



     Writing config-only to output data dir ./TiFe_H_edges_xz.save/ :
     XML data file     NEW-OLD atomic charge density approx. for the potential
     New effective cutoffs (rho, wfc): 2142.60  152.77

     Check: negative core charge=   -0.000002

     negative rho (up, down):  8.151E-04 0.000E+00

     total cpu time spent up to now is      295.5 secs

     per-process dynamical memory:   164.6 Mb

     Self-consistent Calculation

     iteration #  1     ecut=   124.00 Ry     beta= 0.70
     Davidson diagonalization with overlap
     ethr =  1.00E-06,  avg # of iterations =  4.3

     negative rho (up, down):  8.068E-04 0.000E+00

     total cpu time spent up to now is      300.1 secs

     total energy              =    -450.78161438 Ry
     estimated scf accuracy    <       0.00006276 Ry

     iteration #  2     ecut=   124.00 Ry     beta= 0.70
     Davidson diagonalization with overlap
     ethr =  2.09E-07,  avg # of iterations =  4.7

     negative rho (up, down):  8.098E-04 0.000E+00

     total cpu time spent up to now is      304.2 secs

     total energy              =    -450.78143428 Ry
     estimated scf accuracy    <       0.00414170 Ry

     iteration #  3     ecut=   124.00 Ry     beta= 0.70
     Davidson diagonalization with overlap
     ethr =  2.09E-07,  avg # of iterations =  4.5

     negative rho (up, down):  8.118E-04 0.000E+00

     total cpu time spent up to now is      307.7 secs

     total energy              =    -450.78165761 Ry
     estimated scf accuracy    <       0.00011819 Ry

     iteration #  4     ecut=   124.00 Ry     beta= 0.70
     Davidson diagonalization with overlap
     ethr =  2.09E-07,  avg # of iterations =  2.0

     negative rho (up, down):  8.113E-04 0.000E+00

     total cpu time spent up to now is      310.6 secs

     total energy              =    -450.78166755 Ry
     estimated scf accuracy    <       0.00000044 Ry

     iteration #  5     ecut=   124.00 Ry     beta= 0.70
     Davidson diagonalization with overlap
     ethr =  1.47E-09,  avg # of iterations =  5.1

     negative rho (up, down):  8.108E-04 0.000E+00

     total cpu time spent up to now is      315.0 secs

     total energy              =    -450.78166787 Ry
     estimated scf accuracy    <       0.00000033 Ry

     iteration #  6     ecut=   124.00 Ry     beta= 0.70
     Davidson diagonalization with overlap
     ethr =  1.11E-09,  avg # of iterations =  2.4

     negative rho (up, down):  8.108E-04 0.000E+00

     total cpu time spent up to now is      318.0 secs

     total energy              =    -450.78166794 Ry
     estimated scf accuracy    <       0.00000002 Ry

     iteration #  7     ecut=   124.00 Ry     beta= 0.70
     Davidson diagonalization with overlap
     ethr =  5.30E-11,  avg # of iterations =  4.4

     negative rho (up, down):  8.108E-04 0.000E+00

     total cpu time spent up to now is      321.7 secs

     total energy              =    -450.78166795 Ry
     estimated scf accuracy    <          3.5E-09 Ry

     iteration #  8     ecut=   124.00 Ry     beta= 0.70
     Davidson diagonalization with overlap
     ethr =  1.18E-11,  avg # of iterations =  2.6

     negative rho (up, down):  8.108E-04 0.000E+00

     total cpu time spent up to now is      324.7 secs

     total energy              =    -450.78166795 Ry
     estimated scf accuracy    <          2.0E-10 Ry

     iteration #  9     ecut=   124.00 Ry     beta= 0.70
     Davidson diagonalization with overlap
     ethr =  6.63E-13,  avg # of iterations =  4.8

     negative rho (up, down):  8.108E-04 0.000E+00

     total cpu time spent up to now is      328.9 secs

     End of self-consistent calculation

     Number of k-points >= 100: set verbosity='high' to print the bands.

     the Fermi energy is    14.5848 ev

!    total energy              =    -450.78166795 Ry
     estimated scf accuracy    <          8.8E-11 Ry
     smearing contrib. (-TS)   =       0.00003825 Ry
     internal energy E=F+TS    =    -450.78170620 Ry

     The total energy is F=E-TS. E is the sum of the following terms:
     one-electron contribution =    -172.82271458 Ry
     hartree contribution      =     100.87913675 Ry
     xc contribution           =     -54.37648104 Ry
     ewald contribution        =    -248.31836515 Ry
     one-center paw contrib.   =     -76.14328218 Ry

     convergence has been achieved in   9 iterations

     negative rho (up, down):  8.108E-04 0.000E+00

     Forces acting on atoms (cartesian axes, Ry/au):

     atom    1 type  1   force =     0.00000000    0.00000000    0.00000000
     atom    2 type  2   force =     0.00000000    0.00000000    0.00000000
     atom    3 type  3   force =     0.00000000    0.00000000    0.00000000
     atom    4 type  3   force =     0.00000000    0.00000000    0.00000000

     Total force =     0.000000     Total SCF correction =     0.000000


     Computing stress (Cartesian axis) and pressure


     negative rho (up, down):  8.108E-04 0.000E+00
          total   stress  (Ry/bohr**3)                   (kbar)     P=        4.24
   0.00005045   0.00000000   0.00000000            7.42        0.00        0.00
   0.00000000  -0.00001451   0.00000000            0.00       -2.13        0.00
   0.00000000   0.00000000   0.00005045            0.00        0.00        7.42

     Energy error            =      1.5E-04 Ry
     Gradient error          =      0.0E+00 Ry/Bohr
     Cell gradient error     =      7.4E+00 kbar

     number of scf cycles    =   7
     number of bfgs steps    =   6

     enthalpy           old  =    -450.7815170612 Ry
     enthalpy           new  =    -450.7816679462 Ry

     CASE: enthalpy          _new < enthalpy          _old

     new trust radius        =       0.0071713296 bohr
     new conv_thr            =            1.0E-10 Ry

     new unit-cell volume =    217.15625 a.u.^3 (    32.17924 Ang^3 )
     density =      5.45581 g/cm^3

CELL_PARAMETERS (alat=  5.58242261)
   1.179209269   0.000000000   0.000000000
   0.000000000   0.897681818   0.000000000
   0.000000000   0.000000000   1.179209269

ATOMIC_POSITIONS (crystal)
Fe               0.5000000000        0.5000000000        0.5000000000
Ti               0.0000000000        0.0000000000        0.0000000000
H                0.5000000000        0.0000000000        0.0000000000
H                0.0000000000        0.0000000000        0.5000000000



     Writing config-only to output data dir ./TiFe_H_edges_xz.save/ :
     XML data file     NEW-OLD atomic charge density approx. for the potential
     New effective cutoffs (rho, wfc): 2153.06  153.52

     Check: negative core charge=   -0.000002

     negative rho (up, down):  8.122E-04 0.000E+00

     total cpu time spent up to now is      330.9 secs

     per-process dynamical memory:   164.6 Mb

     Self-consistent Calculation

     iteration #  1     ecut=   124.00 Ry     beta= 0.70
     Davidson diagonalization with overlap
     ethr =  1.00E-06,  avg # of iterations =  3.2

     negative rho (up, down):  8.065E-04 0.000E+00

     total cpu time spent up to now is      335.0 secs

     total energy              =    -450.78166364 Ry
     estimated scf accuracy    <       0.00003323 Ry

     iteration #  2     ecut=   124.00 Ry     beta= 0.70
     Davidson diagonalization with overlap
     ethr =  1.11E-07,  avg # of iterations =  5.0

     negative rho (up, down):  8.088E-04 0.000E+00

     total cpu time spent up to now is      339.2 secs

     total energy              =    -450.78154665 Ry
     estimated scf accuracy    <       0.00290832 Ry

     iteration #  3     ecut=   124.00 Ry     beta= 0.70
     Davidson diagonalization with overlap
     ethr =  1.11E-07,  avg # of iterations =  4.5

     negative rho (up, down):  8.102E-04 0.000E+00

     total cpu time spent up to now is      342.8 secs

     total energy              =    -450.78169258 Ry
     estimated scf accuracy    <       0.00003130 Ry

     iteration #  4     ecut=   124.00 Ry     beta= 0.70
     Davidson diagonalization with overlap
     ethr =  1.04E-07,  avg # of iterations =  2.0

     negative rho (up, down):  8.099E-04 0.000E+00

     total cpu time spent up to now is      345.7 secs

     total energy              =    -450.78169597 Ry
     estimated scf accuracy    <       0.00000025 Ry

     iteration #  5     ecut=   124.00 Ry     beta= 0.70
     Davidson diagonalization with overlap
     ethr =  8.18E-10,  avg # of iterations =  5.0

     negative rho (up, down):  8.096E-04 0.000E+00

     total cpu time spent up to now is      350.0 secs

     total energy              =    -450.78169616 Ry
     estimated scf accuracy    <       0.00000008 Ry

     iteration #  6     ecut=   124.00 Ry     beta= 0.70
     Davidson diagonalization with overlap
     ethr =  2.66E-10,  avg # of iterations =  3.2

     negative rho (up, down):  8.096E-04 0.000E+00

     total cpu time spent up to now is      353.3 secs

     total energy              =    -450.78169618 Ry
     estimated scf accuracy    <          2.0E-09 Ry

     iteration #  7     ecut=   124.00 Ry     beta= 0.70
     Davidson diagonalization with overlap
     ethr =  6.55E-12,  avg # of iterations =  5.1

     negative rho (up, down):  8.096E-04 0.000E+00

     total cpu time spent up to now is      357.5 secs

     total energy              =    -450.78169618 Ry
     estimated scf accuracy    <          5.0E-10 Ry

     iteration #  8     ecut=   124.00 Ry     beta= 0.70
     Davidson diagonalization with overlap
     ethr =  1.67E-12,  avg # of iterations =  2.5

     negative rho (up, down):  8.096E-04 0.000E+00

     total cpu time spent up to now is      360.5 secs

     End of self-consistent calculation

     Number of k-points >= 100: set verbosity='high' to print the bands.

     the Fermi energy is    14.5486 ev

!    total energy              =    -450.78169618 Ry
     estimated scf accuracy    <          8.2E-11 Ry
     smearing contrib. (-TS)   =       0.00004896 Ry
     internal energy E=F+TS    =    -450.78174514 Ry

     The total energy is F=E-TS. E is the sum of the following terms:
     one-electron contribution =    -173.14763893 Ry
     hartree contribution      =     101.00493952 Ry
     xc contribution           =     -54.37219895 Ry
     ewald contribution        =    -248.12357258 Ry
     one-center paw contrib.   =     -76.14327419 Ry

     convergence has been achieved in   8 iterations

     negative rho (up, down):  8.096E-04 0.000E+00

     Forces acting on atoms (cartesian axes, Ry/au):

     atom    1 type  1   force =     0.00000000    0.00000000    0.00000000
     atom    2 type  2   force =     0.00000000    0.00000000    0.00000000
     atom    3 type  3   force =     0.00000000    0.00000000    0.00000000
     atom    4 type  3   force =     0.00000000    0.00000000    0.00000000

     Total force =     0.000000     Total SCF correction =     0.000000


     Computing stress (Cartesian axis) and pressure


     negative rho (up, down):  8.096E-04 0.000E+00
          total   stress  (Ry/bohr**3)                   (kbar)     P=        0.00
   0.00000018   0.00000000   0.00000000            0.03        0.00        0.00
   0.00000000  -0.00000032   0.00000000            0.00       -0.05        0.00
   0.00000000   0.00000000   0.00000018            0.00        0.00        0.03

     Energy error            =      2.8E-05 Ry
     Gradient error          =      0.0E+00 Ry/Bohr
     Cell gradient error     =      4.6E-02 kbar

     bfgs converged in   8 scf cycles and   7 bfgs steps
     (criteria: energy <  1.0E-04 Ry, force <  1.0E-03 Ry/Bohr, cell <  1.0E-01 kbar)

     End of BFGS Geometry Optimization

     Final enthalpy           =    -450.7816961776 Ry

     File ./TiFe_H_edges_xz.bfgs deleted, as requested
Begin final coordinates
     new unit-cell volume =    217.15625 a.u.^3 (    32.17924 Ang^3 )
     density =      5.45581 g/cm^3

CELL_PARAMETERS (alat=  5.58242261)
   1.179209269   0.000000000   0.000000000
   0.000000000   0.897681818   0.000000000
   0.000000000   0.000000000   1.179209269

ATOMIC_POSITIONS (crystal)
Fe               0.5000000000        0.5000000000        0.5000000000
Ti               0.0000000000        0.0000000000        0.0000000000
H                0.5000000000        0.0000000000        0.0000000000
H                0.0000000000        0.0000000000        0.5000000000
End final coordinates



     Writing config-only to output data dir ./TiFe_H_edges_xz.save/ :
     XML data file
     Final scf calculation at the relaxed structure.
     The G-vectors are recalculated for the final unit cell
     Results may differ from those at the preceding step.

     Parallelization info
     --------------------
     sticks:   dense  smooth     PW     G-vecs:    dense   smooth      PW
     Min         284      81     23                16570     2531     393
     Max         285      82     24                16575     2534     398
     Sum        4557    1301    375               265159    40503    6331

     Using Slab Decomposition



     bravais-lattice index     =            0
     lattice parameter (alat)  =       5.5824  a.u.
     unit-cell volume          =     217.1562 (a.u.)^3
     number of atoms/cell      =            4
     number of atomic types    =            3
     number of electrons       =        30.00
     number of Kohn-Sham states=           19
     kinetic-energy cutoff     =     124.0000  Ry
     charge density cutoff     =    1736.0000  Ry
     scf convergence threshold =      1.0E-10
     mixing beta               =       0.7000
     number of iterations used =            8  plain     mixing
     press convergence thresh. =      1.0E-01
     Exchange-correlation= PBE
                           (   1   4   3   4   0   0   0)

     celldm(1)=   5.582423  celldm(2)=   0.000000  celldm(3)=   0.000000
     celldm(4)=   0.000000  celldm(5)=   0.000000  celldm(6)=   0.000000

     crystal axes: (cart. coord. in units of alat)
               a(1) = (   1.179209   0.000000   0.000000 )  
               a(2) = (   0.000000   0.897682   0.000000 )  
               a(3) = (   0.000000   0.000000   1.179209 )  

     reciprocal axes: (cart. coord. in units 2 pi/alat)
               b(1) = (  0.848026  0.000000  0.000000 )  
               b(2) = (  0.000000  1.113980  0.000000 )  
               b(3) = (  0.000000  0.000000  0.848026 )  


     PseudoPot. # 1 for Fe read from file:
     ../../pseudos/Fe.pbe-spn-kjpaw_psl.0.2.1.UPF
     MD5 check sum: e86618425769142926afa95317d90200
     Pseudo is Projector augmented-wave + core cor, Zval = 16.0
     Generated using "atomic" code by A. Dal Corso  v.5.0.99 svn rev. 10869
     Shape of augmentation charge: PSQ
     Using radial grid of 1191 points,  6 beta functions with: 
                l(1) =   0
                l(2) =   0
                l(3) =   1
                l(4) =   1
                l(5) =   2
                l(6) =   2
     Q(r) pseudized with 0 coefficients 


     PseudoPot. # 2 for Ti read from file:
     ../../pseudos/ti_pbe_v1.4.uspp.F.UPF
     MD5 check sum: 88a00a6731bd790ddea75d31a80cb452
     Pseudo is Ultrasoft + core correction, Zval = 12.0
     Generated by new atomic code, or converted to UPF format
     Using radial grid of  851 points,  6 beta functions with: 
                l(1) =   0
                l(2) =   0
                l(3) =   1
                l(4) =   1
                l(5) =   2
                l(6) =   2
     Q(r) pseudized with  6 coefficients,  rinner =    1.000   1.000   1.000
                                                       1.000   1.000

     PseudoPot. # 3 for H  read from file:
     ../../pseudos/H.pbe-rrkjus_psl.1.0.0.UPF
     MD5 check sum: f52b6d4d1c606e5624b1dc7b2218f220
     Pseudo is Ultrasoft, Zval =  1.0
     Generated using "atomic" code by A. Dal Corso  v.5.1
     Using radial grid of  929 points,  2 beta functions with: 
                l(1) =   0
                l(2) =   0
     Q(r) pseudized with 0 coefficients 


     atomic species   valence    mass     pseudopotential
     Fe               16.00    55.84500     Fe( 1.00)
     Ti               12.00    47.86700     Ti( 1.00)
     H                 1.00     1.00750     H ( 1.00)

     16 Sym. Ops., with inversion, found



   Cartesian axes

     site n.     atom                  positions (alat units)
         1        Fe     tau(   1) = (   0.5896046   0.4488409   0.5896046  )
         2        Ti     tau(   2) = (   0.0000000   0.0000000   0.0000000  )
         3        H      tau(   3) = (   0.5896046   0.0000000   0.0000000  )
         4        H      tau(   4) = (   0.0000000   0.0000000   0.5896046  )

     number of k points=   288  Marzari-Vanderbilt smearing, width (Ry)=  0.0050

     Number of k-points >= 100: set verbosity='high' to print them.

     Dense  grid:   265159 G-vectors     FFT dimensions: (  90,  72,  90)

     Smooth grid:    40503 G-vectors     FFT dimensions: (  48,  36,  48)

     Estimated max dynamical RAM per process >     108.31 MB

     Estimated total dynamical RAM >       1.69 GB

     Check: negative core charge=   -0.000001

     Initial potential from superposition of free atoms

     starting charge      28.9995, renormalised to      30.0000

     negative rho (up, down):  1.317E-03 0.000E+00
     Starting wfcs are   25 randomized atomic wfcs
     Checking if some PAW data can be deallocated... 

     total cpu time spent up to now is      365.0 secs

     per-process dynamical memory:   167.1 Mb

     Self-consistent Calculation

     iteration #  1     ecut=   124.00 Ry     beta= 0.70
     Davidson diagonalization with overlap
     c_bands:  1 eigenvalues not converged
     c_bands:  2 eigenvalues not converged
     c_bands:  3 eigenvalues not converged
     c_bands:  1 eigenvalues not converged
     c_bands:  1 eigenvalues not converged
     c_bands:  1 eigenvalues not converged
     c_bands:  1 eigenvalues not converged
     c_bands:  1 eigenvalues not converged
     c_bands:  1 eigenvalues not converged
     c_bands:  1 eigenvalues not converged
     c_bands:  1 eigenvalues not converged
     c_bands:  2 eigenvalues not converged
     c_bands:  2 eigenvalues not converged
     c_bands:  1 eigenvalues not converged
     c_bands:  1 eigenvalues not converged
     c_bands:  1 eigenvalues not converged
     c_bands:  1 eigenvalues not converged
     c_bands:  1 eigenvalues not converged
     c_bands:  1 eigenvalues not converged
     c_bands:  1 eigenvalues not converged
     c_bands:  1 eigenvalues not converged
     c_bands:  1 eigenvalues not converged
     c_bands:  1 eigenvalues not converged
     c_bands:  1 eigenvalues not converged
     c_bands:  1 eigenvalues not converged
     c_bands:  1 eigenvalues not converged
     c_bands:  1 eigenvalues not converged
     c_bands:  1 eigenvalues not converged
     c_bands:  1 eigenvalues not converged
     c_bands:  1 eigenvalues not converged
     c_bands:  1 eigenvalues not converged
     c_bands:  1 eigenvalues not converged
     c_bands:  1 eigenvalues not converged
     c_bands:  1 eigenvalues not converged
     c_bands:  1 eigenvalues not converged
     c_bands:  1 eigenvalues not converged
     c_bands:  1 eigenvalues not converged
     c_bands:  1 eigenvalues not converged
     c_bands:  1 eigenvalues not converged
     c_bands:  1 eigenvalues not converged
     c_bands:  1 eigenvalues not converged
     c_bands:  1 eigenvalues not converged
     c_bands:  1 eigenvalues not converged
     c_bands:  2 eigenvalues not converged
     c_bands:  1 eigenvalues not converged
     c_bands:  1 eigenvalues not converged
     c_bands:  1 eigenvalues not converged
     c_bands:  1 eigenvalues not converged
     c_bands:  1 eigenvalues not converged
     c_bands:  1 eigenvalues not converged
     c_bands:  1 eigenvalues not converged
     c_bands:  1 eigenvalues not converged
     c_bands:  1 eigenvalues not converged
     c_bands:  1 eigenvalues not converged
     c_bands:  1 eigenvalues not converged
     c_bands:  1 eigenvalues not converged
     c_bands:  1 eigenvalues not converged
     c_bands:  1 eigenvalues not converged
     c_bands:  1 eigenvalues not converged
     c_bands:  1 eigenvalues not converged
     c_bands:  3 eigenvalues not converged
     c_bands:  3 eigenvalues not converged
     c_bands:  1 eigenvalues not converged
     c_bands:  1 eigenvalues not converged
     c_bands:  1 eigenvalues not converged
     c_bands:  1 eigenvalues not converged
     c_bands:  1 eigenvalues not converged
     c_bands:  1 eigenvalues not converged
     c_bands:  1 eigenvalues not converged
     c_bands:  1 eigenvalues not converged
     c_bands:  1 eigenvalues not converged
     c_bands:  1 eigenvalues not converged
     c_bands:  1 eigenvalues not converged
     c_bands:  1 eigenvalues not converged
     c_bands:  1 eigenvalues not converged
     c_bands:  1 eigenvalues not converged
     c_bands:  1 eigenvalues not converged
     c_bands:  1 eigenvalues not converged
     c_bands:  1 eigenvalues not converged
     c_bands:  1 eigenvalues not converged
     c_bands:  2 eigenvalues not converged
     c_bands:  1 eigenvalues not converged
     c_bands:  1 eigenvalues not converged
     c_bands:  1 eigenvalues not converged
     c_bands:  1 eigenvalues not converged
     c_bands:  1 eigenvalues not converged
     c_bands:  1 eigenvalues not converged
     c_bands:  1 eigenvalues not converged
     c_bands:  1 eigenvalues not converged
     c_bands:  1 eigenvalues not converged
     c_bands:  1 eigenvalues not converged
     c_bands:  1 eigenvalues not converged
     c_bands:  1 eigenvalues not converged
     c_bands:  1 eigenvalues not converged
     c_bands:  1 eigenvalues not converged
     c_bands:  1 eigenvalues not converged
     c_bands:  1 eigenvalues not converged
     c_bands:  1 eigenvalues not converged
     c_bands:  1 eigenvalues not converged
     c_bands:  1 eigenvalues not converged
     c_bands:  1 eigenvalues not converged
     c_bands:  1 eigenvalues not converged
     c_bands:  1 eigenvalues not converged
     c_bands:  1 eigenvalues not converged
     c_bands:  1 eigenvalues not converged
     c_bands:  1 eigenvalues not converged
     c_bands:  1 eigenvalues not converged
     c_bands:  1 eigenvalues not converged
     c_bands:  1 eigenvalues not converged
     c_bands:  1 eigenvalues not converged
     c_bands:  1 eigenvalues not converged
     c_bands:  1 eigenvalues not converged
     c_bands:  1 eigenvalues not converged
     c_bands:  1 eigenvalues not converged
     c_bands:  1 eigenvalues not converged
     c_bands:  1 eigenvalues not converged
     c_bands:  1 eigenvalues not converged
     c_bands:  1 eigenvalues not converged
     c_bands:  1 eigenvalues not converged
     c_bands:  1 eigenvalues not converged
     c_bands:  1 eigenvalues not converged
     c_bands:  1 eigenvalues not converged
     c_bands:  1 eigenvalues not converged
     c_bands:  1 eigenvalues not converged
     c_bands:  1 eigenvalues not converged
     ethr =  1.00E-06,  avg # of iterations = 18.4

     negative rho (up, down):  2.194E-04 0.000E+00

     total cpu time spent up to now is      381.2 secs

     total energy              =    -428.73768703 Ry
     estimated scf accuracy    <      27.56555847 Ry

     iteration #  2     ecut=   124.00 Ry     beta= 0.70
     Davidson diagonalization with overlap
     ethr =  1.00E-02,  avg # of iterations =  8.2

     total cpu time spent up to now is      388.5 secs

     total energy              =    -440.73646817 Ry
     estimated scf accuracy    <     144.68306686 Ry

     iteration #  3     ecut=   124.00 Ry     beta= 0.70
     Davidson diagonalization with overlap
     ethr =  1.00E-02,  avg # of iterations =  3.5

     negative rho (up, down):  8.788E-06 0.000E+00

     total cpu time spent up to now is      392.8 secs

     total energy              =    -453.15895911 Ry
     estimated scf accuracy    <      22.01321657 Ry

     iteration #  4     ecut=   124.00 Ry     beta= 0.70
     Davidson diagonalization with overlap
     ethr =  1.00E-02,  avg # of iterations =  2.0

     negative rho (up, down):  1.132E-04 0.000E+00

     total cpu time spent up to now is      395.9 secs

     total energy              =    -451.35017391 Ry
     estimated scf accuracy    <      14.17630566 Ry

     iteration #  5     ecut=   124.00 Ry     beta= 0.70
     Davidson diagonalization with overlap
     ethr =  1.00E-02,  avg # of iterations =  2.0

     negative rho (up, down):  3.999E-04 0.000E+00

     total cpu time spent up to now is      398.9 secs

     total energy              =    -450.81746461 Ry
     estimated scf accuracy    <       6.77935698 Ry

     iteration #  6     ecut=   124.00 Ry     beta= 0.70
     Davidson diagonalization with overlap
     ethr =  1.00E-02,  avg # of iterations =  1.8

     negative rho (up, down):  8.421E-04 0.000E+00

     total cpu time spent up to now is      401.8 secs

     total energy              =    -450.52680575 Ry
     estimated scf accuracy    <       2.75132585 Ry

     iteration #  7     ecut=   124.00 Ry     beta= 0.70
     Davidson diagonalization with overlap
     ethr =  9.17E-03,  avg # of iterations =  2.3

     negative rho (up, down):  7.448E-04 0.000E+00

     total cpu time spent up to now is      404.8 secs

     total energy              =    -450.74303101 Ry
     estimated scf accuracy    <       0.13993112 Ry

     iteration #  8     ecut=   124.00 Ry     beta= 0.70
     Davidson diagonalization with overlap
     ethr =  4.66E-04,  avg # of iterations =  4.9

     negative rho (up, down):  6.736E-04 0.000E+00

     total cpu time spent up to now is      409.0 secs

     total energy              =    -450.78422610 Ry
     estimated scf accuracy    <       0.01811906 Ry

     iteration #  9     ecut=   124.00 Ry     beta= 0.70
     Davidson diagonalization with overlap
     ethr =  6.04E-05,  avg # of iterations =  3.8

     negative rho (up, down):  8.482E-04 0.000E+00

     total cpu time spent up to now is      412.9 secs

     total energy              =    -450.75569882 Ry
     estimated scf accuracy    <       0.33061682 Ry

     iteration # 10     ecut=   124.00 Ry     beta= 0.70
     Davidson diagonalization with overlap
     ethr =  6.04E-05,  avg # of iterations =  4.6

     negative rho (up, down):  8.991E-04 0.000E+00

     total cpu time spent up to now is      417.2 secs

     total energy              =    -450.79720321 Ry
     estimated scf accuracy    <       0.05862494 Ry

     iteration # 11     ecut=   124.00 Ry     beta= 0.70
     Davidson diagonalization with overlap
     ethr =  6.04E-05,  avg # of iterations =  3.2

     negative rho (up, down):  8.112E-04 0.000E+00

     total cpu time spent up to now is      420.5 secs

     total energy              =    -450.77013742 Ry
     estimated scf accuracy    <       0.63714082 Ry

     iteration # 12     ecut=   124.00 Ry     beta= 0.70
     Davidson diagonalization with overlap
     ethr =  6.04E-05,  avg # of iterations =  3.0

     negative rho (up, down):  7.961E-04 0.000E+00

     total cpu time spent up to now is      423.9 secs

     total energy              =    -450.78170204 Ry
     estimated scf accuracy    <       0.04741000 Ry

     iteration # 13     ecut=   124.00 Ry     beta= 0.70
     Davidson diagonalization with overlap
     ethr =  6.04E-05,  avg # of iterations =  1.3

     negative rho (up, down):  8.270E-04 0.000E+00

     total cpu time spent up to now is      426.7 secs

     total energy              =    -450.78153552 Ry
     estimated scf accuracy    <       0.00769279 Ry

     iteration # 14     ecut=   124.00 Ry     beta= 0.70
     Davidson diagonalization with overlap
     ethr =  2.56E-05,  avg # of iterations =  2.1

     negative rho (up, down):  8.028E-04 0.000E+00

     total cpu time spent up to now is      429.7 secs

     total energy              =    -450.78270218 Ry
     estimated scf accuracy    <       0.00268222 Ry

     iteration # 15     ecut=   124.00 Ry     beta= 0.70
     Davidson diagonalization with overlap
     ethr =  8.94E-06,  avg # of iterations =  3.4

     negative rho (up, down):  8.003E-04 0.000E+00

     total cpu time spent up to now is      433.0 secs

     total energy              =    -450.78254070 Ry
     estimated scf accuracy    <       0.01827219 Ry

     iteration # 16     ecut=   124.00 Ry     beta= 0.70
     Davidson diagonalization with overlap
     ethr =  8.94E-06,  avg # of iterations =  1.0

     negative rho (up, down):  8.256E-04 0.000E+00

     total cpu time spent up to now is      435.8 secs

     total energy              =    -450.78151588 Ry
     estimated scf accuracy    <       0.00967423 Ry

     iteration # 17     ecut=   124.00 Ry     beta= 0.70
     Davidson diagonalization with overlap
     ethr =  8.94E-06,  avg # of iterations =  2.2

     negative rho (up, down):  8.224E-04 0.000E+00

     total cpu time spent up to now is      438.8 secs

     total energy              =    -450.78205470 Ry
     estimated scf accuracy    <       0.00002634 Ry

     iteration # 18     ecut=   124.00 Ry     beta= 0.70
     Davidson diagonalization with overlap
     ethr =  8.78E-08,  avg # of iterations =  5.0

     negative rho (up, down):  8.225E-04 0.000E+00

     total cpu time spent up to now is      443.4 secs

     total energy              =    -450.78207357 Ry
     estimated scf accuracy    <       0.00000158 Ry

     iteration # 19     ecut=   124.00 Ry     beta= 0.70
     Davidson diagonalization with overlap
     ethr =  5.27E-09,  avg # of iterations =  4.3

     negative rho (up, down):  8.226E-04 0.000E+00

     total cpu time spent up to now is      447.4 secs

     total energy              =    -450.78207396 Ry
     estimated scf accuracy    <       0.00000108 Ry

     iteration # 20     ecut=   124.00 Ry     beta= 0.70
     Davidson diagonalization with overlap
     ethr =  3.58E-09,  avg # of iterations =  1.8

     negative rho (up, down):  8.228E-04 0.000E+00

     total cpu time spent up to now is      450.4 secs

     total energy              =    -450.78207398 Ry
     estimated scf accuracy    <       0.00000044 Ry

     iteration # 21     ecut=   124.00 Ry     beta= 0.70
     Davidson diagonalization with overlap
     ethr =  1.45E-09,  avg # of iterations =  1.8

     negative rho (up, down):  8.227E-04 0.000E+00

     total cpu time spent up to now is      453.3 secs

     total energy              =    -450.78207402 Ry
     estimated scf accuracy    <       0.00000001 Ry

     iteration # 22     ecut=   124.00 Ry     beta= 0.70
     Davidson diagonalization with overlap
     ethr =  4.97E-11,  avg # of iterations =  4.6

     negative rho (up, down):  8.227E-04 0.000E+00

     total cpu time spent up to now is      457.6 secs

     total energy              =    -450.78207403 Ry
     estimated scf accuracy    <          5.3E-09 Ry

     iteration # 23     ecut=   124.00 Ry     beta= 0.70
     Davidson diagonalization with overlap
     ethr =  1.76E-11,  avg # of iterations =  1.9

     negative rho (up, down):  8.227E-04 0.000E+00

     total cpu time spent up to now is      460.6 secs

     End of self-consistent calculation

     Number of k-points >= 100: set verbosity='high' to print the bands.

     the Fermi energy is    14.5485 ev

!    total energy              =    -450.78207403 Ry
     estimated scf accuracy    <          2.8E-11 Ry
     smearing contrib. (-TS)   =       0.00004915 Ry
     internal energy E=F+TS    =    -450.78212318 Ry

     The total energy is F=E-TS. E is the sum of the following terms:
     one-electron contribution =    -173.14706048 Ry
     hartree contribution      =     101.00439437 Ry
     xc contribution           =     -54.37254453 Ry
     ewald contribution        =    -248.12357258 Ry
     one-center paw contrib.   =     -76.14333996 Ry

     convergence has been achieved in  23 iterations

     negative rho (up, down):  8.227E-04 0.000E+00

     Forces acting on atoms (cartesian axes, Ry/au):

     atom    1 type  1   force =     0.00000000    0.00000000    0.00000000
     atom    2 type  2   force =     0.00000000    0.00000000    0.00000000
     atom    3 type  3   force =     0.00000000    0.00000000    0.00000000
     atom    4 type  3   force =     0.00000000    0.00000000    0.00000000

     Total force =     0.000000     Total SCF correction =     0.000000


     Computing stress (Cartesian axis) and pressure


     negative rho (up, down):  8.227E-04 0.000E+00
          total   stress  (Ry/bohr**3)                   (kbar)     P=       -0.35
  -0.00000115   0.00000000   0.00000000           -0.17        0.00        0.00
   0.00000000  -0.00000492   0.00000000            0.00       -0.72        0.00
   0.00000000   0.00000000  -0.00000115            0.00        0.00       -0.17


     Writing all to output data dir ./TiFe_H_edges_xz.save/ :
     XML data file
     init_run     :      4.84s CPU      4.99s WALL (       2 calls)
     electrons    :    422.65s CPU    438.93s WALL (       9 calls)
     update_pot   :      0.58s CPU      0.68s WALL (       7 calls)
     forces       :      2.71s CPU      2.83s WALL (       9 calls)
     stress       :     11.98s CPU     12.36s WALL (       9 calls)

     Called by init_run:
     wfcinit      :      2.57s CPU      2.66s WALL (       2 calls)
     potinit      :      0.81s CPU      0.83s WALL (       2 calls)
     hinit0       :      0.89s CPU      0.91s WALL (       2 calls)

     Called by electrons:
     c_bands      :    352.77s CPU    364.30s WALL (     113 calls)
     sum_band     :     51.46s CPU     53.98s WALL (     113 calls)
     v_of_rho     :      1.73s CPU      1.93s WALL (     122 calls)
     newd         :     11.13s CPU     12.43s WALL (     122 calls)
     PAW_pot      :      6.94s CPU      7.78s WALL (     129 calls)
     mix_rho      :      0.19s CPU      0.21s WALL (     113 calls)

     Called by c_bands:
     init_us_2    :      7.31s CPU      7.68s WALL (   72864 calls)
     cegterg      :    340.69s CPU    351.43s WALL (   32544 calls)

     Called by *egterg:
     cdiaghg      :     62.06s CPU     63.69s WALL (  158080 calls)
     h_psi        :    236.99s CPU    245.11s WALL (  160672 calls)
     s_psi        :      5.73s CPU      5.94s WALL (  160672 calls)
     g_psi        :      1.40s CPU      1.44s WALL (  127552 calls)

     Called by h_psi:
     h_psi:calbec :     10.72s CPU     11.08s WALL (  160672 calls)
     vloc_psi     :    218.86s CPU    226.38s WALL (  160672 calls)
     add_vuspsi   :      6.05s CPU      6.27s WALL (  160672 calls)

     General routines
     calbec       :     16.62s CPU     17.16s WALL (  239296 calls)
     fft          :      1.91s CPU      2.16s WALL (    1800 calls)
     ffts         :      0.67s CPU      0.68s WALL (     235 calls)
     fftw         :    206.07s CPU    212.96s WALL ( 4477792 calls)
     interpolate  :      0.76s CPU      0.80s WALL (     122 calls)

     Parallel routines

     PWSCF        :    444.68s CPU    462.78s WALL


   This run was terminated on:  23:23:39  12Nov2025            

=------------------------------------------------------------------------------=
   JOB DONE.
=------------------------------------------------------------------------------=
