
     Program PWSCF v.7.4 starts on 30Nov2025 at  2: 9:36 

     This program is part of the open-source Quantum ESPRESSO suite
     for quantum simulation of materials; please cite
         "P. Giannozzi et al., J. Phys.:Condens. Matter 21 395502 (2009);
         "P. Giannozzi et al., J. Phys.:Condens. Matter 29 465901 (2017);
         "P. Giannozzi et al., J. Chem. Phys. 152 154105 (2020);
          URL http://www.quantum-espresso.org", 
     in publications or presentations arising from this work. More details at
     http://www.quantum-espresso.org/quote

     Parallel version (MPI & OpenMP), running on      16 processor cores
     Number of MPI processes:                16
     Threads/MPI process:                     1

     MPI processes distributed on     1 nodes
     206045 MiB available memory on the printing compute node when the environment starts

     Reading input from TiFe_octa1_025_2.in

     Current dimensions of program PWSCF are:
     Max number of different atomic species (ntypx) = 10
     Max number of k-points (npk) =  40000
     Max angular momentum in pseudopotentials (lmaxx) =  4
     file Fe.pbe-spn-kjpaw_psl.0.2.1.UPF: wavefunction(s)  3D renormalized

     IMPORTANT: XC functional enforced from input :
     Exchange-correlation= PBE
                           (   1   4   3   4   0   0   0)
     Any further DFT definition will be discarded
     Please, verify this is what you really want

     Found identity + (  0.0000  0.0000 -0.5000) symmetry
     This is a supercell, fractional translations are disabled
     Message from routine setup:
     using ibrav=0 with symmetry is DISCOURAGED, use correct ibrav instead

     R & G space division:  proc/nbgrp/npool/nimage =      16
     Subspace diagonalization in iterative solution of the eigenvalue problem:
     a serial algorithm will be used


     Parallelization info
     --------------------
     sticks:   dense  smooth     PW     G-vecs:    dense   smooth      PW
     Min        1075     307     84               106249    16243    2316
     Max        1077     308     85               106252    16246    2319
     Sum       17217    4921   1353              1700005   259911   37073

     Using Slab Decomposition



     bravais-lattice index     =            0
     lattice parameter (alat)  =       5.5824  a.u.
     unit-cell volume          =    1391.7400 (a.u.)^3
     number of atoms/cell      =           18
     number of atomic types    =            3
     number of electrons       =       226.00
     number of Kohn-Sham states=          136
     kinetic-energy cutoff     =     124.0000  Ry
     charge density cutoff     =    1736.0000  Ry
     scf convergence threshold =      1.0E-08
     mixing beta               =       0.7000
     number of iterations used =            8  plain     mixing
     energy convergence thresh.=      1.0E-04
     force convergence thresh. =      1.0E-03
     press convergence thresh. =      1.0E-01
     Exchange-correlation= PBE
                           (   1   4   3   4   0   0   0)
     nstep                     =           50


     celldm(1)=   5.582423  celldm(2)=   0.000000  celldm(3)=   0.000000
     celldm(4)=   0.000000  celldm(5)=   0.000000  celldm(6)=   0.000000

     crystal axes: (cart. coord. in units of alat)
               a(1) = (   2.000000   0.000000   0.000000 )  
               a(2) = (   0.000000   2.000000   0.000000 )  
               a(3) = (   0.000000   0.000000   2.000000 )  

     reciprocal axes: (cart. coord. in units 2 pi/alat)
               b(1) = (  0.500000  0.000000  0.000000 )  
               b(2) = (  0.000000  0.500000  0.000000 )  
               b(3) = (  0.000000  0.000000  0.500000 )  


     PseudoPot. # 1 for Fe read from file:
     ../../../../pseudos/Fe.pbe-spn-kjpaw_psl.0.2.1.UPF
     MD5 check sum: e86618425769142926afa95317d90200
     Pseudo is Projector augmented-wave + core cor, Zval = 16.0
     Generated using "atomic" code by A. Dal Corso  v.5.0.99 svn rev. 10869
     Shape of augmentation charge: PSQ
     Using radial grid of 1191 points,  6 beta functions with: 
                l(1) =   0
                l(2) =   0
                l(3) =   1
                l(4) =   1
                l(5) =   2
                l(6) =   2
     Q(r) pseudized with 0 coefficients 


     PseudoPot. # 2 for Ti read from file:
     ../../../../pseudos/ti_pbe_v1.4.uspp.F.UPF
     MD5 check sum: 88a00a6731bd790ddea75d31a80cb452
     Pseudo is Ultrasoft + core correction, Zval = 12.0
     Generated by new atomic code, or converted to UPF format
     Using radial grid of  851 points,  6 beta functions with: 
                l(1) =   0
                l(2) =   0
                l(3) =   1
                l(4) =   1
                l(5) =   2
                l(6) =   2
     Q(r) pseudized with  6 coefficients,  rinner =    1.000   1.000   1.000
                                                       1.000   1.000

     PseudoPot. # 3 for H  read from file:
     ../../../../pseudos/H.pbe-rrkjus_psl.1.0.0.UPF
     MD5 check sum: f52b6d4d1c606e5624b1dc7b2218f220
     Pseudo is Ultrasoft, Zval =  1.0
     Generated using "atomic" code by A. Dal Corso  v.5.1
     Using radial grid of  929 points,  2 beta functions with: 
                l(1) =   0
                l(2) =   0
     Q(r) pseudized with 0 coefficients 


     atomic species   valence    mass     pseudopotential
     Fe               16.00    55.84500     Fe( 1.00)
     Ti               12.00    47.86700     Ti( 1.00)
     H                 1.00     1.00784     H ( 1.00)

      4 Sym. Ops. (no inversion) found



   Cartesian axes

     site n.     atom                  positions (alat units)
         1        Fe     tau(   1) = (   0.0000000   0.0000000   0.0000000  )
         2        Fe     tau(   2) = (   1.0000000   1.0000000   0.0000000  )
         3        Fe     tau(   3) = (   1.0000000   0.0000000   0.0000000  )
         4        Fe     tau(   4) = (   0.0000000   1.0000000   1.0000000  )
         5        Fe     tau(   5) = (   0.0000000   0.0000000   1.0000000  )
         6        Fe     tau(   6) = (   1.0000000   1.0000000   1.0000000  )
         7        Fe     tau(   7) = (   1.0000000   0.0000000   1.0000000  )
         8        Fe     tau(   8) = (   0.0000000   1.0000000   0.0000000  )
         9        Ti     tau(   9) = (   0.5000000   0.5000000   0.5000000  )
        10        Ti     tau(  10) = (   1.5000000   1.5000000   0.5000000  )
        11        Ti     tau(  11) = (   1.5000000   0.5000000   0.5000000  )
        12        Ti     tau(  12) = (   0.5000000   1.5000000   1.5000000  )
        13        Ti     tau(  13) = (   0.5000000   0.5000000   1.5000000  )
        14        Ti     tau(  14) = (   1.5000000   1.5000000   1.5000000  )
        15        Ti     tau(  15) = (   1.5000000   0.5000000   1.5000000  )
        16        Ti     tau(  16) = (   0.5000000   1.5000000   0.5000000  )
        17        H      tau(  17) = (   0.5000000   0.5000000   0.0000000  )
        18        H      tau(  18) = (   0.5000000   0.5000000   1.0000000  )

     number of k points=    52  Marzari-Vanderbilt smearing, width (Ry)=  0.0050
                       cart. coord. in units 2pi/alat
        k(    1) = (   0.0000000   0.0000000   0.0000000), wk =   0.0092593
        k(    2) = (   0.0000000   0.0000000   0.0833333), wk =   0.0185185
        k(    3) = (   0.0000000   0.0000000   0.1666667), wk =   0.0185185
        k(    4) = (   0.0000000   0.0000000  -0.2500000), wk =   0.0092593
        k(    5) = (   0.0000000   0.0833333   0.0833333), wk =   0.0740741
        k(    6) = (   0.0000000   0.0833333   0.1666667), wk =   0.0740741
        k(    7) = (   0.0000000   0.0833333  -0.2500000), wk =   0.0370370
        k(    8) = (   0.0000000   0.1666667   0.1666667), wk =   0.0740741
        k(    9) = (   0.0000000   0.1666667  -0.2500000), wk =   0.0370370
        k(   10) = (   0.0000000  -0.2500000  -0.2500000), wk =   0.0185185
        k(   11) = (   0.0833333   0.0833333   0.0833333), wk =   0.0370370
        k(   12) = (   0.0833333   0.0833333   0.1666667), wk =   0.0370370
        k(   13) = (   0.0833333   0.0833333  -0.2500000), wk =   0.0185185
        k(   14) = (   0.0833333   0.1666667   0.1666667), wk =   0.0740741
        k(   15) = (   0.0833333   0.1666667  -0.2500000), wk =   0.0370370
        k(   16) = (   0.0833333  -0.2500000  -0.2500000), wk =   0.0370370
        k(   17) = (   0.1666667   0.1666667   0.1666667), wk =   0.0370370
        k(   18) = (   0.1666667   0.1666667  -0.2500000), wk =   0.0185185
        k(   19) = (   0.1666667  -0.2500000  -0.2500000), wk =   0.0370370
        k(   20) = (  -0.2500000  -0.2500000  -0.2500000), wk =   0.0092593
        k(   21) = (   0.0833333   0.0000000   0.0000000), wk =   0.0370370
        k(   22) = (   0.1666667   0.0000000   0.0000000), wk =   0.0370370
        k(   23) = (  -0.2500000   0.0000000   0.0000000), wk =   0.0185185
        k(   24) = (   0.0833333  -0.0833333   0.0000000), wk =   0.0185185
        k(   25) = (  -0.0833333  -0.0833333   0.0000000), wk =   0.0185185
        k(   26) = (   0.1666667  -0.0833333   0.0000000), wk =   0.0370370
        k(   27) = (  -0.1666667  -0.0833333   0.0000000), wk =   0.0370370
        k(   28) = (   0.0000000   0.1666667   0.0833333), wk =   0.0740741
        k(   29) = (  -0.2500000  -0.0833333   0.0000000), wk =   0.0370370
        k(   30) = (   0.0000000  -0.2500000   0.0833333), wk =   0.0370370
        k(   31) = (   0.1666667  -0.1666667   0.0000000), wk =   0.0185185
        k(   32) = (  -0.1666667  -0.1666667   0.0000000), wk =   0.0185185
        k(   33) = (  -0.2500000  -0.1666667   0.0000000), wk =   0.0370370
        k(   34) = (   0.0000000  -0.2500000   0.1666667), wk =   0.0370370
        k(   35) = (  -0.2500000   0.2500000   0.0000000), wk =   0.0092593
        k(   36) = (   0.0833333  -0.0833333   0.0833333), wk =   0.0370370
        k(   37) = (   0.0833333  -0.0833333   0.1666667), wk =   0.0370370
        k(   38) = (   0.1666667  -0.0833333   0.0833333), wk =   0.0740741
        k(   39) = (  -0.1666667  -0.0833333  -0.0833333), wk =   0.0740741
        k(   40) = (   0.0833333  -0.0833333  -0.2500000), wk =   0.0185185
        k(   41) = (  -0.2500000  -0.0833333   0.0833333), wk =   0.0740741
        k(   42) = (   0.1666667  -0.0833333   0.1666667), wk =   0.0740741
        k(   43) = (   0.1666667  -0.1666667   0.0833333), wk =   0.0370370
        k(   44) = (  -0.1666667  -0.1666667  -0.0833333), wk =   0.0370370
        k(   45) = (   0.1666667  -0.0833333  -0.2500000), wk =   0.0370370
        k(   46) = (  -0.2500000  -0.1666667   0.0833333), wk =   0.0740741
        k(   47) = (  -0.0833333  -0.2500000   0.1666667), wk =   0.0740741
        k(   48) = (  -0.2500000   0.2500000   0.0833333), wk =   0.0185185
        k(   49) = (   0.1666667  -0.1666667   0.1666667), wk =   0.0370370
        k(   50) = (   0.1666667  -0.1666667  -0.2500000), wk =   0.0185185
        k(   51) = (  -0.2500000  -0.1666667   0.1666667), wk =   0.0740741
        k(   52) = (  -0.2500000   0.2500000   0.1666667), wk =   0.0185185

     Dense  grid:  1700005 G-vectors     FFT dimensions: ( 150, 150, 150)

     Smooth grid:   259911 G-vectors     FFT dimensions: (  80,  80,  80)

     Estimated max dynamical RAM per process >     655.63 MB

     Estimated total dynamical RAM >      10.24 GB

     Check: negative core charge=   -0.000001

     Initial potential from superposition of free atoms

     starting charge     217.9961, renormalised to     226.0000

     negative rho (up, down):  1.104E-02 0.000E+00
     Starting wfcs are  186 randomized atomic wfcs
     Checking if some PAW data can be deallocated... 

     total cpu time spent up to now is       22.8 secs

     per-process dynamical memory:   431.9 Mb

     Self-consistent Calculation

     iteration #  1     ecut=   124.00 Ry     beta= 0.70
     Davidson diagonalization with overlap
     ethr =  1.00E-02,  avg # of iterations =  2.6

     negative rho (up, down):  5.160E-04 0.000E+00

     total cpu time spent up to now is       69.8 secs

     total energy              =   -3476.02415801 Ry
     estimated scf accuracy    <     146.00342342 Ry

     iteration #  2     ecut=   124.00 Ry     beta= 0.70
     Davidson diagonalization with overlap
     ethr =  1.00E-02,  avg # of iterations =  7.2

     negative rho (up, down):  1.511E-04 0.000E+00

     total cpu time spent up to now is      166.5 secs

     total energy              =   -3587.08611626 Ry
     estimated scf accuracy    <     559.87090814 Ry

     iteration #  3     ecut=   124.00 Ry     beta= 0.70
     Davidson diagonalization with overlap
     ethr =  1.00E-02,  avg # of iterations =  3.1

     negative rho (up, down):  1.380E-03 0.000E+00

     total cpu time spent up to now is      226.9 secs

     total energy              =   -3596.08626370 Ry
     estimated scf accuracy    <     138.34312179 Ry

     iteration #  4     ecut=   124.00 Ry     beta= 0.70
     Davidson diagonalization with overlap
     ethr =  1.00E-02,  avg # of iterations =  2.3

     negative rho (up, down):  1.989E-03 0.000E+00

     total cpu time spent up to now is      272.7 secs

     total energy              =   -3593.80969062 Ry
     estimated scf accuracy    <      62.44960004 Ry

     iteration #  5     ecut=   124.00 Ry     beta= 0.70
     Davidson diagonalization with overlap
     ethr =  1.00E-02,  avg # of iterations =  1.3

     negative rho (up, down):  1.939E-03 0.000E+00

     total cpu time spent up to now is      309.6 secs

     total energy              =   -3594.57572710 Ry
     estimated scf accuracy    <      35.23226982 Ry

     iteration #  6     ecut=   124.00 Ry     beta= 0.70
     Davidson diagonalization with overlap
     ethr =  1.00E-02,  avg # of iterations =  1.1

     negative rho (up, down):  2.102E-03 0.000E+00

     total cpu time spent up to now is      345.6 secs

     total energy              =   -3594.32645999 Ry
     estimated scf accuracy    <      33.68473566 Ry

     iteration #  7     ecut=   124.00 Ry     beta= 0.70
     Davidson diagonalization with overlap
     ethr =  1.00E-02,  avg # of iterations =  1.1

     negative rho (up, down):  2.339E-03 0.000E+00

     total cpu time spent up to now is      381.8 secs

     total energy              =   -3593.33206185 Ry
     estimated scf accuracy    <      33.10993039 Ry

     iteration #  8     ecut=   124.00 Ry     beta= 0.70
     Davidson diagonalization with overlap
     ethr =  1.00E-02,  avg # of iterations =  1.3

     negative rho (up, down):  7.690E-03 0.000E+00

     total cpu time spent up to now is      418.2 secs

     total energy              =   -3587.31984793 Ry
     estimated scf accuracy    <      26.90631741 Ry

     iteration #  9     ecut=   124.00 Ry     beta= 0.70
     Davidson diagonalization with overlap
     ethr =  1.00E-02,  avg # of iterations =  2.6

     negative rho (up, down):  7.752E-03 0.000E+00

     total cpu time spent up to now is      462.5 secs

     total energy              =   -3591.01205471 Ry
     estimated scf accuracy    <       5.81346965 Ry

     iteration # 10     ecut=   124.00 Ry     beta= 0.70
     Davidson diagonalization with overlap
     ethr =  2.57E-03,  avg # of iterations =  4.8

     negative rho (up, down):  1.318E-02 0.000E+00

     total cpu time spent up to now is      508.6 secs

     total energy              =   -3595.54723482 Ry
     estimated scf accuracy    <      10.08262551 Ry

     iteration # 11     ecut=   124.00 Ry     beta= 0.70
     Davidson diagonalization with overlap
     ethr =  2.57E-03,  avg # of iterations =  7.9

     negative rho (up, down):  1.016E-02 0.000E+00

     total cpu time spent up to now is      580.5 secs

     total energy              =   -3597.95069121 Ry
     estimated scf accuracy    <     234.98439957 Ry

     iteration # 12     ecut=   124.00 Ry     beta= 0.70
     Davidson diagonalization with overlap
     ethr =  2.57E-03,  avg # of iterations =  2.0

     negative rho (up, down):  5.301E-03 0.000E+00

     total cpu time spent up to now is      621.7 secs

     total energy              =   -3581.36501423 Ry
     estimated scf accuracy    <     169.91785348 Ry

     iteration # 13     ecut=   124.00 Ry     beta= 0.70
     Davidson diagonalization with overlap
     ethr =  2.57E-03,  avg # of iterations =  6.7

     negative rho (up, down):  3.128E-03 0.000E+00

     total cpu time spent up to now is      690.2 secs

     total energy              =   -3590.97637451 Ry
     estimated scf accuracy    <       1.16810624 Ry

     iteration # 14     ecut=   124.00 Ry     beta= 0.70
     Davidson diagonalization with overlap
     ethr =  5.17E-04,  avg # of iterations =  5.9

     negative rho (up, down):  2.985E-03 0.000E+00

     total cpu time spent up to now is      750.7 secs

     total energy              =   -3591.47269644 Ry
     estimated scf accuracy    <       6.23777987 Ry

     iteration # 15     ecut=   124.00 Ry     beta= 0.70
     Davidson diagonalization with overlap
     ethr =  5.17E-04,  avg # of iterations =  1.2

     negative rho (up, down):  2.858E-03 0.000E+00

     total cpu time spent up to now is      787.2 secs

     total energy              =   -3591.41943376 Ry
     estimated scf accuracy    <       6.02133141 Ry

     iteration # 16     ecut=   124.00 Ry     beta= 0.70
     Davidson diagonalization with overlap
     ethr =  5.17E-04,  avg # of iterations =  1.0

     negative rho (up, down):  2.693E-03 0.000E+00

     total cpu time spent up to now is      822.2 secs

     total energy              =   -3591.13330168 Ry
     estimated scf accuracy    <       5.28941003 Ry

     iteration # 17     ecut=   124.00 Ry     beta= 0.70
     Davidson diagonalization with overlap
     ethr =  5.17E-04,  avg # of iterations =  1.5

     negative rho (up, down):  2.596E-03 0.000E+00

     total cpu time spent up to now is      859.5 secs

     total energy              =   -3591.13167841 Ry
     estimated scf accuracy    <       3.97662549 Ry

     iteration # 18     ecut=   124.00 Ry     beta= 0.70
     Davidson diagonalization with overlap
     ethr =  5.17E-04,  avg # of iterations =  1.0

     negative rho (up, down):  2.596E-03 0.000E+00

     total cpu time spent up to now is      894.6 secs

     total energy              =   -3591.04345234 Ry
     estimated scf accuracy    <       2.79848668 Ry

     iteration # 19     ecut=   124.00 Ry     beta= 0.70
     Davidson diagonalization with overlap
     ethr =  5.17E-04,  avg # of iterations =  1.8

     negative rho (up, down):  3.957E-03 0.000E+00

     total cpu time spent up to now is      933.6 secs

     total energy              =   -3590.82142633 Ry
     estimated scf accuracy    <       2.38526542 Ry

     iteration # 20     ecut=   124.00 Ry     beta= 0.70
     Davidson diagonalization with overlap
     ethr =  5.17E-04,  avg # of iterations =  1.5

     negative rho (up, down):  5.364E-03 0.000E+00

     total cpu time spent up to now is      971.4 secs

     total energy              =   -3590.84577189 Ry
     estimated scf accuracy    <       0.99674655 Ry

     iteration # 21     ecut=   124.00 Ry     beta= 0.70
     Davidson diagonalization with overlap
     ethr =  4.41E-04,  avg # of iterations =  2.0

     negative rho (up, down):  8.220E-03 0.000E+00

     total cpu time spent up to now is     1011.6 secs

     total energy              =   -3590.46619551 Ry
     estimated scf accuracy    <       2.45702673 Ry

     iteration # 22     ecut=   124.00 Ry     beta= 0.70
     Davidson diagonalization with overlap
     ethr =  4.41E-04,  avg # of iterations =  5.0

     negative rho (up, down):  7.833E-03 0.000E+00

     total cpu time spent up to now is     1066.8 secs

     total energy              =   -3590.62101918 Ry
     estimated scf accuracy    <       1.19702368 Ry

     iteration # 23     ecut=   124.00 Ry     beta= 0.70
     Davidson diagonalization with overlap
     ethr =  4.41E-04,  avg # of iterations =  2.6

     negative rho (up, down):  7.807E-03 0.000E+00

     total cpu time spent up to now is     1107.7 secs

     total energy              =   -3590.70889292 Ry
     estimated scf accuracy    <       0.14717768 Ry

     iteration # 24     ecut=   124.00 Ry     beta= 0.70
     Davidson diagonalization with overlap
     ethr =  6.51E-05,  avg # of iterations =  6.9

     negative rho (up, down):  7.761E-03 0.000E+00

     total cpu time spent up to now is     1169.3 secs

     total energy              =   -3590.70266364 Ry
     estimated scf accuracy    <       0.50901024 Ry

     iteration # 25     ecut=   124.00 Ry     beta= 0.70
     Davidson diagonalization with overlap
     ethr =  6.51E-05,  avg # of iterations =  5.0

     negative rho (up, down):  7.673E-03 0.000E+00

     total cpu time spent up to now is     1219.6 secs

     total energy              =   -3590.69312337 Ry
     estimated scf accuracy    <       0.87972981 Ry

     iteration # 26     ecut=   124.00 Ry     beta= 0.70
     Davidson diagonalization with overlap
     ethr =  6.51E-05,  avg # of iterations =  5.8

     negative rho (up, down):  7.660E-03 0.000E+00

     total cpu time spent up to now is     1272.1 secs

     total energy              =   -3590.72307792 Ry
     estimated scf accuracy    <       0.25571954 Ry

     iteration # 27     ecut=   124.00 Ry     beta= 0.70
     Davidson diagonalization with overlap
     ethr =  6.51E-05,  avg # of iterations =  2.2

     negative rho (up, down):  7.639E-03 0.000E+00

     total cpu time spent up to now is     1312.6 secs

     total energy              =   -3590.72980995 Ry
     estimated scf accuracy    <       0.16393703 Ry

     iteration # 28     ecut=   124.00 Ry     beta= 0.70
     Davidson diagonalization with overlap
     ethr =  6.51E-05,  avg # of iterations =  1.2

     negative rho (up, down):  7.645E-03 0.000E+00

     total cpu time spent up to now is     1349.1 secs

     total energy              =   -3590.73379393 Ry
     estimated scf accuracy    <       0.05016599 Ry

     iteration # 29     ecut=   124.00 Ry     beta= 0.70
     Davidson diagonalization with overlap
     ethr =  2.22E-05,  avg # of iterations =  3.9

     negative rho (up, down):  7.616E-03 0.000E+00

     total cpu time spent up to now is     1393.1 secs

     total energy              =   -3590.73241764 Ry
     estimated scf accuracy    <       0.06800018 Ry

     iteration # 30     ecut=   124.00 Ry     beta= 0.70
     Davidson diagonalization with overlap
     ethr =  2.22E-05,  avg # of iterations =  2.1

     negative rho (up, down):  7.594E-03 0.000E+00

     total cpu time spent up to now is     1433.8 secs

     total energy              =   -3590.72928686 Ry
     estimated scf accuracy    <       0.06365939 Ry

     iteration # 31     ecut=   124.00 Ry     beta= 0.70
     Davidson diagonalization with overlap
     ethr =  2.22E-05,  avg # of iterations =  6.8

     negative rho (up, down):  7.758E-03 0.000E+00

     total cpu time spent up to now is     1495.2 secs

     total energy              =   -3590.70283472 Ry
     estimated scf accuracy    <       0.62070910 Ry

     iteration # 32     ecut=   124.00 Ry     beta= 0.70
     Davidson diagonalization with overlap
     ethr =  2.22E-05,  avg # of iterations =  5.1

     negative rho (up, down):  7.763E-03 0.000E+00

     total cpu time spent up to now is     1550.3 secs

     total energy              =   -3590.72622870 Ry
     estimated scf accuracy    <       0.18537534 Ry

     iteration # 33     ecut=   124.00 Ry     beta= 0.70
     Davidson diagonalization with overlap
     ethr =  2.22E-05,  avg # of iterations =  3.6

     negative rho (up, down):  7.725E-03 0.000E+00

     total cpu time spent up to now is     1595.1 secs

     total energy              =   -3590.73590689 Ry
     estimated scf accuracy    <       0.00745675 Ry

     iteration # 34     ecut=   124.00 Ry     beta= 0.70
     Davidson diagonalization with overlap
     ethr =  3.30E-06,  avg # of iterations =  6.6

     negative rho (up, down):  7.723E-03 0.000E+00

     total cpu time spent up to now is     1653.4 secs

     total energy              =   -3590.73699185 Ry
     estimated scf accuracy    <       0.00094569 Ry

     iteration # 35     ecut=   124.00 Ry     beta= 0.70
     Davidson diagonalization with overlap
     ethr =  4.18E-07,  avg # of iterations =  3.5

     negative rho (up, down):  7.725E-03 0.000E+00

     total cpu time spent up to now is     1698.2 secs

     total energy              =   -3590.73700309 Ry
     estimated scf accuracy    <       0.00126064 Ry

     iteration # 36     ecut=   124.00 Ry     beta= 0.70
     Davidson diagonalization with overlap
     ethr =  4.18E-07,  avg # of iterations =  2.1

     negative rho (up, down):  7.730E-03 0.000E+00

     total cpu time spent up to now is     1738.8 secs

     total energy              =   -3590.73703847 Ry
     estimated scf accuracy    <       0.00056746 Ry

     iteration # 37     ecut=   124.00 Ry     beta= 0.70
     Davidson diagonalization with overlap
     ethr =  2.51E-07,  avg # of iterations =  4.4

     negative rho (up, down):  7.731E-03 0.000E+00

     total cpu time spent up to now is     1786.9 secs

     total energy              =   -3590.73693072 Ry
     estimated scf accuracy    <       0.00421049 Ry

     iteration # 38     ecut=   124.00 Ry     beta= 0.70
     Davidson diagonalization with overlap
     ethr =  2.51E-07,  avg # of iterations =  4.1

     negative rho (up, down):  7.734E-03 0.000E+00

     total cpu time spent up to now is     1831.4 secs

     total energy              =   -3590.73708790 Ry
     estimated scf accuracy    <       0.00009206 Ry

     iteration # 39     ecut=   124.00 Ry     beta= 0.70
     Davidson diagonalization with overlap
     ethr =  4.07E-08,  avg # of iterations =  4.4

     negative rho (up, down):  7.736E-03 0.000E+00

     total cpu time spent up to now is     1879.0 secs

     total energy              =   -3590.73709390 Ry
     estimated scf accuracy    <       0.00014861 Ry

     iteration # 40     ecut=   124.00 Ry     beta= 0.70
     Davidson diagonalization with overlap
     ethr =  4.07E-08,  avg # of iterations =  1.7

     negative rho (up, down):  7.738E-03 0.000E+00

     total cpu time spent up to now is     1917.6 secs

     total energy              =   -3590.73710044 Ry
     estimated scf accuracy    <       0.00001968 Ry

     iteration # 41     ecut=   124.00 Ry     beta= 0.70
     Davidson diagonalization with overlap
     ethr =  8.71E-09,  avg # of iterations =  2.8

     negative rho (up, down):  7.737E-03 0.000E+00

     total cpu time spent up to now is     1960.1 secs

     total energy              =   -3590.73710142 Ry
     estimated scf accuracy    <       0.00001671 Ry

     iteration # 42     ecut=   124.00 Ry     beta= 0.70
     Davidson diagonalization with overlap
     ethr =  7.39E-09,  avg # of iterations =  1.9

     negative rho (up, down):  7.737E-03 0.000E+00

     total cpu time spent up to now is     1999.4 secs

     total energy              =   -3590.73710181 Ry
     estimated scf accuracy    <       0.00000576 Ry

     iteration # 43     ecut=   124.00 Ry     beta= 0.70
     Davidson diagonalization with overlap
     ethr =  2.55E-09,  avg # of iterations =  4.6

     negative rho (up, down):  7.738E-03 0.000E+00

     total cpu time spent up to now is     2052.1 secs

     total energy              =   -3590.73710005 Ry
     estimated scf accuracy    <       0.00005241 Ry

     iteration # 44     ecut=   124.00 Ry     beta= 0.70
     Davidson diagonalization with overlap
     ethr =  2.55E-09,  avg # of iterations =  4.5

     negative rho (up, down):  7.738E-03 0.000E+00

     total cpu time spent up to now is     2101.9 secs

     total energy              =   -3590.73710190 Ry
     estimated scf accuracy    <       0.00000821 Ry

     iteration # 45     ecut=   124.00 Ry     beta= 0.70
     Davidson diagonalization with overlap
     ethr =  2.55E-09,  avg # of iterations =  4.4

     negative rho (up, down):  7.737E-03 0.000E+00

     total cpu time spent up to now is     2151.1 secs

     total energy              =   -3590.73710031 Ry
     estimated scf accuracy    <       0.00005805 Ry

     iteration # 46     ecut=   124.00 Ry     beta= 0.70
     Davidson diagonalization with overlap
     ethr =  2.55E-09,  avg # of iterations =  4.1

     negative rho (up, down):  7.737E-03 0.000E+00

     total cpu time spent up to now is     2197.7 secs

     total energy              =   -3590.73710258 Ry
     estimated scf accuracy    <       0.00000081 Ry

     iteration # 47     ecut=   124.00 Ry     beta= 0.70
     Davidson diagonalization with overlap
     ethr =  3.60E-10,  avg # of iterations =  5.0

     negative rho (up, down):  7.737E-03 0.000E+00

     total cpu time spent up to now is     2254.0 secs

     total energy              =   -3590.73710200 Ry
     estimated scf accuracy    <       0.00001735 Ry

     iteration # 48     ecut=   124.00 Ry     beta= 0.70
     Davidson diagonalization with overlap
     ethr =  3.60E-10,  avg # of iterations =  4.9

     negative rho (up, down):  7.737E-03 0.000E+00

     total cpu time spent up to now is     2307.4 secs

     total energy              =   -3590.73710268 Ry
     estimated scf accuracy    <       0.00000050 Ry

     iteration # 49     ecut=   124.00 Ry     beta= 0.70
     Davidson diagonalization with overlap
     ethr =  2.19E-10,  avg # of iterations =  4.8

     negative rho (up, down):  7.738E-03 0.000E+00

     total cpu time spent up to now is     2361.3 secs

     total energy              =   -3590.73710247 Ry
     estimated scf accuracy    <       0.00000559 Ry

     iteration # 50     ecut=   124.00 Ry     beta= 0.70
     Davidson diagonalization with overlap
     ethr =  2.19E-10,  avg # of iterations =  4.4

     negative rho (up, down):  7.738E-03 0.000E+00

     total cpu time spent up to now is     2411.8 secs

     total energy              =   -3590.73710273 Ry
     estimated scf accuracy    <       0.00000005 Ry

     iteration # 51     ecut=   124.00 Ry     beta= 0.70
     Davidson diagonalization with overlap
     ethr =  2.25E-11,  avg # of iterations =  3.2

     negative rho (up, down):  7.738E-03 0.000E+00

     total cpu time spent up to now is     2455.4 secs

     total energy              =   -3590.73710273 Ry
     estimated scf accuracy    <       0.00000003 Ry

     iteration # 52     ecut=   124.00 Ry     beta= 0.70
     Davidson diagonalization with overlap
     ethr =  1.19E-11,  avg # of iterations =  4.1

     negative rho (up, down):  7.738E-03 0.000E+00

     total cpu time spent up to now is     2502.9 secs

     total energy              =   -3590.73710273 Ry
     estimated scf accuracy    <       0.00000010 Ry

     iteration # 53     ecut=   124.00 Ry     beta= 0.70
     Davidson diagonalization with overlap
     ethr =  1.19E-11,  avg # of iterations =  3.6

     negative rho (up, down):  7.738E-03 0.000E+00

     total cpu time spent up to now is     2547.5 secs

     total energy              =   -3590.73710273 Ry
     estimated scf accuracy    <       0.00000003 Ry

     iteration # 54     ecut=   124.00 Ry     beta= 0.70
     Davidson diagonalization with overlap
     ethr =  1.15E-11,  avg # of iterations =  1.8

     negative rho (up, down):  7.738E-03 0.000E+00

     total cpu time spent up to now is     2586.1 secs

     total energy              =   -3590.73710274 Ry
     estimated scf accuracy    <       0.00000001 Ry

     iteration # 55     ecut=   124.00 Ry     beta= 0.70
     Davidson diagonalization with overlap
     ethr =  5.24E-12,  avg # of iterations =  2.5

     negative rho (up, down):  7.738E-03 0.000E+00

     total cpu time spent up to now is     2628.1 secs

     total energy              =   -3590.73710274 Ry
     estimated scf accuracy    <       0.00000002 Ry

     iteration # 56     ecut=   124.00 Ry     beta= 0.70
     Davidson diagonalization with overlap
     ethr =  5.24E-12,  avg # of iterations =  1.1

     negative rho (up, down):  7.738E-03 0.000E+00

     total cpu time spent up to now is     2663.6 secs

     End of self-consistent calculation

          k = 0.0000 0.0000 0.0000 ( 32423 PWs)   bands (ev):

   -69.3913 -69.3881 -69.3881 -69.3881 -69.3850 -69.3850 -69.3849 -69.3819
   -39.3400 -39.3202 -39.3099 -39.2912 -39.2759 -39.2544 -38.9112 -38.8485
   -35.5212 -35.5188 -35.5188 -35.5167 -35.5127 -35.5127 -35.5089 -35.5060
   -35.4776 -35.4776 -35.4749 -35.4731 -35.4731 -35.4714 -35.4712 -35.4676
   -35.4492 -35.4492 -35.4431 -35.4382 -35.4085 -35.4040 -35.4040 -35.4002
   -15.8394 -15.7643 -15.7595 -15.7595 -15.7435 -15.7170 -15.7118 -15.7118
   -15.6426 -15.6426 -15.6082 -15.6082 -15.4497 -15.4402 -15.4309 -15.4309
   -15.4104 -15.4042 -15.4042 -15.1987 -15.1383 -15.1383 -15.1021 -15.1021
     8.2951  10.9102  12.1122  13.1175  13.1175  13.2877  13.6407  13.6407
    13.7322  13.7764  13.8324  13.8405  13.8788  13.9111  13.9571  14.7372
    15.2200  15.2200  15.3451  15.3451  15.3516  15.3554  15.3629  15.3629
    15.3757  15.3890  15.3890  15.5040  15.5040  15.6436  16.0107  16.3403
    16.3403  16.4201  16.4289  16.4299  16.4299  16.4491  16.4933  16.4933
    16.5060  16.8744  16.9173  16.9811  17.0384  17.0442  17.5283  17.5664
    17.5690  17.5690  17.6272  17.9714  17.9714  18.0033  18.2930  18.2930
    18.3449  18.3449  18.4052  18.4108  18.4108  18.4158  18.4252  18.4252
    18.4361  18.4777  18.5159  18.5159  18.5246  18.8233  19.0537  19.1972

          k = 0.0000 0.0000 0.0833 ( 32427 PWs)   bands (ev):

   -69.3911 -69.3883 -69.3879 -69.3879 -69.3852 -69.3852 -69.3847 -69.3821
   -39.3380 -39.3173 -39.3119 -39.2887 -39.2789 -39.2569 -38.9070 -38.8527
   -35.5204 -35.5184 -35.5184 -35.5160 -35.5131 -35.5131 -35.5097 -35.5067
   -35.4773 -35.4773 -35.4747 -35.4735 -35.4735 -35.4714 -35.4711 -35.4678
   -35.4462 -35.4462 -35.4403 -35.4363 -35.4106 -35.4070 -35.4070 -35.4031
   -15.8037 -15.7562 -15.7562 -15.7387 -15.7235 -15.7148 -15.7148 -15.6964
   -15.6405 -15.6405 -15.6107 -15.6107 -15.4727 -15.4609 -15.4315 -15.4292
   -15.4292 -15.4060 -15.4060 -15.2419 -15.1359 -15.1359 -15.1045 -15.1045
     8.4906  11.0637  11.7176  13.1768  13.1768  13.4019  13.6600  13.6600
    13.6752  13.8008  13.8600  13.8778  13.9121  13.9590  13.9737  14.7405
    15.1401  15.2293  15.2293  15.3240  15.3240  15.3256  15.3256  15.3855
    15.3855  15.3879  15.4243  15.4529  15.7036  15.7210  15.7210  16.2312
    16.2518  16.2518  16.2854  16.4238  16.4238  16.4796  16.4822  16.4822
    16.8045  16.8103  16.8160  16.9387  17.1492  17.1612  17.1612  17.2243
    17.5308  17.5638  17.7214  17.8573  17.8573  18.0048  18.0048  18.0054
    18.0312  18.1110  18.1110  18.4763  18.4763  18.5294  18.5458  18.6913
    18.7374  18.7403  18.7403  18.7892  18.9015  18.9015  19.0452  19.1148

          k = 0.0000 0.0000 0.1667 ( 32412 PWs)   bands (ev):

   -69.3905 -69.3889 -69.3873 -69.3873 -69.3857 -69.3857 -69.3842 -69.3826
   -39.3324 -39.3173 -39.3092 -39.2871 -39.2821 -39.2637 -38.8956 -38.8643
   -35.5181 -35.5173 -35.5173 -35.5142 -35.5142 -35.5140 -35.5119 -35.5086
   -35.4765 -35.4765 -35.4743 -35.4743 -35.4740 -35.4721 -35.4704 -35.4685
   -35.4380 -35.4379 -35.4324 -35.4309 -35.4160 -35.4153 -35.4153 -35.4109
   -15.7472 -15.7472 -15.7233 -15.7233 -15.7171 -15.6688 -15.6590 -15.6372
   -15.6344 -15.6344 -15.6172 -15.6172 -15.5355 -15.5172 -15.4890 -15.4243
   -15.4243 -15.4109 -15.4109 -15.3581 -15.1293 -15.1293 -15.1112 -15.1112
     9.0474  10.8440  11.5098  12.9995  13.3352  13.3352  13.6530  13.6530
    13.7322  13.9741  14.0005  14.0400  14.0646  14.0792  14.1467  14.6411
    14.7267  14.8415  15.2019  15.2019  15.2753  15.2753  15.4299  15.4744
    15.4744  15.4849  15.4849  15.6268  15.6483  15.8517  16.0249  16.0249
    16.1328  16.1328  16.1813  16.3650  16.3805  16.4173  16.4173  16.4390
    16.4390  16.4554  16.4554  16.5662  16.8293  17.2490  17.3447  17.3447
    17.4011  17.5378  17.5568  17.6192  17.7886  17.8396  17.8396  17.8744
    17.9386  17.9386  18.0019  18.4882  18.5344  18.6673  18.8425  18.8425
    18.8496  18.8836  19.0854  19.0854  19.2304  19.2527  19.2527  19.3024

          k = 0.0000 0.0000-0.2500 ( 32504 PWs)   bands (ev):

   -69.3897 -69.3897 -69.3865 -69.3865 -69.3865 -69.3865 -69.3834 -69.3834
   -39.3248 -39.3248 -39.2982 -39.2982 -39.2729 -39.2729 -38.8800 -38.8800
   -35.5157 -35.5157 -35.5157 -35.5157 -35.5150 -35.5150 -35.5113 -35.5113
   -35.4754 -35.4754 -35.4754 -35.4754 -35.4731 -35.4731 -35.4695 -35.4695
   -35.4267 -35.4267 -35.4267 -35.4266 -35.4235 -35.4235 -35.4217 -35.4217
   -15.7351 -15.7351 -15.7351 -15.7351 -15.6260 -15.6260 -15.6260 -15.6260
   -15.6224 -15.6224 -15.5934 -15.5934 -15.5675 -15.5675 -15.5107 -15.5107
   -15.4176 -15.4176 -15.4176 -15.4176 -15.1203 -15.1203 -15.1203 -15.1203
     9.8792   9.8792  12.1962  12.1962  13.5288  13.5288  13.5288  13.5288
    14.0727  14.0727  14.1490  14.1490  14.2386  14.2386  14.3227  14.3227
    14.4014  14.4014  15.2238  15.2238  15.2238  15.2238  15.4874  15.4874
    15.7381  15.7381  15.7381  15.7381  15.8297  15.8297  15.8297  15.8297
    15.9497  15.9497  15.9693  15.9693  16.4288  16.4288  16.4288  16.4288
    16.5458  16.5458  16.6862  16.6862  16.6862  16.6862  16.6920  16.6920
    17.5473  17.5473  17.8625  17.8625  17.8625  17.8625  17.9685  17.9685
    18.0011  18.0011  18.0918  18.0918  18.3782  18.3782  18.8184  18.8184
    19.2884  19.2884  19.2884  19.2884  19.3895  19.3895  19.3895  19.3895

          k = 0.0000 0.0833 0.0833 ( 32442 PWs)   bands (ev):

   -69.3909 -69.3881 -69.3881 -69.3877 -69.3854 -69.3850 -69.3849 -69.3823
   -39.3366 -39.3167 -39.3098 -39.2905 -39.2793 -39.2584 -38.9072 -38.8529
   -35.5190 -35.5177 -35.5153 -35.5140 -35.5135 -35.5102 -35.5096 -35.5055
   -35.4794 -35.4770 -35.4768 -35.4764 -35.4734 -35.4732 -35.4723 -35.4690
   -35.4458 -35.4455 -35.4407 -35.4369 -35.4103 -35.4073 -35.4068 -35.4033
   -15.8008 -15.7546 -15.7395 -15.7350 -15.7244 -15.7145 -15.6979 -15.6946
   -15.6420 -15.6278 -15.6110 -15.5986 -15.4716 -15.4606 -15.4510 -15.4326
   -15.4291 -15.4269 -15.4059 -15.2422 -15.1497 -15.1360 -15.1174 -15.1047
     8.5355  11.1097  11.7415  13.1470  13.1861  13.2890  13.4562  13.7108
    13.7711  13.8701  13.9207  13.9297  14.0002  14.0211  14.2896  14.7438
    15.0931  15.1049  15.1289  15.2029  15.2997  15.3442  15.3455  15.3828
    15.3912  15.4111  15.4726  15.5366  15.6519  15.6859  15.8000  16.1632
    16.2403  16.2489  16.2915  16.3187  16.3332  16.3892  16.4655  16.5834
    16.6406  16.7652  16.8241  16.8497  17.0104  17.0464  17.0983  17.4016
    17.4030  17.4352  17.6243  17.7081  17.7697  17.8486  17.8765  18.1441
    18.2191  18.2332  18.2764  18.4685  18.4957  18.5228  18.5964  18.5984
    18.6935  18.7570  18.8024  18.8125  18.8541  19.0604  19.0790  19.2494

          k = 0.0000 0.0833 0.1667 ( 32469 PWs)   bands (ev):

   -69.3903 -69.3887 -69.3875 -69.3871 -69.3860 -69.3855 -69.3844 -69.3828
   -39.3309 -39.3155 -39.3088 -39.2872 -39.2837 -39.2652 -38.8958 -38.8645
   -35.5170 -35.5168 -35.5144 -35.5142 -35.5122 -35.5115 -35.5113 -35.5073
   -35.4788 -35.4771 -35.4762 -35.4761 -35.4742 -35.4740 -35.4716 -35.4697
   -35.4376 -35.4374 -35.4328 -35.4313 -35.4160 -35.4153 -35.4150 -35.4112
   -15.7459 -15.7263 -15.7227 -15.7137 -15.7033 -15.6701 -15.6593 -15.6389
   -15.6356 -15.6219 -15.6177 -15.6049 -15.5340 -15.5172 -15.4901 -15.4459
   -15.4320 -15.4242 -15.4108 -15.3584 -15.1429 -15.1295 -15.1243 -15.1114
     9.0943  10.8859  11.5415  12.9201  13.2872  13.4345  13.4452  13.7300
    13.7863  14.0466  14.0604  14.1216  14.1390  14.1946  14.3250  14.6513
    14.7736  14.8215  15.1542  15.1861  15.2703  15.3202  15.3317  15.4011
    15.4326  15.4936  15.5879  15.5986  15.7435  15.8261  15.9088  15.9713
    16.0000  16.1106  16.2455  16.2871  16.3021  16.3285  16.3330  16.3729
    16.3814  16.4234  16.4624  16.6758  16.7650  16.7943  16.9436  17.1467
    17.3688  17.6491  17.7731  17.8021  17.8485  17.8803  17.9337  17.9569
    17.9935  18.0942  18.1877  18.5096  18.5206  18.6170  18.6518  18.6833
    18.8975  18.9007  18.9169  18.9890  19.1097  19.1230  19.2355  19.2513

          k = 0.0000 0.0833-0.2500 ( 32438 PWs)   bands (ev):

   -69.3895 -69.3895 -69.3867 -69.3867 -69.3863 -69.3863 -69.3836 -69.3836
   -39.3232 -39.3232 -39.2980 -39.2980 -39.2745 -39.2745 -38.8802 -38.8802
   -35.5156 -35.5156 -35.5142 -35.5142 -35.5128 -35.5128 -35.5097 -35.5097
   -35.4780 -35.4780 -35.4752 -35.4751 -35.4751 -35.4751 -35.4706 -35.4706
   -35.4264 -35.4264 -35.4263 -35.4263 -35.4236 -35.4236 -35.4220 -35.4220
   -15.7342 -15.7342 -15.7146 -15.7146 -15.6268 -15.6268 -15.6204 -15.6204
   -15.6135 -15.6135 -15.5937 -15.5937 -15.5685 -15.5685 -15.5116 -15.5116
   -15.4389 -15.4389 -15.4175 -15.4175 -15.1336 -15.1336 -15.1205 -15.1205
     9.9268   9.9268  12.1996  12.1996  13.3889  13.3889  13.6307  13.6307
    14.1933  14.1933  14.2375  14.2375  14.2787  14.2787  14.3570  14.3570
    14.4607  14.4607  15.2088  15.2088  15.2586  15.2586  15.4155  15.4155
    15.6560  15.6560  15.7000  15.7000  15.7281  15.7281  15.8762  15.8762
    16.0017  16.0018  16.0770  16.0770  16.2861  16.2861  16.3486  16.3486
    16.3740  16.3740  16.4387  16.4387  16.5743  16.5743  16.7596  16.7596
    17.7007  17.7007  17.7576  17.7576  17.8900  17.8900  18.0525  18.0525
    18.1627  18.1627  18.1810  18.1810  18.4448  18.4448  18.8027  18.8027
    18.8996  18.8996  19.1927  19.1927  19.2175  19.2175  19.3095  19.3095

          k = 0.0000 0.1667 0.1667 ( 32476 PWs)   bands (ev):

   -69.3897 -69.3881 -69.3881 -69.3865 -69.3865 -69.3850 -69.3849 -69.3834
   -39.3276 -39.3111 -39.3078 -39.2879 -39.2876 -39.2685 -38.8963 -38.8650
   -35.5159 -35.5155 -35.5147 -35.5122 -35.5061 -35.5054 -35.5033 -35.5017
   -35.4851 -35.4848 -35.4838 -35.4816 -35.4754 -35.4732 -35.4730 -35.4710
   -35.4366 -35.4360 -35.4338 -35.4325 -35.4157 -35.4154 -35.4142 -35.4120
   -15.7433 -15.7217 -15.7045 -15.6792 -15.6693 -15.6569 -15.6463 -15.6433
   -15.6381 -15.6187 -15.5944 -15.5780 -15.5308 -15.5177 -15.5037 -15.4925
   -15.4889 -15.4241 -15.4106 -15.3592 -15.1726 -15.1527 -15.1298 -15.1118
     9.1942  10.9754  11.6235  12.8000  12.8112  13.5987  13.7570  13.8859
    13.9378  14.1862  14.1947  14.3304  14.3511  14.3825  14.4464  14.5832
    14.6721  14.8925  14.9275  15.1549  15.2667  15.3294  15.3466  15.4196
    15.4333  15.4697  15.5381  15.5876  15.6716  15.6953  15.9887  15.9967
    16.0306  16.0452  16.0812  16.1132  16.1271  16.1806  16.2009  16.2063
    16.2488  16.2723  16.3425  16.5136  16.6147  16.6367  16.7046  16.7715
    17.3944  17.7443  17.8518  17.8737  18.0004  18.0300  18.0881  18.1123
    18.1736  18.3642  18.3720  18.4081  18.4457  18.4827  18.4830  18.4947
    18.7178  18.8461  18.9794  19.0255  19.1148  19.1334  19.1629  19.1883

          k = 0.0000 0.1667-0.2500 ( 32466 PWs)   bands (ev):

   -69.3889 -69.3889 -69.3873 -69.3873 -69.3857 -69.3857 -69.3842 -69.3842
   -39.3193 -39.3193 -39.2979 -39.2979 -39.2781 -39.2781 -38.8807 -38.8807
   -35.5151 -35.5151 -35.5141 -35.5141 -35.5047 -35.5047 -35.5036 -35.5036
   -35.4850 -35.4850 -35.4827 -35.4827 -35.4743 -35.4743 -35.4720 -35.4720
   -35.4257 -35.4257 -35.4254 -35.4254 -35.4241 -35.4241 -35.4229 -35.4229
   -15.7325 -15.7325 -15.6590 -15.6590 -15.6284 -15.6284 -15.6143 -15.6143
   -15.5974 -15.5974 -15.5850 -15.5850 -15.5701 -15.5701 -15.5136 -15.5136
   -15.4961 -15.4961 -15.4173 -15.4173 -15.1626 -15.1626 -15.1208 -15.1208
    10.0293  10.0293  12.1937  12.1937  13.1904  13.1904  13.9063  13.9063
    14.3411  14.3411  14.3514  14.3514  14.3877  14.3877  14.4830  14.4830
    14.6534  14.6534  15.1214  15.1214  15.2927  15.2927  15.3935  15.3935
    15.4175  15.4175  15.4807  15.4807  15.7537  15.7537  15.8717  15.8717
    15.9448  15.9448  15.9943  15.9943  16.0708  16.0708  16.2565  16.2565
    16.2653  16.2653  16.3221  16.3221  16.3264  16.3264  16.7532  16.7532
    17.7244  17.7244  17.8154  17.8154  17.9259  17.9259  18.2361  18.2361
    18.3236  18.3236  18.3794  18.3794  18.5303  18.5303  18.6221  18.6221
    18.7527  18.7527  18.8680  18.8680  19.0349  19.0349  19.2331  19.2331

          k = 0.0000-0.2500-0.2500 ( 32544 PWs)   bands (ev):

   -69.3881 -69.3881 -69.3881 -69.3881 -69.3850 -69.3850 -69.3849 -69.3849
   -39.3171 -39.3171 -39.2979 -39.2979 -39.2801 -39.2801 -38.8809 -38.8809
   -35.5146 -35.5146 -35.5145 -35.5145 -35.4946 -35.4945 -35.4943 -35.4943
   -35.4939 -35.4939 -35.4934 -35.4934 -35.4732 -35.4732 -35.4732 -35.4732
   -35.4250 -35.4249 -35.4247 -35.4247 -35.4242 -35.4242 -35.4242 -35.4241
   -15.7316 -15.7316 -15.6293 -15.6293 -15.6098 -15.6098 -15.6066 -15.6066
   -15.5891 -15.5891 -15.5716 -15.5716 -15.5709 -15.5709 -15.5595 -15.5595
   -15.5138 -15.5138 -15.4172 -15.4172 -15.1786 -15.1786 -15.1210 -15.1210
    10.0849  10.0849  12.1818  12.1818  13.1127  13.1127  14.1731  14.1731
    14.3099  14.3099  14.3724  14.3724  14.4223  14.4223  14.6468  14.6468
    14.8352  14.8352  15.0377  15.0377  15.2080  15.2080  15.2959  15.2959
    15.3074  15.3074  15.4113  15.4113  15.8030  15.8030  15.8218  15.8218
    15.8604  15.8604  15.8996  15.8996  16.0497  16.0497  16.1571  16.1571
    16.1996  16.1996  16.1999  16.1999  16.5697  16.5697  16.6001  16.6001
    17.7443  17.7443  17.8791  17.8791  17.9025  17.9025  18.3545  18.3545
    18.3713  18.3713  18.4545  18.4545  18.4824  18.4824  18.5260  18.5260
    18.7445  18.7445  18.8793  18.8793  19.0176  19.0176  19.1316  19.1316

          k = 0.0833 0.0833 0.0833 ( 32444 PWs)   bands (ev):

   -69.3907 -69.3879 -69.3879 -69.3879 -69.3852 -69.3852 -69.3851 -69.3825
   -39.3350 -39.3162 -39.3077 -39.2923 -39.2794 -39.2601 -38.9075 -38.8532
   -35.5170 -35.5156 -35.5138 -35.5127 -35.5107 -35.5105 -35.5084 -35.5052
   -35.4800 -35.4783 -35.4779 -35.4763 -35.4761 -35.4746 -35.4743 -35.4710
   -35.4452 -35.4452 -35.4410 -35.4375 -35.4100 -35.4070 -35.4070 -35.4036
   -15.7980 -15.7394 -15.7343 -15.7326 -15.7258 -15.6995 -15.6944 -15.6941
   -15.6313 -15.6270 -15.5991 -15.5986 -15.4705 -15.4604 -15.4521 -15.4497
   -15.4339 -15.4269 -15.4267 -15.2424 -15.1501 -15.1497 -15.1176 -15.1176
     8.5756  11.1667  11.7680  13.0874  13.2813  13.3140  13.3476  13.4954
    13.8690  13.9420  13.9803  14.0255  14.0464  14.2774  14.3899  14.7739
    15.0145  15.0563  15.1199  15.1637  15.2420  15.2788  15.3424  15.3966
    15.4288  15.4732  15.4912  15.5065  15.6175  15.6718  15.9109  16.0548
    16.1133  16.1568  16.2542  16.2811  16.3174  16.3622  16.3968  16.6311
    16.6563  16.6763  16.6771  16.7952  16.8458  16.9079  17.0468  17.1372
    17.2027  17.5598  17.5931  17.7287  17.7874  17.8618  18.2418  18.2595
    18.2828  18.3034  18.3343  18.4180  18.4965  18.5120  18.5251  18.5680
    18.5814  18.6160  18.7654  19.0150  19.0172  19.1645  19.2181  19.2219

          k = 0.0833 0.0833 0.1667 ( 32476 PWs)   bands (ev):

   -69.3901 -69.3885 -69.3873 -69.3873 -69.3857 -69.3857 -69.3846 -69.3831
   -39.3292 -39.3135 -39.3085 -39.2873 -39.2855 -39.2670 -38.8961 -38.8647
   -35.5152 -35.5145 -35.5131 -35.5116 -35.5113 -35.5111 -35.5102 -35.5068
   -35.4792 -35.4779 -35.4773 -35.4769 -35.4768 -35.4753 -35.4736 -35.4717
   -35.4371 -35.4371 -35.4331 -35.4317 -35.4159 -35.4151 -35.4151 -35.4115
   -15.7257 -15.7244 -15.7104 -15.7027 -15.7026 -15.6702 -15.6607 -15.6407
   -15.6246 -15.6213 -15.6056 -15.6051 -15.5324 -15.5172 -15.4914 -15.4468
   -15.4449 -15.4320 -15.4318 -15.3588 -15.1432 -15.1430 -15.1245 -15.1245
     9.1366  10.9262  11.5874  12.9310  13.2495  13.3751  13.5019  13.6346
    13.8168  14.1247  14.1428  14.1763  14.2100  14.3977  14.4263  14.7205
    14.7682  14.8261  15.0536  15.2303  15.2621  15.2661  15.3399  15.4045
    15.4560  15.4610  15.6375  15.6708  15.7005  15.7626  15.8564  15.8879
    15.9267  16.0401  16.1725  16.2056  16.2337  16.2713  16.2769  16.3355
    16.3461  16.3712  16.3714  16.6090  16.7010  16.7053  16.7076  16.7375
    17.3428  17.7788  17.7804  17.9074  17.9776  17.9791  18.1217  18.1580
    18.1587  18.1675  18.1787  18.4658  18.5688  18.6298  18.6380  18.7675
    18.8034  18.8102  18.8477  18.9555  19.0338  19.0672  19.2047  19.4530

          k = 0.0833 0.0833-0.2500 ( 32474 PWs)   bands (ev):

   -69.3893 -69.3893 -69.3865 -69.3865 -69.3865 -69.3865 -69.3838 -69.3838
   -39.3214 -39.3214 -39.2979 -39.2979 -39.2763 -39.2763 -38.8804 -38.8804
   -35.5130 -35.5130 -35.5127 -35.5127 -35.5122 -35.5122 -35.5090 -35.5090
   -35.4781 -35.4780 -35.4774 -35.4774 -35.4763 -35.4763 -35.4727 -35.4727
   -35.4261 -35.4261 -35.4261 -35.4261 -35.4238 -35.4238 -35.4223 -35.4223
   -15.7141 -15.7141 -15.7133 -15.7133 -15.6187 -15.6187 -15.6144 -15.6144
   -15.6136 -15.6136 -15.5938 -15.5938 -15.5697 -15.5697 -15.5124 -15.5124
   -15.4394 -15.4394 -15.4383 -15.4383 -15.1339 -15.1339 -15.1338 -15.1338
     9.9707   9.9707  12.2270  12.2270  13.3736  13.3736  13.6050  13.6050
    14.3002  14.3002  14.3065  14.3065  14.3413  14.3413  14.4113  14.4113
    14.5059  14.5059  15.1962  15.1962  15.2713  15.2713  15.4150  15.4150
    15.6192  15.6193  15.6554  15.6554  15.6786  15.6786  15.8900  15.8900
    16.0327  16.0327  16.0490  16.0490  16.1882  16.1882  16.2385  16.2385
    16.2730  16.2730  16.2927  16.2927  16.3182  16.3182  16.7552  16.7552
    17.6582  17.6582  17.9059  17.9059  18.0654  18.0654  18.0906  18.0906
    18.2214  18.2214  18.2605  18.2605  18.4960  18.4960  18.7915  18.7915
    18.9541  18.9541  18.9625  18.9625  19.0586  19.0586  19.3653  19.3653

          k = 0.0833 0.1667 0.1667 ( 32434 PWs)   bands (ev):

   -69.3895 -69.3879 -69.3879 -69.3867 -69.3863 -69.3852 -69.3852 -69.3836
   -39.3256 -39.3088 -39.3076 -39.2897 -39.2877 -39.2708 -38.8965 -38.8652
   -35.5133 -35.5129 -35.5118 -35.5100 -35.5056 -35.5051 -35.5035 -35.5019
   -35.4851 -35.4846 -35.4839 -35.4819 -35.4777 -35.4761 -35.4757 -35.4738
   -35.4363 -35.4359 -35.4339 -35.4327 -35.4156 -35.4152 -35.4143 -35.4123
   -15.7225 -15.7017 -15.7011 -15.6772 -15.6680 -15.6596 -15.6458 -15.6454
   -15.6256 -15.6064 -15.5951 -15.5785 -15.5291 -15.5175 -15.5039 -15.4941
   -15.4890 -15.4457 -15.4318 -15.3596 -15.1728 -15.1529 -15.1435 -15.1248
     9.2256  11.0119  11.7098  12.8379  12.8970  13.5258  13.6315  13.8886
    13.8963  14.2753  14.2879  14.3913  14.4306  14.5483  14.5777  14.6590
    14.7170  14.8856  14.9423  15.1365  15.1660  15.3215  15.3910  15.4316
    15.5063  15.5101  15.5420  15.5623  15.6334  15.6701  15.8843  15.8897
    15.9091  15.9772  16.0115  16.0421  16.0782  16.1038  16.1107  16.1402
    16.1437  16.1878  16.2512  16.3090  16.3635  16.4695  16.4927  16.7490
    17.3833  17.7905  17.9476  18.1250  18.1424  18.1969  18.2248  18.2420
    18.2748  18.3751  18.4598  18.4853  18.4986  18.5539  18.5788  18.5917
    18.7184  18.8867  18.9163  18.9917  19.0399  19.1193  19.1468  19.2568

          k = 0.0833 0.1667-0.2500 ( 32462 PWs)   bands (ev):

   -69.3887 -69.3887 -69.3871 -69.3871 -69.3860 -69.3860 -69.3844 -69.3844
   -39.3172 -39.3172 -39.2977 -39.2977 -39.2803 -39.2803 -38.8809 -38.8809
   -35.5124 -35.5123 -35.5116 -35.5116 -35.5046 -35.5046 -35.5035 -35.5035
   -35.4848 -35.4848 -35.4830 -35.4829 -35.4769 -35.4769 -35.4747 -35.4747
   -35.4255 -35.4255 -35.4253 -35.4253 -35.4241 -35.4241 -35.4231 -35.4231
   -15.7119 -15.7119 -15.6579 -15.6579 -15.6163 -15.6163 -15.6119 -15.6119
   -15.5968 -15.5968 -15.5858 -15.5858 -15.5719 -15.5719 -15.5144 -15.5144
   -15.4963 -15.4963 -15.4387 -15.4387 -15.1628 -15.1628 -15.1342 -15.1342
    10.0641  10.0641  12.2798  12.2798  13.2045  13.2045  13.8262  13.8262
    14.3366  14.3366  14.4471  14.4471  14.4813  14.4813  14.5924  14.5924
    14.6955  14.6955  15.1126  15.1126  15.3206  15.3206  15.3981  15.3981
    15.4110  15.4110  15.5238  15.5238  15.7072  15.7072  15.7624  15.7624
    15.8834  15.8834  15.9516  15.9516  16.0313  16.0313  16.0560  16.0560
    16.1162  16.1162  16.1641  16.1641  16.1849  16.1849  16.6368  16.6368
    17.6418  17.6418  18.0663  18.0663  18.1885  18.1885  18.2776  18.2776
    18.3814  18.3814  18.4481  18.4481  18.5757  18.5757  18.7310  18.7310
    18.7994  18.7994  18.9161  18.9161  19.0014  19.0014  19.2939  19.2939

          k = 0.0833-0.2500-0.2500 ( 32460 PWs)   bands (ev):

   -69.3879 -69.3879 -69.3879 -69.3879 -69.3852 -69.3852 -69.3852 -69.3852
   -39.3147 -39.3147 -39.2977 -39.2977 -39.2826 -39.2826 -38.8811 -38.8811
   -35.5119 -35.5119 -35.5118 -35.5118 -35.4945 -35.4945 -35.4942 -35.4942
   -35.4939 -35.4939 -35.4935 -35.4935 -35.4759 -35.4759 -35.4759 -35.4759
   -35.4249 -35.4249 -35.4247 -35.4247 -35.4242 -35.4242 -35.4242 -35.4242
   -15.7110 -15.7110 -15.6169 -15.6169 -15.6075 -15.6075 -15.6045 -15.6045
   -15.5879 -15.5879 -15.5734 -15.5734 -15.5712 -15.5712 -15.5617 -15.5617
   -15.5148 -15.5148 -15.4387 -15.4387 -15.1788 -15.1788 -15.1343 -15.1343
    10.1142  10.1142  12.3044  12.3044  13.1153  13.1153  14.1355  14.1355
    14.1971  14.1971  14.4709  14.4709  14.5232  14.5232  14.8052  14.8052
    14.8923  14.8923  15.0554  15.0554  15.1693  15.1693  15.2817  15.2818
    15.3582  15.3582  15.4499  15.4499  15.7263  15.7263  15.7283  15.7283
    15.8158  15.8158  15.8645  15.8645  15.9456  15.9456  15.9624  15.9624
    16.0644  16.0644  16.0807  16.0807  16.3860  16.3860  16.4203  16.4203
    17.6599  17.6599  18.1558  18.1558  18.1948  18.1948  18.4246  18.4246
    18.4300  18.4300  18.5250  18.5250  18.5708  18.5708  18.7061  18.7061
    18.8384  18.8384  18.8725  18.8725  19.0450  19.0450  19.1649  19.1649

          k = 0.1667 0.1667 0.1667 ( 32390 PWs)   bands (ev):

   -69.3889 -69.3873 -69.3873 -69.3873 -69.3858 -69.3858 -69.3857 -69.3842
   -39.3205 -39.3071 -39.3032 -39.2950 -39.2876 -39.2762 -38.8970 -38.8657
   -35.5072 -35.5071 -35.5050 -35.5043 -35.5036 -35.5031 -35.5029 -35.5014
   -35.4865 -35.4855 -35.4841 -35.4840 -35.4835 -35.4826 -35.4818 -35.4803
   -35.4355 -35.4354 -35.4344 -35.4334 -35.4153 -35.4146 -35.4146 -35.4129
   -15.6932 -15.6741 -15.6675 -15.6657 -15.6633 -15.6514 -15.6447 -15.6446
   -15.6025 -15.5923 -15.5803 -15.5788 -15.5254 -15.5172 -15.5064 -15.5017
   -15.4977 -15.4896 -15.4887 -15.3604 -15.1733 -15.1731 -15.1532 -15.1532
     9.2905  11.0884  11.9434  12.8096  13.1122  13.2988  13.5171  13.8500
    14.0873  14.4780  14.5364  14.5486  14.5642  14.6818  14.7608  14.8297
    14.8639  14.9028  14.9335  14.9486  15.1643  15.3109  15.3609  15.4573
    15.5095  15.5173  15.5579  15.6368  15.6479  15.6609  15.6746  15.7381
    15.7668  15.8204  15.8325  15.8568  15.8742  15.9097  15.9177  15.9328
    15.9424  15.9595  16.0503  16.0884  16.1680  16.1853  16.1988  16.6007
    17.4353  17.8578  18.1906  18.2820  18.3483  18.3675  18.3908  18.4398
    18.4583  18.5686  18.6434  18.6486  18.6635  18.6761  18.6848  18.7595
    18.8468  18.8908  18.9038  18.9569  18.9969  19.0837  19.1908  19.3711

          k = 0.1667 0.1667-0.2500 ( 32458 PWs)   bands (ev):

   -69.3881 -69.3881 -69.3865 -69.3865 -69.3865 -69.3865 -69.3850 -69.3850
   -39.3118 -39.3118 -39.2974 -39.2974 -39.2856 -39.2856 -38.8814 -38.8814
   -35.5060 -35.5060 -35.5058 -35.5058 -35.5033 -35.5033 -35.5022 -35.5022
   -35.4853 -35.4853 -35.4848 -35.4848 -35.4831 -35.4831 -35.4811 -35.4811
   -35.4251 -35.4251 -35.4250 -35.4250 -35.4243 -35.4243 -35.4236 -35.4236
   -15.6569 -15.6569 -15.6544 -15.6544 -15.6066 -15.6066 -15.5962 -15.5962
   -15.5916 -15.5916 -15.5850 -15.5850 -15.5759 -15.5759 -15.5161 -15.5161
   -15.4981 -15.4981 -15.4952 -15.4952 -15.1633 -15.1633 -15.1632 -15.1632
    10.1367  10.1367  12.4951  12.4951  13.1934  13.1934  13.7212  13.7212
    14.2994  14.2994  14.6714  14.6714  14.7274  14.7274  14.7381  14.7381
    14.8381  14.8381  15.1172  15.1172  15.3370  15.3370  15.4040  15.4040
    15.4210  15.4210  15.5403  15.5403  15.5843  15.5843  15.6249  15.6249
    15.6962  15.6962  15.7747  15.7747  15.8428  15.8428  15.8842  15.8842
    15.9018  15.9018  15.9250  15.9250  15.9786  15.9786  16.3333  16.3333
    17.6570  17.6570  18.3991  18.3991  18.4059  18.4059  18.4851  18.4851
    18.4997  18.4997  18.6125  18.6125  18.7037  18.7037  18.7970  18.7970
    18.9560  18.9560  19.0150  19.0150  19.1293  19.1293  19.3409  19.3409

          k = 0.1667-0.2500-0.2500 ( 32460 PWs)   bands (ev):

   -69.3874 -69.3873 -69.3873 -69.3873 -69.3858 -69.3858 -69.3857 -69.3857
   -39.3080 -39.3080 -39.2973 -39.2973 -39.2893 -39.2893 -38.8816 -38.8816
   -35.5047 -35.5047 -35.5047 -35.5047 -35.4942 -35.4942 -35.4940 -35.4940
   -35.4939 -35.4939 -35.4936 -35.4936 -35.4832 -35.4832 -35.4832 -35.4832
   -35.4248 -35.4248 -35.4246 -35.4246 -35.4244 -35.4244 -35.4243 -35.4243
   -15.6545 -15.6545 -15.6016 -15.6016 -15.6000 -15.6000 -15.5905 -15.5905
   -15.5838 -15.5838 -15.5790 -15.5790 -15.5710 -15.5710 -15.5675 -15.5675
   -15.5167 -15.5167 -15.4968 -15.4968 -15.1793 -15.1793 -15.1634 -15.1634
    10.1746  10.1746  12.6532  12.6532  13.1238  13.1238  13.7224  13.7224
    14.2284  14.2284  14.7395  14.7395  14.7853  14.7853  15.0600  15.0600
    15.1005  15.1005  15.1101  15.1101  15.1271  15.1271  15.2305  15.2305
    15.4780  15.4780  15.4992  15.4992  15.5750  15.5750  15.6071  15.6071
    15.6526  15.6526  15.6672  15.6672  15.7183  15.7183  15.7754  15.7754
    15.8463  15.8463  15.8592  15.8592  15.9927  15.9927  16.0259  16.0259
    17.6786  17.6786  18.5256  18.5256  18.5323  18.5323  18.5954  18.5954
    18.6173  18.6173  18.6476  18.6476  18.7286  18.7286  18.8317  18.8317
    19.0308  19.0308  19.1371  19.1371  19.2263  19.2263  19.2825  19.2825

          k =-0.2500-0.2500-0.2500 ( 32344 PWs)   bands (ev):

   -69.3866 -69.3866 -69.3865 -69.3865 -69.3865 -69.3865 -69.3865 -69.3865
   -39.3002 -39.3002 -39.2971 -39.2971 -39.2971 -39.2971 -38.8818 -38.8818
   -35.4974 -35.4974 -35.4974 -35.4974 -35.4944 -35.4944 -35.4940 -35.4940
   -35.4937 -35.4937 -35.4935 -35.4935 -35.4905 -35.4905 -35.4905 -35.4905
   -35.4246 -35.4246 -35.4246 -35.4245 -35.4245 -35.4245 -35.4243 -35.4243
   -15.5977 -15.5977 -15.5977 -15.5977 -15.5858 -15.5858 -15.5790 -15.5790
   -15.5790 -15.5790 -15.5789 -15.5789 -15.5729 -15.5729 -15.5702 -15.5702
   -15.5682 -15.5682 -15.5176 -15.5176 -15.1795 -15.1795 -15.1795 -15.1795
    10.2058  10.2058  13.1302  13.1302  13.1302  13.1302  13.2071  13.2071
    14.2294  14.2294  15.0470  15.0470  15.0470  15.0470  15.1051  15.1052
    15.1444  15.1444  15.1635  15.1635  15.1635  15.1635  15.1846  15.1846
    15.5214  15.5214  15.5214  15.5214  15.5244  15.5244  15.6116  15.6116
    15.6400  15.6400  15.6571  15.6571  15.6571  15.6571  15.6713  15.6713
    15.6713  15.6713  15.6763  15.6763  15.6780  15.6780  15.6900  15.6900
    17.6968  17.6968  18.6895  18.6895  18.6895  18.6895  18.7044  18.7044
    18.7407  18.7407  18.7407  18.7407  18.7707  18.7707  18.7716  18.7716
    19.1880  19.1880  19.5133  19.5133  19.5134  19.5136  19.5360  19.5360

          k = 0.0833 0.0000 0.0000 ( 32427 PWs)   bands (ev):

   -69.3911 -69.3883 -69.3879 -69.3879 -69.3852 -69.3851 -69.3848 -69.3821
   -39.3387 -39.3196 -39.3078 -39.2929 -39.2763 -39.2559 -38.9114 -38.8487
   -35.5198 -35.5180 -35.5157 -35.5146 -35.5131 -35.5098 -35.5088 -35.5048
   -35.4796 -35.4773 -35.4771 -35.4762 -35.4732 -35.4729 -35.4726 -35.4687
   -35.4488 -35.4485 -35.4435 -35.4390 -35.4082 -35.4043 -35.4037 -35.4004
   -15.8368 -15.7645 -15.7578 -15.7445 -15.7382 -15.7184 -15.7115 -15.6917
   -15.6443 -15.6299 -15.6084 -15.5962 -15.4529 -15.4487 -15.4398 -15.4309
   -15.4250 -15.4115 -15.4041 -15.1989 -15.1522 -15.1384 -15.1149 -15.1023
     8.3392  10.9607  12.1186  13.0837  13.1912  13.2303  13.3430  13.6794
    13.8047  13.8343  13.8748  13.9418  13.9420  14.0149  14.2428  14.7339
    15.1154  15.1825  15.1845  15.2672  15.2927  15.3391  15.3476  15.3686
    15.3690  15.4064  15.4143  15.4285  15.5521  15.8369  16.0554  16.2499
    16.3367  16.3384  16.3441  16.4142  16.4200  16.4369  16.4469  16.4823
    16.5245  16.7334  16.8008  16.9972  17.0775  17.1628  17.2529  17.3574
    17.5717  17.5997  17.6845  17.8902  17.9070  17.9594  17.9729  18.0972
    18.1194  18.1229  18.1501  18.3982  18.5021  18.5456  18.5529  18.5862
    18.6297  18.7018  18.7279  18.7317  18.8310  18.8418  18.9999  19.1704

          k = 0.1667 0.0000 0.0000 ( 32412 PWs)   bands (ev):

   -69.3905 -69.3889 -69.3873 -69.3873 -69.3858 -69.3857 -69.3842 -69.3826
   -39.3359 -39.3178 -39.3028 -39.2971 -39.2779 -39.2589 -38.9119 -38.8492
   -35.5179 -35.5159 -35.5143 -35.5104 -35.5074 -35.5071 -35.5019 -35.4999
   -35.4851 -35.4848 -35.4845 -35.4805 -35.4765 -35.4740 -35.4721 -35.4700
   -35.4477 -35.4464 -35.4446 -35.4409 -35.4074 -35.4051 -35.4030 -35.4011
   -15.8311 -15.7659 -15.7543 -15.7459 -15.7214 -15.7109 -15.6801 -15.6477
   -15.6370 -15.6089 -15.6020 -15.5701 -15.5122 -15.4813 -15.4466 -15.4388
   -15.4308 -15.4141 -15.4039 -15.1994 -15.1826 -15.1427 -15.1388 -15.1027
     8.4320  11.1047  12.1314  12.4354  13.3705  13.4878  13.5535  13.7264
    13.9756  13.9778  13.9980  14.0634  14.1040  14.2296  14.3664  14.6505
    14.6837  14.6929  14.9985  15.1180  15.2446  15.3050  15.3550  15.4138
    15.5305  15.5801  15.5989  15.6177  15.6780  16.1125  16.1200  16.1227
    16.2180  16.2500  16.2639  16.2845  16.3032  16.3595  16.3781  16.4122
    16.4165  16.4558  16.6129  16.8070  16.8837  16.9182  17.2219  17.3101
    17.4705  17.5792  17.5985  17.6773  17.8093  17.8328  17.8725  17.8928
    17.9672  17.9704  17.9746  18.2639  18.4974  18.6829  18.8168  18.8769
    18.9092  18.9099  18.9325  19.0604  19.0875  19.1839  19.2220  19.2433

          k =-0.2500 0.0000 0.0000 ( 32504 PWs)   bands (ev):

   -69.3897 -69.3897 -69.3866 -69.3865 -69.3865 -69.3865 -69.3834 -69.3834
   -39.3345 -39.3164 -39.2997 -39.2997 -39.2794 -39.2604 -38.9121 -38.8494
   -35.5162 -35.5158 -35.5134 -35.5128 -35.4963 -35.4962 -35.4959 -35.4956
   -35.4926 -35.4925 -35.4914 -35.4910 -35.4753 -35.4752 -35.4712 -35.4711
   -35.4462 -35.4462 -35.4439 -35.4434 -35.4063 -35.4062 -35.4021 -35.4021
   -15.8279 -15.7674 -15.7524 -15.7461 -15.7230 -15.7106 -15.6494 -15.6150
   -15.6091 -15.5906 -15.5740 -15.5736 -15.5553 -15.5454 -15.4456 -15.4381
   -15.4307 -15.4156 -15.4037 -15.1996 -15.1994 -15.1580 -15.1389 -15.1029
     8.4809  11.2273  12.1153  12.1378  13.4880  13.6340  13.6737  13.9449
    14.0483  14.0835  14.0849  14.1996  14.2003  14.2457  14.3011  14.3508
    14.5511  14.6149  14.6223  15.0948  15.2487  15.2686  15.3837  15.6623
    15.7856  15.8024  15.8107  15.8339  15.8342  15.8415  15.8573  15.9063
    15.9359  15.9484  16.1830  16.3578  16.3858  16.4272  16.4309  16.4667
    16.5825  16.5851  16.6120  16.6885  16.7421  16.7423  16.7810  16.8310
    17.0195  17.5876  17.5908  17.8811  17.9078  17.9108  17.9148  17.9275
    17.9329  18.0611  18.2166  18.3111  18.3463  18.4190  18.4769  18.9311
    18.9399  19.2103  19.2395  19.2958  19.3972  19.3986  19.4624  19.5612

          k = 0.0833-0.0833 0.0000 ( 32442 PWs)   bands (ev):

   -69.3909 -69.3881 -69.3881 -69.3877 -69.3854 -69.3850 -69.3850 -69.3823
   -39.3372 -39.3191 -39.3056 -39.2947 -39.2766 -39.2576 -38.9116 -38.8489
   -35.5177 -35.5160 -35.5140 -35.5133 -35.5104 -35.5101 -35.5077 -35.5047
   -35.4803 -35.4784 -35.4782 -35.4761 -35.4758 -35.4746 -35.4743 -35.4707
   -35.4482 -35.4481 -35.4439 -35.4396 -35.4079 -35.4040 -35.4040 -35.4007
   -15.8344 -15.7641 -15.7458 -15.7375 -15.7356 -15.7200 -15.6916 -15.6912
   -15.6338 -15.6291 -15.5969 -15.5960 -15.4543 -15.4515 -15.4476 -15.4395
   -15.4252 -15.4247 -15.4128 -15.1992 -15.1526 -15.1522 -15.1151 -15.1151
     8.3784  11.0213  12.1325  13.0166  13.2748  13.2823  13.3160  13.3878
    13.8794  13.8939  13.9774  13.9841  14.0813  14.2034  14.3368  14.7500
    15.0776  15.0913  15.1504  15.1717  15.2334  15.3244  15.3595  15.3778
    15.3947  15.4148  15.4192  15.4421  15.5292  15.9104  16.0460  16.1391
    16.1944  16.2858  16.3145  16.3207  16.3955  16.4147  16.4176  16.5872
    16.6044  16.6422  16.8228  16.8278  16.8506  17.0367  17.2856  17.3648
    17.4622  17.6690  17.7148  17.7186  17.8302  17.8414  17.8990  17.9707
    18.2073  18.2299  18.2483  18.3545  18.3748  18.4815  18.5327  18.7288
    18.7502  18.7714  18.8255  18.8588  18.8686  18.9809  19.1201  19.2051

          k =-0.0833-0.0833 0.0000 ( 32442 PWs)   bands (ev):

   -69.3909 -69.3881 -69.3881 -69.3877 -69.3854 -69.3850 -69.3850 -69.3823
   -39.3372 -39.3191 -39.3056 -39.2947 -39.2766 -39.2576 -38.9116 -38.8489
   -35.5177 -35.5160 -35.5140 -35.5133 -35.5104 -35.5101 -35.5077 -35.5047
   -35.4803 -35.4784 -35.4782 -35.4761 -35.4758 -35.4746 -35.4743 -35.4707
   -35.4482 -35.4481 -35.4439 -35.4396 -35.4079 -35.4040 -35.4040 -35.4007
   -15.8344 -15.7641 -15.7458 -15.7375 -15.7356 -15.7200 -15.6916 -15.6912
   -15.6338 -15.6291 -15.5969 -15.5960 -15.4543 -15.4515 -15.4476 -15.4395
   -15.4252 -15.4247 -15.4128 -15.1992 -15.1526 -15.1522 -15.1151 -15.1151
     8.3784  11.0213  12.1325  13.0166  13.2748  13.2823  13.3160  13.3878
    13.8794  13.8939  13.9774  13.9841  14.0813  14.2034  14.3368  14.7500
    15.0776  15.0913  15.1504  15.1717  15.2334  15.3244  15.3595  15.3778
    15.3947  15.4148  15.4192  15.4421  15.5292  15.9104  16.0460  16.1391
    16.1944  16.2858  16.3145  16.3207  16.3955  16.4147  16.4176  16.5872
    16.6044  16.6422  16.8228  16.8278  16.8506  17.0367  17.2856  17.3648
    17.4622  17.6690  17.7148  17.7186  17.8302  17.8414  17.8990  17.9707
    18.2073  18.2299  18.2483  18.3545  18.3748  18.4815  18.5327  18.7288
    18.7502  18.7714  18.8255  18.8588  18.8686  18.9809  19.1201  19.2051

          k = 0.1667-0.0833 0.0000 ( 32469 PWs)   bands (ev):

   -69.3903 -69.3887 -69.3875 -69.3871 -69.3859 -69.3855 -69.3844 -69.3828
   -39.3339 -39.3175 -39.3005 -39.2991 -39.2778 -39.2612 -38.9121 -38.8494
   -35.5150 -35.5136 -35.5114 -35.5084 -35.5066 -35.5065 -35.5023 -35.5004
   -35.4855 -35.4849 -35.4842 -35.4809 -35.4783 -35.4766 -35.4751 -35.4728
   -35.4472 -35.4463 -35.4448 -35.4414 -35.4071 -35.4049 -35.4033 -35.4014
   -15.8292 -15.7640 -15.7475 -15.7332 -15.7236 -15.6908 -15.6785 -15.6366
   -15.6352 -15.6027 -15.5969 -15.5703 -15.5124 -15.4814 -15.4527 -15.4452
   -15.4386 -15.4248 -15.4156 -15.1996 -15.1828 -15.1527 -15.1429 -15.1155
     8.4600  11.1945  12.1596  12.4600  13.3072  13.4679  13.4824  13.6105
    14.0597  14.0804  14.0821  14.1926  14.2678  14.2746  14.4299  14.6737
    14.7073  14.7384  14.9742  15.1641  15.2668  15.3070  15.3278  15.3516
    15.4749  15.5319  15.5511  15.5601  15.7651  15.8890  16.0680  16.1048
    16.1079  16.2027  16.2115  16.2357  16.2756  16.2940  16.3449  16.3462
    16.3712  16.4698  16.6006  16.7081  16.7869  16.8432  16.9507  17.1719
    17.2814  17.6781  17.7591  17.7876  17.8774  17.9017  17.9385  17.9901
    18.0471  18.0818  18.1729  18.3102  18.4733  18.6109  18.6635  18.6987
    18.8735  18.9633  18.9678  19.0155  19.0873  19.1295  19.2072  19.4857

          k =-0.1667-0.0833 0.0000 ( 32469 PWs)   bands (ev):

   -69.3903 -69.3887 -69.3875 -69.3871 -69.3859 -69.3855 -69.3844 -69.3828
   -39.3339 -39.3175 -39.3005 -39.2991 -39.2778 -39.2612 -38.9121 -38.8494
   -35.5150 -35.5136 -35.5114 -35.5084 -35.5066 -35.5065 -35.5023 -35.5004
   -35.4855 -35.4849 -35.4842 -35.4809 -35.4783 -35.4766 -35.4751 -35.4728
   -35.4472 -35.4463 -35.4448 -35.4414 -35.4071 -35.4049 -35.4033 -35.4014
   -15.8292 -15.7640 -15.7475 -15.7332 -15.7236 -15.6908 -15.6785 -15.6366
   -15.6352 -15.6027 -15.5969 -15.5703 -15.5124 -15.4814 -15.4527 -15.4452
   -15.4386 -15.4248 -15.4156 -15.1996 -15.1828 -15.1527 -15.1429 -15.1155
     8.4600  11.1945  12.1596  12.4600  13.3072  13.4679  13.4824  13.6105
    14.0597  14.0804  14.0821  14.1926  14.2678  14.2746  14.4299  14.6737
    14.7073  14.7384  14.9742  15.1641  15.2668  15.3070  15.3278  15.3516
    15.4749  15.5319  15.5511  15.5601  15.7651  15.8890  16.0680  16.1048
    16.1079  16.2027  16.2115  16.2357  16.2756  16.2940  16.3449  16.3462
    16.3712  16.4698  16.6006  16.7081  16.7869  16.8432  16.9507  17.1719
    17.2814  17.6781  17.7591  17.7876  17.8774  17.9017  17.9385  17.9901
    18.0471  18.0818  18.1729  18.3102  18.4733  18.6109  18.6635  18.6987
    18.8735  18.9633  18.9678  19.0155  19.0873  19.1295  19.2072  19.4857

          k = 0.0000 0.1667 0.0833 ( 32469 PWs)   bands (ev):

   -69.3903 -69.3887 -69.3875 -69.3871 -69.3860 -69.3855 -69.3844 -69.3828
   -39.3337 -39.3151 -39.3050 -39.2945 -39.2806 -39.2615 -38.9077 -38.8534
   -35.5173 -35.5158 -35.5144 -35.5109 -35.5071 -35.5067 -35.5023 -35.5004
   -35.4851 -35.4846 -35.4846 -35.4808 -35.4762 -35.4737 -35.4724 -35.4703
   -35.4447 -35.4436 -35.4417 -35.4387 -35.4096 -35.4079 -35.4060 -35.4040
   -15.7939 -15.7513 -15.7432 -15.7246 -15.7138 -15.7010 -15.6772 -15.6451
   -15.6397 -15.6115 -15.5999 -15.5722 -15.5103 -15.4833 -15.4689 -15.4601
   -15.4352 -15.4290 -15.4057 -15.2427 -15.1799 -15.1454 -15.1364 -15.1051
     8.6304  11.2389  11.7890  12.5358  13.2209  13.5968  13.6102  13.7922
    13.9712  14.0401  14.0491  14.0780  14.1468  14.2716  14.4214  14.6410
    14.7016  14.7177  14.9982  15.1962  15.2894  15.2933  15.3470  15.3551
    15.5138  15.5361  15.5630  15.6659  15.7354  15.7952  15.9952  16.0606
    16.1780  16.2082  16.2144  16.2536  16.2918  16.2977  16.3022  16.3245
    16.4157  16.4220  16.6911  16.7342  16.8332  16.8618  16.9073  16.9656
    17.1203  17.6725  17.7993  17.8213  17.8687  17.8802  17.9126  18.0207
    18.1109  18.1533  18.2145  18.3300  18.3908  18.5881  18.6601  18.7490
    18.8406  18.8441  18.8836  19.0089  19.0550  19.0678  19.1546  19.4547

          k =-0.2500-0.0833 0.0000 ( 32438 PWs)   bands (ev):

   -69.3895 -69.3895 -69.3867 -69.3867 -69.3863 -69.3863 -69.3836 -69.3836
   -39.3322 -39.3162 -39.3020 -39.2971 -39.2791 -39.2630 -38.9123 -38.8497
   -35.5133 -35.5129 -35.5112 -35.5107 -35.4958 -35.4958 -35.4954 -35.4953
   -35.4930 -35.4930 -35.4918 -35.4913 -35.4775 -35.4775 -35.4741 -35.4740
   -35.4460 -35.4460 -35.4440 -35.4436 -35.4060 -35.4060 -35.4024 -35.4024
   -15.8263 -15.7648 -15.7477 -15.7314 -15.7257 -15.6905 -15.6368 -15.6122
   -15.5972 -15.5904 -15.5760 -15.5721 -15.5552 -15.5472 -15.4526 -15.4441
   -15.4379 -15.4247 -15.4172 -15.1998 -15.1996 -15.1581 -15.1529 -15.1156
     8.5027  11.3481  12.1302  12.1727  13.3578  13.5465  13.5869  13.9691
    14.1871  14.1895  14.2283  14.2377  14.2752  14.3256  14.3797  14.3866
    14.6180  14.6430  14.6484  15.1331  15.2931  15.3090  15.3670  15.5840
    15.6197  15.6427  15.6996  15.7543  15.7621  15.7815  15.7853  15.9514
    16.0796  16.0883  16.0972  16.2847  16.2851  16.3009  16.3038  16.3482
    16.3500  16.3906  16.5569  16.5709  16.6752  16.7243  16.7981  16.8003
    17.1019  17.6782  17.7541  17.9376  17.9394  17.9662  18.0022  18.0321
    18.0530  18.1489  18.2822  18.3659  18.4437  18.4442  18.5213  18.8275
    18.8908  18.8925  19.1518  19.1999  19.2775  19.3246  19.3702  19.4044

          k = 0.0000-0.2500 0.0833 ( 32438 PWs)   bands (ev):

   -69.3895 -69.3895 -69.3868 -69.3867 -69.3863 -69.3863 -69.3836 -69.3836
   -39.3322 -39.3139 -39.3020 -39.2971 -39.2818 -39.2631 -38.9079 -38.8537
   -35.5160 -35.5157 -35.5136 -35.5130 -35.4960 -35.4960 -35.4955 -35.4955
   -35.4928 -35.4928 -35.4918 -35.4913 -35.4750 -35.4750 -35.4714 -35.4714
   -35.4432 -35.4432 -35.4413 -35.4409 -35.4087 -35.4087 -35.4051 -35.4050
   -15.7898 -15.7496 -15.7463 -15.7238 -15.7134 -15.7028 -15.6467 -15.6124
   -15.6118 -15.5884 -15.5766 -15.5717 -15.5576 -15.5473 -15.4675 -15.4597
   -15.4366 -15.4289 -15.4055 -15.2430 -15.1966 -15.1608 -15.1365 -15.1053
     8.6806  11.3458  11.8127  12.2391  13.2458  13.7285  13.7733  13.9984
    14.0401  14.1527  14.1990  14.2438  14.2774  14.2829  14.3435  14.4264
    14.4431  14.6386  14.7147  15.1510  15.2824  15.3080  15.3927  15.5169
    15.6432  15.6966  15.7111  15.7317  15.7427  15.7844  15.9616  15.9926
    16.0236  16.0774  16.1032  16.2448  16.2726  16.3473  16.3733  16.4138
    16.4241  16.4276  16.4315  16.4609  16.5286  16.5769  16.7821  16.7869
    17.1598  17.7137  17.7293  17.9068  17.9361  18.0300  18.0377  18.0403
    18.0456  18.1492  18.3134  18.3420  18.3863  18.4141  18.4619  18.8446
    18.8806  18.8819  18.8863  19.1643  19.2728  19.3091  19.3148  19.4383

          k = 0.1667-0.1667 0.0000 ( 32476 PWs)   bands (ev):

   -69.3897 -69.3881 -69.3881 -69.3865 -69.3865 -69.3850 -69.3850 -69.3834
   -39.3291 -39.3168 -39.3044 -39.2945 -39.2778 -39.2667 -38.9125 -38.8499
   -35.5086 -35.5082 -35.5041 -35.5040 -35.5039 -35.5029 -35.5026 -35.5007
   -35.4878 -35.4860 -35.4839 -35.4832 -35.4829 -35.4824 -35.4820 -35.4794
   -35.4461 -35.4459 -35.4451 -35.4426 -35.4063 -35.4041 -35.4041 -35.4021
   -15.8252 -15.7599 -15.7504 -15.7289 -15.6783 -15.6723 -15.6362 -15.6351
   -15.6132 -15.5989 -15.5721 -15.5696 -15.5165 -15.5082 -15.4822 -15.4808
   -15.4420 -15.4380 -15.4190 -15.2000 -15.1834 -15.1829 -15.1432 -15.1431
     8.5175  11.4464  12.2169  12.4112  12.8717  13.4255  13.7210  13.7759
    14.2143  14.3035  14.3623  14.3652  14.3777  14.3932  14.4888  14.5532
    14.8098  14.9096  14.9363  14.9761  15.1726  15.2819  15.3716  15.3776
    15.3920  15.4639  15.4733  15.6242  15.6689  15.8509  15.8552  16.0288
    16.0441  16.0456  16.0617  16.1118  16.1358  16.1381  16.2003  16.2227
    16.2645  16.3539  16.3599  16.6535  16.6615  16.7995  16.8248  16.8521
    17.1514  17.7639  17.8647  17.9116  18.0270  18.0282  18.0744  18.1893
    18.2745  18.2956  18.3637  18.3790  18.3979  18.4278  18.4592  18.6646
    18.8440  18.9217  19.0797  19.1291  19.1391  19.1699  19.1975  19.2763

          k =-0.1667-0.1667 0.0000 ( 32476 PWs)   bands (ev):

   -69.3897 -69.3881 -69.3881 -69.3865 -69.3865 -69.3850 -69.3850 -69.3834
   -39.3291 -39.3168 -39.3044 -39.2945 -39.2778 -39.2667 -38.9125 -38.8499
   -35.5086 -35.5082 -35.5041 -35.5040 -35.5039 -35.5029 -35.5026 -35.5007
   -35.4878 -35.4860 -35.4839 -35.4832 -35.4829 -35.4824 -35.4820 -35.4794
   -35.4461 -35.4459 -35.4451 -35.4426 -35.4063 -35.4041 -35.4041 -35.4021
   -15.8252 -15.7599 -15.7504 -15.7289 -15.6783 -15.6723 -15.6362 -15.6351
   -15.6132 -15.5989 -15.5721 -15.5696 -15.5165 -15.5082 -15.4822 -15.4808
   -15.4420 -15.4380 -15.4190 -15.2000 -15.1834 -15.1829 -15.1432 -15.1431
     8.5175  11.4464  12.2169  12.4112  12.8717  13.4255  13.7210  13.7759
    14.2143  14.3035  14.3623  14.3652  14.3777  14.3932  14.4888  14.5532
    14.8098  14.9096  14.9363  14.9760  15.1726  15.2819  15.3716  15.3776
    15.3920  15.4639  15.4733  15.6242  15.6689  15.8509  15.8552  16.0288
    16.0441  16.0456  16.0617  16.1118  16.1358  16.1381  16.2003  16.2227
    16.2645  16.3539  16.3599  16.6535  16.6615  16.7995  16.8248  16.8521
    17.1514  17.7639  17.8647  17.9116  18.0270  18.0282  18.0744  18.1893
    18.2745  18.2956  18.3637  18.3790  18.3979  18.4278  18.4592  18.6646
    18.8440  18.9217  19.0796  19.1291  19.1391  19.1699  19.1975  19.2763

          k =-0.2500-0.1667 0.0000 ( 32466 PWs)   bands (ev):

   -69.3889 -69.3889 -69.3873 -69.3873 -69.3858 -69.3857 -69.3842 -69.3842
   -39.3259 -39.3158 -39.3083 -39.2900 -39.2787 -39.2702 -38.9127 -38.8502
   -35.5053 -35.5053 -35.5050 -35.5049 -35.4947 -35.4946 -35.4942 -35.4942
   -35.4942 -35.4941 -35.4929 -35.4924 -35.4835 -35.4834 -35.4821 -35.4820
   -35.4456 -35.4455 -35.4444 -35.4441 -35.4052 -35.4052 -35.4032 -35.4031
   -15.8231 -15.7581 -15.7510 -15.7324 -15.6738 -15.6352 -15.6117 -15.6033
   -15.5899 -15.5815 -15.5713 -15.5672 -15.5550 -15.5520 -15.5120 -15.4816
   -15.4401 -15.4375 -15.4212 -15.2003 -15.2001 -15.1834 -15.1584 -15.1433
     8.5470  11.6930  12.1635  12.2460  12.8053  13.3924  13.8502  14.0343
    14.3071  14.3867  14.3875  14.4156  14.4439  14.4487  14.6146  14.6175
    14.7018  14.7018  14.7947  15.1956  15.2783  15.3379  15.3507  15.3781
    15.3880  15.3921  15.3940  15.5751  15.5798  15.7978  15.8016  15.8621
    15.8690  15.8937  16.0901  16.0929  16.1041  16.1258  16.1713  16.2247
    16.3482  16.3564  16.4374  16.4406  16.4491  16.5071  16.7864  16.7913
    17.2484  17.7935  17.8670  17.9557  17.9831  18.1262  18.1782  18.2746
    18.3119  18.3497  18.3786  18.4178  18.4498  18.4566  18.7300  18.7557
    18.7833  18.8130  18.9657  19.0011  19.0794  19.0989  19.2384  19.2589

          k = 0.0000-0.2500 0.1667 ( 32466 PWs)   bands (ev):

   -69.3889 -69.3889 -69.3873 -69.3873 -69.3857 -69.3857 -69.3842 -69.3842
   -39.3258 -39.3084 -39.3071 -39.2899 -39.2886 -39.2703 -38.8965 -38.8652
   -35.5153 -35.5152 -35.5140 -35.5136 -35.4955 -35.4951 -35.4950 -35.4946
   -35.4935 -35.4935 -35.4926 -35.4922 -35.4743 -35.4742 -35.4722 -35.4721
   -35.4352 -35.4351 -35.4344 -35.4340 -35.4156 -35.4155 -35.4131 -35.4131
   -15.7420 -15.7211 -15.6943 -15.6886 -15.6530 -15.6474 -15.6394 -15.6192
   -15.6054 -15.5835 -15.5825 -15.5666 -15.5638 -15.5524 -15.5267 -15.5185
   -15.4937 -15.4240 -15.4105 -15.3596 -15.1890 -15.1683 -15.1300 -15.1119
     9.2476  11.0236  11.6828  12.5919  12.7461  13.6749  13.9704  14.0382
    14.1245  14.3317  14.3372  14.3400  14.3654  14.4131  14.4289  14.5676
    14.6729  14.6858  14.8311  15.2795  15.2840  15.3242  15.3708  15.3748
    15.4079  15.4238  15.4679  15.5585  15.7475  15.7949  15.9119  15.9156
    15.9325  15.9425  15.9757  16.0420  16.0737  16.2017  16.2037  16.2182
    16.2507  16.2929  16.2947  16.3249  16.3375  16.3579  16.7542  16.7694
    17.4498  17.8017  17.8206  17.9319  17.9601  17.9997  18.2400  18.2435
    18.2543  18.3340  18.3517  18.4650  18.4952  18.5181  18.5516  18.5596
    18.6984  18.7266  18.7354  18.9990  19.0221  19.0227  19.2230  19.3128

          k =-0.2500 0.2500 0.0000 ( 32544 PWs)   bands (ev):

   -69.3881 -69.3881 -69.3881 -69.3881 -69.3850 -69.3850 -69.3850 -69.3849
   -39.3187 -39.3156 -39.3156 -39.2817 -39.2785 -39.2785 -38.9129 -38.8504
   -35.5001 -35.5001 -35.4969 -35.4964 -35.4961 -35.4956 -35.4948 -35.4948
   -35.4922 -35.4922 -35.4922 -35.4918 -35.4911 -35.4909 -35.4888 -35.4888
   -35.4450 -35.4450 -35.4450 -35.4446 -35.4042 -35.4042 -35.4042 -35.4042
   -15.8213 -15.7527 -15.7527 -15.7377 -15.6012 -15.5992 -15.5974 -15.5974
   -15.5818 -15.5798 -15.5627 -15.5627 -15.5585 -15.5566 -15.5550 -15.5531
   -15.4373 -15.4373 -15.4240 -15.2005 -15.2003 -15.2003 -15.1585 -15.1585
     8.5696  12.1824  12.1824  12.2368  12.2844  13.3193  14.0804  14.0804
    14.2891  14.4289  14.4289  14.4566  14.6704  14.6704  14.6721  14.6837
    14.9472  14.9590  14.9590  14.9844  15.0174  15.1663  15.1663  15.2034
    15.2644  15.4471  15.4471  15.4544  15.4710  15.7590  15.7590  15.7781
    15.9070  15.9091  15.9091  15.9137  16.0623  16.0623  16.0979  16.1569
    16.3325  16.3325  16.3451  16.4099  16.6066  16.6208  16.6226  16.6226
    17.3162  17.8314  17.9457  17.9472  17.9472  18.2698  18.2698  18.3134
    18.3184  18.4725  18.4725  18.4969  18.5317  18.5331  18.5331  18.6847
    18.8674  18.8696  18.8696  19.0159  19.1456  19.1456  19.1456  19.2624

          k = 0.0833-0.0833 0.0833 ( 32444 PWs)   bands (ev):

   -69.3907 -69.3879 -69.3879 -69.3879 -69.3852 -69.3852 -69.3851 -69.3825
   -39.3350 -39.3162 -39.3077 -39.2923 -39.2794 -39.2601 -38.9075 -38.8532
   -35.5170 -35.5156 -35.5138 -35.5127 -35.5107 -35.5105 -35.5084 -35.5052
   -35.4800 -35.4783 -35.4779 -35.4763 -35.4761 -35.4746 -35.4743 -35.4710
   -35.4452 -35.4452 -35.4410 -35.4375 -35.4100 -35.4070 -35.4070 -35.4036
   -15.7980 -15.7394 -15.7343 -15.7326 -15.7258 -15.6995 -15.6944 -15.6941
   -15.6313 -15.6270 -15.5991 -15.5986 -15.4705 -15.4604 -15.4521 -15.4497
   -15.4339 -15.4269 -15.4267 -15.2424 -15.1501 -15.1497 -15.1176 -15.1176
     8.5756  11.1667  11.7680  13.0874  13.2813  13.3140  13.3476  13.4954
    13.8690  13.9420  13.9803  14.0255  14.0464  14.2774  14.3899  14.7739
    15.0145  15.0563  15.1199  15.1637  15.2420  15.2788  15.3424  15.3966
    15.4288  15.4732  15.4912  15.5065  15.6175  15.6718  15.9109  16.0548
    16.1133  16.1568  16.2542  16.2811  16.3174  16.3622  16.3968  16.6311
    16.6563  16.6763  16.6771  16.7952  16.8458  16.9079  17.0468  17.1372
    17.2027  17.5598  17.5931  17.7287  17.7874  17.8618  18.2418  18.2595
    18.2828  18.3034  18.3343  18.4180  18.4965  18.5120  18.5251  18.5680
    18.5814  18.6160  18.7654  19.0150  19.0172  19.1645  19.2181  19.2219

          k = 0.0833-0.0833 0.1667 ( 32476 PWs)   bands (ev):

   -69.3901 -69.3885 -69.3873 -69.3873 -69.3857 -69.3857 -69.3846 -69.3831
   -39.3292 -39.3135 -39.3085 -39.2873 -39.2855 -39.2670 -38.8961 -38.8647
   -35.5152 -35.5145 -35.5131 -35.5116 -35.5113 -35.5111 -35.5102 -35.5068
   -35.4792 -35.4779 -35.4773 -35.4769 -35.4768 -35.4753 -35.4736 -35.4717
   -35.4371 -35.4371 -35.4331 -35.4317 -35.4159 -35.4151 -35.4151 -35.4115
   -15.7257 -15.7244 -15.7104 -15.7027 -15.7026 -15.6702 -15.6607 -15.6407
   -15.6246 -15.6213 -15.6056 -15.6051 -15.5324 -15.5172 -15.4914 -15.4468
   -15.4449 -15.4320 -15.4318 -15.3588 -15.1432 -15.1430 -15.1245 -15.1245
     9.1366  10.9262  11.5874  12.9310  13.2495  13.3751  13.5019  13.6346
    13.8168  14.1247  14.1428  14.1763  14.2100  14.3977  14.4263  14.7205
    14.7682  14.8261  15.0536  15.2303  15.2621  15.2661  15.3399  15.4045
    15.4560  15.4610  15.6375  15.6708  15.7005  15.7626  15.8564  15.8879
    15.9267  16.0401  16.1725  16.2056  16.2337  16.2713  16.2769  16.3355
    16.3461  16.3712  16.3714  16.6090  16.7010  16.7053  16.7076  16.7375
    17.3428  17.7788  17.7804  17.9074  17.9776  17.9791  18.1217  18.1580
    18.1587  18.1675  18.1787  18.4658  18.5688  18.6298  18.6380  18.7675
    18.8034  18.8102  18.8477  18.9556  19.0338  19.0672  19.2047  19.4530

          k = 0.1667-0.0833 0.0833 ( 32476 PWs)   bands (ev):

   -69.3901 -69.3885 -69.3873 -69.3873 -69.3858 -69.3857 -69.3846 -69.3831
   -39.3317 -39.3149 -39.3027 -39.2966 -39.2804 -39.2638 -38.9079 -38.8537
   -35.5145 -35.5134 -35.5115 -35.5089 -35.5063 -35.5062 -35.5026 -35.5008
   -35.4854 -35.4846 -35.4843 -35.4812 -35.4782 -35.4763 -35.4754 -35.4731
   -35.4443 -35.4435 -35.4419 -35.4390 -35.4094 -35.4076 -35.4063 -35.4043
   -15.7917 -15.7414 -15.7303 -15.7265 -15.7032 -15.6935 -15.6757 -15.6392
   -15.6326 -15.6007 -15.5995 -15.5725 -15.5104 -15.4834 -15.4675 -15.4598
   -15.4507 -15.4367 -15.4266 -15.2430 -15.1801 -15.1502 -15.1455 -15.1180
     8.6593  11.3277  11.8217  12.5615  13.3291  13.4024  13.5860  13.6149
    14.0790  14.1312  14.1436  14.1502  14.3127  14.3669  14.5036  14.7025
    14.7176  14.7456  15.0202  15.1860  15.2087  15.2631  15.3388  15.4062
    15.4829  15.5180  15.5568  15.6662  15.6849  15.8606  15.9095  15.9288
    16.0561  16.1031  16.1611  16.1735  16.1944  16.2267  16.2811  16.3284
    16.3540  16.3769  16.4852  16.6620  16.7425  16.7478  16.7538  16.7698
    17.0968  17.7860  17.9108  17.9266  17.9422  18.0093  18.1427  18.1548
    18.1760  18.1886  18.1981  18.3730  18.4681  18.6017  18.7348  18.7374
    18.7608  18.8163  18.8939  18.9208  18.9326  19.1736  19.3490  19.4812

          k =-0.1667-0.0833-0.0833 ( 32476 PWs)   bands (ev):

   -69.3901 -69.3885 -69.3873 -69.3873 -69.3858 -69.3857 -69.3846 -69.3831
   -39.3317 -39.3149 -39.3027 -39.2966 -39.2804 -39.2638 -38.9079 -38.8537
   -35.5145 -35.5134 -35.5115 -35.5089 -35.5063 -35.5062 -35.5026 -35.5008
   -35.4854 -35.4846 -35.4843 -35.4812 -35.4782 -35.4763 -35.4754 -35.4731
   -35.4443 -35.4435 -35.4419 -35.4390 -35.4094 -35.4076 -35.4063 -35.4043
   -15.7917 -15.7414 -15.7303 -15.7265 -15.7032 -15.6935 -15.6757 -15.6392
   -15.6326 -15.6007 -15.5995 -15.5725 -15.5104 -15.4834 -15.4675 -15.4598
   -15.4507 -15.4367 -15.4266 -15.2430 -15.1801 -15.1502 -15.1455 -15.1180
     8.6593  11.3277  11.8217  12.5615  13.3291  13.4024  13.5860  13.6149
    14.0790  14.1312  14.1436  14.1502  14.3127  14.3669  14.5036  14.7025
    14.7176  14.7456  15.0202  15.1860  15.2087  15.2631  15.3388  15.4062
    15.4829  15.5180  15.5568  15.6662  15.6849  15.8606  15.9095  15.9288
    16.0561  16.1031  16.1611  16.1735  16.1944  16.2267  16.2811  16.3284
    16.3540  16.3769  16.4852  16.6620  16.7425  16.7478  16.7538  16.7698
    17.0968  17.7860  17.9108  17.9266  17.9422  18.0093  18.1427  18.1548
    18.1760  18.1886  18.1981  18.3730  18.4681  18.6017  18.7348  18.7374
    18.7608  18.8163  18.8939  18.9208  18.9326  19.1736  19.3490  19.4811

          k = 0.0833-0.0833-0.2500 ( 32474 PWs)   bands (ev):

   -69.3893 -69.3893 -69.3865 -69.3865 -69.3865 -69.3865 -69.3838 -69.3838
   -39.3214 -39.3214 -39.2979 -39.2979 -39.2763 -39.2763 -38.8804 -38.8804
   -35.5131 -35.5130 -35.5127 -35.5127 -35.5122 -35.5122 -35.5090 -35.5090
   -35.4781 -35.4780 -35.4774 -35.4774 -35.4763 -35.4763 -35.4727 -35.4727
   -35.4261 -35.4261 -35.4261 -35.4261 -35.4238 -35.4238 -35.4223 -35.4223
   -15.7141 -15.7141 -15.7133 -15.7133 -15.6187 -15.6187 -15.6144 -15.6144
   -15.6136 -15.6136 -15.5938 -15.5938 -15.5697 -15.5697 -15.5124 -15.5124
   -15.4394 -15.4394 -15.4383 -15.4383 -15.1339 -15.1339 -15.1338 -15.1338
     9.9707   9.9707  12.2270  12.2270  13.3736  13.3736  13.6050  13.6050
    14.3002  14.3002  14.3065  14.3065  14.3413  14.3413  14.4113  14.4113
    14.5059  14.5059  15.1962  15.1962  15.2713  15.2713  15.4150  15.4150
    15.6192  15.6193  15.6554  15.6554  15.6786  15.6786  15.8900  15.8900
    16.0327  16.0327  16.0490  16.0490  16.1882  16.1882  16.2385  16.2385
    16.2730  16.2730  16.2927  16.2927  16.3182  16.3182  16.7552  16.7552
    17.6582  17.6582  17.9059  17.9059  18.0654  18.0654  18.0906  18.0906
    18.2214  18.2214  18.2605  18.2605  18.4960  18.4960  18.7915  18.7915
    18.9541  18.9541  18.9625  18.9625  19.0586  19.0586  19.3653  19.3653

          k =-0.2500-0.0833 0.0833 ( 32474 PWs)   bands (ev):

   -69.3893 -69.3893 -69.3866 -69.3865 -69.3865 -69.3865 -69.3838 -69.3838
   -39.3299 -39.3137 -39.2994 -39.2994 -39.2816 -39.2657 -38.9081 -38.8539
   -35.5131 -35.5127 -35.5113 -35.5108 -35.4957 -35.4956 -35.4952 -35.4951
   -35.4932 -35.4931 -35.4921 -35.4916 -35.4773 -35.4773 -35.4744 -35.4743
   -35.4431 -35.4431 -35.4415 -35.4410 -35.4085 -35.4085 -35.4053 -35.4053
   -15.7879 -15.7438 -15.7287 -15.7257 -15.7055 -15.6931 -15.6341 -15.6096
   -15.5998 -15.5881 -15.5747 -15.5741 -15.5575 -15.5492 -15.4660 -15.4595
   -15.4507 -15.4383 -15.4266 -15.2432 -15.1968 -15.1609 -15.1504 -15.1182
     8.7031  11.4670  11.8488  12.2531  13.3548  13.4678  13.6471  13.9515
    14.1951  14.2680  14.3076  14.3306  14.3622  14.3761  14.4142  14.4502
    14.5277  14.6721  14.7446  15.1763  15.3149  15.3490  15.3882  15.4804
    15.5895  15.5993  15.6438  15.7100  15.7302  15.7353  15.7995  16.0163
    16.0231  16.0497  16.0551  16.1850  16.2026  16.2386  16.2399  16.2457
    16.2789  16.3250  16.3368  16.3511  16.3637  16.3863  16.7766  16.7833
    17.2080  17.7987  17.9493  18.0559  18.0628  18.0922  18.0974  18.1080
    18.1161  18.2305  18.3696  18.3888  18.4500  18.4664  18.5433  18.8230
    18.8407  18.8960  18.9139  18.9347  19.1573  19.1972  19.3796  19.4810

          k = 0.1667-0.0833 0.1667 ( 32434 PWs)   bands (ev):

   -69.3895 -69.3879 -69.3879 -69.3867 -69.3863 -69.3852 -69.3852 -69.3836
   -39.3256 -39.3088 -39.3076 -39.2897 -39.2877 -39.2708 -38.8965 -38.8652
   -35.5133 -35.5129 -35.5118 -35.5100 -35.5056 -35.5051 -35.5035 -35.5019
   -35.4851 -35.4846 -35.4839 -35.4819 -35.4777 -35.4761 -35.4757 -35.4738
   -35.4363 -35.4359 -35.4339 -35.4327 -35.4156 -35.4152 -35.4143 -35.4123
   -15.7225 -15.7017 -15.7011 -15.6772 -15.6680 -15.6596 -15.6458 -15.6454
   -15.6256 -15.6064 -15.5951 -15.5785 -15.5291 -15.5175 -15.5039 -15.4941
   -15.4890 -15.4457 -15.4318 -15.3596 -15.1728 -15.1529 -15.1435 -15.1248
     9.2256  11.0119  11.7098  12.8379  12.8970  13.5258  13.6315  13.8886
    13.8963  14.2753  14.2879  14.3913  14.4306  14.5483  14.5777  14.6590
    14.7170  14.8856  14.9423  15.1365  15.1660  15.3215  15.3910  15.4316
    15.5063  15.5101  15.5420  15.5623  15.6334  15.6701  15.8843  15.8897
    15.9091  15.9772  16.0115  16.0421  16.0782  16.1038  16.1107  16.1402
    16.1437  16.1878  16.2512  16.3090  16.3635  16.4695  16.4927  16.7490
    17.3833  17.7905  17.9476  18.1250  18.1424  18.1969  18.2248  18.2420
    18.2748  18.3751  18.4598  18.4853  18.4986  18.5539  18.5788  18.5917
    18.7184  18.8867  18.9163  18.9917  19.0399  19.1193  19.1468  19.2568

          k = 0.1667-0.1667 0.0833 ( 32434 PWs)   bands (ev):

   -69.3895 -69.3879 -69.3879 -69.3868 -69.3863 -69.3852 -69.3852 -69.3836
   -39.3268 -39.3142 -39.3019 -39.2968 -39.2805 -39.2693 -38.9083 -38.8542
   -35.5082 -35.5079 -35.5043 -35.5038 -35.5038 -35.5033 -35.5027 -35.5008
   -35.4874 -35.4859 -35.4838 -35.4834 -35.4832 -35.4823 -35.4822 -35.4797
   -35.4432 -35.4431 -35.4422 -35.4401 -35.4087 -35.4069 -35.4069 -35.4050
   -15.7867 -15.7377 -15.7300 -15.7084 -15.6754 -15.6699 -15.6385 -15.6379
   -15.6104 -15.5971 -15.5739 -15.5725 -15.5143 -15.5065 -15.4840 -15.4831
   -15.4639 -15.4594 -15.4402 -15.2435 -15.1807 -15.1803 -15.1459 -15.1459
     8.7187  11.5749  11.8894  12.5179  12.9850  13.5359  13.5957  13.6803
    14.3058  14.3075  14.3487  14.4154  14.4203  14.4933  14.5930  14.6178
    14.8536  14.9179  14.9579  14.9996  15.1040  15.2648  15.3894  15.4012
    15.4396  15.5168  15.5231  15.5926  15.7290  15.7330  15.8271  15.9058
    15.9499  15.9798  15.9809  16.0055  16.0442  16.0571  16.0722  16.1708
    16.1748  16.2403  16.2454  16.4585  16.4745  16.5043  16.5045  16.7650
    17.2423  17.9012  18.0667  18.0798  18.1498  18.1504  18.1899  18.3249
    18.3371  18.3389  18.4276  18.4904  18.4978  18.5192  18.5464  18.7501
    18.8094  18.8627  18.9644  18.9913  19.0697  19.1639  19.2702  19.3285

          k =-0.1667-0.1667-0.0833 ( 32434 PWs)   bands (ev):

   -69.3895 -69.3879 -69.3879 -69.3868 -69.3863 -69.3852 -69.3852 -69.3836
   -39.3268 -39.3142 -39.3019 -39.2968 -39.2805 -39.2693 -38.9083 -38.8542
   -35.5082 -35.5079 -35.5043 -35.5038 -35.5038 -35.5033 -35.5027 -35.5008
   -35.4874 -35.4859 -35.4838 -35.4834 -35.4832 -35.4823 -35.4822 -35.4797
   -35.4432 -35.4431 -35.4422 -35.4401 -35.4087 -35.4069 -35.4069 -35.4050
   -15.7867 -15.7377 -15.7300 -15.7084 -15.6754 -15.6699 -15.6385 -15.6379
   -15.6104 -15.5971 -15.5739 -15.5725 -15.5143 -15.5065 -15.4840 -15.4831
   -15.4639 -15.4594 -15.4402 -15.2435 -15.1807 -15.1803 -15.1459 -15.1459
     8.7187  11.5749  11.8894  12.5179  12.9850  13.5359  13.5957  13.6803
    14.3058  14.3075  14.3487  14.4154  14.4203  14.4933  14.5930  14.6178
    14.8536  14.9179  14.9579  14.9996  15.1040  15.2648  15.3894  15.4012
    15.4396  15.5168  15.5231  15.5926  15.7290  15.7330  15.8271  15.9058
    15.9499  15.9798  15.9809  16.0055  16.0442  16.0571  16.0722  16.1708
    16.1748  16.2403  16.2454  16.4585  16.4745  16.5043  16.5045  16.7650
    17.2423  17.9012  18.0667  18.0798  18.1498  18.1504  18.1899  18.3249
    18.3371  18.3389  18.4276  18.4904  18.4978  18.5192  18.5464  18.7501
    18.8094  18.8627  18.9644  18.9913  19.0697  19.1639  19.2702  19.3285

          k = 0.1667-0.0833-0.2500 ( 32462 PWs)   bands (ev):

   -69.3887 -69.3887 -69.3871 -69.3871 -69.3860 -69.3860 -69.3844 -69.3844
   -39.3172 -39.3172 -39.2977 -39.2977 -39.2803 -39.2803 -38.8809 -38.8809
   -35.5124 -35.5123 -35.5116 -35.5116 -35.5046 -35.5046 -35.5035 -35.5035
   -35.4848 -35.4848 -35.4830 -35.4829 -35.4769 -35.4769 -35.4747 -35.4747
   -35.4255 -35.4255 -35.4253 -35.4253 -35.4241 -35.4241 -35.4231 -35.4231
   -15.7119 -15.7119 -15.6579 -15.6579 -15.6163 -15.6163 -15.6119 -15.6119
   -15.5968 -15.5968 -15.5858 -15.5858 -15.5719 -15.5719 -15.5144 -15.5144
   -15.4963 -15.4963 -15.4387 -15.4387 -15.1628 -15.1628 -15.1342 -15.1342
    10.0641  10.0641  12.2798  12.2798  13.2045  13.2045  13.8262  13.8262
    14.3366  14.3366  14.4471  14.4471  14.4813  14.4813  14.5924  14.5924
    14.6955  14.6955  15.1126  15.1126  15.3206  15.3206  15.3981  15.3981
    15.4110  15.4110  15.5238  15.5238  15.7072  15.7072  15.7624  15.7624
    15.8834  15.8834  15.9516  15.9516  16.0313  16.0313  16.0560  16.0560
    16.1162  16.1162  16.1641  16.1641  16.1849  16.1849  16.6368  16.6368
    17.6418  17.6418  18.0663  18.0663  18.1885  18.1885  18.2776  18.2776
    18.3814  18.3814  18.4481  18.4481  18.5757  18.5757  18.7310  18.7310
    18.7994  18.7994  18.9161  18.9161  19.0014  19.0014  19.2939  19.2939

          k =-0.2500-0.1667 0.0833 ( 32462 PWs)   bands (ev):

   -69.3887 -69.3887 -69.3871 -69.3871 -69.3860 -69.3860 -69.3844 -69.3844
   -39.3235 -39.3133 -39.3058 -39.2924 -39.2812 -39.2727 -38.9085 -38.8544
   -35.5052 -35.5052 -35.5049 -35.5049 -35.4946 -35.4945 -35.4942 -35.4941
   -35.4941 -35.4941 -35.4931 -35.4926 -35.4835 -35.4834 -35.4823 -35.4822
   -35.4427 -35.4427 -35.4418 -35.4414 -35.4078 -35.4078 -35.4060 -35.4060
   -15.7839 -15.7372 -15.7298 -15.7120 -15.6712 -15.6377 -15.6088 -15.6010
   -15.5876 -15.5797 -15.5736 -15.5697 -15.5573 -15.5542 -15.5101 -15.4836
   -15.4618 -15.4591 -15.4424 -15.2437 -15.1973 -15.1807 -15.1612 -15.1460
     8.7492  11.8129  11.9244  12.2845  12.9240  13.5026  13.6534  13.9535
    14.2839  14.4820  14.4856  14.4877  14.5131  14.5688  14.6377  14.6425
    14.7246  14.7571  14.8299  15.2262  15.2921  15.3137  15.3660  15.3769
    15.3780  15.4130  15.4174  15.5972  15.6019  15.7548  15.7653  15.7718
    15.8085  15.8612  15.9968  16.0258  16.0547  16.0580  16.0746  16.1344
    16.1418  16.1751  16.1978  16.2092  16.2099  16.2376  16.6611  16.6704
    17.3170  17.9347  18.1100  18.1525  18.1996  18.2005  18.2313  18.3822
    18.4182  18.4196  18.4292  18.5051  18.5208  18.5366  18.7868  18.7918
    18.7929  18.8235  18.9498  18.9566  19.0747  19.0957  19.3005  19.3464

          k =-0.0833-0.2500 0.1667 ( 32462 PWs)   bands (ev):

   -69.3887 -69.3887 -69.3871 -69.3871 -69.3860 -69.3859 -69.3844 -69.3844
   -39.3234 -39.3069 -39.3059 -39.2923 -39.2884 -39.2728 -38.8967 -38.8654
   -35.5125 -35.5124 -35.5115 -35.5112 -35.4952 -35.4949 -35.4948 -35.4945
   -35.4937 -35.4936 -35.4929 -35.4924 -35.4768 -35.4767 -35.4750 -35.4750
   -35.4351 -35.4351 -35.4344 -35.4341 -35.4154 -35.4153 -35.4133 -35.4133
   -15.7212 -15.7008 -15.6916 -15.6862 -15.6558 -15.6497 -15.6268 -15.6069
   -15.6028 -15.5822 -15.5816 -15.5689 -15.5637 -15.5545 -15.5250 -15.5182
   -15.4955 -15.4456 -15.4317 -15.3600 -15.1892 -15.1685 -15.1436 -15.1250
     9.2727  11.0577  11.8049  12.6027  12.8655  13.6544  13.7676  13.9159
    14.2320  14.3124  14.4341  14.4356  14.4579  14.5328  14.5939  14.6391
    14.6983  14.7467  14.8578  15.2594  15.2956  15.3516  15.3758  15.3837
    15.4026  15.4089  15.5222  15.5932  15.6957  15.7587  15.7680  15.8186
    15.8788  15.8829  15.9023  15.9916  16.0288  16.0512  16.0761  16.0983
    16.1074  16.1189  16.1525  16.1659  16.1694  16.1949  16.6392  16.6562
    17.4313  17.8055  18.0477  18.1761  18.1904  18.2004  18.3031  18.3405
    18.3571  18.3847  18.4218  18.5475  18.5522  18.5605  18.6194  18.6317
    18.7482  18.7804  18.7894  18.9463  19.0525  19.0603  19.2895  19.3542

          k =-0.2500 0.2500 0.0833 ( 32460 PWs)   bands (ev):

   -69.3879 -69.3879 -69.3879 -69.3879 -69.3852 -69.3852 -69.3852 -69.3852
   -39.3162 -39.3131 -39.3131 -39.2842 -39.2810 -39.2810 -38.9087 -38.8547
   -35.4997 -35.4997 -35.4965 -35.4960 -35.4958 -35.4954 -35.4952 -35.4952
   -35.4925 -35.4922 -35.4920 -35.4920 -35.4915 -35.4912 -35.4890 -35.4890
   -35.4423 -35.4423 -35.4423 -35.4418 -35.4069 -35.4069 -35.4069 -35.4069
   -15.7816 -15.7320 -15.7320 -15.7172 -15.5982 -15.5962 -15.5951 -15.5951
   -15.5802 -15.5782 -15.5650 -15.5650 -15.5601 -15.5581 -15.5580 -15.5562
   -15.4589 -15.4589 -15.4453 -15.2440 -15.1975 -15.1975 -15.1613 -15.1613
     8.7727  11.9641  12.3023  12.3023  12.3584  13.4336  13.9690  13.9690
    14.1313  14.5282  14.5282  14.5559  14.7171  14.7770  14.7770  14.8295
    14.9742  14.9742  14.9821  15.0013  15.0348  15.1599  15.1599  15.1925
    15.2478  15.4728  15.4728  15.4853  15.4968  15.6791  15.6791  15.7062
    15.8716  15.8716  15.8746  15.8808  15.9701  15.9701  15.9946  16.0606
    16.0623  16.0919  16.0919  16.1493  16.4236  16.4354  16.4354  16.4464
    17.3710  17.9664  18.2015  18.2015  18.2170  18.3315  18.3315  18.3724
    18.3805  18.5288  18.5288  18.5508  18.7117  18.7262  18.7262  18.8566
    18.8588  18.8588  18.8745  18.9982  19.1746  19.1746  19.1768  19.2144

          k = 0.1667-0.1667 0.1667 ( 32390 PWs)   bands (ev):

   -69.3889 -69.3873 -69.3873 -69.3873 -69.3858 -69.3858 -69.3857 -69.3842
   -39.3205 -39.3071 -39.3032 -39.2950 -39.2876 -39.2762 -38.8970 -38.8657
   -35.5072 -35.5071 -35.5050 -35.5043 -35.5036 -35.5031 -35.5029 -35.5014
   -35.4865 -35.4855 -35.4841 -35.4840 -35.4835 -35.4826 -35.4818 -35.4803
   -35.4355 -35.4354 -35.4344 -35.4334 -35.4153 -35.4146 -35.4146 -35.4129
   -15.6932 -15.6741 -15.6675 -15.6657 -15.6633 -15.6514 -15.6447 -15.6446
   -15.6025 -15.5923 -15.5803 -15.5788 -15.5254 -15.5172 -15.5064 -15.5017
   -15.4977 -15.4896 -15.4887 -15.3604 -15.1733 -15.1731 -15.1532 -15.1532
     9.2905  11.0884  11.9434  12.8096  13.1122  13.2988  13.5171  13.8500
    14.0873  14.4780  14.5364  14.5486  14.5642  14.6818  14.7608  14.8297
    14.8639  14.9028  14.9335  14.9486  15.1643  15.3109  15.3609  15.4573
    15.5095  15.5173  15.5579  15.6368  15.6479  15.6609  15.6746  15.7381
    15.7668  15.8204  15.8325  15.8568  15.8742  15.9097  15.9177  15.9328
    15.9424  15.9595  16.0503  16.0884  16.1680  16.1853  16.1988  16.6007
    17.4353  17.8578  18.1906  18.2820  18.3483  18.3675  18.3908  18.4398
    18.4583  18.5686  18.6434  18.6486  18.6635  18.6761  18.6848  18.7595
    18.8468  18.8908  18.9038  18.9569  18.9969  19.0837  19.1908  19.3711

          k = 0.1667-0.1667-0.2500 ( 32458 PWs)   bands (ev):

   -69.3881 -69.3881 -69.3865 -69.3865 -69.3865 -69.3865 -69.3850 -69.3850
   -39.3118 -39.3118 -39.2974 -39.2974 -39.2856 -39.2856 -38.8814 -38.8814
   -35.5060 -35.5060 -35.5058 -35.5058 -35.5033 -35.5033 -35.5022 -35.5022
   -35.4853 -35.4853 -35.4848 -35.4848 -35.4831 -35.4831 -35.4811 -35.4811
   -35.4251 -35.4251 -35.4250 -35.4250 -35.4243 -35.4243 -35.4236 -35.4236
   -15.6569 -15.6569 -15.6544 -15.6544 -15.6066 -15.6066 -15.5962 -15.5962
   -15.5916 -15.5916 -15.5850 -15.5850 -15.5759 -15.5759 -15.5161 -15.5161
   -15.4981 -15.4981 -15.4952 -15.4952 -15.1633 -15.1633 -15.1632 -15.1632
    10.1367  10.1367  12.4951  12.4951  13.1934  13.1934  13.7212  13.7212
    14.2994  14.2994  14.6714  14.6714  14.7274  14.7274  14.7381  14.7381
    14.8381  14.8381  15.1172  15.1172  15.3370  15.3370  15.4040  15.4040
    15.4210  15.4210  15.5403  15.5403  15.5843  15.5843  15.6249  15.6249
    15.6962  15.6962  15.7747  15.7747  15.8428  15.8428  15.8842  15.8842
    15.9018  15.9018  15.9250  15.9250  15.9786  15.9786  16.3333  16.3333
    17.6570  17.6570  18.3991  18.3991  18.4059  18.4059  18.4851  18.4851
    18.4997  18.4997  18.6125  18.6125  18.7037  18.7037  18.7970  18.7970
    18.9560  18.9560  19.0150  19.0150  19.1293  19.1293  19.3409  19.3409

          k =-0.2500-0.1667 0.1667 ( 32458 PWs)   bands (ev):

   -69.3881 -69.3881 -69.3866 -69.3865 -69.3865 -69.3865 -69.3850 -69.3850
   -39.3170 -39.3066 -39.2990 -39.2988 -39.2880 -39.2798 -38.8972 -38.8659
   -35.5049 -35.5049 -35.5047 -35.5047 -35.4944 -35.4944 -35.4941 -35.4940
   -35.4940 -35.4940 -35.4936 -35.4931 -35.4834 -35.4834 -35.4827 -35.4827
   -35.4350 -35.4349 -35.4346 -35.4343 -35.4150 -35.4149 -35.4137 -35.4137
   -15.6840 -15.6800 -15.6641 -15.6632 -15.6565 -15.6440 -15.6010 -15.5947
   -15.5815 -15.5801 -15.5763 -15.5746 -15.5635 -15.5600 -15.5211 -15.5176
   -15.5043 -15.4999 -15.4892 -15.3608 -15.1897 -15.1734 -15.1688 -15.1534
     9.3241  11.1286  12.1532  12.6272  13.2022  13.2571  13.6341  13.8124
    14.1290  14.4802  14.6838  14.7084  14.7142  14.7570  14.7644  14.7910
    14.8045  14.9184  14.9191  15.2259  15.3125  15.3150  15.3323  15.3375
    15.4402  15.4689  15.4709  15.5908  15.5941  15.6388  15.6688  15.6731
    15.6841  15.7301  15.7470  15.8087  15.8119  15.8319  15.8570  15.8864
    15.9090  15.9135  15.9229  15.9434  15.9557  15.9667  16.3446  16.3616
    17.4729  17.8925  18.3308  18.3344  18.4622  18.4884  18.4984  18.5310
    18.5440  18.5793  18.5852  18.6879  18.7107  18.7115  18.7864  18.7956
    18.8718  18.8948  18.9500  18.9630  19.2178  19.2355  19.2874  19.3418

          k =-0.2500 0.2500 0.1667 ( 32460 PWs)   bands (ev):

   -69.3874 -69.3873 -69.3873 -69.3873 -69.3858 -69.3858 -69.3858 -69.3857
   -39.3095 -39.3064 -39.3064 -39.2910 -39.2878 -39.2878 -38.8974 -38.8662
   -35.4988 -35.4988 -35.4961 -35.4961 -35.4956 -35.4951 -35.4948 -35.4948
   -35.4931 -35.4931 -35.4924 -35.4922 -35.4914 -35.4914 -35.4897 -35.4897
   -35.4348 -35.4348 -35.4348 -35.4344 -35.4144 -35.4144 -35.4144 -35.4143
   -15.6753 -15.6753 -15.6719 -15.6608 -15.5898 -15.5889 -15.5889 -15.5880
   -15.5760 -15.5740 -15.5712 -15.5712 -15.5663 -15.5644 -15.5643 -15.5624
   -15.5173 -15.5173 -15.5034 -15.3613 -15.1899 -15.1899 -15.1690 -15.1690
     9.3505  11.1656  12.6412  12.6412  12.7035  13.6315  13.6315  13.7398
    13.7598  14.6338  14.8003  14.8003  14.8288  15.0063  15.0063  15.0141
    15.0141  15.0465  15.0819  15.1227  15.1585  15.1648  15.1648  15.1920
    15.2045  15.5362  15.5362  15.5666  15.5702  15.5792  15.5792  15.6062
    15.6535  15.6922  15.6922  15.7330  15.7349  15.7349  15.7636  15.7885
    15.7931  15.7985  15.7985  15.8444  16.0296  16.0322  16.0322  16.0579
    17.5021  17.9242  18.4979  18.4979  18.5289  18.5526  18.5806  18.5806
    18.6104  18.6563  18.6563  18.6840  18.8117  18.8117  18.8126  18.9284
    19.0570  19.1078  19.1427  19.1427  19.2661  19.2774  19.2774  19.2863

     the Fermi energy is    17.5936 ev

!    total energy              =   -3590.73710274 Ry
     estimated scf accuracy    <          2.1E-10 Ry
     smearing contrib. (-TS)   =      -0.00029712 Ry
     internal energy E=F+TS    =   -3590.73680561 Ry

     The total energy is F=E-TS. E is the sum of the following terms:
     one-electron contribution =   -1217.89163035 Ry
     hartree contribution      =     737.06183130 Ry
     xc contribution           =    -424.93291191 Ry
     ewald contribution        =   -2075.75087118 Ry
     one-center paw contrib.   =    -609.22322347 Ry

     convergence has been achieved in  56 iterations

     negative rho (up, down):  7.738E-03 0.000E+00

     Forces acting on atoms (cartesian axes, Ry/au):

     atom    1 type  1   force =    -0.01263443   -0.01263443    0.00000000
     atom    2 type  1   force =     0.01263491    0.01263491    0.00000000
     atom    3 type  1   force =     0.01263504   -0.01263515    0.00000000
     atom    4 type  1   force =    -0.01263507    0.01263475    0.00000000
     atom    5 type  1   force =    -0.01263453   -0.01263453    0.00000000
     atom    6 type  1   force =     0.01263409    0.01263409    0.00000000
     atom    7 type  1   force =     0.01263475   -0.01263507    0.00000000
     atom    8 type  1   force =    -0.01263515    0.01263504    0.00000000
     atom    9 type  2   force =     0.00000048    0.00000048   -0.00000047
     atom   10 type  2   force =    -0.00000035   -0.00000035   -0.00000035
     atom   11 type  2   force =    -0.00000031    0.00000038   -0.00000043
     atom   12 type  2   force =     0.00000038   -0.00000031    0.00000043
     atom   13 type  2   force =     0.00000048    0.00000048    0.00000047
     atom   14 type  2   force =    -0.00000035   -0.00000035    0.00000035
     atom   15 type  2   force =    -0.00000031    0.00000038    0.00000043
     atom   16 type  2   force =     0.00000038   -0.00000031   -0.00000043
     atom   17 type  3   force =     0.00000005    0.00000005    0.00000000
     atom   18 type  3   force =    -0.00000007   -0.00000007    0.00000000

     Total force =     0.050539     Total SCF correction =     0.000021


     Computing stress (Cartesian axis) and pressure


     negative rho (up, down):  7.738E-03 0.000E+00
          total   stress  (Ry/bohr**3)                   (kbar)     P=       88.77
   0.00014615  -0.00000001   0.00000000           21.50       -0.00        0.00
  -0.00000001   0.00014615   0.00000000           -0.00       21.50        0.00
   0.00000000   0.00000000   0.00151807            0.00        0.00      223.32


     BFGS Geometry Optimization
     Energy error            =      7.5E-02 Ry
     Gradient error          =      1.3E-02 Ry/Bohr
     Cell gradient error     =      2.2E+02 kbar

     number of scf cycles    =   1
     number of bfgs steps    =   0

     enthalpy           new  =   -3590.7371027359 Ry

     new trust radius        =       0.2831652183 bohr
     new conv_thr            =       0.0000000100 Ry

     new unit-cell volume =   1455.13423 a.u.^3 (   215.62865 Ang^3 )
     density =      6.40495 g/cm^3

CELL_PARAMETERS (alat=  5.58242261)
   2.007307461  -0.000000720   0.000000000
  -0.000000720   2.007307461   0.000000000
   0.000000000   0.000000000   2.075903333

ATOMIC_POSITIONS (crystal)
Fe              -0.0011316262       -0.0011316262        0.0000000000
Fe               0.5011316692        0.5011316692        0.0000000000
Fe               0.5011316809       -0.0011316907        0.0000000000
Fe              -0.0011316837        0.5011316552        0.5000000000
Fe              -0.0011316348       -0.0011316348        0.5000000000
Fe               0.5011315960        0.5011315960        0.5000000000
Fe               0.5011316552       -0.0011316837        0.5000000000
Fe              -0.0011316907        0.5011316809        0.0000000000
Ti               0.2500000434        0.2500000434        0.2499999579
Ti               0.7499999683        0.7499999683        0.2499999688
Ti               0.7499999724        0.2500000338        0.2499999614
Ti               0.2500000338        0.7499999724        0.7500000386
Ti               0.2500000434        0.2500000434        0.7500000421
Ti               0.7499999683        0.7499999683        0.7500000312
Ti               0.7499999724        0.2500000338        0.7500000386
Ti               0.2500000338        0.7499999724        0.2499999614
H                0.2500000045        0.2500000045        0.0000000000
H                0.2499999936        0.2499999936        0.5000000000



     Writing config-only to output data dir ./TiFeH_supercell.save/ :
     XML data file     NEW-OLD atomic charge density approx. for the potential
     New effective cutoffs (rho, wfc): 1723.22  123.09

     Check: negative core charge=   -0.000001

     negative rho (up, down):  7.995E-03 0.000E+00

     total cpu time spent up to now is     2703.7 secs

     per-process dynamical memory:   458.4 Mb

     Self-consistent Calculation

     iteration #  1     ecut=   124.00 Ry     beta= 0.70
     Davidson diagonalization with overlap
     c_bands:  1 eigenvalues not converged
     c_bands:  1 eigenvalues not converged
     c_bands:  2 eigenvalues not converged
     c_bands:  1 eigenvalues not converged
     ethr =  1.00E-06,  avg # of iterations = 13.9

     negative rho (up, down):  7.787E-03 0.000E+00

     total cpu time spent up to now is     2888.8 secs

     total energy              =   -3590.76278126 Ry
     estimated scf accuracy    <       0.02961512 Ry

     iteration #  2     ecut=   124.00 Ry     beta= 0.70
     Davidson diagonalization with overlap
     c_bands:  2 eigenvalues not converged
     c_bands:  1 eigenvalues not converged
     ethr =  1.31E-05,  avg # of iterations = 10.6

     negative rho (up, down):  7.585E-03 0.000E+00

     total cpu time spent up to now is     2979.6 secs

     total energy              =   -3590.65443344 Ry
     estimated scf accuracy    <       2.00322401 Ry

     iteration #  3     ecut=   124.00 Ry     beta= 0.70
     Davidson diagonalization with overlap
     ethr =  1.31E-05,  avg # of iterations =  8.6

     negative rho (up, down):  7.663E-03 0.000E+00

     total cpu time spent up to now is     3060.8 secs

     total energy              =   -3590.77618806 Ry
     estimated scf accuracy    <       0.08895978 Ry

     iteration #  4     ecut=   124.00 Ry     beta= 0.70
     Davidson diagonalization with overlap
     ethr =  1.31E-05,  avg # of iterations =  6.5

     negative rho (up, down):  7.708E-03 0.000E+00

     total cpu time spent up to now is     3117.8 secs

     total energy              =   -3590.78322790 Ry
     estimated scf accuracy    <       0.02863236 Ry

     iteration #  5     ecut=   124.00 Ry     beta= 0.70
     Davidson diagonalization with overlap
     ethr =  1.27E-05,  avg # of iterations =  2.2

     negative rho (up, down):  7.704E-03 0.000E+00

     total cpu time spent up to now is     3157.9 secs

     total energy              =   -3590.78477856 Ry
     estimated scf accuracy    <       0.00277632 Ry

     iteration #  6     ecut=   124.00 Ry     beta= 0.70
     Davidson diagonalization with overlap
     ethr =  1.23E-06,  avg # of iterations =  6.3

     negative rho (up, down):  7.701E-03 0.000E+00

     total cpu time spent up to now is     3214.6 secs

     total energy              =   -3590.78483238 Ry
     estimated scf accuracy    <       0.01363024 Ry

     iteration #  7     ecut=   124.00 Ry     beta= 0.70
     Davidson diagonalization with overlap
     ethr =  1.23E-06,  avg # of iterations =  3.8

     negative rho (up, down):  7.681E-03 0.000E+00

     total cpu time spent up to now is     3259.1 secs

     total energy              =   -3590.78542463 Ry
     estimated scf accuracy    <       0.00183128 Ry

     iteration #  8     ecut=   124.00 Ry     beta= 0.70
     Davidson diagonalization with overlap
     ethr =  8.10E-07,  avg # of iterations =  1.6

     negative rho (up, down):  7.680E-03 0.000E+00

     total cpu time spent up to now is     3297.2 secs

     total energy              =   -3590.78545388 Ry
     estimated scf accuracy    <       0.00152382 Ry

     iteration #  9     ecut=   124.00 Ry     beta= 0.70
     Davidson diagonalization with overlap
     ethr =  6.74E-07,  avg # of iterations =  1.0

     negative rho (up, down):  7.681E-03 0.000E+00

     total cpu time spent up to now is     3333.0 secs

     total energy              =   -3590.78552284 Ry
     estimated scf accuracy    <       0.00029116 Ry

     iteration # 10     ecut=   124.00 Ry     beta= 0.70
     Davidson diagonalization with overlap
     ethr =  1.29E-07,  avg # of iterations =  4.0

     negative rho (up, down):  7.682E-03 0.000E+00

     total cpu time spent up to now is     3378.5 secs

     total energy              =   -3590.78549385 Ry
     estimated scf accuracy    <       0.00165604 Ry

     iteration # 11     ecut=   124.00 Ry     beta= 0.70
     Davidson diagonalization with overlap
     ethr =  1.29E-07,  avg # of iterations =  2.7

     negative rho (up, down):  7.683E-03 0.000E+00

     total cpu time spent up to now is     3420.5 secs

     total energy              =   -3590.78554094 Ry
     estimated scf accuracy    <       0.00010042 Ry

     iteration # 12     ecut=   124.00 Ry     beta= 0.70
     Davidson diagonalization with overlap
     ethr =  4.44E-08,  avg # of iterations =  3.1

     negative rho (up, down):  7.682E-03 0.000E+00

     total cpu time spent up to now is     3462.8 secs

     total energy              =   -3590.78554813 Ry
     estimated scf accuracy    <       0.00005203 Ry

     iteration # 13     ecut=   124.00 Ry     beta= 0.70
     Davidson diagonalization with overlap
     ethr =  2.30E-08,  avg # of iterations =  1.9

     negative rho (up, down):  7.680E-03 0.000E+00

     total cpu time spent up to now is     3502.0 secs

     total energy              =   -3590.78554862 Ry
     estimated scf accuracy    <       0.00002189 Ry

     iteration # 14     ecut=   124.00 Ry     beta= 0.70
     Davidson diagonalization with overlap
     ethr =  9.69E-09,  avg # of iterations =  4.0

     negative rho (up, down):  7.681E-03 0.000E+00

     total cpu time spent up to now is     3549.0 secs

     total energy              =   -3590.78554810 Ry
     estimated scf accuracy    <       0.00007633 Ry

     iteration # 15     ecut=   124.00 Ry     beta= 0.70
     Davidson diagonalization with overlap
     ethr =  9.69E-09,  avg # of iterations =  2.6

     negative rho (up, down):  7.681E-03 0.000E+00

     total cpu time spent up to now is     3590.5 secs

     total energy              =   -3590.78555157 Ry
     estimated scf accuracy    <       0.00000525 Ry

     iteration # 16     ecut=   124.00 Ry     beta= 0.70
     Davidson diagonalization with overlap
     ethr =  2.32E-09,  avg # of iterations =  2.8

     negative rho (up, down):  7.681E-03 0.000E+00

     total cpu time spent up to now is     3633.1 secs

     total energy              =   -3590.78555203 Ry
     estimated scf accuracy    <       0.00000046 Ry

     iteration # 17     ecut=   124.00 Ry     beta= 0.70
     Davidson diagonalization with overlap
     ethr =  2.04E-10,  avg # of iterations =  4.9

     negative rho (up, down):  7.681E-03 0.000E+00

     total cpu time spent up to now is     3690.1 secs

     total energy              =   -3590.78555206 Ry
     estimated scf accuracy    <       0.00000155 Ry

     iteration # 18     ecut=   124.00 Ry     beta= 0.70
     Davidson diagonalization with overlap
     ethr =  2.04E-10,  avg # of iterations =  4.6

     negative rho (up, down):  7.680E-03 0.000E+00

     total cpu time spent up to now is     3740.5 secs

     total energy              =   -3590.78555198 Ry
     estimated scf accuracy    <       0.00000522 Ry

     iteration # 19     ecut=   124.00 Ry     beta= 0.70
     Davidson diagonalization with overlap
     ethr =  2.04E-10,  avg # of iterations =  4.2

     negative rho (up, down):  7.680E-03 0.000E+00

     total cpu time spent up to now is     3787.7 secs

     total energy              =   -3590.78555214 Ry
     estimated scf accuracy    <       0.00000035 Ry

     iteration # 20     ecut=   124.00 Ry     beta= 0.70
     Davidson diagonalization with overlap
     ethr =  1.57E-10,  avg # of iterations =  4.6

     negative rho (up, down):  7.680E-03 0.000E+00

     total cpu time spent up to now is     3839.9 secs

     total energy              =   -3590.78555197 Ry
     estimated scf accuracy    <       0.00000529 Ry

     iteration # 21     ecut=   124.00 Ry     beta= 0.70
     Davidson diagonalization with overlap
     ethr =  1.57E-10,  avg # of iterations =  4.3

     negative rho (up, down):  7.680E-03 0.000E+00

     total cpu time spent up to now is     3889.1 secs

     total energy              =   -3590.78555217 Ry
     estimated scf accuracy    <       0.00000003 Ry

     iteration # 22     ecut=   124.00 Ry     beta= 0.70
     Davidson diagonalization with overlap
     ethr =  1.49E-11,  avg # of iterations =  4.3

     negative rho (up, down):  7.680E-03 0.000E+00

     total cpu time spent up to now is     3938.7 secs

     total energy              =   -3590.78555216 Ry
     estimated scf accuracy    <       0.00000024 Ry

     iteration # 23     ecut=   124.00 Ry     beta= 0.70
     Davidson diagonalization with overlap
     ethr =  1.49E-11,  avg # of iterations =  4.2

     negative rho (up, down):  7.680E-03 0.000E+00

     total cpu time spent up to now is     3986.6 secs

     total energy              =   -3590.78555216 Ry
     estimated scf accuracy    <       0.00000008 Ry

     iteration # 24     ecut=   124.00 Ry     beta= 0.70
     Davidson diagonalization with overlap
     ethr =  1.49E-11,  avg # of iterations =  5.0

     negative rho (up, down):  7.680E-03 0.000E+00

     total cpu time spent up to now is     4041.0 secs

     total energy              =   -3590.78555215 Ry
     estimated scf accuracy    <       0.00000037 Ry

     iteration # 25     ecut=   124.00 Ry     beta= 0.70
     Davidson diagonalization with overlap
     ethr =  1.49E-11,  avg # of iterations =  4.6

     negative rho (up, down):  7.680E-03 0.000E+00

     total cpu time spent up to now is     4092.4 secs

     End of self-consistent calculation

          k = 0.0000 0.0000 0.0000 ( 32423 PWs)   bands (ev):

   -70.2312 -70.2293 -70.2282 -70.2282 -70.2264 -70.2264 -70.2252 -70.2235
   -40.2911 -40.2784 -40.2736 -40.2501 -40.2435 -40.2192 -39.9283 -39.8888
   -36.3513 -36.3445 -36.3445 -36.3425 -36.3406 -36.3406 -36.3396 -36.3318
   -36.3067 -36.3046 -36.3046 -36.3044 -36.3018 -36.3018 -36.2959 -36.2935
   -36.2933 -36.2933 -36.2879 -36.2860 -36.2682 -36.2640 -36.2640 -36.2603
   -16.6926 -16.6926 -16.6923 -16.6588 -16.6588 -16.6434 -16.6300 -16.6004
   -16.5926 -16.5926 -16.5698 -16.5698 -16.4385 -16.4336 -16.3876 -16.3810
   -16.3810 -16.3638 -16.3638 -16.2125 -16.1531 -16.1531 -16.1295 -16.1295
     7.6601  10.2618  11.0162  12.4554  12.4554  12.5958  12.8839  12.8839
    13.0200  13.0815  13.1207  13.1224  13.1337  13.1552  13.1799  13.8311
    14.4318  14.4318  14.5573  14.5573  14.5847  14.5970  14.5970  14.6662
    14.6662  14.6923  14.7033  14.7548  14.8060  14.8060  15.2818  15.4943
    15.5060  15.5108  15.5606  15.5606  15.6177  15.6177  15.6627  15.6627
    15.7528  16.0173  16.1116  16.1600  16.1716  16.1896  16.6260  16.6260
    16.6776  16.7106  16.7389  17.0049  17.0049  17.2236  17.2248  17.2980
    17.2980  17.3593  17.4439  17.4439  17.4637  17.4637  17.5815  17.5842
    17.5842  17.6032  17.6032  17.6684  17.7094  17.7532  18.1046  18.2104

          k = 0.0000 0.0000 0.0803 ( 32427 PWs)   bands (ev):

   -70.2311 -70.2295 -70.2281 -70.2280 -70.2265 -70.2265 -70.2251 -70.2236
   -40.2899 -40.2765 -40.2748 -40.2520 -40.2419 -40.2209 -39.9256 -39.8915
   -36.3507 -36.3443 -36.3443 -36.3431 -36.3409 -36.3409 -36.3391 -36.3323
   -36.3066 -36.3046 -36.3044 -36.3044 -36.3020 -36.3020 -36.2957 -36.2937
   -36.2913 -36.2913 -36.2861 -36.2849 -36.2694 -36.2659 -36.2659 -36.2622
   -16.6903 -16.6903 -16.6724 -16.6610 -16.6610 -16.6295 -16.6068 -16.5912
   -16.5912 -16.5857 -16.5714 -16.5714 -16.4547 -16.4479 -16.4022 -16.3798
   -16.3798 -16.3650 -16.3650 -16.2425 -16.1516 -16.1516 -16.1311 -16.1311
     7.8276  10.4003  10.6648  12.5057  12.5057  12.6990  12.7721  12.8994
    12.8994  13.1525  13.1654  13.1731  13.1842  13.2245  13.2331  13.8583
    14.3956  14.4215  14.4215  14.4752  14.4752  14.5223  14.6449  14.6449
    14.6586  14.6586  14.7540  14.7653  14.9319  15.0070  15.0070  15.3284
    15.3787  15.4818  15.4818  15.6142  15.6143  15.6496  15.6496  15.7782
    15.9260  15.9700  15.9729  16.1556  16.2059  16.2059  16.2260  16.3810
    16.7129  16.7371  16.7882  16.9848  16.9848  16.9977  17.1438  17.1438
    17.2171  17.2283  17.2283  17.3847  17.6736  17.7000  17.7000  17.7018
    17.7018  17.7399  17.7923  17.7923  17.8127  17.8923  17.9713  18.1208

          k = 0.0000 0.0000 0.1606 ( 32412 PWs)   bands (ev):

   -70.2307 -70.2298 -70.2277 -70.2277 -70.2268 -70.2268 -70.2248 -70.2239
   -40.2867 -40.2780 -40.2713 -40.2572 -40.2374 -40.2253 -39.9185 -39.8987
   -36.3490 -36.3447 -36.3436 -36.3436 -36.3416 -36.3416 -36.3376 -36.3337
   -36.3061 -36.3050 -36.3039 -36.3039 -36.3025 -36.3025 -36.2953 -36.2941
   -36.2860 -36.2860 -36.2816 -36.2810 -36.2727 -36.2713 -36.2713 -36.2672
   -16.6839 -16.6839 -16.6670 -16.6670 -16.6225 -16.5915 -16.5872 -16.5872
   -16.5758 -16.5758 -16.5507 -16.5328 -16.4988 -16.4866 -16.4418 -16.3767
   -16.3767 -16.3681 -16.3681 -16.3234 -16.1473 -16.1473 -16.1355 -16.1355
     8.3077   9.8852  10.8023  12.1438  12.6389  12.6389  12.8954  12.8954
    12.9980  13.2456  13.3026  13.3134  13.3182  13.3766  13.3969  13.8042
    14.0104  14.0246  14.3985  14.3985  14.4013  14.4013  14.6534  14.7267
    14.7267  14.8002  14.8002  14.9355  14.9461  14.9667  15.2803  15.2803
    15.3479  15.4064  15.4064  15.5533  15.5533  15.5920  15.5972  15.6083
    15.6083  15.6286  15.6286  15.8503  16.0669  16.2941  16.4847  16.5663
    16.5663  16.6510  16.7182  16.7320  16.8689  16.9798  16.9836  16.9836
    17.0507  17.0507  17.1892  17.4430  17.5167  17.7650  17.8121  17.8254
    17.9852  17.9852  18.0224  18.0224  18.1205  18.1205  18.2849  18.3595

          k = 0.0000 0.0000-0.2409 ( 32504 PWs)   bands (ev):

   -70.2303 -70.2303 -70.2273 -70.2273 -70.2273 -70.2273 -70.2244 -70.2244
   -40.2823 -40.2823 -40.2643 -40.2643 -40.2314 -40.2314 -39.9086 -39.9086
   -36.3468 -36.3468 -36.3426 -36.3426 -36.3426 -36.3426 -36.3357 -36.3357
   -36.3056 -36.3056 -36.3032 -36.3032 -36.3032 -36.3032 -36.2947 -36.2947
   -36.2787 -36.2787 -36.2787 -36.2787 -36.2772 -36.2772 -36.2741 -36.2741
   -16.6753 -16.6753 -16.6753 -16.6753 -16.5816 -16.5816 -16.5816 -16.5816
   -16.5596 -16.5596 -16.5393 -16.5393 -16.4958 -16.4958 -16.4310 -16.4310
   -16.3724 -16.3724 -16.3724 -16.3724 -16.1414 -16.1414 -16.1414 -16.1414
     9.0327   9.0327  11.4194  11.4194  12.7978  12.7978  12.7978  12.7978
    13.3229  13.3229  13.3950  13.3950  13.4582  13.4582  13.6168  13.6168
    13.6609  13.6609  14.3832  14.3832  14.3832  14.3832  14.6686  14.6686
    15.0043  15.0043  15.0043  15.0043  15.0466  15.0466  15.0466  15.0466
    15.2239  15.2239  15.2329  15.2329  15.6095  15.6095  15.6095  15.6095
    15.6680  15.6680  15.9380  15.9380  15.9380  15.9380  15.9544  15.9544
    16.7251  16.7251  16.9994  16.9994  16.9994  16.9994  17.0446  17.0446
    17.0854  17.0854  17.1181  17.1181  17.3805  17.3805  17.8533  17.8533
    18.1577  18.1577  18.1577  18.1577  18.5173  18.5173  18.5173  18.5173

          k = 0.0000 0.0830 0.0803 ( 32442 PWs)   bands (ev):

   -70.2309 -70.2293 -70.2283 -70.2279 -70.2267 -70.2263 -70.2253 -70.2238
   -40.2887 -40.2761 -40.2729 -40.2522 -40.2433 -40.2223 -39.9259 -39.8917
   -36.3492 -36.3439 -36.3424 -36.3415 -36.3413 -36.3382 -36.3374 -36.3313
   -36.3083 -36.3065 -36.3062 -36.3047 -36.3041 -36.3017 -36.2971 -36.2950
   -36.2910 -36.2909 -36.2865 -36.2853 -36.2692 -36.2662 -36.2657 -36.2624
   -16.6888 -16.6701 -16.6690 -16.6605 -16.6418 -16.6305 -16.6077 -16.5926
   -16.5870 -16.5780 -16.5718 -16.5587 -16.4538 -16.4476 -16.4030 -16.4006
   -16.3850 -16.3797 -16.3648 -16.2428 -16.1657 -16.1518 -16.1446 -16.1313
     7.8764  10.4323  10.6917  12.3944  12.4699  12.6162  12.7499  12.8989
    12.9515  13.2052  13.2114  13.2543  13.2704  13.2832  13.5625  13.8805
    14.3319  14.3833  14.3867  14.4426  14.4810  14.4842  14.6022  14.6227
    14.6406  14.7286  14.7315  14.8229  14.8741  14.9661  15.0154  15.3345
    15.3379  15.4776  15.4923  15.4949  15.5596  15.5950  15.5968  15.7797
    15.8020  15.9799  15.9979  15.9986  16.1080  16.1455  16.2224  16.4687
    16.4903  16.5737  16.7768  16.8397  16.9078  16.9887  17.0783  17.1968
    17.2716  17.2847  17.3090  17.4809  17.5000  17.5535  17.6476  17.6923
    17.7374  17.8428  17.8509  17.8920  17.9108  18.0309  18.1656  18.2817

          k = 0.0000 0.0830 0.1606 ( 32469 PWs)   bands (ev):

   -70.2305 -70.2296 -70.2279 -70.2275 -70.2270 -70.2266 -70.2250 -70.2241
   -40.2853 -40.2762 -40.2711 -40.2573 -40.2389 -40.2267 -39.9187 -39.8990
   -36.3477 -36.3438 -36.3434 -36.3418 -36.3408 -36.3389 -36.3361 -36.3326
   -36.3079 -36.3066 -36.3062 -36.3052 -36.3036 -36.3022 -36.2967 -36.2955
   -36.2857 -36.2857 -36.2819 -36.2814 -36.2726 -36.2714 -36.2710 -36.2675
   -16.6826 -16.6663 -16.6640 -16.6476 -16.6198 -16.5923 -16.5884 -16.5764
   -16.5741 -16.5630 -16.5514 -16.5340 -16.4976 -16.4867 -16.4427 -16.3973
   -16.3882 -16.3766 -16.3680 -16.3237 -16.1613 -16.1491 -16.1475 -16.1357
     8.3573   9.9275  10.8222  12.0874  12.5268  12.6953  12.7465  12.9710
    13.0481  13.3237  13.3836  13.3888  13.4245  13.4442  13.5911  13.8380
    14.0078  14.0532  14.3845  14.3887  14.4483  14.4601  14.4725  14.6558
    14.7079  14.8080  14.8248  14.8834  15.0000  15.0344  15.1863  15.1899
    15.2614  15.3664  15.4271  15.4898  15.4965  15.5066  15.5283  15.5330
    15.5392  15.5741  15.6711  15.8994  15.9959  16.0210  16.0228  16.3666
    16.4897  16.8085  16.8234  16.9807  16.9878  16.9981  17.0209  17.0724
    17.1242  17.1570  17.3477  17.4772  17.4852  17.6303  17.6705  17.7875
    17.7967  17.8558  18.0405  18.0463  18.0567  18.0953  18.2917  18.4277

          k = 0.0000 0.0830-0.2409 ( 32438 PWs)   bands (ev):

   -70.2301 -70.2301 -70.2275 -70.2275 -70.2271 -70.2271 -70.2246 -70.2245
   -40.2808 -40.2808 -40.2642 -40.2642 -40.2328 -40.2328 -39.9088 -39.9088
   -36.3458 -36.3458 -36.3426 -36.3426 -36.3398 -36.3398 -36.3344 -36.3343
   -36.3072 -36.3072 -36.3057 -36.3057 -36.3029 -36.3029 -36.2961 -36.2961
   -36.2785 -36.2785 -36.2783 -36.2783 -36.2772 -36.2772 -36.2745 -36.2744
   -16.6744 -16.6744 -16.6557 -16.6557 -16.5824 -16.5824 -16.5688 -16.5688
   -16.5576 -16.5576 -16.5396 -16.5396 -16.4967 -16.4967 -16.4317 -16.4317
   -16.3927 -16.3927 -16.3723 -16.3723 -16.1552 -16.1552 -16.1416 -16.1416
     9.0814   9.0814  11.4164  11.4164  12.6403  12.6403  12.8964  12.8964
    13.4489  13.4489  13.4970  13.4970  13.4973  13.4973  13.6538  13.6538
    13.7143  13.7143  14.3828  14.3828  14.4219  14.4219  14.5978  14.5978
    14.8823  14.8823  14.9449  14.9449  15.0164  15.0164  15.0886  15.0886
    15.2376  15.2376  15.3327  15.3327  15.5090  15.5090  15.5508  15.5508
    15.5750  15.5750  15.6040  15.6040  15.8268  15.8268  15.9852  15.9852
    16.8792  16.8792  16.8816  16.8816  17.0340  17.0340  17.1760  17.1760
    17.1818  17.1818  17.2097  17.2097  17.4500  17.4500  17.8286  17.8286
    17.8297  17.8297  18.1304  18.1304  18.3077  18.3077  18.4458  18.4458

          k = 0.0000 0.1661 0.1606 ( 32476 PWs)   bands (ev):

   -70.2300 -70.2291 -70.2285 -70.2276 -70.2270 -70.2261 -70.2255 -70.2246
   -40.2822 -40.2722 -40.2706 -40.2579 -40.2421 -40.2298 -39.9191 -39.8994
   -36.3454 -36.3429 -36.3426 -36.3425 -36.3333 -36.3316 -36.3308 -36.3282
   -36.3137 -36.3124 -36.3124 -36.3124 -36.3027 -36.3013 -36.2992 -36.2980
   -36.2848 -36.2848 -36.2826 -36.2823 -36.2723 -36.2716 -36.2703 -36.2682
   -16.6801 -16.6650 -16.6126 -16.6097 -16.5993 -16.5913 -16.5908 -16.5776
   -16.5527 -16.5450 -16.5370 -16.5337 -16.4946 -16.4871 -16.4527 -16.4445
   -16.4426 -16.3764 -16.3677 -16.3244 -16.1924 -16.1792 -16.1478 -16.1361
     8.4640  10.0182  10.8673  11.9772  12.0732  12.8140  13.0508  13.1305
    13.1818  13.4683  13.5238  13.5773  13.6167  13.6320  13.7496  13.8332
    13.9015  14.1403  14.1663  14.3641  14.5204  14.5555  14.5622  14.5880
    14.5982  14.7400  14.7473  14.8809  14.8878  14.9194  15.2497  15.2658
    15.2722  15.2780  15.2922  15.2945  15.3355  15.3637  15.3835  15.4070
    15.4255  15.4261  15.4896  15.6338  15.8259  15.8452  15.9347  15.9582
    16.5598  16.9149  17.0177  17.0564  17.1051  17.1338  17.1510  17.1973
    17.2788  17.3511  17.3929  17.3935  17.4203  17.4978  17.5321  17.5649
    17.7991  17.8435  17.9929  18.0693  18.1449  18.1949  18.2679  18.2783

          k = 0.0000 0.1661-0.2409 ( 32466 PWs)   bands (ev):

   -70.2295 -70.2295 -70.2280 -70.2280 -70.2265 -70.2265 -70.2251 -70.2251
   -40.2772 -40.2772 -40.2643 -40.2643 -40.2359 -40.2359 -39.9093 -39.9093
   -36.3440 -36.3440 -36.3427 -36.3427 -36.3324 -36.3324 -36.3295 -36.3295
   -36.3130 -36.3130 -36.3124 -36.3124 -36.3020 -36.3020 -36.2986 -36.2986
   -36.2782 -36.2782 -36.2775 -36.2775 -36.2774 -36.2774 -36.2753 -36.2753
   -16.6725 -16.6725 -16.6024 -16.6024 -16.5842 -16.5842 -16.5534 -16.5534
   -16.5430 -16.5430 -16.5375 -16.5375 -16.4986 -16.4986 -16.4480 -16.4480
   -16.4325 -16.4325 -16.3721 -16.3721 -16.1858 -16.1858 -16.1420 -16.1420
     9.1868   9.1868  11.3921  11.3921  12.4327  12.4327  13.1611  13.1611
    13.5680  13.5680  13.6283  13.6283  13.6684  13.6684  13.7363  13.7363
    13.8983  13.8983  14.3255  14.3255  14.4886  14.4886  14.5673  14.5673
    14.6559  14.6559  14.7120  14.7120  15.0364  15.0364  15.1222  15.1222
    15.1512  15.1512  15.1948  15.1948  15.3298  15.3298  15.4168  15.4168
    15.4381  15.4381  15.5631  15.5631  15.5673  15.5673  15.9571  15.9571
    16.8703  16.8703  16.9918  16.9918  17.0907  17.0907  17.3193  17.3193
    17.3296  17.3296  17.3823  17.3823  17.5058  17.5058  17.6472  17.6472
    17.7461  17.7461  17.9573  17.9573  18.0328  18.0328  18.3620  18.3620

          k =-0.0000-0.2491-0.2409 ( 32544 PWs)   bands (ev):

   -70.2289 -70.2288 -70.2287 -70.2287 -70.2259 -70.2259 -70.2257 -70.2257
   -40.2751 -40.2751 -40.2645 -40.2645 -40.2377 -40.2377 -39.9095 -39.9095
   -36.3431 -36.3431 -36.3430 -36.3430 -36.3232 -36.3232 -36.3221 -36.3221
   -36.3217 -36.3217 -36.3205 -36.3205 -36.3007 -36.3007 -36.3004 -36.3004
   -36.2778 -36.2778 -36.2777 -36.2777 -36.2765 -36.2765 -36.2763 -36.2763
   -16.6716 -16.6716 -16.5852 -16.5852 -16.5496 -16.5496 -16.5490 -16.5490
   -16.5359 -16.5359 -16.5255 -16.5255 -16.5067 -16.5067 -16.4995 -16.4995
   -16.4333 -16.4333 -16.3719 -16.3719 -16.2032 -16.2032 -16.1422 -16.1422
     9.2444   9.2444  11.3678  11.3678  12.3567  12.3567  13.4131  13.4131
    13.5313  13.5313  13.6625  13.6625  13.7262  13.7262  13.8653  13.8653
    14.0717  14.0717  14.2589  14.2589  14.4531  14.4531  14.5039  14.5039
    14.5540  14.5540  14.6157  14.6157  15.0066  15.0066  15.0129  15.0129
    15.1524  15.1524  15.1719  15.1719  15.2711  15.2711  15.3179  15.3179
    15.3799  15.3799  15.4100  15.4100  15.7847  15.7847  15.8114  15.8114
    16.9081  16.9081  17.0520  17.0520  17.0781  17.0781  17.3816  17.3816
    17.4007  17.4007  17.4438  17.4438  17.4843  17.4843  17.5640  17.5640
    17.7182  17.7182  17.9285  17.9285  18.0945  18.0945  18.2026  18.2026

          k = 0.0830 0.0830 0.0803 ( 32444 PWs)   bands (ev):

   -70.2307 -70.2291 -70.2281 -70.2281 -70.2265 -70.2265 -70.2255 -70.2240
   -40.2872 -40.2758 -40.2710 -40.2524 -40.2449 -40.2238 -39.9261 -39.8920
   -36.3475 -36.3418 -36.3413 -36.3406 -36.3387 -36.3385 -36.3360 -36.3305
   -36.3096 -36.3076 -36.3068 -36.3057 -36.3045 -36.3043 -36.2988 -36.2967
   -36.2906 -36.2906 -36.2868 -36.2856 -36.2689 -36.2659 -36.2659 -36.2627
   -16.6694 -16.6679 -16.6658 -16.6414 -16.6413 -16.6310 -16.6091 -16.5885
   -16.5811 -16.5776 -16.5591 -16.5591 -16.4529 -16.4474 -16.4039 -16.4015
   -16.3995 -16.3848 -16.3848 -16.2430 -16.1661 -16.1658 -16.1448 -16.1448
     7.9203  10.4779  10.7194  12.3213  12.5407  12.6096  12.6265  12.7857
    13.0216  13.2712  13.3066  13.3080  13.3223  13.5461  13.6622  13.9209
    14.2594  14.3339  14.3832  14.4442  14.4871  14.4960  14.5680  14.5869
    14.6573  14.7444  14.7812  14.7879  14.8219  14.9049  15.1147  15.2544
    15.2582  15.3287  15.4381  15.4506  15.5263  15.5491  15.6033  15.8127
    15.8190  15.8349  15.8594  15.9470  16.0174  16.0831  16.0919  16.2278
    16.3508  16.6728  16.7345  16.8277  16.8976  16.9926  17.2502  17.2514
    17.3359  17.3761  17.4230  17.4510  17.5728  17.5730  17.6081  17.6920
    17.7166  17.7183  17.7201  18.0169  18.1773  18.2065  18.2103  18.2300

          k = 0.0830 0.0830 0.1606 ( 32476 PWs)   bands (ev):

   -70.2303 -70.2294 -70.2277 -70.2277 -70.2268 -70.2268 -70.2252 -70.2243
   -40.2838 -40.2745 -40.2709 -40.2573 -40.2404 -40.2283 -39.9189 -39.8992
   -36.3462 -36.3426 -36.3411 -36.3402 -36.3392 -36.3391 -36.3348 -36.3317
   -36.3092 -36.3080 -36.3063 -36.3055 -36.3048 -36.3048 -36.2983 -36.2971
   -36.2854 -36.2854 -36.2821 -36.2817 -36.2725 -36.2711 -36.2711 -36.2678
   -16.6633 -16.6622 -16.6471 -16.6468 -16.6171 -16.5927 -16.5766 -16.5738
   -16.5641 -16.5631 -16.5523 -16.5352 -16.4963 -16.4866 -16.4437 -16.3980
   -16.3964 -16.3883 -16.3879 -16.3241 -16.1616 -16.1614 -16.1493 -16.1493
     8.4022   9.9677  10.8588  12.0971  12.4736  12.6519  12.7519  12.8997
    13.0765  13.4190  13.4441  13.4664  13.4865  13.6551  13.6893  13.8945
    14.0195  14.0655  14.2999  14.4339  14.4508  14.4619  14.5258  14.5365
    14.7207  14.7664  14.8975  14.9226  14.9579  15.0554  15.0763  15.0961
    15.2000  15.2754  15.3447  15.3898  15.4271  15.4518  15.4767  15.4986
    15.5111  15.5675  15.5721  15.7989  15.8446  15.9137  15.9277  15.9594
    16.4903  16.9358  16.9422  16.9510  17.0524  17.0910  17.2148  17.2456
    17.2603  17.3196  17.3281  17.4313  17.5331  17.6063  17.7436  17.7467
    17.7764  17.8285  17.9061  17.9750  18.0332  18.1505  18.3718  18.5139

          k = 0.0830 0.0830-0.2409 ( 32474 PWs)   bands (ev):

   -70.2299 -70.2299 -70.2273 -70.2273 -70.2273 -70.2273 -70.2247 -70.2247
   -40.2791 -40.2791 -40.2641 -40.2641 -40.2344 -40.2344 -39.9091 -39.9091
   -36.3444 -36.3444 -36.3402 -36.3401 -36.3396 -36.3396 -36.3333 -36.3333
   -36.3086 -36.3086 -36.3056 -36.3056 -36.3052 -36.3052 -36.2977 -36.2977
   -36.2783 -36.2783 -36.2783 -36.2782 -36.2772 -36.2772 -36.2747 -36.2747
   -16.6552 -16.6552 -16.6544 -16.6544 -16.5705 -16.5705 -16.5687 -16.5687
   -16.5558 -16.5558 -16.5397 -16.5397 -16.4977 -16.4977 -16.4323 -16.4323
   -16.3931 -16.3931 -16.3922 -16.3922 -16.1555 -16.1555 -16.1553 -16.1553
     9.1263   9.1263  11.4389  11.4389  12.6109  12.6109  12.8631  12.8631
    13.5217  13.5217  13.5761  13.5761  13.5980  13.5980  13.7215  13.7215
    13.7445  13.7445  14.3851  14.3851  14.4343  14.4343  14.5858  14.5858
    14.8299  14.8299  14.9357  14.9357  14.9387  14.9387  15.0996  15.0996
    15.2705  15.2705  15.2899  15.2899  15.4439  15.4439  15.4537  15.4538
    15.4619  15.4619  15.4876  15.4876  15.5527  15.5527  15.9644  15.9644
    16.8127  16.8127  17.0764  17.0764  17.1799  17.1799  17.2086  17.2086
    17.2604  17.2604  17.2621  17.2621  17.5059  17.5059  17.8072  17.8072
    17.9118  17.9118  17.9173  17.9173  18.1720  18.1720  18.4951  18.4951

          k = 0.0830 0.1661 0.1606 ( 32434 PWs)   bands (ev):

   -70.2298 -70.2289 -70.2283 -70.2274 -70.2272 -70.2263 -70.2257 -70.2248
   -40.2804 -40.2704 -40.2702 -40.2578 -40.2439 -40.2317 -39.9194 -39.8997
   -36.3432 -36.3407 -36.3404 -36.3399 -36.3332 -36.3318 -36.3301 -36.3278
   -36.3143 -36.3131 -36.3122 -36.3120 -36.3050 -36.3039 -36.3014 -36.3002
   -36.2846 -36.2846 -36.2827 -36.2824 -36.2721 -36.2714 -36.2704 -36.2685
   -16.6602 -16.6456 -16.6103 -16.6085 -16.5982 -16.5911 -16.5778 -16.5648
   -16.5540 -16.5458 -16.5385 -16.5342 -16.4934 -16.4868 -16.4528 -16.4456
   -16.4427 -16.3970 -16.3879 -16.3248 -16.1926 -16.1794 -16.1619 -16.1497
     8.4977  10.0533  10.9509  12.0699  12.0827  12.7568  12.8691  13.1418
    13.1561  13.5675  13.6051  13.6648  13.6899  13.8162  13.8509  13.8854
    13.9628  14.1342  14.1828  14.3780  14.3976  14.5610  14.5672  14.6396
    14.6562  14.7563  14.7800  14.8438  14.8641  14.8974  15.1118  15.1543
    15.1667  15.2130  15.2187  15.2294  15.2583  15.2734  15.2957  15.3273
    15.3749  15.3776  15.4241  15.4396  15.6099  15.6784  15.6902  15.9232
    16.5792  16.9576  17.1030  17.1738  17.2434  17.2787  17.2924  17.3416
    17.3566  17.3949  17.4704  17.5209  17.5779  17.5814  17.6065  17.6175
    17.7994  17.8813  17.9807  17.9947  18.1224  18.1330  18.2455  18.3367

          k = 0.0830 0.1661-0.2409 ( 32462 PWs)   bands (ev):

   -70.2293 -70.2293 -70.2278 -70.2278 -70.2267 -70.2267 -70.2253 -70.2253
   -40.2753 -40.2753 -40.2641 -40.2641 -40.2378 -40.2378 -39.9095 -39.9095
   -36.3420 -36.3420 -36.3401 -36.3401 -36.3325 -36.3325 -36.3290 -36.3290
   -36.3137 -36.3137 -36.3121 -36.3121 -36.3045 -36.3045 -36.3008 -36.3008
   -36.2780 -36.2780 -36.2775 -36.2775 -36.2773 -36.2773 -36.2755 -36.2755
   -16.6529 -16.6529 -16.6013 -16.6013 -16.5713 -16.5713 -16.5517 -16.5517
   -16.5428 -16.5428 -16.5382 -16.5382 -16.4999 -16.4999 -16.4480 -16.4480
   -16.4332 -16.4332 -16.3924 -16.3924 -16.1860 -16.1860 -16.1558 -16.1558
     9.2223   9.2223  11.4763  11.4763  12.4318  12.4318  13.0684  13.0684
    13.5488  13.5488  13.7338  13.7338  13.7762  13.7762  13.8530  13.8530
    13.9350  13.9350  14.3179  14.3179  14.5092  14.5092  14.5873  14.5873
    14.6150  14.6150  14.7770  14.7770  14.9793  14.9793  15.0274  15.0274
    15.0796  15.0796  15.1588  15.1588  15.2809  15.2809  15.2845  15.2845
    15.3219  15.3219  15.3594  15.3594  15.4190  15.4190  15.8361  15.8361
    16.8239  16.8239  17.2169  17.2169  17.3059  17.3059  17.3607  17.3607
    17.4002  17.4002  17.4552  17.4552  17.5888  17.5888  17.7359  17.7359
    17.7920  17.7920  17.9640  17.9640  18.0400  18.0400  18.4153  18.4153

          k = 0.0830-0.2491-0.2409 ( 32460 PWs)   bands (ev):

   -70.2287 -70.2287 -70.2285 -70.2285 -70.2261 -70.2261 -70.2259 -70.2259
   -40.2730 -40.2730 -40.2643 -40.2643 -40.2398 -40.2398 -39.9098 -39.9098
   -36.3407 -36.3407 -36.3406 -36.3406 -36.3235 -36.3235 -36.3220 -36.3220
   -36.3218 -36.3218 -36.3202 -36.3202 -36.3032 -36.3032 -36.3029 -36.3029
   -36.2777 -36.2777 -36.2776 -36.2776 -36.2766 -36.2766 -36.2764 -36.2764
   -16.6519 -16.6519 -16.5722 -16.5722 -16.5479 -16.5479 -16.5474 -16.5474
   -16.5347 -16.5347 -16.5256 -16.5256 -16.5088 -16.5088 -16.5008 -16.5008
   -16.4340 -16.4340 -16.3924 -16.3924 -16.2034 -16.2034 -16.1560 -16.1560
     9.2741   9.2741  11.4888  11.4888  12.3451  12.3451  13.3384  13.3384
    13.4364  13.4364  13.7586  13.7586  13.8272  13.8272  14.0318  14.0318
    14.1323  14.1323  14.2769  14.2769  14.4036  14.4036  14.5155  14.5155
    14.5777  14.5777  14.6704  14.6704  14.9221  14.9221  14.9380  14.9380
    15.1069  15.1069  15.1304  15.1304  15.1750  15.1750  15.1871  15.1871
    15.2435  15.2435  15.2666  15.2666  15.5996  15.5996  15.6289  15.6289
    16.8549  16.8549  17.3112  17.3112  17.3303  17.3303  17.4368  17.4368
    17.4619  17.4619  17.5222  17.5222  17.5937  17.5937  17.7380  17.7380
    17.8009  17.8009  17.9235  17.9235  18.1203  18.1203  18.2317  18.2317

          k = 0.1661 0.1661 0.1606 ( 32390 PWs)   bands (ev):

   -70.2292 -70.2283 -70.2277 -70.2277 -70.2268 -70.2268 -70.2263 -70.2254
   -40.2761 -40.2700 -40.2654 -40.2577 -40.2483 -40.2362 -39.9198 -39.9001
   -36.3383 -36.3367 -36.3347 -36.3329 -36.3326 -36.3319 -36.3271 -36.3257
   -36.3171 -36.3162 -36.3126 -36.3111 -36.3109 -36.3101 -36.3062 -36.3052
   -36.2842 -36.2842 -36.2831 -36.2829 -36.2717 -36.2708 -36.2708 -36.2691
   -16.6078 -16.6046 -16.6038 -16.5970 -16.5929 -16.5899 -16.5568 -16.5523
   -16.5438 -16.5428 -16.5353 -16.5349 -16.4907 -16.4866 -16.4553 -16.4506
   -16.4478 -16.4433 -16.4422 -16.3256 -16.1932 -16.1929 -16.1799 -16.1798
     8.5680  10.1267  11.1728  12.0234  12.2780  12.5392  12.7358  13.1127
    13.3060  13.7981  13.8024  13.8157  13.8381  13.9034  14.0035  14.1047
    14.1452  14.1618  14.1974  14.2145  14.3849  14.5323  14.6183  14.6458
    14.7432  14.7882  14.7979  14.8331  14.8332  14.9098  14.9360  14.9634
    14.9867  14.9930  15.0499  15.0572  15.0910  15.1118  15.1139  15.1286
    15.1740  15.1810  15.2358  15.3190  15.3697  15.3750  15.3825  15.7639
    16.6678  17.0104  17.2959  17.3379  17.3739  17.3834  17.4901  17.4912
    17.5385  17.6055  17.6462  17.7110  17.7178  17.7763  17.7970  17.8045
    17.8936  17.8980  17.9400  18.0068  18.0680  18.1663  18.2024  18.4081

          k = 0.1661 0.1661-0.2409 ( 32458 PWs)   bands (ev):

   -70.2288 -70.2288 -70.2273 -70.2273 -70.2273 -70.2273 -70.2258 -70.2258
   -40.2708 -40.2708 -40.2638 -40.2638 -40.2423 -40.2423 -39.9100 -39.9100
   -36.3375 -36.3375 -36.3338 -36.3338 -36.3323 -36.3323 -36.3264 -36.3264
   -36.3167 -36.3167 -36.3119 -36.3119 -36.3105 -36.3105 -36.3057 -36.3057
   -36.2775 -36.2775 -36.2775 -36.2775 -36.2773 -36.2773 -36.2760 -36.2760
   -16.6003 -16.6003 -16.5979 -16.5979 -16.5482 -16.5482 -16.5440 -16.5440
   -16.5423 -16.5423 -16.5380 -16.5380 -16.5026 -16.5026 -16.4493 -16.4493
   -16.4464 -16.4464 -16.4346 -16.4346 -16.1865 -16.1865 -16.1864 -16.1864
     9.2967   9.2967  11.6852  11.6852  12.3918  12.3918  12.9392  12.9392
    13.5156  13.5156  13.9813  13.9813  14.0075  14.0075  14.0272  14.0272
    14.0544  14.0544  14.3184  14.3184  14.5393  14.5393  14.5820  14.5820
    14.6213  14.6213  14.8108  14.8108  14.8592  14.8592  14.8941  14.8941
    14.9725  14.9725  14.9731  14.9731  15.0088  15.0088  15.1212  15.1212
    15.1364  15.1364  15.1569  15.1569  15.2005  15.2005  15.5321  15.5321
    16.8608  16.8608  17.4499  17.4499  17.5234  17.5234  17.5403  17.5403
    17.5564  17.5564  17.6245  17.6245  17.7962  17.7962  17.8064  17.8064
    17.9272  17.9272  17.9955  17.9955  18.1926  18.1926  18.4562  18.4562

          k = 0.1661-0.2491-0.2409 ( 32460 PWs)   bands (ev):

   -70.2281 -70.2281 -70.2279 -70.2279 -70.2266 -70.2266 -70.2265 -70.2265
   -40.2677 -40.2677 -40.2639 -40.2639 -40.2451 -40.2451 -39.9102 -39.9102
   -36.3345 -36.3345 -36.3343 -36.3343 -36.3246 -36.3246 -36.3232 -36.3232
   -36.3207 -36.3207 -36.3190 -36.3190 -36.3095 -36.3095 -36.3092 -36.3092
   -36.2775 -36.2775 -36.2773 -36.2773 -36.2768 -36.2768 -36.2766 -36.2766
   -16.5980 -16.5980 -16.5442 -16.5442 -16.5441 -16.5441 -16.5435 -16.5435
   -16.5306 -16.5306 -16.5259 -16.5259 -16.5145 -16.5145 -16.5038 -16.5038
   -16.4478 -16.4478 -16.4354 -16.4354 -16.2038 -16.2038 -16.1867 -16.1867
     9.3357   9.3357  11.8338  11.8338  12.3223  12.3223  12.9044  12.9044
    13.4704  13.4704  14.0207  14.0207  14.0879  14.0879  14.3177  14.3177
    14.3247  14.3247  14.3363  14.3363  14.3529  14.3529  14.4608  14.4608
    14.6955  14.6955  14.7451  14.7451  14.7857  14.7857  14.8489  14.8489
    14.8862  14.8862  14.9163  14.9163  14.9983  14.9983  15.0050  15.0050
    15.0491  15.0491  15.0665  15.0665  15.2053  15.2053  15.2359  15.2359
    16.8885  16.8885  17.5845  17.5845  17.6260  17.6260  17.6414  17.6414
    17.6547  17.6547  17.6735  17.6735  17.7959  17.7959  17.8618  17.8618
    17.9989  17.9989  18.1789  18.1789  18.2695  18.2695  18.3326  18.3326

          k =-0.2491-0.2491-0.2409 ( 32344 PWs)   bands (ev):

   -70.2275 -70.2275 -70.2273 -70.2273 -70.2273 -70.2273 -70.2271 -70.2271
   -40.2637 -40.2637 -40.2637 -40.2637 -40.2491 -40.2491 -39.9104 -39.9104
   -36.3284 -36.3284 -36.3284 -36.3284 -36.3271 -36.3271 -36.3256 -36.3256
   -36.3183 -36.3183 -36.3163 -36.3163 -36.3153 -36.3153 -36.3153 -36.3153
   -36.2772 -36.2772 -36.2771 -36.2771 -36.2771 -36.2771 -36.2768 -36.2768
   -16.5423 -16.5423 -16.5423 -16.5423 -16.5304 -16.5304 -16.5303 -16.5303
   -16.5226 -16.5226 -16.5222 -16.5222 -16.5202 -16.5202 -16.5202 -16.5202
   -16.5051 -16.5051 -16.4361 -16.4361 -16.2041 -16.2041 -16.2041 -16.2041
     9.3676   9.3676  12.3109  12.3109  12.3109  12.3109  12.3807  12.3807
    13.4770  13.4770  14.3230  14.3230  14.3230  14.3230  14.3769  14.3769
    14.3913  14.3913  14.3913  14.3913  14.4088  14.4088  14.4303  14.4303
    14.7755  14.7755  14.7755  14.7755  14.8132  14.8132  14.8343  14.8343
    14.8343  14.8343  14.8343  14.8343  14.8398  14.8398  14.8706  14.8706
    14.8924  14.8924  14.9233  14.9233  14.9233  14.9233  14.9444  14.9444
    16.9107  16.9107  17.7369  17.7369  17.7369  17.7369  17.7688  17.7688
    17.7797  17.7797  17.7904  17.7904  17.7904  17.7904  17.8693  17.8693
    18.1261  18.1261  18.5250  18.5252  18.5254  18.5254  18.5746  18.5994

          k = 0.0830 0.0000 0.0000 ( 32427 PWs)   bands (ev):

   -70.2310 -70.2291 -70.2284 -70.2280 -70.2266 -70.2262 -70.2254 -70.2237
   -40.2899 -40.2780 -40.2717 -40.2504 -40.2449 -40.2206 -39.9285 -39.8891
   -36.3497 -36.3441 -36.3418 -36.3417 -36.3411 -36.3380 -36.3379 -36.3308
   -36.3085 -36.3067 -36.3060 -36.3046 -36.3043 -36.3015 -36.2973 -36.2949
   -36.2930 -36.2928 -36.2883 -36.2865 -36.2679 -36.2643 -36.2637 -36.2605
   -16.6910 -16.6888 -16.6724 -16.6584 -16.6447 -16.6396 -16.6309 -16.6017
   -16.5941 -16.5794 -16.5702 -16.5571 -16.4378 -16.4333 -16.4018 -16.3884
   -16.3838 -16.3809 -16.3637 -16.2128 -16.1674 -16.1533 -16.1429 -16.1297
     7.7085  10.2976  11.0301  12.3372  12.5071  12.5666  12.6478  12.9255
    13.0918  13.1374  13.1572  13.1931  13.2179  13.2304  13.5238  13.8475
    14.4020  14.4855  14.4926  14.4999  14.5042  14.5062  14.5317  14.5836
    14.6437  14.6747  14.7080  14.7546  14.8367  14.9432  15.3001  15.4148
    15.4508  15.4638  15.5015  15.5665  15.5869  15.6039  15.6487  15.6932
    15.7356  15.8981  15.9721  16.1216  16.2847  16.3612  16.3892  16.4440
    16.6304  16.6792  16.8113  16.8270  17.0113  17.0644  17.0710  17.1005
    17.1165  17.1530  17.2948  17.4250  17.5563  17.5740  17.6026  17.7129
    17.7313  17.7806  17.7888  17.8309  17.8793  17.9979  18.1031  18.2518

          k = 0.1661 0.0000 0.0000 ( 32412 PWs)   bands (ev):

   -70.2304 -70.2289 -70.2286 -70.2274 -70.2271 -70.2260 -70.2257 -70.2242
   -40.2873 -40.2769 -40.2672 -40.2516 -40.2482 -40.2236 -39.9290 -39.8895
   -36.3468 -36.3431 -36.3423 -36.3412 -36.3342 -36.3320 -36.3307 -36.3269
   -36.3144 -36.3123 -36.3122 -36.3117 -36.3033 -36.3006 -36.2998 -36.2973
   -36.2920 -36.2915 -36.2893 -36.2878 -36.2672 -36.2650 -36.2630 -36.2612
   -16.6877 -16.6796 -16.6576 -16.6514 -16.6308 -16.6172 -16.6045 -16.5974
   -16.5871 -16.5709 -16.5500 -16.5290 -16.4580 -16.4376 -16.4363 -16.4325
   -16.3902 -16.3807 -16.3634 -16.2133 -16.1990 -16.1726 -16.1537 -16.1302
     7.8116  10.3953  11.0577  11.7242  12.6332  12.7821  12.8853  12.9844
    13.2314  13.2325  13.2652  13.3486  13.3752  13.5094  13.6775  13.8254
    13.9919  13.9942  14.2503  14.4187  14.5104  14.6150  14.6168  14.6648
    14.6791  14.7007  14.8649  14.9021  14.9123  15.1928  15.3219  15.3460
    15.3704  15.3920  15.3943  15.4412  15.5059  15.5305  15.5630  15.5694
    15.6287  15.6972  15.7367  16.0022  16.0077  16.0646  16.3247  16.4254
    16.4710  16.6418  16.6710  16.7996  16.8851  16.8866  16.9099  16.9323
    17.0174  17.0782  17.1595  17.4608  17.6068  17.7809  17.8151  17.8594
    17.9096  18.0073  18.0455  18.1051  18.1630  18.1896  18.3262  18.3522

          k =-0.2491-0.0000 0.0000 ( 32504 PWs)   bands (ev):

   -70.2298 -70.2296 -70.2279 -70.2278 -70.2268 -70.2266 -70.2250 -70.2248
   -40.2860 -40.2761 -40.2641 -40.2529 -40.2501 -40.2251 -39.9292 -39.8898
   -36.3442 -36.3442 -36.3420 -36.3418 -36.3248 -36.3232 -36.3232 -36.3217
   -36.3216 -36.3208 -36.3201 -36.3190 -36.3020 -36.3017 -36.2994 -36.2991
   -36.2908 -36.2905 -36.2897 -36.2896 -36.2662 -36.2660 -36.2622 -36.2620
   -16.6859 -16.6711 -16.6591 -16.6572 -16.6300 -16.6061 -16.5991 -16.5712
   -16.5543 -16.5387 -16.5260 -16.5157 -16.5149 -16.4976 -16.4356 -16.4321
   -16.3911 -16.3807 -16.3632 -16.2171 -16.2135 -16.1894 -16.1538 -16.1304
     7.8669  10.4716  11.0714  11.4450  12.7143  12.9100  12.9531  13.2746
    13.2848  13.2891  13.3213  13.5133  13.5204  13.5905  13.6430  13.6438
    13.7688  13.8795  13.8918  14.3928  14.5477  14.5525  14.6640  14.9099
    14.9115  14.9234  14.9501  15.0150  15.0299  15.0459  15.1282  15.1398
    15.1554  15.1995  15.3431  15.5241  15.5371  15.6364  15.6425  15.6470
    15.6588  15.7108  15.7894  15.8161  15.8189  15.8589  15.8681  15.8730
    16.2854  16.6547  16.6590  16.8256  16.8323  16.9980  17.0032  17.0848
    17.1068  17.2350  17.4006  17.4016  17.4281  17.5575  17.5927  17.9832
    17.9889  18.2478  18.2826  18.3312  18.3424  18.3949  18.4834  18.6198

          k = 0.0830-0.0830 0.0000 ( 32442 PWs)   bands (ev):

   -70.2308 -70.2289 -70.2282 -70.2282 -70.2264 -70.2264 -70.2256 -70.2239
   -40.2885 -40.2776 -40.2698 -40.2506 -40.2465 -40.2222 -39.9287 -39.8893
   -36.3480 -36.3421 -36.3409 -36.3407 -36.3385 -36.3382 -36.3364 -36.3301
   -36.3098 -36.3074 -36.3070 -36.3058 -36.3044 -36.3041 -36.2989 -36.2965
   -36.2925 -36.2925 -36.2886 -36.2869 -36.2677 -36.2640 -36.2640 -36.2608
   -16.6855 -16.6716 -16.6701 -16.6452 -16.6392 -16.6391 -16.6325 -16.6031
   -16.5828 -16.5790 -16.5576 -16.5574 -16.4370 -16.4330 -16.4029 -16.4006
   -16.3893 -16.3837 -16.3835 -16.2130 -16.1677 -16.1674 -16.1432 -16.1432
     7.7517  10.3462  11.0476  12.2573  12.5457  12.6078  12.6227  12.6876
    13.1698  13.1978  13.2557  13.2661  13.2673  13.4820  13.6189  13.8781
    14.3746  14.3746  14.4082  14.4568  14.5080  14.5267  14.5957  14.5959
    14.6110  14.7015  14.7225  14.7321  14.7498  15.0028  15.2672  15.3691
    15.3857  15.3941  15.4076  15.4235  15.5367  15.6146  15.7113  15.7254
    15.8204  15.8932  15.9210  15.9318  16.0693  16.1453  16.4953  16.5639
    16.5818  16.6941  16.7088  16.8083  16.8149  16.8232  16.8834  16.9949
    17.1517  17.4042  17.4142  17.5395  17.5644  17.6248  17.6478  17.6646
    17.7001  17.7725  17.8965  17.9718  17.9899  18.1401  18.2141  18.2155

          k =-0.0830-0.0830 0.0000 ( 32442 PWs)   bands (ev):

   -70.2308 -70.2289 -70.2282 -70.2282 -70.2264 -70.2264 -70.2256 -70.2239
   -40.2885 -40.2776 -40.2698 -40.2506 -40.2465 -40.2222 -39.9287 -39.8893
   -36.3480 -36.3421 -36.3409 -36.3407 -36.3385 -36.3382 -36.3364 -36.3301
   -36.3098 -36.3074 -36.3070 -36.3058 -36.3044 -36.3041 -36.2989 -36.2965
   -36.2925 -36.2925 -36.2886 -36.2869 -36.2677 -36.2640 -36.2640 -36.2608
   -16.6855 -16.6716 -16.6701 -16.6452 -16.6392 -16.6391 -16.6325 -16.6031
   -16.5828 -16.5790 -16.5576 -16.5574 -16.4370 -16.4330 -16.4029 -16.4006
   -16.3893 -16.3837 -16.3835 -16.2130 -16.1678 -16.1674 -16.1432 -16.1432
     7.7517  10.3462  11.0476  12.2573  12.5457  12.6078  12.6227  12.6876
    13.1698  13.1978  13.2557  13.2661  13.2673  13.4820  13.6189  13.8781
    14.3746  14.3746  14.4082  14.4568  14.5080  14.5267  14.5957  14.5959
    14.6110  14.7015  14.7225  14.7321  14.7498  15.0028  15.2672  15.3691
    15.3857  15.3941  15.4076  15.4235  15.5367  15.6146  15.7113  15.7254
    15.8204  15.8932  15.9210  15.9318  16.0693  16.1453  16.4953  16.5639
    16.5818  16.6941  16.7088  16.8083  16.8149  16.8232  16.8834  16.9949
    17.1517  17.4042  17.4142  17.5395  17.5644  17.6248  17.6478  17.6646
    17.7001  17.7725  17.8965  17.9718  17.9899  18.1401  18.2141  18.2154

          k = 0.1661-0.0830 0.0000 ( 32469 PWs)   bands (ev):

   -70.2302 -70.2287 -70.2284 -70.2276 -70.2269 -70.2262 -70.2259 -70.2244
   -40.2855 -40.2767 -40.2651 -40.2515 -40.2500 -40.2255 -39.9292 -39.8898
   -36.3445 -36.3407 -36.3397 -36.3395 -36.3338 -36.3312 -36.3311 -36.3267
   -36.3149 -36.3125 -36.3123 -36.3118 -36.3054 -36.3033 -36.3020 -36.2996
   -36.2917 -36.2913 -36.2895 -36.2881 -36.2669 -36.2648 -36.2633 -36.2615
   -16.6766 -16.6676 -16.6501 -16.6383 -16.6334 -16.6157 -16.6062 -16.5866
   -16.5843 -16.5582 -16.5509 -16.5294 -16.4581 -16.4376 -16.4354 -16.4323
   -16.4015 -16.3912 -16.3834 -16.2135 -16.1992 -16.1728 -16.1679 -16.1436
     7.8431  10.4810  11.0825  11.7335  12.5745  12.7355  12.7763  12.9233
    13.3271  13.3379  13.3613  13.4510  13.5428  13.5534  13.7342  13.8751
    14.0001  14.0414  14.2423  14.4578  14.5418  14.5596  14.5928  14.6412
    14.6594  14.7830  14.8201  14.8425  14.8678  15.1181  15.1553  15.2400
    15.2862  15.3386  15.3879  15.4381  15.4631  15.4804  15.5314  15.5344
    15.5501  15.6512  15.7138  15.8257  15.9522  16.0045  16.1982  16.2109
    16.2952  16.7022  16.7319  16.8086  16.9403  16.9841  17.0138  17.0177
    17.1205  17.2700  17.3616  17.5125  17.6170  17.7376  17.7659  17.8382
    17.8547  17.9468  17.9536  18.1226  18.1252  18.2049  18.2470  18.4168

          k =-0.1661-0.0830 0.0000 ( 32469 PWs)   bands (ev):

   -70.2302 -70.2287 -70.2284 -70.2276 -70.2269 -70.2262 -70.2259 -70.2244
   -40.2855 -40.2767 -40.2651 -40.2515 -40.2500 -40.2255 -39.9292 -39.8898
   -36.3445 -36.3407 -36.3397 -36.3395 -36.3338 -36.3312 -36.3311 -36.3267
   -36.3149 -36.3125 -36.3123 -36.3118 -36.3054 -36.3033 -36.3020 -36.2996
   -36.2917 -36.2913 -36.2895 -36.2881 -36.2669 -36.2648 -36.2633 -36.2615
   -16.6766 -16.6676 -16.6501 -16.6383 -16.6334 -16.6157 -16.6062 -16.5866
   -16.5843 -16.5582 -16.5509 -16.5294 -16.4581 -16.4376 -16.4354 -16.4323
   -16.4015 -16.3912 -16.3834 -16.2135 -16.1992 -16.1728 -16.1679 -16.1436
     7.8431  10.4810  11.0825  11.7335  12.5745  12.7355  12.7763  12.9233
    13.3271  13.3379  13.3613  13.4510  13.5428  13.5534  13.7342  13.8751
    14.0001  14.0414  14.2423  14.4578  14.5418  14.5596  14.5928  14.6412
    14.6594  14.7830  14.8201  14.8425  14.8678  15.1181  15.1553  15.2400
    15.2862  15.3386  15.3879  15.4381  15.4631  15.4804  15.5314  15.5344
    15.5501  15.6512  15.7138  15.8257  15.9522  16.0045  16.1982  16.2109
    16.2952  16.7022  16.7319  16.8086  16.9403  16.9841  17.0138  17.0177
    17.1205  17.2700  17.3616  17.5125  17.6170  17.7376  17.7659  17.8382
    17.8547  17.9468  17.9536  18.1226  18.1252  18.2049  18.2470  18.4168

          k = 0.0000 0.1661 0.0803 ( 32469 PWs)   bands (ev):

   -70.2303 -70.2288 -70.2287 -70.2273 -70.2272 -70.2258 -70.2258 -70.2243
   -40.2859 -40.2752 -40.2685 -40.2533 -40.2466 -40.2252 -39.9263 -39.8922
   -36.3464 -36.3430 -36.3424 -36.3416 -36.3340 -36.3317 -36.3309 -36.3272
   -36.3142 -36.3124 -36.3123 -36.3119 -36.3032 -36.3008 -36.2997 -36.2975
   -36.2900 -36.2897 -36.2874 -36.2864 -36.2685 -36.2668 -36.2650 -36.2631
   -16.6856 -16.6600 -16.6596 -16.6363 -16.6152 -16.6084 -16.5956 -16.5902
   -16.5888 -16.5727 -16.5486 -16.5304 -16.4574 -16.4511 -16.4472 -16.4389
   -16.4048 -16.3796 -16.3645 -16.2433 -16.1972 -16.1744 -16.1521 -16.1318
     7.9808  10.5172  10.7466  11.8167  12.4437  12.8800  12.9323  13.0412
    13.1300  13.3068  13.3506  13.4151  13.4269  13.5374  13.7284  13.8452
    13.9878  14.0065  14.2462  14.4654  14.5451  14.5610  14.6099  14.6351
    14.6580  14.6671  14.8412  14.9105  14.9687  15.0413  15.0975  15.3267
    15.3333  15.3723  15.4066  15.4101  15.4473  15.4537  15.5381  15.5450
    15.5670  15.6746  15.8236  15.8633  15.9162  15.9605  15.9784  16.1795
    16.3270  16.7981  16.9206  16.9611  16.9705  16.9967  17.0721  17.0776
    17.1022  17.1435  17.1951  17.4777  17.4871  17.5988  17.7101  17.8216
    17.8377  17.9664  17.9984  18.0687  18.0754  18.1116  18.2993  18.3775

          k =-0.2491-0.0830 0.0000 ( 32438 PWs)   bands (ev):

   -70.2296 -70.2294 -70.2277 -70.2276 -70.2270 -70.2268 -70.2252 -70.2250
   -40.2840 -40.2759 -40.2619 -40.2526 -40.2521 -40.2274 -39.9294 -39.8900
   -36.3416 -36.3416 -36.3398 -36.3396 -36.3248 -36.3232 -36.3227 -36.3222
   -36.3211 -36.3208 -36.3207 -36.3190 -36.3042 -36.3039 -36.3020 -36.3017
   -36.2907 -36.2905 -36.2898 -36.2896 -36.2659 -36.2657 -36.2625 -36.2623
   -16.6684 -16.6659 -16.6572 -16.6379 -16.6327 -16.6079 -16.5859 -16.5586
   -16.5517 -16.5384 -16.5241 -16.5181 -16.5147 -16.4994 -16.4346 -16.4318
   -16.4015 -16.3922 -16.3832 -16.2173 -16.2137 -16.1895 -16.1681 -16.1438
     7.8914  10.5920  11.0999  11.4429  12.6256  12.8149  12.8360  13.2813
    13.3921  13.3950  13.5083  13.5470  13.5856  13.6479  13.6971  13.7242
    13.8573  13.9097  13.9191  14.4301  14.5807  14.5906  14.6542  14.8436
    14.8438  14.8729  14.8729  14.9486  14.9543  15.0307  15.0412  15.1674
    15.1690  15.1844  15.2626  15.4014  15.4165  15.4724  15.5007  15.5560
    15.5952  15.6365  15.6392  15.6827  15.7222  15.7693  15.9096  15.9175
    16.3724  16.7021  16.7317  16.8503  16.8542  17.0774  17.1261  17.2220
    17.2316  17.3281  17.4695  17.5006  17.5323  17.5887  17.6068  17.9086
    17.9489  17.9559  18.2173  18.2493  18.2685  18.3004  18.3678  18.4762

          k =-0.0000-0.2491 0.0803 ( 32438 PWs)   bands (ev):

   -70.2296 -70.2295 -70.2281 -70.2279 -70.2267 -70.2265 -70.2251 -70.2250
   -40.2845 -40.2746 -40.2656 -40.2544 -40.2484 -40.2268 -39.9266 -39.8924
   -36.3441 -36.3441 -36.3421 -36.3419 -36.3246 -36.3231 -36.3230 -36.3219
   -36.3215 -36.3210 -36.3204 -36.3192 -36.3019 -36.3016 -36.2996 -36.2993
   -36.2888 -36.2886 -36.2881 -36.2880 -36.2677 -36.2675 -36.2641 -36.2639
   -16.6840 -16.6591 -16.6506 -16.6444 -16.6079 -16.5972 -16.5919 -16.5731
   -16.5525 -16.5372 -16.5277 -16.5164 -16.5145 -16.4988 -16.4507 -16.4470
   -16.4058 -16.3795 -16.3644 -16.2436 -16.2152 -16.1912 -16.1523 -16.1320
     8.0369  10.5810  10.7747  11.5577  12.4407  12.9941  13.0411  13.2313
    13.3169  13.4132  13.4298  13.5445  13.6023  13.6204  13.6621  13.6890
    13.7096  13.8965  13.9760  14.4376  14.5780  14.5825  14.6648  14.7438
    14.8212  14.8359  14.8574  14.8666  15.0455  15.0828  15.1012  15.1352
    15.2823  15.3110  15.3565  15.4803  15.4828  15.4989  15.4990  15.5119
    15.5191  15.5330  15.5547  15.6120  15.6879  15.7591  15.9308  15.9351
    16.3946  16.8473  16.8592  16.9729  16.9935  17.0428  17.0539  17.0984
    17.1223  17.2956  17.4000  17.4307  17.4677  17.5137  17.6368  17.9331
    17.9415  17.9440  17.9574  18.1650  18.1780  18.2118  18.4034  18.5046

          k = 0.1661-0.1661 0.0000 ( 32476 PWs)   bands (ev):

   -70.2297 -70.2282 -70.2282 -70.2279 -70.2267 -70.2264 -70.2264 -70.2249
   -40.2814 -40.2761 -40.2601 -40.2543 -40.2515 -40.2302 -39.9296 -39.8903
   -36.3392 -36.3359 -36.3356 -36.3329 -36.3320 -36.3317 -36.3278 -36.3251
   -36.3175 -36.3157 -36.3134 -36.3111 -36.3103 -36.3096 -36.3066 -36.3047
   -36.2910 -36.2909 -36.2898 -36.2888 -36.2661 -36.2641 -36.2641 -36.2622
   -16.6685 -16.6488 -16.6390 -16.6153 -16.6099 -16.6099 -16.5856 -16.5852
   -16.5597 -16.5480 -16.5306 -16.5297 -16.4613 -16.4549 -16.4380 -16.4375
   -16.4334 -16.4318 -16.3933 -16.2140 -16.1999 -16.1994 -16.1732 -16.1732
     7.9081  10.7172  11.1331  11.6567  12.1471  12.7337  13.0140  13.0267
    13.5143  13.5390  13.6187  13.6256  13.6602  13.6751  13.7881  13.8349
    14.0619  14.1936  14.2369  14.2772  14.4511  14.5608  14.6115  14.6919
    14.7036  14.7191  14.7600  14.7612  14.9045  14.9982  15.1003  15.1084
    15.1400  15.1469  15.2714  15.2817  15.3003  15.3149  15.3609  15.3860
    15.5174  15.5327  15.5979  15.7367  15.7508  15.8793  15.8996  15.9095
    16.4236  16.7390  16.7888  16.8212  16.9402  17.1890  17.2533  17.3066
    17.3578  17.4609  17.5361  17.5410  17.5583  17.6082  17.6596  17.8381
    17.8969  18.0132  18.0573  18.1039  18.1604  18.1681  18.2095  18.2549

          k =-0.1661-0.1661 0.0000 ( 32476 PWs)   bands (ev):

   -70.2297 -70.2282 -70.2282 -70.2279 -70.2267 -70.2264 -70.2264 -70.2249
   -40.2814 -40.2761 -40.2601 -40.2543 -40.2515 -40.2302 -39.9296 -39.8903
   -36.3392 -36.3359 -36.3356 -36.3329 -36.3320 -36.3317 -36.3278 -36.3251
   -36.3175 -36.3157 -36.3134 -36.3111 -36.3103 -36.3096 -36.3066 -36.3047
   -36.2910 -36.2909 -36.2898 -36.2888 -36.2661 -36.2641 -36.2641 -36.2622
   -16.6685 -16.6488 -16.6390 -16.6153 -16.6099 -16.6099 -16.5856 -16.5852
   -16.5597 -16.5480 -16.5306 -16.5297 -16.4613 -16.4549 -16.4380 -16.4375
   -16.4334 -16.4318 -16.3933 -16.2140 -16.1999 -16.1994 -16.1732 -16.1732
     7.9081  10.7172  11.1331  11.6567  12.1471  12.7337  13.0140  13.0267
    13.5143  13.5390  13.6187  13.6256  13.6602  13.6751  13.7881  13.8349
    14.0619  14.1936  14.2369  14.2772  14.4511  14.5608  14.6115  14.6919
    14.7036  14.7191  14.7600  14.7612  14.9045  14.9982  15.1003  15.1084
    15.1400  15.1469  15.2714  15.2817  15.3003  15.3149  15.3609  15.3860
    15.5173  15.5327  15.5979  15.7367  15.7508  15.8793  15.8996  15.9095
    16.4236  16.7390  16.7888  16.8212  16.9402  17.1890  17.2533  17.3066
    17.3578  17.4609  17.5361  17.5410  17.5583  17.6082  17.6596  17.8381
    17.8969  18.0132  18.0573  18.1039  18.1604  18.1680  18.2095  18.2549

          k =-0.2491-0.1661 0.0000 ( 32466 PWs)   bands (ev):

   -70.2290 -70.2289 -70.2275 -70.2274 -70.2272 -70.2270 -70.2257 -70.2256
   -40.2790 -40.2755 -40.2571 -40.2563 -40.2522 -40.2331 -39.9298 -39.8905
   -36.3350 -36.3348 -36.3343 -36.3342 -36.3250 -36.3237 -36.3234 -36.3225
   -36.3210 -36.3206 -36.3195 -36.3188 -36.3097 -36.3095 -36.3089 -36.3083
   -36.2905 -36.2903 -36.2899 -36.2898 -36.2652 -36.2650 -36.2632 -36.2630
   -16.6609 -16.6531 -16.6403 -16.6121 -16.6112 -16.5848 -16.5577 -16.5436
   -16.5378 -16.5306 -16.5242 -16.5193 -16.5144 -16.5043 -16.4579 -16.4378
   -16.4324 -16.4314 -16.3944 -16.2178 -16.2142 -16.1999 -16.1899 -16.1734
     7.9418  10.9367  11.1589  11.4362  12.0597  12.7109  13.0875  13.3164
    13.5970  13.6636  13.6650  13.6791  13.6871  13.7027  13.9400  13.9572
    13.9705  13.9717  14.0799  14.4875  14.5794  14.6276  14.6413  14.6432
    14.6440  14.6640  14.6741  14.8273  14.8414  14.8939  14.9007  15.0084
    15.0502  15.0930  15.1916  15.2065  15.3341  15.3731  15.4249  15.4292
    15.4483  15.4679  15.5182  15.5389  15.5740  15.5826  15.8871  15.8883
    16.5290  16.7543  16.7955  16.8608  16.8868  17.2834  17.3262  17.4493
    17.4677  17.5505  17.5639  17.5832  17.6188  17.6847  17.7826  17.8257
    17.8562  17.8695  18.0409  18.0848  18.1499  18.1561  18.1672  18.1705

          k =-0.0000-0.2491 0.1606 ( 32466 PWs)   bands (ev):

   -70.2293 -70.2291 -70.2284 -70.2282 -70.2263 -70.2262 -70.2255 -70.2253
   -40.2805 -40.2703 -40.2696 -40.2587 -40.2439 -40.2314 -39.9194 -39.8997
   -36.3437 -36.3436 -36.3425 -36.3424 -36.3240 -36.3227 -36.3225 -36.3225
   -36.3215 -36.3211 -36.3209 -36.3198 -36.3014 -36.3011 -36.3001 -36.2998
   -36.2837 -36.2836 -36.2836 -36.2834 -36.2720 -36.2718 -36.2694 -36.2692
   -16.6787 -16.6644 -16.6041 -16.6031 -16.5921 -16.5782 -16.5531 -16.5478
   -16.5398 -16.5333 -16.5310 -16.5205 -16.5112 -16.5021 -16.4916 -16.4877
   -16.4456 -16.3763 -16.3676 -16.3248 -16.2101 -16.1963 -16.1480 -16.1363
     8.5218  10.0673  10.8947  11.8796  11.9214  12.8768  13.2116  13.2763
    13.4093  13.5947  13.5991  13.6443  13.6555  13.6980  13.7041  13.8297
    13.9244  13.9319  14.0810  14.5222  14.5362  14.5869  14.6022  14.6101
    14.6325  14.6333  14.6342  14.7201  15.0475  15.0714  15.0755  15.0843
    15.0902  15.1137  15.2062  15.3171  15.3281  15.3372  15.3707  15.3861
    15.3924  15.4717  15.4836  15.5483  15.5871  15.5925  15.9328  15.9431
    16.6408  16.9747  16.9929  17.1053  17.1346  17.1440  17.2226  17.2288
    17.2429  17.2847  17.4275  17.4938  17.5717  17.5739  17.5835  17.5985
    17.7576  17.8286  17.8669  17.9893  18.0087  18.0176  18.3259  18.3970

          k =-0.2491 0.2491 0.0000 ( 32544 PWs)   bands (ev):

   -70.2284 -70.2282 -70.2282 -70.2280 -70.2266 -70.2264 -70.2264 -70.2262
   -40.2753 -40.2753 -40.2608 -40.2520 -40.2520 -40.2374 -39.9300 -39.8907
   -36.3301 -36.3301 -36.3286 -36.3272 -36.3268 -36.3268 -36.3256 -36.3239
   -36.3201 -36.3179 -36.3167 -36.3166 -36.3166 -36.3146 -36.3139 -36.3139
   -36.2902 -36.2902 -36.2902 -36.2899 -36.2643 -36.2641 -36.2641 -36.2639
   -16.6506 -16.6506 -16.6505 -16.6146 -16.5459 -16.5456 -16.5324 -16.5324
   -16.5300 -16.5295 -16.5152 -16.5149 -16.5140 -16.5136 -16.5090 -16.5090
   -16.4312 -16.4312 -16.3956 -16.2180 -16.2180 -16.2144 -16.1900 -16.1900
     7.9677  11.1895  11.4315  11.4315  11.4801  12.6554  13.3476  13.3476
    13.5351  13.7280  13.7280  13.7357  13.9186  13.9239  13.9239  13.9295
    14.2717  14.2717  14.2960  14.3113  14.3180  14.4425  14.4425  14.4831
    14.5436  14.6783  14.6871  14.6871  14.7369  14.9473  14.9473  14.9480
    15.0066  15.0092  15.0092  15.0302  15.3087  15.3087  15.3757  15.3874
    15.4487  15.4487  15.4620  15.5033  15.6876  15.6992  15.7085  15.7085
    16.6028  16.7761  16.8536  16.8536  16.8549  17.4378  17.4378  17.4457
    17.5154  17.6575  17.6575  17.7078  17.7304  17.7304  17.7316  17.8138
    17.9086  17.9147  17.9147  18.0364  18.1741  18.1907  18.1949  18.2480

          k = 0.0830-0.0830 0.0803 ( 32444 PWs)   bands (ev):

   -70.2307 -70.2291 -70.2281 -70.2281 -70.2265 -70.2265 -70.2255 -70.2240
   -40.2872 -40.2758 -40.2710 -40.2524 -40.2449 -40.2238 -39.9261 -39.8920
   -36.3475 -36.3418 -36.3413 -36.3406 -36.3387 -36.3385 -36.3360 -36.3305
   -36.3096 -36.3076 -36.3068 -36.3057 -36.3045 -36.3043 -36.2988 -36.2967
   -36.2906 -36.2906 -36.2868 -36.2856 -36.2689 -36.2659 -36.2659 -36.2627
   -16.6694 -16.6679 -16.6658 -16.6414 -16.6413 -16.6310 -16.6091 -16.5885
   -16.5811 -16.5776 -16.5591 -16.5591 -16.4529 -16.4474 -16.4039 -16.4015
   -16.3995 -16.3848 -16.3848 -16.2430 -16.1661 -16.1658 -16.1448 -16.1448
     7.9203  10.4779  10.7194  12.3213  12.5407  12.6096  12.6265  12.7857
    13.0216  13.2712  13.3066  13.3080  13.3223  13.5461  13.6622  13.9209
    14.2594  14.3339  14.3832  14.4442  14.4871  14.4960  14.5680  14.5869
    14.6573  14.7444  14.7812  14.7879  14.8219  14.9049  15.1147  15.2544
    15.2582  15.3287  15.4381  15.4506  15.5263  15.5492  15.6033  15.8127
    15.8190  15.8349  15.8594  15.9470  16.0174  16.0831  16.0919  16.2278
    16.3508  16.6728  16.7345  16.8277  16.8976  16.9926  17.2502  17.2514
    17.3359  17.3761  17.4230  17.4510  17.5728  17.5730  17.6081  17.6920
    17.7166  17.7183  17.7201  18.0169  18.1773  18.2065  18.2103  18.2300

          k = 0.0830-0.0830 0.1606 ( 32476 PWs)   bands (ev):

   -70.2303 -70.2294 -70.2277 -70.2277 -70.2268 -70.2268 -70.2252 -70.2243
   -40.2838 -40.2745 -40.2709 -40.2573 -40.2404 -40.2283 -39.9189 -39.8992
   -36.3462 -36.3426 -36.3411 -36.3402 -36.3392 -36.3391 -36.3348 -36.3317
   -36.3092 -36.3080 -36.3063 -36.3055 -36.3048 -36.3048 -36.2983 -36.2971
   -36.2854 -36.2854 -36.2821 -36.2817 -36.2725 -36.2711 -36.2711 -36.2678
   -16.6633 -16.6622 -16.6471 -16.6468 -16.6171 -16.5927 -16.5766 -16.5738
   -16.5641 -16.5631 -16.5523 -16.5352 -16.4963 -16.4866 -16.4437 -16.3980
   -16.3964 -16.3883 -16.3879 -16.3241 -16.1616 -16.1614 -16.1493 -16.1493
     8.4022   9.9677  10.8588  12.0971  12.4736  12.6519  12.7519  12.8997
    13.0765  13.4190  13.4441  13.4664  13.4865  13.6551  13.6893  13.8945
    14.0195  14.0655  14.2999  14.4339  14.4508  14.4619  14.5258  14.5365
    14.7207  14.7664  14.8975  14.9226  14.9579  15.0554  15.0763  15.0961
    15.2000  15.2754  15.3447  15.3898  15.4271  15.4518  15.4767  15.4986
    15.5111  15.5675  15.5721  15.7989  15.8446  15.9137  15.9277  15.9594
    16.4903  16.9358  16.9422  16.9510  17.0524  17.0910  17.2148  17.2456
    17.2603  17.3196  17.3281  17.4313  17.5331  17.6063  17.7436  17.7467
    17.7764  17.8285  17.9061  17.9750  18.0332  18.1505  18.3718  18.5139

          k = 0.1661-0.0830 0.0803 ( 32476 PWs)   bands (ev):

   -70.2301 -70.2286 -70.2285 -70.2275 -70.2270 -70.2260 -70.2260 -70.2245
   -40.2842 -40.2750 -40.2665 -40.2532 -40.2484 -40.2272 -39.9265 -39.8924
   -36.3441 -36.3406 -36.3398 -36.3397 -36.3337 -36.3313 -36.3309 -36.3270
   -36.3148 -36.3127 -36.3123 -36.3119 -36.3053 -36.3035 -36.3018 -36.2998
   -36.2898 -36.2895 -36.2876 -36.2866 -36.2683 -36.2665 -36.2652 -36.2633
   -16.6656 -16.6571 -16.6403 -16.6352 -16.6138 -16.6106 -16.5918 -16.5882
   -16.5825 -16.5600 -16.5495 -16.5308 -16.4573 -16.4503 -16.4470 -16.4390
   -16.4058 -16.4003 -16.3846 -16.2436 -16.1975 -16.1746 -16.1663 -16.1452
     8.0129  10.6022  10.7763  11.8265  12.5492  12.6593  12.8697  12.9045
    13.2615  13.4095  13.4372  13.4982  13.5792  13.6333  13.8015  13.9082
    14.0054  14.0381  14.2776  14.4487  14.4815  14.5306  14.6086  14.6201
    14.6992  14.7854  14.8034  14.8327  14.9683  15.0218  15.0249  15.1558
    15.1915  15.3064  15.3250  15.3855  15.4025  15.4400  15.4629  15.5020
    15.5528  15.5610  15.6194  15.8120  15.8219  15.8733  15.8802  15.9068
    16.3261  16.8610  17.0140  17.0486  17.0718  17.0941  17.0959  17.1207
    17.1655  17.3161  17.3528  17.5385  17.5749  17.6784  17.7828  17.8253
    17.8333  17.8911  17.9166  17.9360  18.0638  18.2170  18.3209  18.5143

          k =-0.1661-0.0830-0.0803 ( 32476 PWs)   bands (ev):

   -70.2301 -70.2286 -70.2285 -70.2275 -70.2270 -70.2260 -70.2260 -70.2245
   -40.2842 -40.2750 -40.2665 -40.2532 -40.2484 -40.2272 -39.9265 -39.8924
   -36.3441 -36.3406 -36.3398 -36.3397 -36.3337 -36.3313 -36.3309 -36.3270
   -36.3148 -36.3127 -36.3123 -36.3119 -36.3053 -36.3035 -36.3018 -36.2998
   -36.2898 -36.2895 -36.2876 -36.2866 -36.2683 -36.2665 -36.2652 -36.2633
   -16.6656 -16.6571 -16.6403 -16.6352 -16.6138 -16.6106 -16.5918 -16.5882
   -16.5825 -16.5600 -16.5495 -16.5308 -16.4573 -16.4503 -16.4470 -16.4390
   -16.4058 -16.4003 -16.3846 -16.2436 -16.1975 -16.1746 -16.1663 -16.1452
     8.0129  10.6022  10.7763  11.8265  12.5492  12.6593  12.8697  12.9045
    13.2615  13.4095  13.4372  13.4982  13.5792  13.6333  13.8015  13.9082
    14.0054  14.0381  14.2776  14.4487  14.4815  14.5306  14.6086  14.6201
    14.6992  14.7854  14.8034  14.8327  14.9683  15.0218  15.0249  15.1558
    15.1915  15.3064  15.3250  15.3855  15.4025  15.4400  15.4629  15.5020
    15.5528  15.5610  15.6194  15.8120  15.8219  15.8733  15.8802  15.9068
    16.3261  16.8610  17.0140  17.0486  17.0718  17.0941  17.0959  17.1207
    17.1655  17.3161  17.3528  17.5385  17.5749  17.6784  17.7828  17.8253
    17.8333  17.8911  17.9166  17.9360  18.0638  18.2170  18.3209  18.4739

          k = 0.0830-0.0830-0.2409 ( 32474 PWs)   bands (ev):

   -70.2299 -70.2299 -70.2273 -70.2273 -70.2273 -70.2273 -70.2247 -70.2247
   -40.2791 -40.2791 -40.2641 -40.2641 -40.2344 -40.2344 -39.9091 -39.9091
   -36.3444 -36.3444 -36.3402 -36.3402 -36.3396 -36.3396 -36.3333 -36.3333
   -36.3086 -36.3086 -36.3056 -36.3056 -36.3052 -36.3052 -36.2977 -36.2977
   -36.2783 -36.2783 -36.2783 -36.2782 -36.2772 -36.2772 -36.2747 -36.2747
   -16.6552 -16.6552 -16.6544 -16.6544 -16.5705 -16.5705 -16.5687 -16.5687
   -16.5558 -16.5558 -16.5397 -16.5397 -16.4977 -16.4977 -16.4323 -16.4323
   -16.3931 -16.3931 -16.3922 -16.3922 -16.1555 -16.1555 -16.1553 -16.1553
     9.1263   9.1263  11.4389  11.4389  12.6109  12.6109  12.8631  12.8631
    13.5217  13.5217  13.5761  13.5761  13.5980  13.5980  13.7215  13.7215
    13.7445  13.7445  14.3851  14.3851  14.4343  14.4343  14.5858  14.5858
    14.8299  14.8299  14.9357  14.9357  14.9387  14.9387  15.0996  15.0996
    15.2705  15.2705  15.2899  15.2899  15.4439  15.4439  15.4537  15.4538
    15.4619  15.4619  15.4876  15.4876  15.5527  15.5527  15.9644  15.9644
    16.8127  16.8127  17.0764  17.0764  17.1799  17.1799  17.2086  17.2086
    17.2604  17.2604  17.2621  17.2621  17.5059  17.5059  17.8072  17.8072
    17.9118  17.9118  17.9173  17.9173  18.1720  18.1720  18.4951  18.4951

          k =-0.2491-0.0830 0.0803 ( 32474 PWs)   bands (ev):

   -70.2294 -70.2293 -70.2279 -70.2277 -70.2269 -70.2267 -70.2253 -70.2252
   -40.2825 -40.2744 -40.2634 -40.2542 -40.2504 -40.2290 -39.9268 -39.8927
   -36.3415 -36.3415 -36.3399 -36.3397 -36.3246 -36.3231 -36.3226 -36.3223
   -36.3210 -36.3209 -36.3208 -36.3192 -36.3041 -36.3038 -36.3022 -36.3019
   -36.2888 -36.2886 -36.2881 -36.2880 -36.2675 -36.2673 -36.2644 -36.2642
   -16.6640 -16.6481 -16.6426 -16.6397 -16.6104 -16.5937 -16.5840 -16.5604
   -16.5500 -16.5369 -16.5259 -16.5169 -16.5163 -16.5007 -16.4497 -16.4468
   -16.4069 -16.4002 -16.3845 -16.2438 -16.2154 -16.1914 -16.1665 -16.1455
     8.0620  10.7016  10.8055  11.5547  12.5507  12.7241  12.9258  13.1966
    13.4458  13.5288  13.5706  13.5980  13.6698  13.7107  13.7313  13.7434
    13.7884  13.9326  14.0086  14.4660  14.6078  14.6151  14.6634  14.7263
    14.7961  14.8192  14.8246  14.8518  14.9507  15.0152  15.0464  15.1510
    15.1708  15.2544  15.2667  15.3571  15.3667  15.3752  15.4181  15.4256
    15.4577  15.4605  15.4798  15.4975  15.5014  15.5694  15.9148  15.9156
    16.4573  16.8965  16.9724  17.0380  17.0439  17.1062  17.1437  17.2622
    17.2768  17.3821  17.5035  17.5171  17.5258  17.5667  17.6607  17.8971
    17.9040  17.9478  18.0054  18.0164  18.1319  18.1532  18.3927  18.4893

          k = 0.1661-0.0830 0.1606 ( 32434 PWs)   bands (ev):

   -70.2298 -70.2289 -70.2283 -70.2274 -70.2272 -70.2263 -70.2257 -70.2248
   -40.2804 -40.2704 -40.2702 -40.2578 -40.2439 -40.2317 -39.9194 -39.8997
   -36.3432 -36.3407 -36.3404 -36.3399 -36.3332 -36.3318 -36.3301 -36.3278
   -36.3143 -36.3131 -36.3122 -36.3120 -36.3050 -36.3039 -36.3014 -36.3002
   -36.2846 -36.2846 -36.2827 -36.2824 -36.2721 -36.2714 -36.2704 -36.2685
   -16.6602 -16.6456 -16.6103 -16.6085 -16.5982 -16.5911 -16.5778 -16.5648
   -16.5540 -16.5458 -16.5385 -16.5342 -16.4934 -16.4868 -16.4528 -16.4456
   -16.4427 -16.3970 -16.3879 -16.3248 -16.1926 -16.1794 -16.1619 -16.1497
     8.4977  10.0533  10.9509  12.0699  12.0827  12.7568  12.8691  13.1418
    13.1561  13.5675  13.6051  13.6648  13.6899  13.8162  13.8509  13.8854
    13.9628  14.1342  14.1828  14.3780  14.3976  14.5610  14.5672  14.6396
    14.6562  14.7563  14.7800  14.8438  14.8641  14.8974  15.1118  15.1543
    15.1667  15.2130  15.2187  15.2294  15.2583  15.2734  15.2957  15.3273
    15.3748  15.3776  15.4241  15.4396  15.6099  15.6784  15.6902  15.9232
    16.5792  16.9576  17.1030  17.1738  17.2434  17.2787  17.2924  17.3416
    17.3566  17.3949  17.4704  17.5209  17.5779  17.5814  17.6065  17.6175
    17.7994  17.8813  17.9807  17.9947  18.1224  18.1330  18.2455  18.3367

          k = 0.1661-0.1661 0.0803 ( 32434 PWs)   bands (ev):

   -70.2296 -70.2281 -70.2281 -70.2280 -70.2266 -70.2265 -70.2265 -70.2250
   -40.2800 -40.2745 -40.2615 -40.2532 -40.2527 -40.2318 -39.9270 -39.8929
   -36.3389 -36.3361 -36.3354 -36.3328 -36.3323 -36.3317 -36.3276 -36.3252
   -36.3174 -36.3158 -36.3132 -36.3111 -36.3105 -36.3098 -36.3065 -36.3048
   -36.2892 -36.2891 -36.2880 -36.2873 -36.2676 -36.2659 -36.2659 -36.2640
   -16.6495 -16.6346 -16.6153 -16.6133 -16.6083 -16.5957 -16.5872 -16.5869
   -16.5577 -16.5469 -16.5317 -16.5317 -16.4601 -16.4537 -16.4483 -16.4465
   -16.4391 -16.4390 -16.4080 -16.2441 -16.1981 -16.1977 -16.1750 -16.1750
     8.0793  10.8346  10.8378  11.7540  12.2505  12.7947  12.8322  12.9477
    13.5093  13.5932  13.6780  13.6863  13.7005  13.7626  13.8797  13.8878
    14.0948  14.2150  14.2554  14.2727  14.3802  14.5249  14.6657  14.6987
    14.7018  14.7272  14.8060  14.8107  14.8879  14.9586  15.0083  15.0790
    15.0840  15.0863  15.1156  15.1976  15.2473  15.2855  15.2958  15.3069
    15.4216  15.4295  15.4937  15.5441  15.5549  15.6244  15.6277  15.8938
    16.4987  16.9176  17.0422  17.0883  17.1366  17.2279  17.3351  17.3500
    17.3916  17.4860  17.5781  17.5902  17.6390  17.7062  17.7111  17.8138
    17.9280  17.9457  18.0075  18.0107  18.0645  18.1823  18.2450  18.3249

          k =-0.1661-0.1661-0.0803 ( 32434 PWs)   bands (ev):

   -70.2296 -70.2281 -70.2281 -70.2280 -70.2266 -70.2265 -70.2265 -70.2250
   -40.2800 -40.2745 -40.2615 -40.2532 -40.2527 -40.2318 -39.9270 -39.8929
   -36.3389 -36.3361 -36.3354 -36.3328 -36.3323 -36.3317 -36.3276 -36.3252
   -36.3174 -36.3158 -36.3132 -36.3111 -36.3105 -36.3098 -36.3065 -36.3048
   -36.2892 -36.2891 -36.2880 -36.2873 -36.2676 -36.2659 -36.2659 -36.2640
   -16.6495 -16.6346 -16.6153 -16.6133 -16.6083 -16.5957 -16.5872 -16.5869
   -16.5577 -16.5469 -16.5317 -16.5317 -16.4601 -16.4537 -16.4483 -16.4465
   -16.4391 -16.4390 -16.4080 -16.2441 -16.1981 -16.1977 -16.1750 -16.1750
     8.0793  10.8346  10.8378  11.7540  12.2505  12.7947  12.8322  12.9477
    13.5093  13.5932  13.6780  13.6863  13.7005  13.7626  13.8797  13.8878
    14.0948  14.2150  14.2554  14.2727  14.3802  14.5249  14.6657  14.6987
    14.7018  14.7272  14.8060  14.8107  14.8879  14.9586  15.0083  15.0790
    15.0840  15.0863  15.1156  15.1976  15.2473  15.2855  15.2958  15.3069
    15.4216  15.4295  15.4937  15.5441  15.5549  15.6244  15.6277  15.8938
    16.4987  16.9176  17.0422  17.0883  17.1366  17.2279  17.3351  17.3500
    17.3916  17.4860  17.5781  17.5902  17.6390  17.7062  17.7110  17.8138
    17.9280  17.9457  18.0075  18.0107  18.0645  18.1823  18.2450  18.3248

          k = 0.1661-0.0830-0.2409 ( 32462 PWs)   bands (ev):

   -70.2293 -70.2293 -70.2278 -70.2278 -70.2267 -70.2267 -70.2253 -70.2253
   -40.2753 -40.2753 -40.2641 -40.2641 -40.2378 -40.2378 -39.9095 -39.9095
   -36.3420 -36.3420 -36.3401 -36.3401 -36.3325 -36.3325 -36.3290 -36.3290
   -36.3137 -36.3137 -36.3121 -36.3121 -36.3045 -36.3045 -36.3008 -36.3008
   -36.2780 -36.2780 -36.2775 -36.2775 -36.2773 -36.2773 -36.2755 -36.2755
   -16.6529 -16.6529 -16.6013 -16.6013 -16.5713 -16.5713 -16.5517 -16.5517
   -16.5428 -16.5428 -16.5382 -16.5382 -16.4999 -16.4999 -16.4480 -16.4480
   -16.4332 -16.4332 -16.3924 -16.3924 -16.1860 -16.1860 -16.1558 -16.1558
     9.2223   9.2223  11.4763  11.4763  12.4318  12.4318  13.0684  13.0684
    13.5488  13.5488  13.7338  13.7338  13.7762  13.7762  13.8530  13.8530
    13.9350  13.9350  14.3179  14.3179  14.5092  14.5092  14.5873  14.5873
    14.6150  14.6150  14.7770  14.7770  14.9793  14.9793  15.0274  15.0274
    15.0796  15.0796  15.1588  15.1588  15.2809  15.2809  15.2845  15.2845
    15.3219  15.3219  15.3594  15.3594  15.4190  15.4190  15.8361  15.8361
    16.8239  16.8239  17.2169  17.2169  17.3059  17.3059  17.3607  17.3607
    17.4002  17.4002  17.4552  17.4552  17.5888  17.5888  17.7359  17.7359
    17.7920  17.7920  17.9640  17.9640  18.0400  18.0400  18.4153  18.4153

          k =-0.2491-0.1661 0.0803 ( 32462 PWs)   bands (ev):

   -70.2289 -70.2287 -70.2274 -70.2273 -70.2272 -70.2272 -70.2259 -70.2257
   -40.2775 -40.2740 -40.2578 -40.2555 -40.2538 -40.2347 -39.9272 -39.8932
   -36.3349 -36.3347 -36.3343 -36.3342 -36.3249 -36.3239 -36.3234 -36.3226
   -36.3209 -36.3206 -36.3195 -36.3188 -36.3097 -36.3095 -36.3090 -36.3085
   -36.2887 -36.2885 -36.2883 -36.2881 -36.2669 -36.2667 -36.2650 -36.2648
   -16.6415 -16.6385 -16.6170 -16.6094 -16.5979 -16.5864 -16.5558 -16.5421
   -16.5363 -16.5322 -16.5230 -16.5209 -16.5160 -16.5057 -16.4567 -16.4473
   -16.4463 -16.4391 -16.4092 -16.2444 -16.2159 -16.1981 -16.1917 -16.1751
     8.1138  10.8696  11.0468  11.5464  12.1670  12.8098  12.8549  13.1877
    13.5431  13.7245  13.7699  13.7732  13.7832  13.8056  13.9601  13.9779
    13.9979  14.0255  14.1112  14.5117  14.5869  14.5992  14.6259  14.6545
    14.6555  14.6653  14.6954  14.8507  14.8522  14.8696  14.8722  14.9257
    15.0117  15.0705  15.1647  15.1775  15.2351  15.2483  15.2852  15.2869
    15.3034  15.3190  15.3632  15.3632  15.3641  15.3841  15.7846  15.7897
    16.5861  16.9425  17.0431  17.0940  17.1303  17.3162  17.3698  17.5263
    17.5470  17.5946  17.5947  17.6145  17.6713  17.7226  17.8335  17.8533
    17.8651  17.8711  18.0343  18.0451  18.1155  18.1243  18.2392  18.2936

          k =-0.0830-0.2491 0.1606 ( 32462 PWs)   bands (ev):

   -70.2291 -70.2289 -70.2282 -70.2280 -70.2265 -70.2264 -70.2256 -70.2255
   -40.2785 -40.2701 -40.2674 -40.2585 -40.2459 -40.2336 -39.9196 -39.8999
   -36.3412 -36.3411 -36.3402 -36.3401 -36.3242 -36.3228 -36.3226 -36.3223
   -36.3213 -36.3213 -36.3207 -36.3196 -36.3037 -36.3034 -36.3026 -36.3023
   -36.2837 -36.2836 -36.2836 -36.2834 -36.2718 -36.2716 -36.2695 -36.2693
   -16.6589 -16.6449 -16.6024 -16.6016 -16.5790 -16.5654 -16.5547 -16.5453
   -16.5406 -16.5329 -16.5295 -16.5204 -16.5135 -16.5041 -16.4905 -16.4874
   -16.4468 -16.3969 -16.3878 -16.3252 -16.2103 -16.1965 -16.1621 -16.1499
     8.5488  10.0991  11.0158  11.8739  12.0397  12.8530  12.9943  13.1675
    13.5069  13.5516  13.6968  13.7455  13.7883  13.8116  13.8298  13.8980
    13.9570  13.9965  14.1090  14.5084  14.5575  14.6002  14.6020  14.6193
    14.6236  14.6575  14.6859  14.7474  14.9358  14.9615  14.9997  15.0374
    15.0687  15.0869  15.1082  15.2186  15.2662  15.2666  15.2681  15.2762
    15.2801  15.2923  15.3340  15.3912  15.4078  15.4295  15.8123  15.8251
    16.6501  16.9782  17.2040  17.2652  17.2712  17.3260  17.3380  17.3422
    17.3436  17.4078  17.4967  17.5787  17.6250  17.6348  17.6373  17.6680
    17.8378  17.9032  17.9285  17.9784  18.0138  18.0166  18.3727  18.4417

          k =-0.2491 0.2491 0.0803 ( 32460 PWs)   bands (ev):

   -70.2282 -70.2281 -70.2281 -70.2279 -70.2267 -70.2265 -70.2265 -70.2263
   -40.2738 -40.2738 -40.2592 -40.2535 -40.2535 -40.2390 -39.9274 -39.8934
   -36.3299 -36.3299 -36.3284 -36.3270 -36.3270 -36.3270 -36.3258 -36.3241
   -36.3198 -36.3177 -36.3169 -36.3164 -36.3164 -36.3148 -36.3141 -36.3141
   -36.2885 -36.2884 -36.2884 -36.2881 -36.2660 -36.2659 -36.2659 -36.2657
   -16.6362 -16.6362 -16.6223 -16.6002 -16.5438 -16.5435 -16.5308 -16.5308
   -16.5290 -16.5285 -16.5162 -16.5161 -16.5159 -16.5157 -16.5105 -16.5105
   -16.4461 -16.4461 -16.4105 -16.2446 -16.2162 -16.2162 -16.1919 -16.1919
     8.1405  10.9028  11.5408  11.5408  11.5911  12.7580  13.1968  13.1968
    13.3380  13.8144  13.8144  13.8223  13.9564  14.0379  14.0379  14.0832
    14.2841  14.2841  14.3251  14.3254  14.3333  14.4377  14.4377  14.4756
    14.5269  14.7015  14.7031  14.7031  14.7526  14.8927  14.8927  14.8989
    14.9834  14.9838  14.9838  15.0077  15.2138  15.2239  15.2239  15.2305
    15.2305  15.2696  15.2810  15.3000  15.5385  15.5532  15.5532  15.5537
    16.6490  16.9533  17.1114  17.1114  17.1256  17.4914  17.4914  17.4973
    17.5686  17.7253  17.7253  17.7639  17.8458  17.8481  17.8481  17.8977
    17.9101  17.9102  17.9665  18.0236  18.2060  18.2060  18.2131  18.2291

          k = 0.1661-0.1661 0.1606 ( 32390 PWs)   bands (ev):

   -70.2292 -70.2283 -70.2277 -70.2277 -70.2268 -70.2268 -70.2263 -70.2254
   -40.2761 -40.2700 -40.2654 -40.2577 -40.2483 -40.2362 -39.9198 -39.9001
   -36.3383 -36.3367 -36.3347 -36.3329 -36.3326 -36.3319 -36.3271 -36.3257
   -36.3171 -36.3162 -36.3126 -36.3111 -36.3109 -36.3101 -36.3062 -36.3052
   -36.2842 -36.2841 -36.2831 -36.2829 -36.2717 -36.2708 -36.2707 -36.2691
   -16.6078 -16.6046 -16.6038 -16.5970 -16.5929 -16.5899 -16.5568 -16.5523
   -16.5438 -16.5428 -16.5353 -16.5349 -16.4907 -16.4866 -16.4553 -16.4506
   -16.4478 -16.4433 -16.4422 -16.3256 -16.1932 -16.1929 -16.1798 -16.1798
     8.5680  10.1267  11.1728  12.0234  12.2780  12.5392  12.7358  13.1127
    13.3060  13.7981  13.8024  13.8157  13.8381  13.9033  14.0035  14.1047
    14.1452  14.1618  14.1974  14.2145  14.3849  14.5323  14.6183  14.6458
    14.7432  14.7882  14.7979  14.8331  14.8332  14.9098  14.9360  14.9634
    14.9867  14.9930  15.0499  15.0572  15.0910  15.1118  15.1139  15.1286
    15.1740  15.1810  15.2358  15.3190  15.3697  15.3750  15.3825  15.7639
    16.6678  17.0104  17.2959  17.3379  17.3739  17.3834  17.4901  17.4912
    17.5385  17.6055  17.6462  17.7110  17.7178  17.7763  17.7970  17.8045
    17.8936  17.8980  17.9400  18.0068  18.0680  18.1663  18.2024  18.4081

          k = 0.1661-0.1661-0.2409 ( 32458 PWs)   bands (ev):

   -70.2288 -70.2288 -70.2273 -70.2273 -70.2273 -70.2273 -70.2258 -70.2258
   -40.2708 -40.2708 -40.2638 -40.2638 -40.2423 -40.2423 -39.9100 -39.9100
   -36.3375 -36.3375 -36.3338 -36.3338 -36.3323 -36.3322 -36.3264 -36.3264
   -36.3167 -36.3167 -36.3119 -36.3119 -36.3105 -36.3105 -36.3057 -36.3057
   -36.2775 -36.2775 -36.2775 -36.2775 -36.2773 -36.2773 -36.2760 -36.2760
   -16.6003 -16.6003 -16.5979 -16.5979 -16.5482 -16.5482 -16.5440 -16.5440
   -16.5423 -16.5423 -16.5380 -16.5380 -16.5026 -16.5026 -16.4493 -16.4493
   -16.4464 -16.4464 -16.4346 -16.4346 -16.1865 -16.1865 -16.1864 -16.1864
     9.2967   9.2967  11.6852  11.6852  12.3918  12.3918  12.9392  12.9392
    13.5156  13.5156  13.9813  13.9813  14.0075  14.0075  14.0272  14.0272
    14.0544  14.0544  14.3184  14.3184  14.5393  14.5393  14.5820  14.5820
    14.6213  14.6213  14.8108  14.8108  14.8592  14.8592  14.8941  14.8941
    14.9725  14.9725  14.9731  14.9731  15.0088  15.0088  15.1212  15.1212
    15.1364  15.1364  15.1569  15.1569  15.2005  15.2005  15.5321  15.5321
    16.8608  16.8608  17.4499  17.4499  17.5234  17.5234  17.5403  17.5403
    17.5564  17.5564  17.6245  17.6245  17.7962  17.7962  17.8064  17.8064
    17.9272  17.9272  17.9955  17.9955  18.1926  18.1926  18.4562  18.4562

          k =-0.2491-0.1661 0.1606 ( 32458 PWs)   bands (ev):

   -70.2286 -70.2284 -70.2277 -70.2275 -70.2271 -70.2269 -70.2262 -70.2260
   -40.2733 -40.2697 -40.2620 -40.2580 -40.2511 -40.2391 -39.9200 -39.9004
   -36.3347 -36.3345 -36.3343 -36.3342 -36.3248 -36.3242 -36.3233 -36.3229
   -36.3208 -36.3206 -36.3193 -36.3188 -36.3097 -36.3094 -36.3093 -36.3088
   -36.2837 -36.2836 -36.2836 -36.2834 -36.2713 -36.2712 -36.2700 -36.2698
   -16.6045 -16.5988 -16.5983 -16.5913 -16.5584 -16.5506 -16.5444 -16.5380
   -16.5357 -16.5322 -16.5250 -16.5201 -16.5195 -16.5095 -16.4882 -16.4868
   -16.4532 -16.4490 -16.4428 -16.3259 -16.2108 -16.1969 -16.1933 -16.1800
     8.6046  10.1653  11.3619  11.8602  12.3742  12.4705  12.8208  13.0886
    13.3224  13.7325  13.9653  13.9728  14.0061  14.0241  14.0363  14.0461
    14.0870  14.1801  14.1831  14.5019  14.5499  14.5843  14.5853  14.5953
    14.7083  14.7084  14.7177  14.7808  14.7949  14.8085  14.8317  14.8924
    14.9120  14.9210  15.0023  15.0265  15.0500  15.0555  15.0851  15.0890
    15.0942  15.0989  15.1155  15.1194  15.1796  15.2098  15.5145  15.5276
    16.7197  17.0323  17.3762  17.4217  17.4776  17.4968  17.5071  17.6228
    17.6361  17.6734  17.6859  17.7099  17.7702  17.8070  17.8183  17.8554
    17.8863  17.9966  18.0239  18.0800  18.2006  18.2029  18.2987  18.3606

          k =-0.2491 0.2491 0.1606 ( 32460 PWs)   bands (ev):

   -70.2279 -70.2277 -70.2277 -70.2276 -70.2270 -70.2268 -70.2268 -70.2267
   -40.2695 -40.2695 -40.2578 -40.2578 -40.2549 -40.2433 -39.9202 -39.9006
   -36.3293 -36.3293 -36.3278 -36.3276 -36.3276 -36.3264 -36.3263 -36.3247
   -36.3192 -36.3175 -36.3171 -36.3160 -36.3159 -36.3154 -36.3146 -36.3146
   -36.2837 -36.2836 -36.2836 -36.2833 -36.2708 -36.2706 -36.2706 -36.2704
   -16.5965 -16.5965 -16.5608 -16.5452 -16.5380 -16.5378 -16.5267 -16.5267
   -16.5263 -16.5259 -16.5212 -16.5211 -16.5189 -16.5186 -16.5147 -16.5147
   -16.4866 -16.4866 -16.4508 -16.3263 -16.2111 -16.2111 -16.1971 -16.1971
     8.6333  10.1998  11.8520  11.8520  11.9085  12.8104  12.8104  12.9062
    13.0513  13.8641  14.0521  14.0521  14.0613  14.2677  14.2677  14.3165
    14.3165  14.3592  14.3617  14.3746  14.4378  14.4378  14.4505  14.4855
    14.4926  14.7497  14.7497  14.7604  14.7995  14.8171  14.8171  14.8242
    14.8907  14.8907  14.8958  14.9147  14.9147  14.9214  14.9226  14.9478
    15.0288  15.0288  15.0699  15.1012  15.2017  15.2104  15.2104  15.2207
    16.7589  17.0473  17.5126  17.5126  17.5393  17.6286  17.6311  17.6311
    17.7089  17.7789  17.7790  17.8160  17.8574  17.8701  17.8701  17.9757
    18.0529  18.0794  18.1927  18.1927  18.2870  18.3200  18.3200  18.3483

     the Fermi energy is    16.7044 ev

!    total energy              =   -3590.78555217 Ry
     estimated scf accuracy    <          1.7E-09 Ry
     smearing contrib. (-TS)   =      -0.00021361 Ry
     internal energy E=F+TS    =   -3590.78533856 Ry

     The total energy is F=E-TS. E is the sum of the following terms:
     one-electron contribution =   -1264.73994798 Ry
     hartree contribution      =     753.00473366 Ry
     xc contribution           =    -424.28700162 Ry
     ewald contribution        =   -2045.54862990 Ry
     one-center paw contrib.   =    -609.21449271 Ry

     convergence has been achieved in  25 iterations

     negative rho (up, down):  7.680E-03 0.000E+00

     Forces acting on atoms (cartesian axes, Ry/au):

     atom    1 type  1   force =    -0.00706319   -0.00706319    0.00000000
     atom    2 type  1   force =     0.00705659    0.00705659    0.00000000
     atom    3 type  1   force =     0.00705907   -0.00705811    0.00000000
     atom    4 type  1   force =    -0.00706022    0.00706144    0.00000000
     atom    5 type  1   force =    -0.00705618   -0.00705618    0.00000000
     atom    6 type  1   force =     0.00705890    0.00705890    0.00000000
     atom    7 type  1   force =     0.00706144   -0.00706022    0.00000000
     atom    8 type  1   force =    -0.00705811    0.00705907    0.00000000
     atom    9 type  2   force =    -0.00000037   -0.00000037   -0.00000037
     atom   10 type  2   force =     0.00000060    0.00000060   -0.00000050
     atom   11 type  2   force =     0.00000070   -0.00000018   -0.00000070
     atom   12 type  2   force =    -0.00000018    0.00000070    0.00000070
     atom   13 type  2   force =    -0.00000037   -0.00000037    0.00000037
     atom   14 type  2   force =     0.00000060    0.00000060    0.00000050
     atom   15 type  2   force =     0.00000070   -0.00000018    0.00000070
     atom   16 type  2   force =    -0.00000018    0.00000070   -0.00000070
     atom   17 type  3   force =     0.00000005    0.00000005    0.00000000
     atom   18 type  3   force =     0.00000016    0.00000016    0.00000000

     Total force =     0.028237     Total SCF correction =     0.000036


     Computing stress (Cartesian axis) and pressure


     negative rho (up, down):  7.680E-03 0.000E+00
          total   stress  (Ry/bohr**3)                   (kbar)     P=       -7.27
  -0.00023818  -0.00000001   0.00000000          -35.04       -0.00        0.00
  -0.00000001  -0.00023818  -0.00000000           -0.00      -35.04       -0.00
  -0.00000000  -0.00000000   0.00032817           -0.00       -0.00       48.28

     Energy error            =      4.8E-02 Ry
     Gradient error          =      7.1E-03 Ry/Bohr
     Cell gradient error     =      4.8E+01 kbar

     number of scf cycles    =   2
     number of bfgs steps    =   1

     enthalpy           old  =   -3590.7371027359 Ry
     enthalpy           new  =   -3590.7855521684 Ry

     CASE: enthalpy          _new < enthalpy          _old

     new trust radius        =       0.1045283635 bohr
     new conv_thr            =       0.0000000007 Ry

     new unit-cell volume =   1453.63872 a.u.^3 (   215.40704 Ang^3 )
     density =      6.41153 g/cm^3

CELL_PARAMETERS (alat=  5.58242261)
   1.992671331  -0.000001708  -0.000000000
  -0.000001708   1.992671331  -0.000000000
   0.000000000  -0.000000000   2.104345308

ATOMIC_POSITIONS (crystal)
Fe              -0.0020379036       -0.0020379036       -0.0000000000
Fe               0.5020372144        0.5020372144        0.0000000000
Fe               0.5020375048       -0.0020374088       -0.0000000000
Fe              -0.0020376362        0.5020377409        0.5000000000
Fe              -0.0020371304       -0.0020371304        0.5000000000
Fe               0.5020373912        0.5020373912        0.5000000000
Fe               0.5020377409       -0.0020376362        0.5000000000
Fe              -0.0020374088        0.5020375048        0.0000000000
Ti               0.2500000065        0.2500000065        0.2499999105
Ti               0.7500000317        0.7500000317        0.2499999073
Ti               0.7500000474        0.2500000174        0.2499998764
Ti               0.2500000174        0.7500000474        0.7500001236
Ti               0.2500000065        0.2500000065        0.7500000895
Ti               0.7500000317        0.7500000317        0.7500000927
Ti               0.7500000474        0.2500000174        0.7500001236
Ti               0.2500000174        0.7500000474        0.2499998764
H                0.2500000105        0.2500000105        0.0000000000
H                0.2500000111        0.2500000111        0.5000000000



     Writing config-only to output data dir ./TiFeH_supercell.save/ :
     XML data file     NEW-OLD atomic charge density approx. for the potential
     New effective cutoffs (rho, wfc): 1748.62  124.90

     Check: negative core charge=   -0.000001

     negative rho (up, down):  7.643E-03 0.000E+00

     total cpu time spent up to now is     4132.7 secs

     per-process dynamical memory:   458.4 Mb

     Self-consistent Calculation

     iteration #  1     ecut=   124.00 Ry     beta= 0.70
     Davidson diagonalization with overlap
     c_bands:  1 eigenvalues not converged
     c_bands:  1 eigenvalues not converged
     c_bands:  1 eigenvalues not converged
     ethr =  1.00E-06,  avg # of iterations = 10.6

     negative rho (up, down):  7.662E-03 0.000E+00

     total cpu time spent up to now is     4272.0 secs

     total energy              =   -3590.78676064 Ry
     estimated scf accuracy    <       0.01005574 Ry

     iteration #  2     ecut=   124.00 Ry     beta= 0.70
     Davidson diagonalization with overlap
     c_bands:  1 eigenvalues not converged
     c_bands:  1 eigenvalues not converged
     c_bands:  4 eigenvalues not converged
     c_bands:  1 eigenvalues not converged
     c_bands:  1 eigenvalues not converged
     c_bands:  1 eigenvalues not converged
     ethr =  4.45E-06,  avg # of iterations = 12.0

     negative rho (up, down):  7.617E-03 0.000E+00

     total cpu time spent up to now is     4367.3 secs

     total energy              =   -3590.75635176 Ry
     estimated scf accuracy    <       0.53705213 Ry

     iteration #  3     ecut=   124.00 Ry     beta= 0.70
     Davidson diagonalization with overlap
     c_bands:  1 eigenvalues not converged
     c_bands:  4 eigenvalues not converged
     c_bands:  1 eigenvalues not converged
     ethr =  4.45E-06,  avg # of iterations = 10.8

     negative rho (up, down):  7.660E-03 0.000E+00

     total cpu time spent up to now is     4455.9 secs

     total energy              =   -3590.79296078 Ry
     estimated scf accuracy    <       0.01238683 Ry

     iteration #  4     ecut=   124.00 Ry     beta= 0.70
     Davidson diagonalization with overlap
     ethr =  4.45E-06,  avg # of iterations =  4.8

     negative rho (up, down):  7.671E-03 0.000E+00

     total cpu time spent up to now is     4503.9 secs

     total energy              =   -3590.79401375 Ry
     estimated scf accuracy    <       0.01379038 Ry

     iteration #  5     ecut=   124.00 Ry     beta= 0.70
     Davidson diagonalization with overlap
     ethr =  4.45E-06,  avg # of iterations =  2.1

     negative rho (up, down):  7.670E-03 0.000E+00

     total cpu time spent up to now is     4544.2 secs

     total energy              =   -3590.79411935 Ry
     estimated scf accuracy    <       0.01572218 Ry

     iteration #  6     ecut=   124.00 Ry     beta= 0.70
     Davidson diagonalization with overlap
     ethr =  4.45E-06,  avg # of iterations =  1.1

     negative rho (up, down):  7.666E-03 0.000E+00

     total cpu time spent up to now is     4580.5 secs

     total energy              =   -3590.79463826 Ry
     estimated scf accuracy    <       0.00198027 Ry

     iteration #  7     ecut=   124.00 Ry     beta= 0.70
     Davidson diagonalization with overlap
     ethr =  8.76E-07,  avg # of iterations =  2.6

     negative rho (up, down):  7.664E-03 0.000E+00

     total cpu time spent up to now is     4622.3 secs

     total energy              =   -3590.79461396 Ry
     estimated scf accuracy    <       0.00486658 Ry

     iteration #  8     ecut=   124.00 Ry     beta= 0.70
     Davidson diagonalization with overlap
     ethr =  8.76E-07,  avg # of iterations =  1.8

     negative rho (up, down):  7.660E-03 0.000E+00

     total cpu time spent up to now is     4661.3 secs

     total energy              =   -3590.79475505 Ry
     estimated scf accuracy    <       0.00097483 Ry

     iteration #  9     ecut=   124.00 Ry     beta= 0.70
     Davidson diagonalization with overlap
     ethr =  4.31E-07,  avg # of iterations =  2.3

     negative rho (up, down):  7.657E-03 0.000E+00

     total cpu time spent up to now is     4703.1 secs

     total energy              =   -3590.79474953 Ry
     estimated scf accuracy    <       0.00215530 Ry

     iteration # 10     ecut=   124.00 Ry     beta= 0.70
     Davidson diagonalization with overlap
     ethr =  4.31E-07,  avg # of iterations =  1.1

     negative rho (up, down):  7.659E-03 0.000E+00

     total cpu time spent up to now is     4739.3 secs

     total energy              =   -3590.79483512 Ry
     estimated scf accuracy    <       0.00002472 Ry

     iteration # 11     ecut=   124.00 Ry     beta= 0.70
     Davidson diagonalization with overlap
     ethr =  1.09E-08,  avg # of iterations =  5.1

     negative rho (up, down):  7.661E-03 0.000E+00

     total cpu time spent up to now is     4796.1 secs

     total energy              =   -3590.79482668 Ry
     estimated scf accuracy    <       0.00046378 Ry

     iteration # 12     ecut=   124.00 Ry     beta= 0.70
     Davidson diagonalization with overlap
     ethr =  1.09E-08,  avg # of iterations =  5.1

     negative rho (up, down):  7.661E-03 0.000E+00

     total cpu time spent up to now is     4847.8 secs

     total energy              =   -3590.79484192 Ry
     estimated scf accuracy    <       0.00004522 Ry

     iteration # 13     ecut=   124.00 Ry     beta= 0.70
     Davidson diagonalization with overlap
     ethr =  1.09E-08,  avg # of iterations =  2.2

     negative rho (up, down):  7.660E-03 0.000E+00

     total cpu time spent up to now is     4888.0 secs

     total energy              =   -3590.79484346 Ry
     estimated scf accuracy    <       0.00001757 Ry

     iteration # 14     ecut=   124.00 Ry     beta= 0.70
     Davidson diagonalization with overlap
     ethr =  7.77E-09,  avg # of iterations =  2.1

     negative rho (up, down):  7.661E-03 0.000E+00

     total cpu time spent up to now is     4928.3 secs

     total energy              =   -3590.79484448 Ry
     estimated scf accuracy    <       0.00000544 Ry

     iteration # 15     ecut=   124.00 Ry     beta= 0.70
     Davidson diagonalization with overlap
     ethr =  2.41E-09,  avg # of iterations =  1.8

     negative rho (up, down):  7.661E-03 0.000E+00

     total cpu time spent up to now is     4967.4 secs

     total energy              =   -3590.79484479 Ry
     estimated scf accuracy    <       0.00000032 Ry

     iteration # 16     ecut=   124.00 Ry     beta= 0.70
     Davidson diagonalization with overlap
     ethr =  1.40E-10,  avg # of iterations =  5.1

     negative rho (up, down):  7.661E-03 0.000E+00

     total cpu time spent up to now is     5024.6 secs

     total energy              =   -3590.79484478 Ry
     estimated scf accuracy    <       0.00000211 Ry

     iteration # 17     ecut=   124.00 Ry     beta= 0.70
     Davidson diagonalization with overlap
     ethr =  1.40E-10,  avg # of iterations =  4.8

     negative rho (up, down):  7.661E-03 0.000E+00

     total cpu time spent up to now is     5077.1 secs

     total energy              =   -3590.79484483 Ry
     estimated scf accuracy    <       0.00000291 Ry

     iteration # 18     ecut=   124.00 Ry     beta= 0.70
     Davidson diagonalization with overlap
     ethr =  1.40E-10,  avg # of iterations =  3.3

     negative rho (up, down):  7.661E-03 0.000E+00

     total cpu time spent up to now is     5120.0 secs

     total energy              =   -3590.79484491 Ry
     estimated scf accuracy    <       0.00000008 Ry

     iteration # 19     ecut=   124.00 Ry     beta= 0.70
     Davidson diagonalization with overlap
     ethr =  3.76E-11,  avg # of iterations =  4.2

     negative rho (up, down):  7.661E-03 0.000E+00

     total cpu time spent up to now is     5168.9 secs

     total energy              =   -3590.79484491 Ry
     estimated scf accuracy    <       0.00000041 Ry

     iteration # 20     ecut=   124.00 Ry     beta= 0.70
     Davidson diagonalization with overlap
     ethr =  3.76E-11,  avg # of iterations =  3.7

     negative rho (up, down):  7.661E-03 0.000E+00

     total cpu time spent up to now is     5213.6 secs

     total energy              =   -3590.79484492 Ry
     estimated scf accuracy    <       0.00000013 Ry

     iteration # 21     ecut=   124.00 Ry     beta= 0.70
     Davidson diagonalization with overlap
     ethr =  3.76E-11,  avg # of iterations =  2.0

     negative rho (up, down):  7.661E-03 0.000E+00

     total cpu time spent up to now is     5253.4 secs

     total energy              =   -3590.79484493 Ry
     estimated scf accuracy    <       0.00000007 Ry

     iteration # 22     ecut=   124.00 Ry     beta= 0.70
     Davidson diagonalization with overlap
     ethr =  3.20E-11,  avg # of iterations =  1.7

     negative rho (up, down):  7.661E-03 0.000E+00

     total cpu time spent up to now is     5292.2 secs

     total energy              =   -3590.79484492 Ry
     estimated scf accuracy    <       0.00000007 Ry

     iteration # 23     ecut=   124.00 Ry     beta= 0.70
     Davidson diagonalization with overlap
     ethr =  3.03E-11,  avg # of iterations =  2.0

     negative rho (up, down):  7.661E-03 0.000E+00

     total cpu time spent up to now is     5332.4 secs

     total energy              =   -3590.79484493 Ry
     estimated scf accuracy    <       0.00000006 Ry

     iteration # 24     ecut=   124.00 Ry     beta= 0.70
     Davidson diagonalization with overlap
     ethr =  2.63E-11,  avg # of iterations =  1.0

     negative rho (up, down):  7.661E-03 0.000E+00

     total cpu time spent up to now is     5368.0 secs

     total energy              =   -3590.79484493 Ry
     estimated scf accuracy    <          3.4E-09 Ry

     iteration # 25     ecut=   124.00 Ry     beta= 0.70
     Davidson diagonalization with overlap
     ethr =  1.52E-12,  avg # of iterations =  4.3

     negative rho (up, down):  7.661E-03 0.000E+00

     total cpu time spent up to now is     5417.6 secs

     total energy              =   -3590.79484493 Ry
     estimated scf accuracy    <       0.00000002 Ry

     iteration # 26     ecut=   124.00 Ry     beta= 0.70
     Davidson diagonalization with overlap
     ethr =  1.52E-12,  avg # of iterations =  3.4

     negative rho (up, down):  7.661E-03 0.000E+00

     total cpu time spent up to now is     5462.4 secs

     total energy              =   -3590.79484493 Ry
     estimated scf accuracy    <          7.2E-10 Ry

     iteration # 27     ecut=   124.00 Ry     beta= 0.70
     Davidson diagonalization with overlap
     ethr =  3.17E-13,  avg # of iterations =  4.3

     negative rho (up, down):  7.661E-03 0.000E+00

     total cpu time spent up to now is     5511.6 secs

     total energy              =   -3590.79484493 Ry
     estimated scf accuracy    <          1.5E-09 Ry

     iteration # 28     ecut=   124.00 Ry     beta= 0.70
     Davidson diagonalization with overlap
     ethr =  3.17E-13,  avg # of iterations =  2.2

     negative rho (up, down):  7.661E-03 0.000E+00

     total cpu time spent up to now is     5551.9 secs

     End of self-consistent calculation

          k = 0.0000 0.0000 0.0000 ( 32423 PWs)   bands (ev):

   -70.1976 -70.1960 -70.1942 -70.1942 -70.1927 -70.1927 -70.1909 -70.1895
   -40.2534 -40.2425 -40.2399 -40.2177 -40.1963 -40.1749 -39.9519 -39.9184
   -36.3243 -36.3153 -36.3120 -36.3120 -36.3086 -36.3086 -36.2970 -36.2890
   -36.2753 -36.2734 -36.2654 -36.2654 -36.2625 -36.2625 -36.2600 -36.2600
   -36.2596 -36.2582 -36.2489 -36.2469 -36.2447 -36.2400 -36.2400 -36.2360
   -16.6671 -16.6671 -16.6601 -16.6355 -16.6355 -16.5947 -16.5918 -16.5748
   -16.5748 -16.5559 -16.5559 -16.5372 -16.4138 -16.4089 -16.3500 -16.3324
   -16.3324 -16.3184 -16.3184 -16.2483 -16.1589 -16.1589 -16.1392 -16.1392
     7.6860  10.3208  10.8844  12.4782  12.4782  12.6084  12.9446  12.9446
    12.9674  13.0925  13.1419  13.1616  13.1739  13.1885  13.2472  13.8031
    14.3596  14.3597  14.5921  14.6273  14.6273  14.6397  14.6397  14.7017
    14.7017  14.7078  14.7795  14.7805  14.8762  14.8762  15.3277  15.4582
    15.4754  15.4860  15.6134  15.6134  15.6183  15.6183  15.7270  15.7270
    15.8570  15.9841  16.1591  16.1765  16.1986  16.2573  16.5848  16.5848
    16.6728  16.7846  16.8104  17.0430  17.0430  17.1289  17.1871  17.1871
    17.3319  17.3346  17.4569  17.4569  17.5440  17.5440  17.6576  17.6963
    17.6984  17.6984  17.7327  17.7427  17.7427  17.8231  18.0386  18.1541

          k = 0.0000 0.0000 0.0792 ( 32427 PWs)   bands (ev):

   -70.1975 -70.1961 -70.1941 -70.1941 -70.1928 -70.1928 -70.1909 -70.1896
   -40.2525 -40.2408 -40.2408 -40.2193 -40.1948 -40.1763 -39.9497 -39.9207
   -36.3237 -36.3159 -36.3118 -36.3118 -36.3088 -36.3088 -36.2964 -36.2895
   -36.2752 -36.2735 -36.2636 -36.2636 -36.2624 -36.2624 -36.2602 -36.2602
   -36.2580 -36.2573 -36.2487 -36.2470 -36.2457 -36.2417 -36.2417 -36.2375
   -16.6649 -16.6649 -16.6390 -16.6375 -16.6375 -16.5797 -16.5772 -16.5736
   -16.5736 -16.5573 -16.5573 -16.5247 -16.4283 -16.4213 -16.3629 -16.3315
   -16.3315 -16.3193 -16.3193 -16.2744 -16.1576 -16.1576 -16.1405 -16.1405
     7.8449  10.4541  10.5508  12.5282  12.5282  12.7082  12.7316  12.9537
    12.9537  13.1579  13.1872  13.1930  13.2338  13.2568  13.2932  13.8333
    14.3548  14.3548  14.4082  14.4810  14.4991  14.4991  14.6940  14.6940
    14.7213  14.7213  14.8390  14.8394  14.9473  15.0835  15.0835  15.3069
    15.3794  15.5366  15.5366  15.6190  15.6190  15.7087  15.7087  15.8805
    15.9188  15.9983  16.0127  16.1851  16.1851  16.1888  16.2266  16.4022
    16.7872  16.7952  16.8088  16.9862  17.0410  17.0410  17.1261  17.1261
    17.2980  17.3222  17.3358  17.3358  17.6171  17.7292  17.7292  17.7422
    17.7422  17.8236  17.8236  17.8428  17.8750  17.9141  17.9424  18.0631

          k = 0.0000 0.0000 0.1584 ( 32412 PWs)   bands (ev):

   -70.1972 -70.1964 -70.1939 -70.1939 -70.1931 -70.1931 -70.1906 -70.1899
   -40.2500 -40.2432 -40.2363 -40.2239 -40.1909 -40.1802 -39.9436 -39.9269
   -36.3220 -36.3175 -36.3112 -36.3112 -36.3094 -36.3094 -36.2950 -36.2909
   -36.2748 -36.2739 -36.2619 -36.2619 -36.2607 -36.2606 -36.2590 -36.2590
   -36.2548 -36.2537 -36.2483 -36.2481 -36.2474 -36.2463 -36.2463 -36.2419
   -16.6589 -16.6589 -16.6431 -16.6431 -16.5862 -16.5703 -16.5703 -16.5609
   -16.5609 -16.5466 -16.5242 -16.4900 -16.4682 -16.4551 -16.3980 -16.3444
   -16.3289 -16.3289 -16.3219 -16.3219 -16.1540 -16.1540 -16.1441 -16.1441
     8.3011   9.8065  10.8404  12.1270  12.6615  12.6615  12.9345  12.9345
    12.9974  13.2731  13.3156  13.3159  13.3580  13.4193  13.4214  13.7863
    13.9804  14.0478  14.3469  14.3469  14.3978  14.3978  14.6653  14.7616
    14.7616  14.8742  14.8742  14.9589  15.0140  15.0153  15.3407  15.3407
    15.3696  15.4942  15.4942  15.5610  15.5610  15.6242  15.6242  15.6426
    15.6493  15.6776  15.6776  15.9470  16.1459  16.3035  16.4742  16.6060
    16.6745  16.6745  16.7923  16.8045  16.8637  17.0146  17.0405  17.0405
    17.0743  17.0743  17.2797  17.3879  17.4813  17.7148  17.7779  17.8813
    17.9621  17.9621  18.0399  18.0399  18.1558  18.1558  18.3278  18.3901

          k =-0.0000-0.0000-0.2376 ( 32504 PWs)   bands (ev):

   -70.1968 -70.1968 -70.1935 -70.1935 -70.1935 -70.1935 -70.1902 -70.1902
   -40.2466 -40.2466 -40.2301 -40.2301 -40.1856 -40.1856 -39.9353 -39.9353
   -36.3198 -36.3198 -36.3103 -36.3103 -36.3103 -36.3103 -36.2930 -36.2930
   -36.2744 -36.2744 -36.2613 -36.2613 -36.2613 -36.2613 -36.2527 -36.2527
   -36.2527 -36.2527 -36.2515 -36.2515 -36.2479 -36.2479 -36.2478 -36.2478
   -16.6509 -16.6509 -16.6509 -16.6509 -16.5657 -16.5657 -16.5657 -16.5657
   -16.5244 -16.5244 -16.5010 -16.5010 -16.4485 -16.4485 -16.4337 -16.4337
   -16.3254 -16.3254 -16.3254 -16.3254 -16.1491 -16.1491 -16.1491 -16.1491
     8.9920   8.9920  11.4323  11.4323  12.8246  12.8246  12.8246  12.8246
    13.3543  13.3543  13.4038  13.4038  13.4434  13.4434  13.6147  13.6147
    13.6949  13.6949  14.3537  14.3537  14.3537  14.3537  14.6723  14.6723
    15.0377  15.0377  15.0377  15.0377  15.1079  15.1079  15.1079  15.1079
    15.2915  15.2915  15.2945  15.2945  15.6412  15.6412  15.6412  15.6412
    15.6919  15.6919  16.0382  16.0382  16.0383  16.0383  16.0429  16.0429
    16.7985  16.7985  17.0255  17.0255  17.0348  17.0348  17.0464  17.0464
    17.0464  17.0464  17.1838  17.1838  17.3519  17.3519  17.8668  17.8668
    18.1127  18.1127  18.1127  18.1127  18.6063  18.6063  18.6063  18.6063

          k = 0.0000 0.0836 0.0792 ( 32442 PWs)   bands (ev):

   -70.1972 -70.1959 -70.1943 -70.1939 -70.1931 -70.1926 -70.1911 -70.1898
   -40.2511 -40.2405 -40.2388 -40.2196 -40.1962 -40.1777 -39.9501 -39.9210
   -36.3220 -36.3150 -36.3116 -36.3094 -36.3089 -36.3061 -36.2947 -36.2884
   -36.2770 -36.2752 -36.2646 -36.2633 -36.2632 -36.2631 -36.2618 -36.2597
   -36.2584 -36.2576 -36.2503 -36.2486 -36.2454 -36.2420 -36.2414 -36.2378
   -16.6630 -16.6433 -16.6369 -16.6359 -16.6169 -16.5817 -16.5771 -16.5754
   -16.5579 -16.5577 -16.5418 -16.5259 -16.4274 -16.4211 -16.3636 -16.3537
   -16.3407 -16.3313 -16.3190 -16.2749 -16.1746 -16.1578 -16.1569 -16.1408
     7.8961  10.4833  10.5788  12.4471  12.4781  12.6406  12.7623  12.8726
    13.0060  13.2218  13.2264  13.2933  13.3019  13.3232  13.6172  13.8620
    14.3421  14.3987  14.4033  14.4197  14.4304  14.4659  14.6528  14.6554
    14.6664  14.7781  14.8063  14.8891  14.9538  15.0308  15.0379  15.3296
    15.3430  15.5189  15.5272  15.5353  15.5978  15.6186  15.6228  15.7877
    15.8849  16.0108  16.0149  16.0720  16.0970  16.1287  16.3061  16.4674
    16.4788  16.6096  16.7982  16.8890  17.0205  17.0506  17.1428  17.1785
    17.2376  17.2979  17.3294  17.4540  17.4829  17.5510  17.6258  17.7852
    17.8003  17.8937  17.9010  17.9677  17.9955  18.0084  18.1136  18.2898

          k = 0.0000 0.0836 0.1584 ( 32469 PWs)   bands (ev):

   -70.1970 -70.1962 -70.1941 -70.1936 -70.1933 -70.1929 -70.1908 -70.1901
   -40.2485 -40.2414 -40.2361 -40.2240 -40.1923 -40.1816 -39.9440 -39.9272
   -36.3205 -36.3165 -36.3112 -36.3099 -36.3083 -36.3067 -36.2934 -36.2897
   -36.2766 -36.2756 -36.2643 -36.2635 -36.2614 -36.2602 -36.2587 -36.2587
   -36.2550 -36.2541 -36.2499 -36.2489 -36.2479 -36.2464 -36.2461 -36.2422
   -16.6573 -16.6422 -16.6376 -16.6224 -16.5832 -16.5719 -16.5618 -16.5545
   -16.5480 -16.5447 -16.5251 -16.4913 -16.4668 -16.4551 -16.3987 -16.3512
   -16.3448 -16.3435 -16.3287 -16.3216 -16.1708 -16.1606 -16.1542 -16.1444
     8.3526   9.8494  10.8583  12.0774  12.5664  12.7101  12.7705  13.0095
    13.0516  13.3499  13.3910  13.4016  13.4635  13.4785  13.6300  13.8256
    13.9866  14.0760  14.3691  14.3886  14.3996  14.4531  14.4589  14.6875
    14.7486  14.8493  14.8826  14.9487  15.0269  15.1054  15.2215  15.2741
    15.3236  15.4484  15.4613  15.4951  15.5091  15.5446  15.5714  15.5751
    15.5837  15.5877  15.7192  15.9744  16.0381  16.0865  16.0940  16.4494
    16.5193  16.7740  16.8983  16.9889  17.0442  17.0595  17.0772  17.1109
    17.1558  17.1667  17.4250  17.4343  17.4360  17.5999  17.6699  17.7499
    17.8182  17.8498  18.0213  18.0432  18.1166  18.1958  18.3324  18.5461

          k = 0.0000 0.0836-0.2376 ( 32438 PWs)   bands (ev):

   -70.1966 -70.1966 -70.1937 -70.1937 -70.1933 -70.1933 -70.1904 -70.1904
   -40.2450 -40.2450 -40.2301 -40.2301 -40.1870 -40.1870 -39.9356 -39.9356
   -36.3185 -36.3185 -36.3105 -36.3105 -36.3075 -36.3075 -36.2916 -36.2916
   -36.2761 -36.2761 -36.2639 -36.2639 -36.2608 -36.2608 -36.2526 -36.2526
   -36.2524 -36.2524 -36.2514 -36.2514 -36.2494 -36.2494 -36.2481 -36.2481
   -16.6497 -16.6497 -16.6299 -16.6299 -16.5669 -16.5669 -16.5501 -16.5501
   -16.5221 -16.5221 -16.5013 -16.5013 -16.4488 -16.4488 -16.4352 -16.4352
   -16.3472 -16.3472 -16.3252 -16.3252 -16.1657 -16.1657 -16.1494 -16.1494
     9.0418   9.0418  11.4292  11.4292  12.6663  12.6663  12.9240  12.9240
    13.4730  13.4730  13.4855  13.4855  13.5173  13.5173  13.6586  13.6586
    13.7437  13.7438  14.3611  14.3611  14.3950  14.3950  14.5984  14.5984
    14.9110  14.9110  14.9874  14.9874  15.0849  15.0849  15.1274  15.1274
    15.2926  15.2926  15.3945  15.3945  15.5559  15.5559  15.5759  15.5759
    15.6019  15.6019  15.6958  15.6958  15.9243  15.9243  16.0590  16.0590
    16.9056  16.9056  16.9597  16.9597  17.0873  17.0873  17.1321  17.1321
    17.2025  17.2025  17.2353  17.2353  17.4274  17.4274  17.7998  17.7998
    17.8339  17.8339  18.1097  18.1097  18.3766  18.3766  18.5344  18.5344

          k = 0.0000 0.1673 0.1584 ( 32476 PWs)   bands (ev):

   -70.1964 -70.1956 -70.1947 -70.1939 -70.1931 -70.1923 -70.1914 -70.1907
   -40.2453 -40.2371 -40.2358 -40.2248 -40.1953 -40.1846 -39.9446 -39.9279
   -36.3171 -36.3142 -36.3114 -36.3113 -36.3009 -36.2994 -36.2884 -36.2858
   -36.2820 -36.2809 -36.2707 -36.2706 -36.2599 -36.2587 -36.2578 -36.2577
   -36.2556 -36.2550 -36.2535 -36.2525 -36.2475 -36.2467 -36.2452 -36.2430
   -16.6539 -16.6404 -16.5797 -16.5754 -16.5752 -16.5668 -16.5635 -16.5508
   -16.5260 -16.5181 -16.5091 -16.4940 -16.4633 -16.4558 -16.4102 -16.4016
   -16.4001 -16.3464 -16.3284 -16.3211 -16.2096 -16.1985 -16.1548 -16.1451
     8.4635   9.9413  10.8960  11.9736  12.1193  12.8240  13.0777  13.1567
    13.2048  13.4907  13.5432  13.6038  13.6478  13.6505  13.7909  13.8460
    13.9044  14.1580  14.1833  14.3727  14.5168  14.5276  14.5592  14.5805
    14.6287  14.7521  14.7960  14.9194  14.9356  14.9939  15.2794  15.3064
    15.3134  15.3304  15.3363  15.3511  15.3763  15.3986  15.4317  15.4341
    15.4556  15.4837  15.5007  15.6544  15.8713  15.9138  16.0119  16.0281
    16.5978  16.9883  17.0920  17.1008  17.1390  17.1463  17.1483  17.2877
    17.2919  17.2985  17.3751  17.3804  17.3859  17.4830  17.5097  17.6250
    17.8373  17.8479  18.0093  18.0814  18.1468  18.2482  18.3198  18.3654

          k = 0.0000 0.1673-0.2376 ( 32466 PWs)   bands (ev):

   -70.1960 -70.1960 -70.1943 -70.1943 -70.1927 -70.1927 -70.1910 -70.1910
   -40.2412 -40.2412 -40.2303 -40.2303 -40.1899 -40.1899 -39.9362 -39.9362
   -36.3156 -36.3156 -36.3113 -36.3113 -36.3001 -36.3001 -36.2871 -36.2871
   -36.2815 -36.2815 -36.2707 -36.2707 -36.2593 -36.2593 -36.2530 -36.2530
   -36.2523 -36.2523 -36.2515 -36.2515 -36.2515 -36.2515 -36.2490 -36.2490
   -16.6471 -16.6471 -16.5729 -16.5729 -16.5694 -16.5694 -16.5183 -16.5183
   -16.5123 -16.5123 -16.5029 -16.5029 -16.4489 -16.4489 -16.4389 -16.4389
   -16.4057 -16.4057 -16.3248 -16.3248 -16.2041 -16.2041 -16.1499 -16.1499
     9.1497   9.1497  11.4031  11.4031  12.4621  12.4621  13.1889  13.1889
    13.5659  13.5659  13.6478  13.6478  13.6888  13.6888  13.7623  13.7623
    13.9176  13.9176  14.3247  14.3247  14.4761  14.4761  14.5607  14.5607
    14.6795  14.6795  14.7434  14.7434  15.1016  15.1016  15.1902  15.1902
    15.1971  15.1971  15.2220  15.2220  15.3911  15.3911  15.4318  15.4318
    15.4715  15.4715  15.6247  15.6247  15.6533  15.6533  16.0172  16.0172
    16.9057  16.9057  17.0759  17.0759  17.1674  17.1674  17.2976  17.2976
    17.3450  17.3450  17.3544  17.3544  17.4828  17.4828  17.6374  17.6375
    17.7293  17.7293  17.9918  17.9918  18.0612  18.0612  18.4436  18.4436

          k =-0.0000-0.2509-0.2376 ( 32544 PWs)   bands (ev):

   -70.1953 -70.1953 -70.1950 -70.1950 -70.1920 -70.1920 -70.1917 -70.1917
   -40.2388 -40.2388 -40.2308 -40.2308 -40.1915 -40.1915 -39.9366 -39.9366
   -36.3133 -36.3133 -36.3127 -36.3127 -36.2918 -36.2918 -36.2888 -36.2888
   -36.2810 -36.2810 -36.2779 -36.2779 -36.2572 -36.2572 -36.2561 -36.2561
   -36.2519 -36.2519 -36.2517 -36.2517 -36.2505 -36.2505 -36.2500 -36.2500
   -16.6458 -16.6458 -16.5707 -16.5707 -16.5149 -16.5149 -16.5113 -16.5113
   -16.5013 -16.5013 -16.4946 -16.4946 -16.4674 -16.4674 -16.4484 -16.4484
   -16.4408 -16.4408 -16.3245 -16.3245 -16.2271 -16.2271 -16.1502 -16.1502
     9.2086   9.2086  11.3767  11.3767  12.3894  12.3894  13.4350  13.4350
    13.5436  13.5436  13.6788  13.6788  13.7560  13.7560  13.8814  13.8814
    14.0937  14.0937  14.2684  14.2684  14.4668  14.4668  14.5148  14.5148
    14.5721  14.5721  14.6272  14.6272  15.0439  15.0439  15.0465  15.0465
    15.2281  15.2281  15.2342  15.2342  15.3062  15.3062  15.3221  15.3221
    15.4193  15.4193  15.4769  15.4769  15.8443  15.8443  15.8674  15.8674
    16.9535  16.9535  17.1379  17.1379  17.1678  17.1678  17.3635  17.3635
    17.4065  17.4065  17.4091  17.4091  17.4642  17.4643  17.5553  17.5553
    17.6860  17.6860  17.9664  17.9664  18.1442  18.1442  18.2444  18.2444

          k = 0.0836 0.0836 0.0792 ( 32444 PWs)   bands (ev):

   -70.1970 -70.1957 -70.1941 -70.1941 -70.1929 -70.1929 -70.1913 -70.1900
   -40.2497 -40.2402 -40.2369 -40.2198 -40.1977 -40.1792 -39.9504 -39.9214
   -36.3203 -36.3139 -36.3095 -36.3083 -36.3068 -36.3066 -36.2931 -36.2874
   -36.2785 -36.2768 -36.2646 -36.2635 -36.2629 -36.2629 -36.2627 -36.2624
   -36.2587 -36.2579 -36.2520 -36.2502 -36.2451 -36.2417 -36.2417 -36.2381
   -16.6422 -16.6408 -16.6329 -16.6162 -16.6162 -16.5814 -16.5791 -16.5613
   -16.5577 -16.5425 -16.5423 -16.5272 -16.4264 -16.4208 -16.3644 -16.3546
   -16.3525 -16.3405 -16.3405 -16.2753 -16.1750 -16.1746 -16.1572 -16.1572
     7.9421  10.5270  10.6072  12.3751  12.5438  12.6485  12.6573  12.8035
    13.0052  13.2839  13.3264  13.3352  13.3725  13.5841  13.7207  13.9069
    14.2785  14.3597  14.4010  14.4312  14.4783  14.5116  14.5263  14.6163
    14.7302  14.7651  14.8248  14.8654  14.8923  14.9797  15.1231  15.2558
    15.2656  15.3641  15.4634  15.4878  15.5267  15.6079  15.6461  15.8195
    15.8344  15.8944  15.9255  15.9526  16.0667  16.0982  16.1310  16.2207
    16.4540  16.6609  16.7764  16.8189  16.9697  17.0260  17.2009  17.2120
    17.2936  17.4050  17.4409  17.5481  17.5903  17.6032  17.6093  17.6704
    17.8032  17.8208  17.8248  17.9892  18.1328  18.2647  18.2674  18.2687

          k = 0.0836 0.0836 0.1584 ( 32476 PWs)   bands (ev):

   -70.1968 -70.1960 -70.1939 -70.1939 -70.1931 -70.1931 -70.1910 -70.1903
   -40.2470 -40.2396 -40.2359 -40.2241 -40.1938 -40.1831 -39.9443 -39.9275
   -36.3189 -36.3152 -36.3089 -36.3080 -36.3072 -36.3071 -36.2919 -36.2886
   -36.2781 -36.2771 -36.2642 -36.2635 -36.2631 -36.2629 -36.2584 -36.2584
   -36.2551 -36.2544 -36.2516 -36.2506 -36.2478 -36.2462 -36.2462 -36.2425
   -16.6366 -16.6355 -16.6217 -16.6213 -16.5802 -16.5575 -16.5546 -16.5486
   -16.5466 -16.5448 -16.5264 -16.4926 -16.4654 -16.4550 -16.3995 -16.3520
   -16.3499 -16.3454 -16.3435 -16.3430 -16.1713 -16.1710 -16.1610 -16.1609
     8.3992   9.8901  10.8938  12.0891  12.5144  12.6736  12.7891  12.9151
    13.0828  13.4477  13.4646  13.4693  13.5312  13.6873  13.7321  13.8821
    14.0046  14.0922  14.3107  14.4151  14.4330  14.4465  14.4974  14.5556
    14.7535  14.8375  14.9429  14.9480  15.0233  15.1164  15.1342  15.1444
    15.2791  15.3251  15.3707  15.4062  15.4591  15.4609  15.5088  15.5374
    15.5589  15.6028  15.6138  15.8138  15.9289  15.9783  15.9939  16.0576
    16.5157  16.9138  16.9924  17.0258  17.0703  17.1063  17.2371  17.2608
    17.2814  17.3856  17.3941  17.4161  17.4886  17.5682  17.7284  17.7620
    17.7935  17.8769  17.8852  17.9424  18.1324  18.2125  18.4653  18.5764

          k = 0.0836 0.0836-0.2376 ( 32474 PWs)   bands (ev):

   -70.1964 -70.1964 -70.1935 -70.1935 -70.1935 -70.1935 -70.1907 -70.1907
   -40.2433 -40.2433 -40.2300 -40.2300 -40.1884 -40.1884 -39.9359 -39.9359
   -36.3171 -36.3171 -36.3080 -36.3080 -36.3076 -36.3076 -36.2903 -36.2903
   -36.2776 -36.2776 -36.2635 -36.2635 -36.2633 -36.2633 -36.2523 -36.2523
   -36.2523 -36.2523 -36.2514 -36.2514 -36.2511 -36.2511 -36.2484 -36.2484
   -16.6291 -16.6291 -16.6283 -16.6283 -16.5522 -16.5522 -16.5503 -16.5503
   -16.5200 -16.5200 -16.5015 -16.5015 -16.4493 -16.4493 -16.4367 -16.4367
   -16.3475 -16.3475 -16.3465 -16.3465 -16.1661 -16.1661 -16.1659 -16.1659
     9.0877   9.0877  11.4521  11.4521  12.6383  12.6383  12.8882  12.8882
    13.5152  13.5152  13.6075  13.6075  13.6161  13.6161  13.7209  13.7209
    13.7813  13.7813  14.3733  14.3733  14.4082  14.4082  14.5787  14.5787
    14.8538  14.8538  14.9802  14.9802  14.9970  14.9970  15.1391  15.1391
    15.3230  15.3230  15.3439  15.3439  15.4816  15.4816  15.4851  15.4851
    15.5088  15.5089  15.5739  15.5739  15.6385  15.6385  16.0290  16.0290
    16.8553  16.8553  17.1573  17.1573  17.1996  17.1996  17.2338  17.2338
    17.2509  17.2510  17.2584  17.2584  17.4923  17.4923  17.8030  17.8030
    17.9013  17.9013  17.9051  17.9051  18.2382  18.2382  18.5824  18.5824

          k = 0.0836 0.1673 0.1584 ( 32434 PWs)   bands (ev):

   -70.1962 -70.1954 -70.1945 -70.1937 -70.1933 -70.1925 -70.1916 -70.1909
   -40.2436 -40.2355 -40.2352 -40.2246 -40.1970 -40.1864 -39.9449 -39.9282
   -36.3151 -36.3125 -36.3089 -36.3087 -36.3011 -36.2999 -36.2873 -36.2849
   -36.2831 -36.2821 -36.2701 -36.2701 -36.2622 -36.2614 -36.2577 -36.2576
   -36.2556 -36.2555 -36.2552 -36.2545 -36.2473 -36.2464 -36.2454 -36.2432
   -16.6328 -16.6196 -16.5781 -16.5727 -16.5655 -16.5593 -16.5503 -16.5478
   -16.5282 -16.5192 -16.5099 -16.4955 -16.4621 -16.4554 -16.4102 -16.4015
   -16.4011 -16.3505 -16.3470 -16.3428 -16.2099 -16.1988 -16.1717 -16.1615
     8.4986   9.9764  10.9806  12.0678  12.1266  12.7733  12.9071  13.1606
    13.1761  13.5922  13.6256  13.6984  13.7158  13.8412  13.8896  13.8939
    13.9757  14.1527  14.2030  14.3884  14.4215  14.5279  14.5668  14.6278
    14.6694  14.8139  14.8227  14.8551  14.9104  14.9560  15.1707  15.1850
    15.2358  15.2418  15.2431  15.2622  15.2678  15.2999  15.3647  15.3776
    15.3913  15.4086  15.4608  15.4753  15.6969  15.7157  15.7474  15.9685
    16.6356  17.0187  17.1466  17.2002  17.2260  17.2767  17.2953  17.3549
    17.3795  17.4346  17.4587  17.5397  17.5767  17.5875  17.5908  17.6812
    17.8494  17.8781  18.0071  18.0109  18.1329  18.1557  18.3405  18.4025

          k = 0.0836 0.1673-0.2376 ( 32462 PWs)   bands (ev):

   -70.1958 -70.1958 -70.1941 -70.1941 -70.1929 -70.1929 -70.1912 -70.1912
   -40.2394 -40.2394 -40.2301 -40.2301 -40.1917 -40.1917 -39.9366 -39.9366
   -36.3138 -36.3138 -36.3088 -36.3088 -36.3005 -36.3005 -36.2861 -36.2861
   -36.2826 -36.2826 -36.2701 -36.2701 -36.2618 -36.2618 -36.2550 -36.2550
   -36.2520 -36.2520 -36.2515 -36.2515 -36.2514 -36.2514 -36.2492 -36.2492
   -16.6262 -16.6262 -16.5716 -16.5716 -16.5537 -16.5537 -16.5172 -16.5172
   -16.5124 -16.5124 -16.5026 -16.5026 -16.4499 -16.4499 -16.4403 -16.4403
   -16.4057 -16.4057 -16.3466 -16.3466 -16.2044 -16.2044 -16.1666 -16.1666
     9.1859   9.1859  11.4888  11.4888  12.4604  12.4604  13.0954  13.0954
    13.5533  13.5533  13.7594  13.7594  13.7988  13.7988  13.8807  13.8807
    13.9541  13.9541  14.3179  14.3179  14.4940  14.4940  14.5819  14.5819
    14.6330  14.6330  14.8136  14.8136  15.0419  15.0419  15.0808  15.0808
    15.1265  15.1265  15.1860  15.1860  15.3179  15.3180  15.3241  15.3241
    15.3759  15.3759  15.4249  15.4249  15.4746  15.4746  15.8887  15.8887
    16.8836  16.8837  17.2796  17.2796  17.3383  17.3383  17.3796  17.3796
    17.3997  17.3997  17.4342  17.4342  17.5981  17.5981  17.7209  17.7209
    17.7789  17.7789  17.9734  17.9734  18.0917  18.0918  18.4951  18.4951

          k = 0.0836-0.2509-0.2376 ( 32460 PWs)   bands (ev):

   -70.1951 -70.1951 -70.1948 -70.1948 -70.1923 -70.1923 -70.1919 -70.1919
   -40.2369 -40.2369 -40.2305 -40.2305 -40.1935 -40.1935 -39.9369 -39.9369
   -36.3110 -36.3110 -36.3104 -36.3104 -36.2924 -36.2924 -36.2896 -36.2896
   -36.2803 -36.2803 -36.2772 -36.2772 -36.2595 -36.2595 -36.2584 -36.2584
   -36.2518 -36.2518 -36.2516 -36.2516 -36.2506 -36.2506 -36.2501 -36.2501
   -16.6248 -16.6248 -16.5549 -16.5549 -16.5125 -16.5125 -16.5097 -16.5097
   -16.5002 -16.5002 -16.4947 -16.4947 -16.4694 -16.4694 -16.4497 -16.4497
   -16.4421 -16.4421 -16.3464 -16.3464 -16.2274 -16.2274 -16.1669 -16.1669
     9.2389   9.2389  11.4998  11.4998  12.3761  12.3761  13.3577  13.3577
    13.4613  13.4613  13.7772  13.7772  13.8610  13.8610  14.0457  14.0457
    14.1562  14.1562  14.2872  14.2872  14.4176  14.4176  14.5315  14.5315
    14.5876  14.5876  14.6824  14.6824  14.9525  14.9525  14.9797  14.9797
    15.1772  15.1772  15.1780  15.1780  15.2095  15.2095  15.2279  15.2279
    15.2658  15.2658  15.3252  15.3252  15.6512  15.6512  15.6752  15.6752
    16.9238  16.9238  17.3868  17.3868  17.3897  17.3897  17.4214  17.4214
    17.4695  17.4695  17.4973  17.4973  17.5969  17.5969  17.7205  17.7205
    17.7636  17.7636  17.9697  17.9697  18.1698  18.1698  18.2732  18.2732

          k = 0.1673 0.1673 0.1584 ( 32390 PWs)   bands (ev):

   -70.1956 -70.1948 -70.1939 -70.1939 -70.1931 -70.1931 -70.1922 -70.1915
   -40.2396 -40.2350 -40.2307 -40.2245 -40.2009 -40.1905 -39.9455 -39.9288
   -36.3103 -36.3085 -36.3035 -36.3019 -36.3016 -36.3008 -36.2867 -36.2860
   -36.2835 -36.2820 -36.2695 -36.2682 -36.2682 -36.2672 -36.2602 -36.2594
   -36.2572 -36.2571 -36.2560 -36.2557 -36.2469 -36.2458 -36.2458 -36.2439
   -16.5769 -16.5726 -16.5656 -16.5630 -16.5627 -16.5496 -16.5334 -16.5265
   -16.5177 -16.5127 -16.5103 -16.4986 -16.4591 -16.4550 -16.4126 -16.4078
   -16.4030 -16.4021 -16.4008 -16.3485 -16.2108 -16.2104 -16.1994 -16.1993
     8.5717  10.0499  11.2038  12.0624  12.2801  12.5801  12.7552  13.1469
    13.3245  13.8131  13.8234  13.8647  13.8699  13.9228  14.0127  14.1484
    14.1778  14.1823  14.2334  14.2399  14.4067  14.5385  14.6092  14.6598
    14.7786  14.7943  14.8030  14.8787  14.8973  14.9425  14.9564  14.9870
    15.0125  15.0287  15.0722  15.0744  15.1024  15.1358  15.1652  15.1953
    15.2332  15.2418  15.2489  15.3812  15.3941  15.4129  15.4140  15.7941
    16.7505  17.0597  17.2703  17.3413  17.3615  17.4262  17.4827  17.5287
    17.5600  17.5714  17.6802  17.7037  17.7612  17.8300  17.8596  17.8692
    17.8889  17.8992  17.9296  18.0965  18.0968  18.1503  18.2995  18.4402

          k = 0.1673 0.1673-0.2376 ( 32458 PWs)   bands (ev):

   -70.1952 -70.1952 -70.1935 -70.1935 -70.1935 -70.1935 -70.1918 -70.1918
   -40.2352 -40.2352 -40.2297 -40.2297 -40.1957 -40.1957 -39.9372 -39.9372
   -36.3094 -36.3094 -36.3027 -36.3027 -36.3012 -36.3012 -36.2864 -36.2864
   -36.2828 -36.2828 -36.2688 -36.2688 -36.2677 -36.2677 -36.2598 -36.2598
   -36.2516 -36.2516 -36.2515 -36.2515 -36.2513 -36.2513 -36.2498 -36.2498
   -16.5701 -16.5701 -16.5674 -16.5674 -16.5203 -16.5203 -16.5144 -16.5144
   -16.5096 -16.5096 -16.5023 -16.5023 -16.4518 -16.4518 -16.4433 -16.4433
   -16.4071 -16.4071 -16.4043 -16.4043 -16.2051 -16.2051 -16.2049 -16.2049
     9.2618   9.2618  11.7008  11.7008  12.4182  12.4182  12.9674  12.9674
    13.5348  13.5348  14.0178  14.0178  14.0406  14.0406  14.0580  14.0580
    14.0697  14.0697  14.3161  14.3161  14.5492  14.5492  14.5683  14.5683
    14.6222  14.6222  14.8632  14.8632  14.9164  14.9164  14.9257  14.9257
    15.0135  15.0135  15.0183  15.0183  15.0416  15.0416  15.1596  15.1596
    15.1805  15.1805  15.1833  15.1833  15.2691  15.2691  15.5719  15.5719
    16.9361  16.9361  17.4504  17.4504  17.5311  17.5311  17.5545  17.5545
    17.5917  17.5917  17.6342  17.6342  17.8002  17.8002  17.8599  17.8599
    17.9104  17.9104  17.9812  17.9813  18.2393  18.2393  18.5350  18.5350

          k = 0.1673-0.2509-0.2376 ( 32460 PWs)   bands (ev):

   -70.1945 -70.1945 -70.1942 -70.1942 -70.1928 -70.1928 -70.1925 -70.1925
   -40.2324 -40.2324 -40.2299 -40.2299 -40.1980 -40.1980 -39.9375 -39.9375
   -36.3054 -36.3054 -36.3045 -36.3045 -36.2947 -36.2947 -36.2921 -36.2920
   -36.2778 -36.2778 -36.2749 -36.2749 -36.2654 -36.2654 -36.2641 -36.2641
   -36.2516 -36.2516 -36.2513 -36.2513 -36.2508 -36.2508 -36.2504 -36.2504
   -16.5673 -16.5673 -16.5188 -16.5188 -16.5071 -16.5071 -16.5060 -16.5060
   -16.4975 -16.4975 -16.4950 -16.4950 -16.4744 -16.4744 -16.4524 -16.4524
   -16.4449 -16.4449 -16.4057 -16.4057 -16.2281 -16.2281 -16.2053 -16.2053
     9.3016   9.3016  11.8504  11.8504  12.3497  12.3497  12.9298  12.9298
    13.5029  13.5029  14.0443  14.0443  14.1305  14.1305  14.3387  14.3387
    14.3438  14.3438  14.3462  14.3462  14.3730  14.3730  14.4828  14.4828
    14.6964  14.6964  14.7340  14.7340  14.8408  14.8408  14.8974  14.8974
    14.9208  14.9208  14.9782  14.9782  15.0045  15.0045  15.0351  15.0351
    15.1086  15.1086  15.1234  15.1234  15.2416  15.2416  15.2680  15.2680
    16.9692  16.9692  17.5698  17.5698  17.6147  17.6147  17.6609  17.6609
    17.6901  17.6901  17.7234  17.7234  17.8287  17.8287  17.8616  17.8616
    17.9738  17.9738  18.2112  18.2112  18.3075  18.3075  18.3718  18.3718

          k =-0.2509-0.2509-0.2376 ( 32344 PWs)   bands (ev):

   -70.1939 -70.1939 -70.1935 -70.1935 -70.1935 -70.1935 -70.1931 -70.1931
   -40.2296 -40.2296 -40.2296 -40.2296 -40.2008 -40.2008 -39.9378 -39.9378
   -36.2992 -36.2992 -36.2992 -36.2992 -36.2989 -36.2989 -36.2955 -36.2955
   -36.2745 -36.2745 -36.2705 -36.2705 -36.2705 -36.2705 -36.2703 -36.2703
   -36.2514 -36.2514 -36.2510 -36.2510 -36.2510 -36.2510 -36.2507 -36.2507
   -16.5039 -16.5039 -16.5039 -16.5039 -16.5003 -16.5003 -16.4999 -16.4999
   -16.4919 -16.4919 -16.4914 -16.4914 -16.4780 -16.4780 -16.4780 -16.4780
   -16.4537 -16.4537 -16.4463 -16.4463 -16.2284 -16.2284 -16.2284 -16.2284
     9.3342   9.3342  12.3364  12.3364  12.3364  12.3364  12.4013  12.4013
    13.5138  13.5138  14.3443  14.3443  14.3443  14.3443  14.3668  14.3668
    14.4235  14.4235  14.4235  14.4235  14.4664  14.4664  14.4775  14.4776
    14.8130  14.8130  14.8130  14.8130  14.8236  14.8236  14.8236  14.8236
    14.8297  14.8297  14.8524  14.8524  14.8546  14.8546  14.8895  14.8895
    14.9642  14.9642  14.9813  14.9813  14.9813  14.9813  14.9925  14.9925
    16.9954  16.9954  17.7311  17.7311  17.7311  17.7311  17.7651  17.7651
    17.8004  17.8004  17.8273  17.8273  17.8273  17.8273  17.9190  17.9190
    18.0965  18.0965  18.5410  18.5410  18.5410  18.5410  18.6168  18.6168

          k = 0.0836 0.0000-0.0000 ( 32427 PWs)   bands (ev):

   -70.1974 -70.1958 -70.1944 -70.1940 -70.1930 -70.1925 -70.1912 -70.1897
   -40.2521 -40.2421 -40.2379 -40.2180 -40.1976 -40.1763 -39.9523 -39.9188
   -36.3226 -36.3144 -36.3118 -36.3093 -36.3092 -36.3059 -36.2952 -36.2879
   -36.2771 -36.2751 -36.2650 -36.2649 -36.2647 -36.2629 -36.2620 -36.2600
   -36.2595 -36.2586 -36.2504 -36.2484 -36.2444 -36.2403 -36.2397 -36.2362
   -16.6651 -16.6571 -16.6455 -16.6349 -16.6149 -16.5964 -16.5918 -16.5767
   -16.5589 -16.5565 -16.5404 -16.5384 -16.4130 -16.4086 -16.3547 -16.3507
   -16.3397 -16.3323 -16.3181 -16.2488 -16.1759 -16.1591 -16.1555 -16.1395
     7.7369  10.3537  10.9006  12.3950  12.5245  12.5915  12.6636  12.9861
    13.0460  13.1533  13.1794  13.2407  13.2579  13.2615  13.5848  13.8264
    14.4227  14.4295  14.4334  14.5364  14.5489  14.5499  14.5592  14.6107
    14.6775  14.7535  14.7960  14.8337  14.9045  14.9181  15.3479  15.3794
    15.4472  15.4733  15.4811  15.6026  15.6229  15.6503  15.6536  15.7479
    15.8364  15.8862  16.0463  16.1417  16.3557  16.3661  16.4453  16.4523
    16.5919  16.6714  16.7622  16.8784  17.0011  17.0518  17.0535  17.1036
    17.2051  17.2733  17.3187  17.3847  17.5272  17.6004  17.6513  17.7311
    17.8019  17.8472  17.8500  17.9341  17.9678  18.0537  18.1189  18.1986

          k = 0.1673 0.0000-0.0000 ( 32412 PWs)   bands (ev):

   -70.1967 -70.1952 -70.1950 -70.1936 -70.1934 -70.1920 -70.1918 -70.1903
   -40.2494 -40.2412 -40.2330 -40.2193 -40.2006 -40.1792 -39.9529 -39.9194
   -36.3186 -36.3127 -36.3115 -36.3112 -36.3016 -36.2986 -36.2897 -36.2844
   -36.2826 -36.2803 -36.2705 -36.2704 -36.2639 -36.2635 -36.2610 -36.2605
   -36.2599 -36.2581 -36.2541 -36.2519 -36.2436 -36.2412 -36.2390 -36.2370
   -16.6608 -16.6502 -16.6337 -16.6026 -16.5900 -16.5866 -16.5809 -16.5589
   -16.5576 -16.5410 -16.5221 -16.5048 -16.4147 -16.4113 -16.4080 -16.3973
   -16.3522 -16.3320 -16.3175 -16.2496 -16.2153 -16.1929 -16.1596 -16.1402
     7.8459  10.4409  10.9327  11.7868  12.6373  12.8076  12.9160  13.0400
    13.2074  13.2476  13.3006  13.3720  13.4266  13.5421  13.7354  13.8237
    14.0213  14.0384  14.2921  14.4633  14.5493  14.6011  14.6355  14.6445
    14.6866  14.7151  14.9496  14.9518  14.9908  15.1494  15.2960  15.3820
    15.3999  15.4019  15.4033  15.4630  15.4802  15.5630  15.5901  15.6436
    15.7049  15.7413  15.7914  16.0127  16.0231  16.1348  16.3150  16.4499
    16.5257  16.6106  16.6585  16.7162  16.8365  16.8807  16.9499  16.9882
    17.0608  17.1794  17.2530  17.5203  17.6858  17.6878  17.8320  17.8520
    17.9725  18.1098  18.1212  18.1233  18.1423  18.2857  18.4142  18.4627

          k =-0.2509-0.0000 0.0000 ( 32504 PWs)   bands (ev):

   -70.1961 -70.1957 -70.1946 -70.1942 -70.1928 -70.1924 -70.1913 -70.1910
   -40.2481 -40.2407 -40.2296 -40.2209 -40.2022 -40.1808 -39.9533 -39.9198
   -36.3148 -36.3140 -36.3118 -36.3114 -36.2931 -36.2904 -36.2901 -36.2875
   -36.2821 -36.2795 -36.2791 -36.2763 -36.2627 -36.2622 -36.2617 -36.2617
   -36.2583 -36.2572 -36.2560 -36.2549 -36.2426 -36.2422 -36.2382 -36.2378
   -16.6585 -16.6459 -16.6331 -16.6067 -16.5889 -16.5832 -16.5581 -16.5424
   -16.5194 -16.5071 -16.4945 -16.4863 -16.4748 -16.4595 -16.4104 -16.4078
   -16.3529 -16.3318 -16.3172 -16.2501 -16.2391 -16.2153 -16.1598 -16.1405
     7.9046  10.5065  10.9488  11.5153  12.7092  12.9507  12.9940  13.2845
    13.2903  13.3128  13.3600  13.5526  13.5648  13.6443  13.6508  13.6905
    13.7795  13.9159  13.9321  14.4380  14.5920  14.6185  14.7148  14.8512
    14.8739  14.9499  14.9535  14.9618  14.9845  15.0952  15.2002  15.2347
    15.2357  15.2734  15.3766  15.4991  15.5291  15.6224  15.7179  15.7213
    15.7232  15.7256  15.7930  15.7953  15.8418  15.8629  15.8882  15.9076
    16.3666  16.6298  16.6415  16.7446  16.7527  17.0425  17.0540  17.1860
    17.2013  17.2869  17.3953  17.4056  17.4608  17.6752  17.6757  18.0277
    18.0369  18.2202  18.2517  18.2811  18.4461  18.4799  18.5596  18.6710

          k = 0.0836-0.0836-0.0000 ( 32442 PWs)   bands (ev):

   -70.1971 -70.1956 -70.1942 -70.1942 -70.1928 -70.1928 -70.1914 -70.1899
   -40.2507 -40.2417 -40.2359 -40.2182 -40.1991 -40.1778 -39.9526 -39.9191
   -36.3208 -36.3134 -36.3097 -36.3084 -36.3067 -36.3064 -36.2935 -36.2870
   -36.2786 -36.2766 -36.2648 -36.2645 -36.2645 -36.2636 -36.2625 -36.2622
   -36.2603 -36.2591 -36.2521 -36.2501 -36.2441 -36.2401 -36.2401 -36.2365
   -16.6543 -16.6443 -16.6428 -16.6144 -16.6143 -16.5961 -16.5937 -16.5627
   -16.5588 -16.5410 -16.5410 -16.5398 -16.4122 -16.4083 -16.3558 -16.3534
   -16.3515 -16.3395 -16.3395 -16.2492 -16.1764 -16.1760 -16.1558 -16.1558
     7.7825  10.4001  10.9194  12.3162  12.5961  12.6306  12.6397  12.7108
    13.1304  13.2142  13.2777  13.2961  13.3182  13.5228  13.6835  13.8628
    14.4056  14.4246  14.4400  14.4490  14.4898  14.5427  14.5494  14.6382
    14.6463  14.7842  14.8032  14.8066  14.8227  14.9674  15.3026  15.3558
    15.3609  15.3799  15.4412  15.4718  15.5330  15.6705  15.7284  15.8075
    15.8900  15.9099  15.9307  15.9582  16.1487  16.1644  16.5610  16.6010
    16.6402  16.6462  16.6779  16.7300  16.8044  16.8086  16.9514  16.9550
    17.1744  17.4925  17.5010  17.5720  17.5834  17.6144  17.6436  17.7281
    17.7281  17.8147  18.0103  18.0559  18.0641  18.0923  18.2004  18.2873

          k =-0.0836-0.0836-0.0000 ( 32442 PWs)   bands (ev):

   -70.1971 -70.1956 -70.1942 -70.1942 -70.1928 -70.1928 -70.1914 -70.1899
   -40.2507 -40.2417 -40.2359 -40.2182 -40.1991 -40.1778 -39.9526 -39.9191
   -36.3208 -36.3134 -36.3097 -36.3084 -36.3067 -36.3064 -36.2935 -36.2870
   -36.2786 -36.2766 -36.2648 -36.2645 -36.2645 -36.2636 -36.2625 -36.2622
   -36.2603 -36.2591 -36.2521 -36.2501 -36.2441 -36.2401 -36.2401 -36.2365
   -16.6543 -16.6443 -16.6428 -16.6144 -16.6143 -16.5961 -16.5937 -16.5627
   -16.5588 -16.5410 -16.5410 -16.5398 -16.4122 -16.4083 -16.3558 -16.3534
   -16.3515 -16.3395 -16.3395 -16.2492 -16.1764 -16.1760 -16.1558 -16.1558
     7.7825  10.4001  10.9194  12.3162  12.5961  12.6306  12.6397  12.7108
    13.1304  13.2142  13.2777  13.2961  13.3182  13.5228  13.6835  13.8628
    14.4056  14.4246  14.4400  14.4490  14.4898  14.5426  14.5494  14.6382
    14.6463  14.7842  14.8032  14.8066  14.8227  14.9674  15.3026  15.3558
    15.3609  15.3799  15.4412  15.4718  15.5331  15.6705  15.7284  15.8075
    15.8900  15.9099  15.9307  15.9582  16.1487  16.1644  16.5610  16.6010
    16.6402  16.6462  16.6779  16.7300  16.8044  16.8086  16.9514  16.9550
    17.1744  17.4925  17.5010  17.5721  17.5834  17.6144  17.6436  17.7281
    17.7281  17.8147  18.0103  18.0559  18.0641  18.0923  18.2004  18.2873

          k = 0.1673-0.0836-0.0000 ( 32469 PWs)   bands (ev):

   -70.1965 -70.1950 -70.1948 -70.1936 -70.1933 -70.1922 -70.1920 -70.1905
   -40.2478 -40.2409 -40.2310 -40.2192 -40.2023 -40.1811 -39.9532 -39.9198
   -36.3165 -36.3111 -36.3091 -36.3086 -36.3016 -36.2993 -36.2884 -36.2837
   -36.2836 -36.2816 -36.2701 -36.2699 -36.2637 -36.2634 -36.2625 -36.2612
   -36.2608 -36.2602 -36.2560 -36.2540 -36.2433 -36.2409 -36.2393 -36.2372
   -16.6478 -16.6394 -16.6131 -16.6012 -16.5924 -16.5847 -16.5650 -16.5581
   -16.5426 -16.5421 -16.5234 -16.5053 -16.4147 -16.4104 -16.4077 -16.3973
   -16.3542 -16.3531 -16.3390 -16.2500 -16.2156 -16.1932 -16.1767 -16.1565
     7.8791  10.5269  10.9573  11.7932  12.6249  12.7430  12.8129  12.9496
    13.3073  13.3574  13.3845  13.5042  13.5750  13.5832  13.7904  13.8775
    14.0524  14.0743  14.2892  14.4979  14.5791  14.5818  14.6000  14.6243
    14.7293  14.7801  14.8480  14.8990  14.9426  15.1133  15.1554  15.2437
    15.2563  15.3591  15.3916  15.4537  15.4984  15.5163  15.5468  15.5766
    15.6066  15.7293  15.7387  15.8308  15.9556  16.0961  16.1889  16.2766
    16.2903  16.6669  16.6801  16.7267  16.8662  17.0114  17.0453  17.0850
    17.1809  17.3637  17.4582  17.5827  17.7022  17.7752  17.7976  17.8312
    17.8727  17.9227  18.0642  18.0795  18.1926  18.2963  18.3468  18.3786

          k =-0.1673-0.0836-0.0000 ( 32469 PWs)   bands (ev):

   -70.1965 -70.1950 -70.1948 -70.1936 -70.1933 -70.1922 -70.1920 -70.1905
   -40.2478 -40.2409 -40.2310 -40.2192 -40.2023 -40.1811 -39.9532 -39.9198
   -36.3165 -36.3111 -36.3091 -36.3086 -36.3016 -36.2993 -36.2884 -36.2837
   -36.2836 -36.2816 -36.2701 -36.2699 -36.2637 -36.2634 -36.2625 -36.2612
   -36.2608 -36.2602 -36.2560 -36.2540 -36.2433 -36.2409 -36.2393 -36.2372
   -16.6478 -16.6394 -16.6131 -16.6012 -16.5924 -16.5847 -16.5650 -16.5581
   -16.5426 -16.5421 -16.5234 -16.5053 -16.4147 -16.4104 -16.4077 -16.3973
   -16.3542 -16.3531 -16.3390 -16.2500 -16.2156 -16.1932 -16.1767 -16.1565
     7.8791  10.5269  10.9573  11.7932  12.6249  12.7430  12.8129  12.9496
    13.3073  13.3574  13.3845  13.5042  13.5750  13.5832  13.7904  13.8775
    14.0524  14.0743  14.2892  14.4978  14.5791  14.5818  14.6000  14.6243
    14.7293  14.7801  14.8480  14.8990  14.9426  15.1133  15.1554  15.2437
    15.2563  15.3591  15.3915  15.4537  15.4984  15.5163  15.5468  15.5766
    15.6066  15.7293  15.7387  15.8308  15.9556  16.0961  16.1889  16.2766
    16.2903  16.6669  16.6801  16.7267  16.8662  17.0114  17.0453  17.0850
    17.1809  17.3637  17.4582  17.5827  17.7022  17.7752  17.7976  17.8312
    17.8727  17.9227  18.0642  18.0796  18.1926  18.2963  18.3468  18.3786

          k = 0.0000 0.1673 0.0792 ( 32469 PWs)   bands (ev):

   -70.1966 -70.1953 -70.1949 -70.1937 -70.1933 -70.1921 -70.1917 -70.1904
   -40.2483 -40.2398 -40.2341 -40.2208 -40.1992 -40.1806 -39.9507 -39.9217
   -36.3182 -36.3131 -36.3114 -36.3112 -36.3014 -36.2988 -36.2893 -36.2847
   -36.2824 -36.2805 -36.2706 -36.2704 -36.2623 -36.2620 -36.2603 -36.2594
   -36.2587 -36.2582 -36.2539 -36.2521 -36.2446 -36.2427 -36.2407 -36.2386
   -16.6589 -16.6355 -16.6284 -16.5890 -16.5847 -16.5794 -16.5751 -16.5605
   -16.5592 -16.5285 -16.5210 -16.5059 -16.4255 -16.4209 -16.4132 -16.3985
   -16.3651 -16.3310 -16.3185 -16.2759 -16.2138 -16.1944 -16.1583 -16.1415
     8.0059  10.5584  10.6361  11.8749  12.4413  12.9020  12.9617  13.0917
    13.1168  13.3249  13.3798  13.4369  13.4765  13.5636  13.7835  13.8497
    14.0204  14.0299  14.2764  14.4965  14.5788  14.5807  14.6004  14.6006
    14.6499  14.7232  14.9241  14.9631  14.9636  15.0792  15.1263  15.3452
    15.3879  15.3884  15.4033  15.4049  15.4750  15.5118  15.5424  15.5966
    15.6329  15.7501  15.8275  15.9039  15.9136  15.9595  16.0057  16.2460
    16.4125  16.8109  16.8939  17.0075  17.0166  17.0317  17.0436  17.0478
    17.0937  17.1750  17.2840  17.5138  17.5330  17.5709  17.7226  17.8265
    17.8523  18.0343  18.0475  18.1043  18.1720  18.1732  18.3399  18.3874

          k =-0.2509-0.0836 0.0000 ( 32438 PWs)   bands (ev):

   -70.1959 -70.1955 -70.1944 -70.1940 -70.1930 -70.1926 -70.1915 -70.1912
   -40.2463 -40.2404 -40.2275 -40.2206 -40.2040 -40.1828 -39.9536 -39.9201
   -36.3124 -36.3115 -36.3097 -36.3093 -36.2935 -36.2913 -36.2906 -36.2885
   -36.2812 -36.2791 -36.2782 -36.2759 -36.2627 -36.2622 -36.2618 -36.2617
   -36.2604 -36.2593 -36.2585 -36.2573 -36.2423 -36.2419 -36.2385 -36.2381
   -16.6437 -16.6372 -16.6125 -16.6050 -16.5911 -16.5672 -16.5441 -16.5427
   -16.5169 -16.5067 -16.4928 -16.4860 -16.4772 -16.4612 -16.4094 -16.4074
   -16.3541 -16.3539 -16.3388 -16.2505 -16.2394 -16.2156 -16.1770 -16.1568
     7.9304  10.6289  10.9763  11.5090  12.6736  12.8131  12.8831  13.3137
    13.3965  13.4006  13.5390  13.5868  13.6246  13.6717  13.7368  13.7763
    13.8799  13.9483  13.9608  14.4763  14.6245  14.6568  14.7069  14.8179
    14.8211  14.8627  14.8978  15.0074  15.0209  15.0948  15.1053  15.1130
    15.1220  15.2372  15.3079  15.3735  15.4058  15.4820  15.5572  15.6296
    15.6360  15.6650  15.6926  15.7051  15.7317  15.7440  15.9120  15.9282
    16.4617  16.6683  16.6791  16.7709  16.7749  17.1407  17.1877  17.3124
    17.3139  17.3883  17.5047  17.5091  17.5354  17.6807  17.7234  17.9620
    17.9970  18.0100  18.1569  18.1737  18.3536  18.3799  18.4462  18.5325

          k =-0.0000-0.2509 0.0792 ( 32438 PWs)   bands (ev):

   -70.1960 -70.1956 -70.1947 -70.1943 -70.1927 -70.1923 -70.1914 -70.1911
   -40.2468 -40.2393 -40.2308 -40.2222 -40.2008 -40.1822 -39.9510 -39.9220
   -36.3146 -36.3138 -36.3120 -36.3115 -36.2929 -36.2906 -36.2899 -36.2877
   -36.2820 -36.2797 -36.2790 -36.2765 -36.2611 -36.2606 -36.2603 -36.2603
   -36.2582 -36.2571 -36.2562 -36.2551 -36.2438 -36.2434 -36.2398 -36.2394
   -16.6568 -16.6348 -16.6233 -16.5938 -16.5815 -16.5739 -16.5598 -16.5299
   -16.5179 -16.5058 -16.4960 -16.4876 -16.4738 -16.4605 -16.4236 -16.4210
   -16.3658 -16.3308 -16.3182 -16.2764 -16.2375 -16.2169 -16.1585 -16.1418
     8.0652  10.6124  10.6655  11.6233  12.4342  13.0312  13.0776  13.2310
    13.3524  13.4335  13.4473  13.5786  13.6449  13.6578  13.7054  13.7072
    13.7280  13.9290  14.0110  14.4803  14.6248  14.6382  14.7109  14.7551
    14.7776  14.8180  14.8200  14.8701  15.1039  15.1270  15.1488  15.1579
    15.3229  15.3899  15.4301  15.4641  15.4808  15.4857  15.4859  15.5192
    15.5719  15.5759  15.5851  15.6668  15.6972  15.8462  15.9573  15.9697
    16.4654  16.8639  16.8645  16.9032  16.9264  17.0619  17.0785  17.1946
    17.2129  17.3353  17.3839  17.4311  17.5120  17.5669  17.7438  17.9667
    17.9929  18.0019  18.0032  18.1255  18.1564  18.1886  18.4692  18.5551

          k = 0.1673-0.1673-0.0000 ( 32476 PWs)   bands (ev):

   -70.1959 -70.1944 -70.1942 -70.1942 -70.1928 -70.1928 -70.1926 -70.1911
   -40.2441 -40.2403 -40.2262 -40.2192 -40.2060 -40.1853 -39.9539 -39.9205
   -36.3113 -36.3076 -36.3042 -36.3021 -36.3011 -36.3004 -36.2870 -36.2856
   -36.2843 -36.2813 -36.2701 -36.2683 -36.2675 -36.2666 -36.2629 -36.2629
   -36.2616 -36.2609 -36.2605 -36.2589 -36.2425 -36.2401 -36.2401 -36.2380
   -16.6421 -16.5985 -16.5974 -16.5837 -16.5779 -16.5567 -16.5564 -16.5460
   -16.5331 -16.5212 -16.5067 -16.5064 -16.4178 -16.4113 -16.4085 -16.4070
   -16.3973 -16.3971 -16.3549 -16.2508 -16.2165 -16.2159 -16.1937 -16.1937
     7.9480  10.7628  11.0074  11.7103  12.2016  12.7835  13.0362  13.0377
    13.5359  13.5391  13.6444  13.6585  13.6925  13.7153  13.8323  13.8679
    14.1083  14.2477  14.2867  14.3260  14.4798  14.6027  14.6523  14.6628
    14.7631  14.7723  14.8190  14.8337  14.9425  15.0003  15.0423  15.1008
    15.1155  15.1714  15.2705  15.2820  15.2974  15.3322  15.4228  15.4487
    15.5647  15.5886  15.6839  15.7117  15.7354  15.8713  15.8851  15.9138
    16.5177  16.6950  16.7201  16.7426  16.8624  17.2609  17.3115  17.3603
    17.3751  17.5473  17.6026  17.6164  17.6532  17.7123  17.7703  17.8243
    18.0120  18.0204  18.0424  18.0818  18.1470  18.2402  18.2725  18.3463

          k =-0.1673-0.1673-0.0000 ( 32476 PWs)   bands (ev):

   -70.1959 -70.1944 -70.1942 -70.1942 -70.1928 -70.1928 -70.1926 -70.1911
   -40.2441 -40.2403 -40.2262 -40.2192 -40.2060 -40.1853 -39.9539 -39.9205
   -36.3113 -36.3076 -36.3042 -36.3021 -36.3011 -36.3004 -36.2870 -36.2856
   -36.2843 -36.2813 -36.2701 -36.2683 -36.2675 -36.2666 -36.2629 -36.2629
   -36.2616 -36.2609 -36.2605 -36.2589 -36.2425 -36.2401 -36.2401 -36.2380
   -16.6421 -16.5985 -16.5974 -16.5837 -16.5779 -16.5567 -16.5564 -16.5460
   -16.5331 -16.5212 -16.5067 -16.5064 -16.4178 -16.4113 -16.4085 -16.4070
   -16.3973 -16.3971 -16.3549 -16.2508 -16.2165 -16.2159 -16.1937 -16.1937
     7.9480  10.7628  11.0074  11.7103  12.2016  12.7835  13.0362  13.0377
    13.5359  13.5391  13.6444  13.6585  13.6925  13.7153  13.8322  13.8679
    14.1083  14.2477  14.2867  14.3260  14.4798  14.6027  14.6523  14.6628
    14.7631  14.7723  14.8190  14.8337  14.9425  15.0003  15.0423  15.1008
    15.1155  15.1714  15.2705  15.2820  15.2974  15.3322  15.4228  15.4487
    15.5647  15.5886  15.6839  15.7117  15.7354  15.8713  15.8851  15.9138
    16.5177  16.6950  16.7201  16.7426  16.8624  17.2609  17.3115  17.3603
    17.3751  17.5473  17.6026  17.6164  17.6532  17.7123  17.7703  17.8243
    18.0120  18.0204  18.0424  18.0818  18.1470  18.2402  18.2725  18.3464

          k =-0.2509-0.1673-0.0000 ( 32466 PWs)   bands (ev):

   -70.1953 -70.1949 -70.1938 -70.1936 -70.1934 -70.1932 -70.1921 -70.1918
   -40.2421 -40.2398 -40.2227 -40.2200 -40.2082 -40.1877 -39.9542 -39.9208
   -36.3063 -36.3050 -36.3048 -36.3043 -36.2950 -36.2940 -36.2921 -36.2917
   -36.2781 -36.2776 -36.2756 -36.2742 -36.2654 -36.2650 -36.2645 -36.2633
   -36.2625 -36.2622 -36.2619 -36.2617 -36.2415 -36.2411 -36.2393 -36.2389
   -16.6387 -16.6013 -16.5962 -16.5789 -16.5557 -16.5478 -16.5309 -16.5094
   -16.5072 -16.5058 -16.4886 -16.4856 -16.4833 -16.4655 -16.4144 -16.4074
   -16.4067 -16.3971 -16.3559 -16.2512 -16.2401 -16.2165 -16.2160 -16.1940
     7.9837  10.9787  11.0330  11.4929  12.1108  12.7703  13.0964  13.3432
    13.6353  13.6823  13.6835  13.7014  13.7190  13.7220  13.9916  14.0140
    14.0160  14.0178  14.1270  14.5321  14.6350  14.6790  14.6807  14.6909
    14.6991  14.7246  14.7319  14.8421  14.8570  14.8723  14.8961  15.0105
    15.0869  15.1273  15.1552  15.1868  15.3862  15.3871  15.3877  15.4382
    15.5008  15.5290  15.5341  15.5383  15.5686  15.5924  15.8824  15.8842
    16.6337  16.7039  16.7288  16.7832  16.8086  17.3579  17.3916  17.5330
    17.5354  17.6268  17.6474  17.6669  17.6963  17.7901  17.8001  17.8110
    17.9144  17.9425  18.0914  18.0960  18.0985  18.1429  18.2233  18.2361

          k =-0.0000-0.2509 0.1584 ( 32466 PWs)   bands (ev):

   -70.1957 -70.1953 -70.1950 -70.1946 -70.1924 -70.1920 -70.1917 -70.1913
   -40.2435 -40.2357 -40.2342 -40.2259 -40.1969 -40.1861 -39.9449 -39.9282
   -36.3140 -36.3134 -36.3125 -36.3120 -36.2924 -36.2911 -36.2895 -36.2882
   -36.2817 -36.2803 -36.2786 -36.2771 -36.2577 -36.2568 -36.2567 -36.2567
   -36.2566 -36.2564 -36.2562 -36.2555 -36.2472 -36.2469 -36.2443 -36.2439
   -16.6521 -16.6395 -16.5769 -16.5682 -16.5644 -16.5585 -16.5260 -16.5138
   -16.5024 -16.5000 -16.4960 -16.4907 -16.4711 -16.4633 -16.4594 -16.4572
   -16.4009 -16.3472 -16.3282 -16.3209 -16.2331 -16.2212 -16.1550 -16.1454
     8.5238   9.9909  10.9165  11.9192  11.9320  12.8884  13.2396  13.3003
    13.4375  13.6040  13.6196  13.6653  13.6833  13.7260  13.7384  13.8595
    13.9469  13.9490  14.1085  14.5342  14.5683  14.6140  14.6187  14.6190
    14.6299  14.6353  14.6640  14.7073  15.0784  15.0898  15.1143  15.1348
    15.1410  15.1534  15.2615  15.3375  15.3847  15.3858  15.3865  15.3888
    15.4203  15.4943  15.5323  15.6203  15.6552  15.6740  15.9797  15.9846
    16.6954  17.0549  17.0753  17.1713  17.1799  17.1890  17.1937  17.2219
    17.2262  17.2344  17.4340  17.4880  17.5703  17.5897  17.5979  17.6211
    17.7520  17.8355  17.9412  18.0127  18.0241  18.0416  18.3937  18.4548

          k =-0.2509 0.2509 0.0000 ( 32544 PWs)   bands (ev):

   -70.1946 -70.1942 -70.1942 -70.1939 -70.1931 -70.1928 -70.1928 -70.1924
   -40.2395 -40.2395 -40.2197 -40.2197 -40.2108 -40.1908 -39.9545 -39.9211
   -36.3007 -36.3007 -36.3007 -36.2978 -36.2978 -36.2971 -36.2971 -36.2938
   -36.2760 -36.2731 -36.2719 -36.2719 -36.2717 -36.2689 -36.2689 -36.2688
   -36.2622 -36.2622 -36.2622 -36.2618 -36.2406 -36.2402 -36.2402 -36.2398
   -16.6357 -16.5992 -16.5992 -16.5499 -16.5141 -16.5138 -16.4978 -16.4972
   -16.4886 -16.4886 -16.4859 -16.4857 -16.4856 -16.4850 -16.4683 -16.4683
   -16.4064 -16.4064 -16.3570 -16.2516 -16.2404 -16.2404 -16.2163 -16.2163
     8.0111  11.0623  11.4828  11.4828  11.5247  12.7211  13.3736  13.3736
    13.5603  13.7451  13.7578  13.7579  13.9512  13.9644  13.9665  13.9665
    14.3324  14.3324  14.3707  14.3823  14.3900  14.4745  14.4745  14.5225
    14.5830  14.7069  14.7244  14.7244  14.7991  14.9574  14.9621  14.9639
    14.9639  14.9771  14.9771  15.0118  15.3662  15.3662  15.4398  15.4538
    15.4538  15.4655  15.4661  15.4873  15.6606  15.6701  15.6899  15.6899
    16.7163  16.7215  16.7774  16.7774  16.7835  17.5023  17.5127  17.5127
    17.6227  17.7338  17.7338  17.8058  17.8066  17.8438  17.8438  17.9168
    17.9328  17.9482  17.9482  18.0441  18.1397  18.1710  18.1941  18.1941

          k = 0.0836-0.0836 0.0792 ( 32444 PWs)   bands (ev):

   -70.1970 -70.1957 -70.1941 -70.1941 -70.1929 -70.1929 -70.1913 -70.1900
   -40.2497 -40.2402 -40.2369 -40.2198 -40.1977 -40.1792 -39.9504 -39.9214
   -36.3203 -36.3139 -36.3095 -36.3083 -36.3068 -36.3066 -36.2931 -36.2874
   -36.2785 -36.2768 -36.2646 -36.2635 -36.2629 -36.2629 -36.2627 -36.2624
   -36.2587 -36.2579 -36.2520 -36.2502 -36.2451 -36.2417 -36.2417 -36.2381
   -16.6422 -16.6408 -16.6329 -16.6162 -16.6162 -16.5814 -16.5791 -16.5613
   -16.5577 -16.5425 -16.5423 -16.5272 -16.4264 -16.4208 -16.3644 -16.3546
   -16.3525 -16.3405 -16.3405 -16.2753 -16.1750 -16.1746 -16.1572 -16.1572
     7.9421  10.5270  10.6072  12.3751  12.5438  12.6485  12.6573  12.8035
    13.0052  13.2839  13.3264  13.3352  13.3725  13.5841  13.7207  13.9069
    14.2785  14.3597  14.4011  14.4312  14.4783  14.5116  14.5263  14.6163
    14.7302  14.7651  14.8248  14.8654  14.8923  14.9797  15.1231  15.2558
    15.2656  15.3642  15.4634  15.4878  15.5266  15.6079  15.6461  15.8195
    15.8344  15.8944  15.9255  15.9526  16.0667  16.0982  16.1310  16.2207
    16.4540  16.6609  16.7764  16.8189  16.9697  17.0260  17.2009  17.2120
    17.2936  17.4050  17.4409  17.5481  17.5903  17.6032  17.6093  17.6704
    17.8032  17.8208  17.8248  17.9892  18.1328  18.2647  18.2674  18.2687

          k = 0.0836-0.0836 0.1584 ( 32476 PWs)   bands (ev):

   -70.1968 -70.1960 -70.1939 -70.1939 -70.1931 -70.1931 -70.1910 -70.1903
   -40.2470 -40.2396 -40.2359 -40.2241 -40.1938 -40.1831 -39.9443 -39.9275
   -36.3189 -36.3152 -36.3089 -36.3080 -36.3072 -36.3071 -36.2919 -36.2886
   -36.2781 -36.2771 -36.2642 -36.2635 -36.2631 -36.2629 -36.2584 -36.2584
   -36.2551 -36.2544 -36.2516 -36.2506 -36.2478 -36.2462 -36.2462 -36.2425
   -16.6366 -16.6355 -16.6217 -16.6213 -16.5802 -16.5575 -16.5546 -16.5486
   -16.5466 -16.5448 -16.5264 -16.4926 -16.4654 -16.4550 -16.3995 -16.3520
   -16.3499 -16.3454 -16.3435 -16.3430 -16.1713 -16.1710 -16.1610 -16.1609
     8.3992   9.8901  10.8938  12.0891  12.5144  12.6736  12.7891  12.9151
    13.0828  13.4477  13.4646  13.4693  13.5312  13.6873  13.7321  13.8821
    14.0046  14.0922  14.3107  14.4151  14.4330  14.4465  14.4974  14.5556
    14.7535  14.8375  14.9429  14.9480  15.0233  15.1163  15.1342  15.1444
    15.2791  15.3251  15.3707  15.4062  15.4591  15.4609  15.5088  15.5374
    15.5589  15.6028  15.6138  15.8138  15.9289  15.9783  15.9939  16.0576
    16.5157  16.9138  16.9924  17.0258  17.0703  17.1063  17.2371  17.2608
    17.2814  17.3856  17.3941  17.4161  17.4886  17.5682  17.7284  17.7620
    17.7935  17.8769  17.8852  17.9424  18.1324  18.2125  18.4653  18.5764

          k = 0.1673-0.0836 0.0792 ( 32476 PWs)   bands (ev):

   -70.1964 -70.1951 -70.1947 -70.1935 -70.1934 -70.1923 -70.1919 -70.1906
   -40.2467 -40.2395 -40.2321 -40.2206 -40.2008 -40.1825 -39.9510 -39.9220
   -36.3161 -36.3115 -36.3091 -36.3086 -36.3014 -36.2995 -36.2881 -36.2840
   -36.2835 -36.2817 -36.2701 -36.2700 -36.2624 -36.2620 -36.2618 -36.2610
   -36.2596 -36.2589 -36.2559 -36.2541 -36.2444 -36.2424 -36.2409 -36.2388
   -16.6376 -16.6257 -16.6148 -16.5875 -16.5829 -16.5777 -16.5635 -16.5597
   -16.5437 -16.5300 -16.5223 -16.5066 -16.4245 -16.4205 -16.4132 -16.3984
   -16.3660 -16.3532 -16.3400 -16.2763 -16.2141 -16.1947 -16.1753 -16.1578
     8.0397  10.6439  10.6656  11.8819  12.5485  12.7066  12.9014  12.9256
    13.2586  13.4307  13.4558  13.5497  13.6078  13.6609  13.8563  13.9128
    14.0442  14.0658  14.3138  14.4770  14.5155  14.5643  14.5683  14.6583
    14.7332  14.7617  14.8810  14.8909  15.0103  15.0113  15.0438  15.1896
    15.2003  15.2996  15.3528  15.4305  15.4359  15.4581  15.5011  15.5359
    15.5949  15.6161  15.6547  15.8029  15.8116  15.8946  15.9174  15.9875
    16.3934  16.8470  16.9962  17.0297  17.0428  17.0860  17.1139  17.1430
    17.1852  17.4035  17.4353  17.5824  17.6407  17.6800  17.7823  17.8614
    17.8665  17.9181  17.9231  18.0114  18.1701  18.2750  18.2949  18.4730

          k =-0.1673-0.0836-0.0792 ( 32476 PWs)   bands (ev):

   -70.1964 -70.1951 -70.1947 -70.1935 -70.1934 -70.1923 -70.1919 -70.1906
   -40.2467 -40.2395 -40.2321 -40.2206 -40.2008 -40.1825 -39.9510 -39.9220
   -36.3161 -36.3115 -36.3091 -36.3086 -36.3014 -36.2995 -36.2881 -36.2840
   -36.2835 -36.2817 -36.2701 -36.2700 -36.2624 -36.2620 -36.2618 -36.2610
   -36.2596 -36.2589 -36.2559 -36.2541 -36.2444 -36.2424 -36.2409 -36.2388
   -16.6376 -16.6257 -16.6148 -16.5875 -16.5829 -16.5777 -16.5635 -16.5597
   -16.5437 -16.5300 -16.5223 -16.5066 -16.4245 -16.4205 -16.4132 -16.3984
   -16.3660 -16.3532 -16.3400 -16.2763 -16.2141 -16.1947 -16.1753 -16.1578
     8.0397  10.6439  10.6656  11.8819  12.5485  12.7066  12.9014  12.9256
    13.2586  13.4307  13.4558  13.5497  13.6078  13.6609  13.8563  13.9128
    14.0442  14.0658  14.3138  14.4770  14.5155  14.5644  14.5683  14.6583
    14.7332  14.7617  14.8810  14.8909  15.0103  15.0113  15.0438  15.1896
    15.2003  15.2996  15.3528  15.4305  15.4359  15.4581  15.5011  15.5359
    15.5949  15.6161  15.6547  15.8029  15.8116  15.8946  15.9174  15.9875
    16.3934  16.8470  16.9962  17.0297  17.0428  17.0860  17.1139  17.1430
    17.1852  17.4035  17.4353  17.5824  17.6407  17.6800  17.7823  17.8614
    17.8665  17.9181  17.9231  18.0114  18.1701  18.2750  18.2949  18.4730

          k = 0.0836-0.0836-0.2376 ( 32474 PWs)   bands (ev):

   -70.1964 -70.1964 -70.1935 -70.1935 -70.1935 -70.1935 -70.1907 -70.1907
   -40.2433 -40.2433 -40.2300 -40.2300 -40.1884 -40.1884 -39.9359 -39.9359
   -36.3171 -36.3171 -36.3081 -36.3080 -36.3076 -36.3076 -36.2903 -36.2903
   -36.2776 -36.2776 -36.2635 -36.2635 -36.2633 -36.2633 -36.2523 -36.2523
   -36.2523 -36.2523 -36.2514 -36.2514 -36.2511 -36.2511 -36.2484 -36.2484
   -16.6291 -16.6291 -16.6283 -16.6283 -16.5522 -16.5522 -16.5503 -16.5503
   -16.5200 -16.5200 -16.5015 -16.5015 -16.4493 -16.4493 -16.4367 -16.4367
   -16.3475 -16.3475 -16.3465 -16.3465 -16.1661 -16.1661 -16.1659 -16.1659
     9.0877   9.0877  11.4521  11.4521  12.6383  12.6383  12.8882  12.8882
    13.5152  13.5152  13.6075  13.6075  13.6161  13.6161  13.7209  13.7209
    13.7813  13.7813  14.3733  14.3733  14.4082  14.4082  14.5787  14.5787
    14.8538  14.8538  14.9802  14.9802  14.9970  14.9970  15.1391  15.1391
    15.3230  15.3230  15.3439  15.3439  15.4816  15.4816  15.4851  15.4851
    15.5089  15.5089  15.5739  15.5739  15.6385  15.6385  16.0290  16.0290
    16.8553  16.8553  17.1573  17.1573  17.1996  17.1996  17.2338  17.2338
    17.2509  17.2509  17.2584  17.2584  17.4923  17.4923  17.8030  17.8030
    17.9013  17.9013  17.9051  17.9051  18.2382  18.2382  18.5824  18.5824

          k =-0.2509-0.0836 0.0792 ( 32474 PWs)   bands (ev):

   -70.1958 -70.1954 -70.1945 -70.1941 -70.1929 -70.1925 -70.1916 -70.1913
   -40.2450 -40.2391 -40.2288 -40.2219 -40.2026 -40.1843 -39.9513 -39.9224
   -36.3122 -36.3114 -36.3099 -36.3095 -36.2934 -36.2914 -36.2904 -36.2887
   -36.2811 -36.2792 -36.2781 -36.2760 -36.2610 -36.2606 -36.2604 -36.2603
   -36.2603 -36.2592 -36.2586 -36.2575 -36.2436 -36.2432 -36.2401 -36.2397
   -16.6355 -16.6208 -16.6141 -16.5921 -16.5764 -16.5655 -16.5443 -16.5315
   -16.5154 -16.5054 -16.4943 -16.4873 -16.4762 -16.4623 -16.4226 -16.4206
   -16.3668 -16.3531 -16.3398 -16.2768 -16.2378 -16.2172 -16.1756 -16.1582
     8.0916  10.6956  10.7350  11.6165  12.5473  12.7679  12.9693  13.2095
    13.4678  13.5383  13.6031  13.6245  13.7056  13.7322  13.7683  13.7931
    13.8156  13.9676  14.0455  14.5110  14.6560  14.6699  14.7102  14.7476
    14.7837  14.7923  14.8102  14.8629  15.0247  15.0771  15.0963  15.1406
    15.1606  15.3047  15.3221  15.3450  15.3587  15.3715  15.4076  15.4663
    15.4731  15.4803  15.5221  15.5315  15.5565  15.6553  15.9321  15.9395
    16.5395  16.8894  16.9230  16.9709  16.9760  17.1528  17.2081  17.3465
    17.3505  17.4281  17.5044  17.5238  17.5723  17.6189  17.7559  17.9463
    17.9530  17.9885  18.0532  18.0729  18.1062  18.1160  18.4387  18.5210

          k = 0.1673-0.0836 0.1584 ( 32434 PWs)   bands (ev):

   -70.1962 -70.1954 -70.1945 -70.1937 -70.1933 -70.1925 -70.1916 -70.1909
   -40.2436 -40.2355 -40.2352 -40.2246 -40.1970 -40.1864 -39.9449 -39.9282
   -36.3151 -36.3125 -36.3089 -36.3087 -36.3011 -36.2999 -36.2873 -36.2849
   -36.2831 -36.2821 -36.2701 -36.2701 -36.2622 -36.2614 -36.2577 -36.2576
   -36.2556 -36.2555 -36.2552 -36.2545 -36.2473 -36.2464 -36.2454 -36.2432
   -16.6328 -16.6196 -16.5781 -16.5727 -16.5655 -16.5593 -16.5503 -16.5478
   -16.5282 -16.5192 -16.5099 -16.4955 -16.4621 -16.4554 -16.4102 -16.4015
   -16.4011 -16.3505 -16.3470 -16.3428 -16.2099 -16.1988 -16.1717 -16.1615
     8.4986   9.9764  10.9806  12.0678  12.1266  12.7733  12.9071  13.1606
    13.1761  13.5922  13.6256  13.6984  13.7158  13.8412  13.8896  13.8939
    13.9757  14.1527  14.2030  14.3884  14.4215  14.5279  14.5669  14.6278
    14.6694  14.8139  14.8227  14.8551  14.9104  14.9560  15.1707  15.1850
    15.2358  15.2418  15.2431  15.2622  15.2678  15.2999  15.3647  15.3776
    15.3913  15.4086  15.4608  15.4753  15.6969  15.7157  15.7474  15.9685
    16.6356  17.0187  17.1466  17.2002  17.2260  17.2767  17.2953  17.3549
    17.3795  17.4346  17.4587  17.5397  17.5767  17.5875  17.5908  17.6812
    17.8494  17.8781  18.0071  18.0109  18.1329  18.1557  18.3405  18.4025

          k = 0.1673-0.1673 0.0792 ( 32434 PWs)   bands (ev):

   -70.1958 -70.1945 -70.1941 -70.1941 -70.1929 -70.1929 -70.1925 -70.1912
   -40.2429 -40.2389 -40.2274 -40.2206 -40.2047 -40.1867 -39.9516 -39.9227
   -36.3110 -36.3078 -36.3040 -36.3019 -36.3013 -36.3005 -36.2869 -36.2857
   -36.2841 -36.2814 -36.2699 -36.2683 -36.2677 -36.2668 -36.2614 -36.2613
   -36.2604 -36.2600 -36.2595 -36.2590 -36.2436 -36.2417 -36.2417 -36.2396
   -16.6192 -16.5849 -16.5835 -16.5819 -16.5765 -16.5583 -16.5580 -16.5333
   -16.5313 -16.5202 -16.5082 -16.5077 -16.4227 -16.4199 -16.4158 -16.4104
   -16.3984 -16.3982 -16.3679 -16.2772 -16.2150 -16.2144 -16.1953 -16.1952
     8.1097  10.7263  10.8764  11.8036  12.3012  12.7958  12.8780  12.9689
    13.5175  13.6140  13.7050  13.7187  13.7542  13.7772  13.9170  13.9206
    14.1301  14.2619  14.3007  14.3265  14.4089  14.5532  14.6476  14.7198
    14.7594  14.7938  14.8605  14.8813  14.9043  14.9634  14.9904  15.0547
    15.0655  15.0837  15.1484  15.2089  15.2802  15.3071  15.3510  15.3645
    15.4567  15.4907  15.5394  15.5473  15.5674  15.6220  15.6258  15.9103
    16.5879  16.8905  16.9856  17.0236  17.0787  17.3008  17.3808  17.3912
    17.3998  17.5620  17.6392  17.6498  17.7088  17.8003  17.8047  17.8050
    17.9444  17.9859  18.0320  18.0532  18.0951  18.1923  18.2286  18.3701

          k =-0.1673-0.1673-0.0792 ( 32434 PWs)   bands (ev):

   -70.1958 -70.1945 -70.1941 -70.1941 -70.1929 -70.1929 -70.1925 -70.1912
   -40.2429 -40.2389 -40.2274 -40.2206 -40.2047 -40.1867 -39.9516 -39.9227
   -36.3110 -36.3078 -36.3040 -36.3019 -36.3013 -36.3005 -36.2869 -36.2857
   -36.2841 -36.2814 -36.2699 -36.2683 -36.2677 -36.2668 -36.2614 -36.2613
   -36.2604 -36.2600 -36.2595 -36.2590 -36.2436 -36.2417 -36.2417 -36.2396
   -16.6192 -16.5849 -16.5835 -16.5819 -16.5765 -16.5583 -16.5580 -16.5333
   -16.5313 -16.5202 -16.5082 -16.5077 -16.4227 -16.4199 -16.4158 -16.4104
   -16.3984 -16.3982 -16.3679 -16.2772 -16.2150 -16.2144 -16.1953 -16.1952
     8.1097  10.7263  10.8764  11.8036  12.3012  12.7958  12.8780  12.9689
    13.5175  13.6140  13.7050  13.7187  13.7542  13.7772  13.9170  13.9206
    14.1301  14.2619  14.3007  14.3265  14.4089  14.5532  14.6476  14.7198
    14.7594  14.7938  14.8605  14.8813  14.9043  14.9634  14.9904  15.0547
    15.0655  15.0837  15.1484  15.2089  15.2802  15.3071  15.3510  15.3645
    15.4567  15.4907  15.5394  15.5473  15.5674  15.6220  15.6258  15.9103
    16.5879  16.8905  16.9856  17.0236  17.0787  17.3008  17.3808  17.3912
    17.3998  17.5620  17.6392  17.6498  17.7089  17.8003  17.8047  17.8050
    17.9444  17.9859  18.0320  18.0532  18.0951  18.1923  18.2286  18.3552

          k = 0.1673-0.0836-0.2376 ( 32462 PWs)   bands (ev):

   -70.1958 -70.1958 -70.1941 -70.1941 -70.1929 -70.1929 -70.1912 -70.1912
   -40.2394 -40.2394 -40.2301 -40.2301 -40.1917 -40.1917 -39.9366 -39.9366
   -36.3138 -36.3138 -36.3088 -36.3088 -36.3005 -36.3005 -36.2861 -36.2861
   -36.2826 -36.2826 -36.2701 -36.2701 -36.2618 -36.2618 -36.2550 -36.2550
   -36.2520 -36.2520 -36.2515 -36.2515 -36.2514 -36.2514 -36.2492 -36.2492
   -16.6262 -16.6262 -16.5716 -16.5716 -16.5537 -16.5537 -16.5172 -16.5172
   -16.5124 -16.5124 -16.5026 -16.5026 -16.4499 -16.4499 -16.4403 -16.4403
   -16.4057 -16.4057 -16.3466 -16.3466 -16.2044 -16.2044 -16.1666 -16.1666
     9.1859   9.1859  11.4888  11.4888  12.4604  12.4604  13.0954  13.0954
    13.5533  13.5533  13.7594  13.7594  13.7988  13.7988  13.8807  13.8807
    13.9541  13.9541  14.3180  14.3180  14.4940  14.4940  14.5819  14.5819
    14.6330  14.6330  14.8136  14.8136  15.0419  15.0419  15.0808  15.0808
    15.1265  15.1265  15.1860  15.1860  15.3179  15.3179  15.3241  15.3241
    15.3759  15.3759  15.4249  15.4249  15.4746  15.4746  15.8887  15.8887
    16.8836  16.8837  17.2796  17.2796  17.3383  17.3383  17.3796  17.3796
    17.3997  17.3997  17.4342  17.4342  17.5981  17.5981  17.7209  17.7209
    17.7789  17.7789  17.9734  17.9734  18.0918  18.0918  18.4951  18.4951

          k =-0.2509-0.1673 0.0792 ( 32462 PWs)   bands (ev):

   -70.1952 -70.1948 -70.1939 -70.1935 -70.1935 -70.1931 -70.1922 -70.1919
   -40.2408 -40.2385 -40.2240 -40.2213 -40.2069 -40.1891 -39.9519 -39.9230
   -36.3062 -36.3050 -36.3048 -36.3043 -36.2949 -36.2941 -36.2921 -36.2917
   -36.2781 -36.2776 -36.2755 -36.2743 -36.2654 -36.2651 -36.2644 -36.2635
   -36.2609 -36.2606 -36.2605 -36.2603 -36.2428 -36.2425 -36.2408 -36.2404
   -16.6148 -16.5885 -16.5824 -16.5773 -16.5573 -16.5352 -16.5293 -16.5086
   -16.5081 -16.5045 -16.4900 -16.4869 -16.4821 -16.4667 -16.4207 -16.4198
   -16.4131 -16.3983 -16.3689 -16.2777 -16.2384 -16.2176 -16.2150 -16.1955
     8.1461  10.7577  11.0853  11.5992  12.2144  12.8607  12.8654  13.2063
    13.5753  13.7486  13.7868  13.7998  13.8013  13.8249  14.0112  14.0368
    14.0384  14.0659  14.1569  14.5543  14.6398  14.6565  14.6604  14.7033
    14.7040  14.7095  14.7588  14.8247  14.8358  14.8900  14.9018  14.9334
    15.0522  15.1068  15.1334  15.1632  15.2409  15.2664  15.2760  15.2855
    15.3144  15.3542  15.3649  15.3841  15.4439  15.4471  15.7909  15.7922
    16.6875  16.9135  16.9818  17.0271  17.0617  17.3849  17.4357  17.5939
    17.5975  17.6571  17.6586  17.6859  17.7264  17.8004  17.8223  17.8843
    17.9286  17.9328  18.0821  18.0835  18.1162  18.1354  18.2484  18.3056

          k =-0.0836-0.2509 0.1584 ( 32462 PWs)   bands (ev):

   -70.1955 -70.1951 -70.1947 -70.1944 -70.1926 -70.1923 -70.1919 -70.1915
   -40.2416 -40.2355 -40.2322 -40.2256 -40.1988 -40.1882 -39.9452 -39.9285
   -36.3117 -36.3109 -36.3104 -36.3098 -36.2930 -36.2919 -36.2901 -36.2891
   -36.2808 -36.2797 -36.2778 -36.2765 -36.2600 -36.2591 -36.2589 -36.2580
   -36.2567 -36.2566 -36.2565 -36.2561 -36.2470 -36.2467 -36.2445 -36.2441
   -16.6310 -16.6186 -16.5655 -16.5610 -16.5569 -16.5489 -16.5285 -16.5114
   -16.5020 -16.4982 -16.4975 -16.4905 -16.4733 -16.4653 -16.4584 -16.4566
   -16.4020 -16.3502 -16.3478 -16.3426 -16.2334 -16.2215 -16.1719 -16.1619
     8.5519  10.0226  11.0396  11.9231  12.0399  12.8663  13.0265  13.2013
    13.5343  13.5727  13.7089  13.7708  13.8313  13.8385  13.8469  13.9257
    13.9762  14.0231  14.1389  14.5285  14.5919  14.6071  14.6242  14.6338
    14.6639  14.6677  14.6895  14.7266  14.9540  14.9678  15.0736  15.0943
    15.0945  15.1112  15.1664  15.2379  15.2744  15.2849  15.2941  15.3144
    15.3182  15.3470  15.3795  15.4509  15.4839  15.4859  15.8505  15.8584
    16.7227  17.0445  17.2271  17.2724  17.2826  17.2918  17.2987  17.3926
    17.4056  17.4444  17.5046  17.5781  17.6332  17.6446  17.6535  17.7007
    17.8661  17.9371  17.9889  18.0088  18.0196  18.0283  18.3917  18.4902

          k =-0.2509 0.2509 0.0792 ( 32460 PWs)   bands (ev):

   -70.1945 -70.1941 -70.1941 -70.1938 -70.1932 -70.1929 -70.1929 -70.1925
   -40.2382 -40.2382 -40.2210 -40.2210 -40.2095 -40.1921 -39.9522 -39.9234
   -36.3005 -36.3005 -36.3005 -36.2980 -36.2980 -36.2973 -36.2969 -36.2940
   -36.2758 -36.2733 -36.2718 -36.2718 -36.2715 -36.2691 -36.2691 -36.2690
   -36.2608 -36.2606 -36.2606 -36.2603 -36.2420 -36.2416 -36.2416 -36.2412
   -16.6108 -16.5865 -16.5865 -16.5373 -16.5122 -16.5119 -16.4970 -16.4964
   -16.4875 -16.4873 -16.4873 -16.4869 -16.4867 -16.4865 -16.4696 -16.4696
   -16.4194 -16.4194 -16.3700 -16.2781 -16.2388 -16.2388 -16.2179 -16.2179
     8.1742  10.7899  11.5884  11.5884  11.6323  12.8198  13.2180  13.2181
    13.3567  13.8282  13.8406  13.8406  13.9871  14.0773  14.0773  14.1168
    14.3432  14.3432  14.3852  14.3944  14.4143  14.4725  14.4725  14.5177
    14.5684  14.7237  14.7336  14.7337  14.8085  14.9153  14.9302  14.9302
    14.9436  14.9439  14.9439  14.9941  15.2270  15.2366  15.2366  15.2577
    15.2817  15.2817  15.3527  15.3694  15.5258  15.5349  15.5464  15.5464
    16.7602  16.9211  17.0428  17.0428  17.0584  17.5514  17.5631  17.5631
    17.6711  17.8066  17.8066  17.8486  17.9149  17.9149  17.9197  17.9216
    17.9529  17.9529  18.0268  18.0340  18.2238  18.2389  18.2490  18.2883

          k = 0.1673-0.1673 0.1584 ( 32390 PWs)   bands (ev):

   -70.1956 -70.1948 -70.1939 -70.1939 -70.1931 -70.1931 -70.1922 -70.1915
   -40.2396 -40.2350 -40.2307 -40.2245 -40.2009 -40.1905 -39.9455 -39.9288
   -36.3103 -36.3085 -36.3035 -36.3019 -36.3016 -36.3008 -36.2867 -36.2860
   -36.2835 -36.2820 -36.2695 -36.2682 -36.2682 -36.2672 -36.2602 -36.2594
   -36.2572 -36.2571 -36.2560 -36.2557 -36.2469 -36.2458 -36.2458 -36.2439
   -16.5769 -16.5726 -16.5656 -16.5630 -16.5627 -16.5496 -16.5334 -16.5265
   -16.5177 -16.5127 -16.5103 -16.4986 -16.4591 -16.4550 -16.4126 -16.4078
   -16.4030 -16.4021 -16.4008 -16.3485 -16.2108 -16.2104 -16.1994 -16.1993
     8.5717  10.0499  11.2038  12.0624  12.2801  12.5801  12.7552  13.1469
    13.3245  13.8131  13.8234  13.8647  13.8699  13.9228  14.0127  14.1484
    14.1778  14.1823  14.2334  14.2399  14.4066  14.5385  14.6092  14.6598
    14.7786  14.7943  14.8030  14.8787  14.8973  14.9425  14.9564  14.9870
    15.0125  15.0287  15.0722  15.0744  15.1024  15.1358  15.1652  15.1953
    15.2331  15.2418  15.2489  15.3812  15.3941  15.4129  15.4140  15.7941
    16.7505  17.0597  17.2703  17.3413  17.3615  17.4262  17.4827  17.5288
    17.5600  17.5715  17.6802  17.7037  17.7612  17.8300  17.8596  17.8692
    17.8889  17.8991  17.9296  18.0965  18.0968  18.1503  18.2995  18.4402

          k = 0.1673-0.1673-0.2376 ( 32458 PWs)   bands (ev):

   -70.1952 -70.1952 -70.1935 -70.1935 -70.1935 -70.1935 -70.1918 -70.1918
   -40.2352 -40.2352 -40.2297 -40.2297 -40.1957 -40.1957 -39.9372 -39.9372
   -36.3094 -36.3094 -36.3027 -36.3027 -36.3012 -36.3012 -36.2864 -36.2864
   -36.2828 -36.2828 -36.2688 -36.2688 -36.2677 -36.2677 -36.2598 -36.2598
   -36.2516 -36.2516 -36.2515 -36.2515 -36.2513 -36.2513 -36.2498 -36.2498
   -16.5701 -16.5701 -16.5674 -16.5674 -16.5203 -16.5203 -16.5144 -16.5144
   -16.5096 -16.5096 -16.5023 -16.5023 -16.4518 -16.4518 -16.4433 -16.4433
   -16.4071 -16.4071 -16.4043 -16.4043 -16.2051 -16.2051 -16.2049 -16.2049
     9.2618   9.2618  11.7008  11.7008  12.4182  12.4182  12.9674  12.9674
    13.5348  13.5348  14.0178  14.0178  14.0406  14.0406  14.0580  14.0580
    14.0697  14.0697  14.3161  14.3161  14.5492  14.5492  14.5683  14.5683
    14.6222  14.6222  14.8632  14.8632  14.9164  14.9164  14.9257  14.9257
    15.0135  15.0135  15.0183  15.0183  15.0416  15.0416  15.1596  15.1596
    15.1805  15.1805  15.1833  15.1833  15.2691  15.2691  15.5719  15.5719
    16.9361  16.9361  17.4504  17.4504  17.5311  17.5311  17.5545  17.5545
    17.5917  17.5917  17.6342  17.6342  17.8002  17.8002  17.8599  17.8599
    17.9104  17.9104  17.9812  17.9813  18.2393  18.2393  18.5350  18.5350

          k =-0.2509-0.1673 0.1584 ( 32458 PWs)   bands (ev):

   -70.1949 -70.1945 -70.1941 -70.1938 -70.1932 -70.1929 -70.1925 -70.1921
   -40.2372 -40.2349 -40.2276 -40.2250 -40.2031 -40.1929 -39.9458 -39.9292
   -36.3058 -36.3050 -36.3047 -36.3044 -36.2949 -36.2943 -36.2921 -36.2919
   -36.2780 -36.2777 -36.2753 -36.2745 -36.2654 -36.2653 -36.2643 -36.2638
   -36.2567 -36.2565 -36.2565 -36.2562 -36.2465 -36.2462 -36.2451 -36.2447
   -16.5731 -16.5617 -16.5583 -16.5533 -16.5359 -16.5247 -16.5124 -16.5046
   -16.5010 -16.5009 -16.4937 -16.4901 -16.4790 -16.4700 -16.4563 -16.4554
   -16.4103 -16.4041 -16.4014 -16.3492 -16.2341 -16.2221 -16.2109 -16.1997
     8.6098  10.0884  11.3909  11.9021  12.3812  12.5079  12.8370  13.1337
    13.3442  13.7611  13.9744  13.9926  14.0245  14.0344  14.0885  14.0904
    14.1237  14.2167  14.2173  14.5457  14.5711  14.6142  14.6275  14.6319
    14.7244  14.7245  14.7714  14.7739  14.7793  14.8035  14.8825  14.9033
    14.9389  14.9722  15.0401  15.0724  15.0763  15.0763  15.0938  15.1091
    15.1109  15.1288  15.1444  15.1619  15.2588  15.2698  15.5374  15.5461
    16.8143  17.0748  17.3387  17.3946  17.4565  17.5087  17.5660  17.6549
    17.6569  17.6941  17.7203  17.7495  17.8164  17.8215  17.8359  17.8614
    17.9403  18.0482  18.0673  18.1587  18.1830  18.1957  18.3192  18.4720

          k =-0.2509 0.2509 0.1584 ( 32460 PWs)   bands (ev):

   -70.1942 -70.1939 -70.1939 -70.1935 -70.1935 -70.1931 -70.1931 -70.1928
   -40.2346 -40.2346 -40.2247 -40.2247 -40.2058 -40.1958 -39.9462 -39.9295
   -36.3000 -36.3000 -36.2998 -36.2985 -36.2985 -36.2980 -36.2963 -36.2947
   -36.2753 -36.2738 -36.2713 -36.2713 -36.2710 -36.2697 -36.2697 -36.2696
   -36.2568 -36.2565 -36.2565 -36.2562 -36.2460 -36.2456 -36.2456 -36.2453
   -16.5516 -16.5516 -16.5423 -16.5071 -16.5068 -16.5035 -16.4949 -16.4943
   -16.4924 -16.4910 -16.4889 -16.4886 -16.4837 -16.4837 -16.4732 -16.4732
   -16.4549 -16.4549 -16.4056 -16.3499 -16.2344 -16.2344 -16.2223 -16.2223
     8.6398  10.1226  11.8898  11.8899  11.9406  12.8281  12.8281  12.9201
    13.1022  13.8946  14.0585  14.0686  14.0686  14.2977  14.2977  14.3712
    14.3712  14.3824  14.4244  14.4264  14.4777  14.4777  14.4997  14.5299
    14.5561  14.7631  14.7631  14.7681  14.8272  14.8390  14.8440  14.8440
    14.8908  14.8908  14.8942  14.9300  14.9300  14.9441  14.9476  14.9490
    15.0801  15.0801  15.1520  15.1558  15.2135  15.2234  15.2303  15.2303
    16.8628  17.0836  17.4640  17.4640  17.4877  17.6734  17.6900  17.6900
    17.7926  17.8172  17.8172  17.8583  17.8823  17.9101  17.9101  17.9978
    18.0323  18.0857  18.2280  18.2280  18.3169  18.3498  18.3498  18.3983

     the Fermi energy is    16.7041 ev

!    total energy              =   -3590.79484493 Ry
     estimated scf accuracy    <          4.9E-11 Ry
     smearing contrib. (-TS)   =      -0.00020928 Ry
     internal energy E=F+TS    =   -3590.79463565 Ry

     The total energy is F=E-TS. E is the sum of the following terms:
     one-electron contribution =   -1263.55769863 Ry
     hartree contribution      =     752.64026318 Ry
     xc contribution           =    -424.28676543 Ry
     ewald contribution        =   -2046.37587696 Ry
     one-center paw contrib.   =    -609.21455781 Ry

     convergence has been achieved in  28 iterations

     negative rho (up, down):  7.661E-03 0.000E+00

     Forces acting on atoms (cartesian axes, Ry/au):

     atom    1 type  1   force =    -0.00206747   -0.00206747   -0.00000000
     atom    2 type  1   force =     0.00206865    0.00206865    0.00000000
     atom    3 type  1   force =     0.00206826   -0.00206881   -0.00000000
     atom    4 type  1   force =    -0.00206728    0.00206747    0.00000000
     atom    5 type  1   force =    -0.00206860   -0.00206860   -0.00000000
     atom    6 type  1   force =     0.00206746    0.00206746    0.00000000
     atom    7 type  1   force =     0.00206747   -0.00206728   -0.00000000
     atom    8 type  1   force =    -0.00206881    0.00206826    0.00000000
     atom    9 type  2   force =    -0.00000024   -0.00000024    0.00000045
     atom   10 type  2   force =     0.00000021    0.00000021    0.00000040
     atom   11 type  2   force =     0.00000023   -0.00000015    0.00000046
     atom   12 type  2   force =    -0.00000015    0.00000023   -0.00000046
     atom   13 type  2   force =    -0.00000024   -0.00000024   -0.00000045
     atom   14 type  2   force =     0.00000021    0.00000021   -0.00000040
     atom   15 type  2   force =     0.00000023   -0.00000015   -0.00000046
     atom   16 type  2   force =    -0.00000015    0.00000023    0.00000046
     atom   17 type  3   force =     0.00000016    0.00000016    0.00000000
     atom   18 type  3   force =     0.00000007    0.00000007    0.00000000

     Total force =     0.008272     Total SCF correction =     0.000032


     Computing stress (Cartesian axis) and pressure


     negative rho (up, down):  7.661E-03 0.000E+00
          total   stress  (Ry/bohr**3)                   (kbar)     P=       -8.19
  -0.00015002  -0.00000002   0.00000000          -22.07       -0.00        0.00
  -0.00000002  -0.00015002  -0.00000000           -0.00      -22.07       -0.00
   0.00000000  -0.00000000   0.00013300            0.00       -0.00       19.56

     Energy error            =      9.3E-03 Ry
     Gradient error          =      2.1E-03 Ry/Bohr
     Cell gradient error     =      2.2E+01 kbar

     number of scf cycles    =   3
     number of bfgs steps    =   2

     enthalpy           old  =   -3590.7855521684 Ry
     enthalpy           new  =   -3590.7948449296 Ry

     CASE: enthalpy          _new < enthalpy          _old

     new trust radius        =       0.0902030331 bohr
     new conv_thr            =       0.0000000002 Ry

     new unit-cell volume =   1445.80405 a.u.^3 (   214.24606 Ang^3 )
     density =      6.44628 g/cm^3

CELL_PARAMETERS (alat=  5.58242261)
   1.975643137  -0.000003702  -0.000000000
  -0.000003702   1.975643137  -0.000000000
   0.000000000  -0.000000000   2.129238461

ATOMIC_POSITIONS (crystal)
Fe              -0.0026586467       -0.0026586467        0.0000000000
Fe               0.5026580391        0.5026580391        0.0000000000
Fe               0.5026583114       -0.0026582937       -0.0000000000
Fe              -0.0026582968        0.5026584541        0.5000000000
Fe              -0.0026579349       -0.0026579349        0.5000000000
Fe               0.5026580472        0.5026580472        0.5000000000
Fe               0.5026584541       -0.0026582968        0.5000000000
Fe              -0.0026582937        0.5026583114       -0.0000000000
Ti               0.2499999624        0.2499999624        0.2499999808
Ti               0.7500000751        0.7500000751        0.2499999665
Ti               0.7500000969        0.2499999926        0.2499999423
Ti               0.2499999926        0.7500000969        0.7500000577
Ti               0.2499999624        0.2499999624        0.7500000192
Ti               0.7500000751        0.7500000751        0.7500000335
Ti               0.7500000969        0.2499999926        0.7500000577
Ti               0.2499999926        0.7500000969        0.2499999423
H                0.2500000403        0.2500000403        0.0000000000
H                0.2500000259        0.2500000259        0.5000000000



     Writing config-only to output data dir ./TiFeH_supercell.save/ :
     XML data file     NEW-OLD atomic charge density approx. for the potential
     New effective cutoffs (rho, wfc): 1778.88  127.07

     Check: negative core charge=   -0.000001

     negative rho (up, down):  7.628E-03 0.000E+00

     total cpu time spent up to now is     5591.9 secs

     per-process dynamical memory:   458.4 Mb

     Self-consistent Calculation

     iteration #  1     ecut=   124.00 Ry     beta= 0.70
     Davidson diagonalization with overlap
     c_bands:  1 eigenvalues not converged
     ethr =  1.00E-06,  avg # of iterations =  9.2

     negative rho (up, down):  7.658E-03 0.000E+00

     total cpu time spent up to now is     5723.7 secs

     total energy              =   -3590.79188588 Ry
     estimated scf accuracy    <       0.00782786 Ry

     iteration #  2     ecut=   124.00 Ry     beta= 0.70
     Davidson diagonalization with overlap
     c_bands:  1 eigenvalues not converged
     ethr =  3.46E-06,  avg # of iterations = 11.6

     negative rho (up, down):  7.592E-03 0.000E+00

     total cpu time spent up to now is     5816.6 secs

     total energy              =   -3590.76726599 Ry
     estimated scf accuracy    <       0.45684000 Ry

     iteration #  3     ecut=   124.00 Ry     beta= 0.70
     Davidson diagonalization with overlap
     c_bands:  1 eigenvalues not converged
     c_bands:  2 eigenvalues not converged
     c_bands:  1 eigenvalues not converged
     ethr =  3.46E-06,  avg # of iterations = 10.1

     negative rho (up, down):  7.631E-03 0.000E+00

     total cpu time spent up to now is     5902.8 secs

     total energy              =   -3590.79622663 Ry
     estimated scf accuracy    <       0.02163239 Ry

     iteration #  4     ecut=   124.00 Ry     beta= 0.70
     Davidson diagonalization with overlap
     ethr =  3.46E-06,  avg # of iterations =  5.6

     negative rho (up, down):  7.645E-03 0.000E+00

     total cpu time spent up to now is     5954.9 secs

     total energy              =   -3590.79799931 Ry
     estimated scf accuracy    <       0.00845771 Ry

     iteration #  5     ecut=   124.00 Ry     beta= 0.70
     Davidson diagonalization with overlap
     ethr =  3.46E-06,  avg # of iterations =  2.4

     negative rho (up, down):  7.645E-03 0.000E+00

     total cpu time spent up to now is     5996.3 secs

     total energy              =   -3590.79752402 Ry
     estimated scf accuracy    <       0.03297115 Ry

     iteration #  6     ecut=   124.00 Ry     beta= 0.70
     Davidson diagonalization with overlap
     ethr =  3.46E-06,  avg # of iterations =  1.4

     negative rho (up, down):  7.643E-03 0.000E+00

     total cpu time spent up to now is     6032.9 secs

     total energy              =   -3590.79843147 Ry
     estimated scf accuracy    <       0.00121555 Ry

     iteration #  7     ecut=   124.00 Ry     beta= 0.70
     Davidson diagonalization with overlap
     ethr =  5.38E-07,  avg # of iterations =  2.7

     negative rho (up, down):  7.639E-03 0.000E+00

     total cpu time spent up to now is     6076.3 secs

     total energy              =   -3590.79853531 Ry
     estimated scf accuracy    <       0.00025124 Ry

     iteration #  8     ecut=   124.00 Ry     beta= 0.70
     Davidson diagonalization with overlap
     ethr =  1.11E-07,  avg # of iterations =  5.1

     negative rho (up, down):  7.635E-03 0.000E+00

     total cpu time spent up to now is     6129.4 secs

     total energy              =   -3590.79843668 Ry
     estimated scf accuracy    <       0.00463191 Ry

     iteration #  9     ecut=   124.00 Ry     beta= 0.70
     Davidson diagonalization with overlap
     ethr =  1.11E-07,  avg # of iterations =  4.6

     negative rho (up, down):  7.637E-03 0.000E+00

     total cpu time spent up to now is     6178.6 secs

     total energy              =   -3590.79858590 Ry
     estimated scf accuracy    <       0.00004719 Ry

     iteration # 10     ecut=   124.00 Ry     beta= 0.70
     Davidson diagonalization with overlap
     ethr =  2.09E-08,  avg # of iterations =  4.2

     negative rho (up, down):  7.639E-03 0.000E+00

     total cpu time spent up to now is     6227.4 secs

     total energy              =   -3590.79857488 Ry
     estimated scf accuracy    <       0.00064346 Ry

     iteration # 11     ecut=   124.00 Ry     beta= 0.70
     Davidson diagonalization with overlap
     ethr =  2.09E-08,  avg # of iterations =  4.0

     negative rho (up, down):  7.639E-03 0.000E+00

     total cpu time spent up to now is     6272.3 secs

     total energy              =   -3590.79859233 Ry
     estimated scf accuracy    <       0.00000819 Ry

     iteration # 12     ecut=   124.00 Ry     beta= 0.70
     Davidson diagonalization with overlap
     ethr =  3.62E-09,  avg # of iterations =  4.5

     negative rho (up, down):  7.639E-03 0.000E+00

     total cpu time spent up to now is     6323.6 secs

     total energy              =   -3590.79859188 Ry
     estimated scf accuracy    <       0.00005842 Ry

     iteration # 13     ecut=   124.00 Ry     beta= 0.70
     Davidson diagonalization with overlap
     ethr =  3.62E-09,  avg # of iterations =  4.0

     negative rho (up, down):  7.639E-03 0.000E+00

     total cpu time spent up to now is     6370.5 secs

     total energy              =   -3590.79859402 Ry
     estimated scf accuracy    <       0.00000282 Ry

     iteration # 14     ecut=   124.00 Ry     beta= 0.70
     Davidson diagonalization with overlap
     ethr =  1.25E-09,  avg # of iterations =  4.0

     negative rho (up, down):  7.639E-03 0.000E+00

     total cpu time spent up to now is     6419.0 secs

     total energy              =   -3590.79859399 Ry
     estimated scf accuracy    <       0.00001021 Ry

     iteration # 15     ecut=   124.00 Ry     beta= 0.70
     Davidson diagonalization with overlap
     ethr =  1.25E-09,  avg # of iterations =  2.5

     negative rho (up, down):  7.639E-03 0.000E+00

     total cpu time spent up to now is     6461.7 secs

     total energy              =   -3590.79859430 Ry
     estimated scf accuracy    <       0.00000274 Ry

     iteration # 16     ecut=   124.00 Ry     beta= 0.70
     Davidson diagonalization with overlap
     ethr =  1.21E-09,  avg # of iterations =  1.2

     negative rho (up, down):  7.639E-03 0.000E+00

     total cpu time spent up to now is     6498.2 secs

     total energy              =   -3590.79859440 Ry
     estimated scf accuracy    <       0.00000086 Ry

     iteration # 17     ecut=   124.00 Ry     beta= 0.70
     Davidson diagonalization with overlap
     ethr =  3.83E-10,  avg # of iterations =  2.4

     negative rho (up, down):  7.639E-03 0.000E+00

     total cpu time spent up to now is     6539.5 secs

     total energy              =   -3590.79859444 Ry
     estimated scf accuracy    <       0.00000075 Ry

     iteration # 18     ecut=   124.00 Ry     beta= 0.70
     Davidson diagonalization with overlap
     ethr =  3.32E-10,  avg # of iterations =  1.2

     negative rho (up, down):  7.639E-03 0.000E+00

     total cpu time spent up to now is     6575.9 secs

     total energy              =   -3590.79859448 Ry
     estimated scf accuracy    <       0.00000010 Ry

     iteration # 19     ecut=   124.00 Ry     beta= 0.70
     Davidson diagonalization with overlap
     ethr =  4.49E-11,  avg # of iterations =  3.5

     negative rho (up, down):  7.639E-03 0.000E+00

     total cpu time spent up to now is     6619.8 secs

     total energy              =   -3590.79859449 Ry
     estimated scf accuracy    <       0.00000012 Ry

     iteration # 20     ecut=   124.00 Ry     beta= 0.70
     Davidson diagonalization with overlap
     ethr =  4.49E-11,  avg # of iterations =  1.1

     negative rho (up, down):  7.639E-03 0.000E+00

     total cpu time spent up to now is     6655.9 secs

     total energy              =   -3590.79859449 Ry
     estimated scf accuracy    <       0.00000002 Ry

     iteration # 21     ecut=   124.00 Ry     beta= 0.70
     Davidson diagonalization with overlap
     ethr =  7.08E-12,  avg # of iterations =  3.2

     negative rho (up, down):  7.639E-03 0.000E+00

     total cpu time spent up to now is     6698.5 secs

     total energy              =   -3590.79859449 Ry
     estimated scf accuracy    <          7.3E-09 Ry

     iteration # 22     ecut=   124.00 Ry     beta= 0.70
     Davidson diagonalization with overlap
     ethr =  3.22E-12,  avg # of iterations =  2.3

     negative rho (up, down):  7.639E-03 0.000E+00

     total cpu time spent up to now is     6738.9 secs

     total energy              =   -3590.79859449 Ry
     estimated scf accuracy    <          2.0E-09 Ry

     iteration # 23     ecut=   124.00 Ry     beta= 0.70
     Davidson diagonalization with overlap
     ethr =  9.01E-13,  avg # of iterations =  4.8

     negative rho (up, down):  7.639E-03 0.000E+00

     total cpu time spent up to now is     6794.9 secs

     total energy              =   -3590.79859449 Ry
     estimated scf accuracy    <       0.00000003 Ry

     iteration # 24     ecut=   124.00 Ry     beta= 0.70
     Davidson diagonalization with overlap
     ethr =  9.01E-13,  avg # of iterations =  4.7

     negative rho (up, down):  7.639E-03 0.000E+00

     total cpu time spent up to now is     6847.2 secs

     total energy              =   -3590.79859449 Ry
     estimated scf accuracy    <          4.5E-09 Ry

     iteration # 25     ecut=   124.00 Ry     beta= 0.70
     Davidson diagonalization with overlap
     ethr =  9.01E-13,  avg # of iterations =  2.3

     negative rho (up, down):  7.639E-03 0.000E+00

     total cpu time spent up to now is     6888.0 secs

     total energy              =   -3590.79859449 Ry
     estimated scf accuracy    <          4.8E-10 Ry

     iteration # 26     ecut=   124.00 Ry     beta= 0.70
     Davidson diagonalization with overlap
     ethr =  2.12E-13,  avg # of iterations =  4.0

     negative rho (up, down):  7.639E-03 0.000E+00

     total cpu time spent up to now is     6934.2 secs

     total energy              =   -3590.79859449 Ry
     estimated scf accuracy    <          5.5E-10 Ry

     iteration # 27     ecut=   124.00 Ry     beta= 0.70
     Davidson diagonalization with overlap
     ethr =  2.12E-13,  avg # of iterations =  2.3

     negative rho (up, down):  7.639E-03 0.000E+00

     total cpu time spent up to now is     6975.9 secs

     total energy              =   -3590.79859449 Ry
     estimated scf accuracy    <          1.3E-09 Ry

     iteration # 28     ecut=   124.00 Ry     beta= 0.70
     Davidson diagonalization with overlap
     ethr =  2.12E-13,  avg # of iterations =  1.4

     negative rho (up, down):  7.639E-03 0.000E+00

     total cpu time spent up to now is     7013.1 secs

     End of self-consistent calculation

          k = 0.0000 0.0000 0.0000 ( 32423 PWs)   bands (ev):

   -70.0748 -70.0735 -70.0710 -70.0710 -70.0697 -70.0697 -70.0673 -70.0660
   -40.1258 -40.1154 -40.1150 -40.0927 -40.0559 -40.0365 -39.8803 -39.8511
   -36.2088 -36.1994 -36.1922 -36.1922 -36.1892 -36.1892 -36.1665 -36.1580
   -36.1542 -36.1525 -36.1494 -36.1494 -36.1431 -36.1421 -36.1323 -36.1302
   -36.1302 -36.1279 -36.1279 -36.1270 -36.1270 -36.1225 -36.1128 -36.1111
   -16.5576 -16.5554 -16.5554 -16.5245 -16.5245 -16.4708 -16.4708 -16.4648
   -16.4558 -16.4558 -16.4523 -16.3851 -16.2971 -16.2901 -16.2203 -16.1906
   -16.1906 -16.1896 -16.1791 -16.1791 -16.0641 -16.0641 -16.0473 -16.0473
     7.7651  10.4464  10.8312  12.5666  12.5666  12.6887  12.9982  13.0857
    13.0857  13.1698  13.2360  13.2625  13.2916  13.2980  13.3922  13.8568
    14.3683  14.3683  14.6774  14.7387  14.7632  14.7632  14.7702  14.7702
    14.8138  14.8138  14.9372  14.9457  15.0241  15.0241  15.4544  15.5090
    15.5415  15.5480  15.7081  15.7081  15.7513  15.7513  15.8763  15.8763
    16.0301  16.0453  16.2800  16.2852  16.3177  16.4145  16.6207  16.6207
    16.7602  16.9524  16.9763  17.1345  17.1646  17.1646  17.1931  17.1931
    17.4086  17.5256  17.5519  17.5519  17.7300  17.7428  17.7428  17.8191
    17.8886  17.8964  17.8964  17.9776  17.9777  18.0148  18.0593  18.1891

          k = 0.0000 0.0000 0.0783 ( 32427 PWs)   bands (ev):

   -70.0747 -70.0736 -70.0709 -70.0709 -70.0698 -70.0698 -70.0672 -70.0661
   -40.1251 -40.1161 -40.1135 -40.0942 -40.0546 -40.0378 -39.8783 -39.8531
   -36.2082 -36.2000 -36.1920 -36.1920 -36.1894 -36.1894 -36.1659 -36.1585
   -36.1541 -36.1527 -36.1479 -36.1479 -36.1418 -36.1414 -36.1330 -36.1301
   -36.1300 -36.1285 -36.1285 -36.1281 -36.1281 -36.1238 -36.1126 -36.1112
   -16.5533 -16.5533 -16.5363 -16.5264 -16.5264 -16.4699 -16.4699 -16.4569
   -16.4569 -16.4513 -16.4416 -16.3739 -16.3108 -16.3011 -16.2333 -16.2108
   -16.1899 -16.1899 -16.1799 -16.1799 -16.0630 -16.0630 -16.0484 -16.0484
     7.9172  10.5136  10.5751  12.6171  12.6171  12.7722  12.7856  13.0875
    13.0875  13.2314  13.2743  13.2939  13.3501  13.3646  13.4312  13.8897
    14.3684  14.3684  14.4966  14.5162  14.6000  14.6000  14.8066  14.8066
    14.8757  14.8757  14.9935  15.0041  15.0425  15.2380  15.2380  15.3798
    15.4623  15.6757  15.6757  15.7128  15.7128  15.8528  15.8528  15.9999
    16.0672  16.1162  16.1416  16.2327  16.2523  16.2523  16.3867  16.5027
    16.8930  16.9553  16.9749  17.0709  17.1591  17.1591  17.1904  17.1904
    17.3109  17.5142  17.5417  17.5417  17.6508  17.8154  17.8154  17.8877
    17.8877  17.9445  18.0168  18.0168  18.0242  18.0259  18.0850  18.0973

          k = 0.0000 0.0000 0.1566 ( 32412 PWs)   bands (ev):

   -70.0745 -70.0738 -70.0707 -70.0707 -70.0700 -70.0700 -70.0670 -70.0664
   -40.1232 -40.1180 -40.1095 -40.0983 -40.0511 -40.0414 -39.8730 -39.8585
   -36.2064 -36.2017 -36.1915 -36.1915 -36.1899 -36.1899 -36.1643 -36.1601
   -36.1538 -36.1530 -36.1438 -36.1438 -36.1397 -36.1380 -36.1348 -36.1326
   -36.1326 -36.1296 -36.1296 -36.1285 -36.1285 -36.1276 -36.1123 -36.1115
   -16.5474 -16.5474 -16.5319 -16.5319 -16.4794 -16.4673 -16.4673 -16.4599
   -16.4599 -16.4125 -16.4122 -16.3495 -16.3432 -16.3311 -16.2796 -16.2559
   -16.1877 -16.1877 -16.1820 -16.1820 -16.0599 -16.0599 -16.0515 -16.0515
     8.3543   9.8001  10.9478  12.1880  12.7529  12.7529  13.0503  13.0503
    13.0669  13.3750  13.3835  13.4007  13.4783  13.5215  13.5316  13.8478
    14.0258  14.1438  14.3746  14.3746  14.4718  14.4718  14.7597  14.8762
    14.8762  15.0273  15.0273  15.0415  15.1635  15.1757  15.4740  15.4842
    15.4842  15.6434  15.6434  15.6759  15.6759  15.7281  15.7281  15.7742
    15.7920  15.8115  15.8115  16.1290  16.3128  16.4045  16.5513  16.6451
    16.8693  16.8693  16.9410  16.9603  16.9712  17.1386  17.1682  17.1682
    17.1834  17.1834  17.4225  17.4582  17.5360  17.7554  17.8208  18.0317
    18.0602  18.0602  18.1057  18.1057  18.3403  18.3403  18.4635  18.5156

          k =-0.0000-0.0000-0.2348 ( 32504 PWs)   bands (ev):

   -70.0741 -70.0741 -70.0704 -70.0704 -70.0703 -70.0703 -70.0667 -70.0666
   -40.1206 -40.1206 -40.1039 -40.1039 -40.0462 -40.0462 -39.8658 -39.8658
   -36.2041 -36.2041 -36.1907 -36.1907 -36.1907 -36.1907 -36.1622 -36.1622
   -36.1534 -36.1534 -36.1382 -36.1382 -36.1382 -36.1382 -36.1373 -36.1373
   -36.1328 -36.1328 -36.1291 -36.1291 -36.1291 -36.1291 -36.1119 -36.1119
   -16.5396 -16.5396 -16.5396 -16.5396 -16.4637 -16.4637 -16.4637 -16.4637
   -16.4087 -16.4087 -16.3717 -16.3717 -16.3516 -16.3516 -16.3007 -16.3007
   -16.1849 -16.1849 -16.1849 -16.1849 -16.0557 -16.0557 -16.0557 -16.0557
     9.0175   9.0175  11.5184  11.5184  12.9239  12.9239  12.9239  12.9239
    13.4615  13.4615  13.4825  13.4825  13.5013  13.5013  13.6908  13.6908
    13.7991  13.7991  14.4024  14.4024  14.4024  14.4024  14.7626  14.7626
    15.1500  15.1500  15.1500  15.1500  15.2550  15.2550  15.2550  15.2550
    15.4336  15.4336  15.4477  15.4477  15.7597  15.7597  15.7597  15.7597
    15.8022  15.8022  16.2178  16.2178  16.2220  16.2220  16.2220  16.2220
    16.9659  16.9659  17.0694  17.0694  17.0942  17.0942  17.1730  17.1730
    17.1730  17.1730  17.3378  17.3378  17.4118  17.4118  17.9660  17.9660
    18.1812  18.1812  18.1812  18.1812  18.7861  18.7861  18.7861  18.7861

          k = 0.0000 0.0844 0.0783 ( 32442 PWs)   bands (ev):

   -70.0744 -70.0733 -70.0711 -70.0706 -70.0701 -70.0696 -70.0674 -70.0664
   -40.1237 -40.1140 -40.1132 -40.0945 -40.0559 -40.0392 -39.8788 -39.8536
   -36.2064 -36.1989 -36.1921 -36.1902 -36.1891 -36.1865 -36.1640 -36.1573
   -36.1560 -36.1545 -36.1475 -36.1474 -36.1421 -36.1419 -36.1332 -36.1319
   -36.1310 -36.1293 -36.1288 -36.1282 -36.1274 -36.1242 -36.1144 -36.1129
   -16.5508 -16.5341 -16.5299 -16.5255 -16.5042 -16.4723 -16.4579 -16.4516
   -16.4510 -16.4424 -16.4381 -16.3751 -16.3095 -16.3009 -16.2332 -16.2142
   -16.2121 -16.2031 -16.1896 -16.1794 -16.0832 -16.0681 -16.0634 -16.0489
     7.9704  10.5424  10.6031  12.5554  12.5765  12.7316  12.8436  12.9261
    13.1401  13.3004  13.3200  13.3909  13.4174  13.4396  13.7494  13.9240
    14.4225  14.4277  14.4356  14.4951  14.5232  14.5675  14.7236  14.7647
    14.8077  14.9206  14.9611  15.0425  15.1149  15.1242  15.1884  15.4171
    15.4274  15.6309  15.6426  15.6770  15.6894  15.7216  15.7703  15.8803
    16.0602  16.1217  16.1316  16.1730  16.2005  16.2339  16.4786  16.5394
    16.5741  16.7251  16.8934  17.0497  17.1744  17.2003  17.2152  17.2768
    17.3638  17.3667  17.4159  17.5159  17.6270  17.6577  17.6701  17.9433
    17.9997  18.0155  18.0607  18.1159  18.1160  18.1564  18.1860  18.4301

          k = 0.0000 0.0844 0.1566 ( 32469 PWs)   bands (ev):

   -70.0742 -70.0736 -70.0709 -70.0704 -70.0703 -70.0698 -70.0672 -70.0666
   -40.1216 -40.1160 -40.1093 -40.0984 -40.0524 -40.0427 -39.8735 -39.8590
   -36.2048 -36.2004 -36.1917 -36.1906 -36.1885 -36.1871 -36.1626 -36.1587
   -36.1557 -36.1548 -36.1435 -36.1434 -36.1401 -36.1384 -36.1351 -36.1327
   -36.1323 -36.1317 -36.1312 -36.1289 -36.1280 -36.1278 -36.1141 -36.1132
   -16.5453 -16.5306 -16.5243 -16.5095 -16.4769 -16.4695 -16.4611 -16.4485
   -16.4411 -16.4147 -16.4112 -16.3476 -16.3444 -16.3311 -16.2798 -16.2575
   -16.2116 -16.2054 -16.1874 -16.1816 -16.0800 -16.0713 -16.0603 -16.0520
     8.4072   9.8434  10.9653  12.1449  12.6820  12.7961  12.8635  13.1142
    13.1366  13.4489  13.4635  13.4931  13.5720  13.5893  13.7446  13.8915
    14.0400  14.1728  14.4125  14.4301  14.4664  14.5242  14.5461  14.7978
    14.8631  14.9541  15.0363  15.0930  15.1463  15.2587  15.3328  15.4422
    15.4685  15.5820  15.5877  15.6100  15.6131  15.6660  15.6889  15.6925
    15.6939  15.7243  15.8542  16.1403  16.1437  16.2553  16.2636  16.5686
    16.6865  16.8256  17.0665  17.0785  17.1588  17.2033  17.2295  17.2321
    17.2500  17.2873  17.4765  17.4810  17.5897  17.6529  17.7851  17.8107
    17.8710  17.9924  18.1055  18.1572  18.2770  18.3845  18.4667  18.7536

          k = 0.0000 0.0844-0.2348 ( 32438 PWs)   bands (ev):

   -70.0739 -70.0739 -70.0706 -70.0706 -70.0701 -70.0701 -70.0669 -70.0669
   -40.1188 -40.1188 -40.1039 -40.1039 -40.0475 -40.0475 -39.8663 -39.8663
   -36.2026 -36.2026 -36.1912 -36.1912 -36.1878 -36.1878 -36.1607 -36.1607
   -36.1553 -36.1553 -36.1381 -36.1381 -36.1379 -36.1379 -36.1376 -36.1376
   -36.1332 -36.1332 -36.1314 -36.1314 -36.1284 -36.1284 -36.1137 -36.1137
   -16.5379 -16.5379 -16.5169 -16.5169 -16.4654 -16.4654 -16.4449 -16.4449
   -16.4060 -16.4060 -16.3722 -16.3722 -16.3525 -16.3525 -16.3019 -16.3019
   -16.2085 -16.2085 -16.1845 -16.1845 -16.0757 -16.0757 -16.0562 -16.0562
     9.0682   9.0682  11.5166  11.5166  12.7658  12.7658  13.0244  13.0244
    13.5469  13.5469  13.5671  13.5671  13.6127  13.6127  13.7385  13.7385
    13.8474  13.8474  14.4174  14.4174  14.4464  14.4464  14.6846  14.6846
    15.0205  15.0205  15.1072  15.1072  15.2344  15.2344  15.2532  15.2532
    15.4320  15.4320  15.5405  15.5405  15.6864  15.6864  15.6865  15.6865
    15.7161  15.7161  15.8710  15.8710  16.1052  16.1052  16.2221  16.2221
    17.0104  17.0104  17.1338  17.1338  17.1749  17.1749  17.2186  17.2186
    17.2798  17.2798  17.3775  17.3775  17.4950  17.4950  17.8788  17.8788
    17.9242  17.9242  18.2000  18.2000  18.5344  18.5344  18.7139  18.7139

          k = 0.0000 0.1687 0.1566 ( 32476 PWs)   bands (ev):

   -70.0735 -70.0729 -70.0716 -70.0710 -70.0698 -70.0691 -70.0679 -70.0672
   -40.1180 -40.1112 -40.1092 -40.0995 -40.0551 -40.0456 -39.8745 -39.8599
   -36.2007 -36.1975 -36.1927 -36.1926 -36.1808 -36.1795 -36.1614 -36.1604
   -36.1575 -36.1546 -36.1425 -36.1424 -36.1418 -36.1394 -36.1392 -36.1375
   -36.1336 -36.1329 -36.1314 -36.1289 -36.1268 -36.1257 -36.1183 -36.1174
   -16.5405 -16.5279 -16.4741 -16.4717 -16.4638 -16.4617 -16.4486 -16.4198
   -16.4091 -16.4030 -16.3955 -16.3469 -16.3427 -16.3323 -16.2802 -16.2752
   -16.2681 -16.2611 -16.1867 -16.1807 -16.1283 -16.1188 -16.0612 -16.0530
     8.5215   9.9361  11.0002  12.0485  12.2390  12.9081  13.1742  13.2487
    13.3118  13.5860  13.6282  13.7072  13.7434  13.7561  13.9045  13.9343
    13.9806  14.2549  14.2771  14.4602  14.5666  14.5730  14.6368  14.6740
    14.7374  14.8433  14.9212  15.0328  15.0743  15.1519  15.3737  15.4076
    15.4446  15.4564  15.4623  15.5014  15.5054  15.5251  15.5495  15.5683
    15.5851  15.6036  15.6261  15.7634  16.0049  16.0694  16.1576  16.2074
    16.7241  17.1425  17.1682  17.2292  17.2361  17.2570  17.3279  17.3368
    17.3753  17.4373  17.4640  17.4689  17.4706  17.5601  17.5703  17.7746
    17.9253  17.9820  18.1198  18.2007  18.2511  18.3603  18.4646  18.5485

          k = 0.0000 0.1687-0.2348 ( 32466 PWs)   bands (ev):

   -70.0732 -70.0732 -70.0713 -70.0713 -70.0695 -70.0695 -70.0676 -70.0675
   -40.1146 -40.1146 -40.1044 -40.1044 -40.0504 -40.0504 -39.8673 -39.8673
   -36.1991 -36.1991 -36.1926 -36.1926 -36.1802 -36.1802 -36.1609 -36.1609
   -36.1561 -36.1561 -36.1403 -36.1403 -36.1377 -36.1377 -36.1369 -36.1369
   -36.1357 -36.1357 -36.1341 -36.1341 -36.1263 -36.1262 -36.1179 -36.1178
   -16.5342 -16.5342 -16.4690 -16.4690 -16.4553 -16.4553 -16.4026 -16.4026
   -16.3962 -16.3962 -16.3753 -16.3753 -16.3534 -16.3534 -16.3046 -16.3046
   -16.2717 -16.2717 -16.1837 -16.1837 -16.1235 -16.1235 -16.0571 -16.0571
     9.1778   9.1778  11.4918  11.4918  12.5650  12.5650  13.2899  13.2899
    13.6383  13.6383  13.7375  13.7375  13.7844  13.7844  13.8614  13.8614
    14.0146  14.0146  14.4038  14.4038  14.5400  14.5400  14.6367  14.6367
    14.7815  14.7815  14.8535  14.8535  15.2483  15.2483  15.3151  15.3151
    15.3306  15.3306  15.3540  15.3540  15.5344  15.5344  15.5349  15.5349
    15.5895  15.5895  15.7715  15.7715  15.8231  15.8231  16.1664  16.1664
    17.0254  17.0254  17.2517  17.2517  17.3241  17.3241  17.3493  17.3493
    17.4144  17.4144  17.4597  17.4597  17.5666  17.5666  17.7137  17.7137
    17.8014  17.8014  18.1126  18.1126  18.1961  18.1961  18.6164  18.6164

          k =-0.0000-0.2531-0.2348 ( 32544 PWs)   bands (ev):

   -70.0725 -70.0725 -70.0720 -70.0720 -70.0688 -70.0688 -70.0682 -70.0682
   -40.1118 -40.1118 -40.1053 -40.1053 -40.0518 -40.0518 -39.8678 -39.8678
   -36.1960 -36.1960 -36.1948 -36.1948 -36.1720 -36.1720 -36.1680 -36.1680
   -36.1504 -36.1504 -36.1463 -36.1463 -36.1373 -36.1373 -36.1369 -36.1369
   -36.1358 -36.1358 -36.1352 -36.1352 -36.1235 -36.1235 -36.1216 -36.1216
   -16.5322 -16.5322 -16.4709 -16.4709 -16.3983 -16.3983 -16.3840 -16.3840
   -16.3808 -16.3808 -16.3720 -16.3720 -16.3534 -16.3534 -16.3353 -16.3353
   -16.3060 -16.3060 -16.1833 -16.1833 -16.1549 -16.1549 -16.0576 -16.0576
     9.2376   9.2376  11.4654  11.4654  12.4954  12.4954  13.5286  13.5286
    13.6329  13.6329  13.7681  13.7681  13.8558  13.8558  13.9752  13.9752
    14.1918  14.1918  14.3596  14.3596  14.5549  14.5549  14.6034  14.6034
    14.6656  14.6656  14.7190  14.7190  15.1637  15.1637  15.1693  15.1693
    15.3805  15.3805  15.3833  15.3833  15.4112  15.4112  15.4190  15.4190
    15.5460  15.5460  15.6313  15.6313  15.9910  15.9910  16.0109  16.0109
    17.0832  17.0832  17.3177  17.3177  17.3496  17.3496  17.4410  17.4410
    17.4557  17.4557  17.5034  17.5034  17.5263  17.5263  17.6289  17.6289
    17.7552  17.7552  18.1013  18.1013  18.2846  18.2846  18.3742  18.3742

          k = 0.0844 0.0844 0.0783 ( 32444 PWs)   bands (ev):

   -70.0742 -70.0731 -70.0709 -70.0709 -70.0698 -70.0698 -70.0677 -70.0666
   -40.1222 -40.1129 -40.1119 -40.0946 -40.0573 -40.0407 -39.8793 -39.8541
   -36.2044 -36.1976 -36.1898 -36.1887 -36.1875 -36.1873 -36.1622 -36.1577
   -36.1562 -36.1561 -36.1471 -36.1471 -36.1425 -36.1423 -36.1328 -36.1322
   -36.1307 -36.1303 -36.1302 -36.1285 -36.1285 -36.1245 -36.1163 -36.1147
   -16.5321 -16.5282 -16.5268 -16.5032 -16.5031 -16.4552 -16.4514 -16.4512
   -16.4435 -16.4393 -16.4388 -16.3764 -16.3083 -16.3006 -16.2333 -16.2154
   -16.2133 -16.2124 -16.2028 -16.2026 -16.0839 -16.0834 -16.0687 -16.0686
     8.0181  10.5713  10.6462  12.5078  12.6181  12.7385  12.7789  12.8919
    13.0668  13.3660  13.4187  13.4379  13.4910  13.7001  13.8563  13.9729
    14.3709  14.4500  14.4595  14.4944  14.5488  14.5846  14.6135  14.7273
    14.8443  14.8806  14.9817  15.0225  15.0454  15.1333  15.2078  15.3454
    15.3512  15.4797  15.5801  15.6120  15.6163  15.7504  15.7633  15.9124
    15.9352  16.0440  16.0529  16.0763  16.1432  16.2593  16.2664  16.3083
    16.6469  16.7358  16.8982  16.9017  17.1124  17.1343  17.2536  17.2616
    17.3796  17.4817  17.4998  17.6982  17.7264  17.7417  17.7481  17.7632
    18.0022  18.0045  18.0178  18.0465  18.1806  18.4124  18.4130  18.4229

          k = 0.0844 0.0844 0.1566 ( 32476 PWs)   bands (ev):

   -70.0740 -70.0733 -70.0707 -70.0707 -70.0700 -70.0700 -70.0674 -70.0668
   -40.1200 -40.1140 -40.1090 -40.0985 -40.0538 -40.0442 -39.8740 -39.8595
   -36.2030 -36.1990 -36.1893 -36.1884 -36.1878 -36.1878 -36.1610 -36.1575
   -36.1574 -36.1566 -36.1432 -36.1431 -36.1404 -36.1387 -36.1350 -36.1324
   -36.1324 -36.1318 -36.1306 -36.1304 -36.1303 -36.1283 -36.1159 -36.1151
   -16.5228 -16.5217 -16.5085 -16.5080 -16.4746 -16.4520 -16.4490 -16.4428
   -16.4419 -16.4137 -16.4133 -16.3457 -16.3457 -16.3310 -16.2803 -16.2591
   -16.2122 -16.2103 -16.2053 -16.2047 -16.0806 -16.0803 -16.0719 -16.0718
     8.4552   9.8844  11.0009  12.1593  12.6334  12.7668  12.9007  13.0010
    13.1604  13.5446  13.5506  13.5578  13.6452  13.7956  13.8504  13.9488
    14.0644  14.1922  14.3968  14.4473  14.5097  14.5215  14.5421  14.6639
    14.8601  14.9873  15.0420  15.0824  15.1668  15.2474  15.2487  15.3121
    15.4347  15.4589  15.4850  15.5144  15.5563  15.5787  15.6062  15.6810
    15.6867  15.7243  15.7401  15.9182  16.0989  16.1319  16.1476  16.2453
    16.6282  16.9724  17.1310  17.1795  17.1935  17.2014  17.3338  17.3514
    17.3738  17.4302  17.5328  17.5562  17.6000  17.6202  17.8184  17.8740
    17.9233  17.9656  18.0071  18.0225  18.3206  18.3678  18.6253  18.7474

          k = 0.0844 0.0844-0.2348 ( 32474 PWs)   bands (ev):

   -70.0736 -70.0736 -70.0704 -70.0704 -70.0704 -70.0704 -70.0671 -70.0671
   -40.1170 -40.1170 -40.1038 -40.1038 -40.0490 -40.0490 -39.8668 -39.8668
   -36.2010 -36.2010 -36.1886 -36.1886 -36.1881 -36.1881 -36.1592 -36.1592
   -36.1570 -36.1570 -36.1379 -36.1379 -36.1378 -36.1377 -36.1377 -36.1377
   -36.1335 -36.1335 -36.1312 -36.1312 -36.1303 -36.1303 -36.1155 -36.1155
   -16.5156 -16.5156 -16.5148 -16.5148 -16.4476 -16.4476 -16.4455 -16.4455
   -16.4034 -16.4034 -16.3723 -16.3723 -16.3538 -16.3538 -16.3032 -16.3032
   -16.2087 -16.2087 -16.2075 -16.2075 -16.0762 -16.0762 -16.0760 -16.0760
     9.1148   9.1148  11.5408  11.5408  12.7413  12.7413  12.9855  12.9855
    13.5815  13.5815  13.7046  13.7046  13.7135  13.7135  13.8001  13.8001
    13.8890  13.8890  14.4399  14.4399  14.4608  14.4608  14.6562  14.6562
    14.9590  14.9590  15.0964  15.0964  15.1377  15.1377  15.2680  15.2680
    15.4566  15.4566  15.4824  15.4824  15.5909  15.5909  15.6007  15.6007
    15.6499  15.6499  15.7492  15.7492  15.8077  15.8077  16.1833  16.1833
    16.9808  16.9808  17.2610  17.2610  17.3200  17.3200  17.3296  17.3296
    17.3357  17.3357  17.3921  17.3921  17.5713  17.5713  17.8838  17.8838
    17.9997  17.9997  18.0007  18.0007  18.3938  18.3938  18.7606  18.7606

          k = 0.0844 0.1687 0.1566 ( 32434 PWs)   bands (ev):

   -70.0733 -70.0726 -70.0713 -70.0707 -70.0700 -70.0694 -70.0681 -70.0675
   -40.1163 -40.1093 -40.1088 -40.0992 -40.0568 -40.0474 -39.8750 -39.8604
   -36.1986 -36.1957 -36.1900 -36.1900 -36.1813 -36.1803 -36.1627 -36.1618
   -36.1561 -36.1535 -36.1423 -36.1422 -36.1416 -36.1396 -36.1384 -36.1370
   -36.1336 -36.1327 -36.1316 -36.1292 -36.1289 -36.1283 -36.1203 -36.1195
   -16.5177 -16.5055 -16.4695 -16.4597 -16.4551 -16.4472 -16.4449 -16.4185
   -16.4112 -16.4046 -16.3967 -16.3483 -16.3410 -16.3317 -16.2811 -16.2753
   -16.2679 -16.2624 -16.2106 -16.2041 -16.1288 -16.1192 -16.0813 -16.0728
     8.5577   9.9712  11.0862  12.1447  12.2460  12.8641  13.0216  13.2521
    13.2676  13.6905  13.7117  13.8102  13.8164  13.9428  13.9692  14.0100
    14.0618  14.2506  14.3003  14.4772  14.5194  14.5700  14.6461  14.6794
    14.7765  14.9425  14.9472  14.9549  15.0231  15.1082  15.2821  15.3133
    15.3491  15.3503  15.3606  15.3861  15.3956  15.4163  15.4801  15.5145
    15.5186  15.5313  15.5734  15.6158  15.8364  15.8706  15.8900  16.1055
    16.7796  17.1579  17.2444  17.2964  17.3257  17.3386  17.3771  17.4613
    17.4989  17.5235  17.5842  17.6346  17.6558  17.6914  17.7075  17.8412
    17.9724  17.9817  18.1190  18.1277  18.2540  18.2686  18.5241  18.5641

          k = 0.0844 0.1687-0.2348 ( 32462 PWs)   bands (ev):

   -70.0730 -70.0730 -70.0710 -70.0710 -70.0697 -70.0697 -70.0678 -70.0678
   -40.1128 -40.1128 -40.1040 -40.1040 -40.0521 -40.0521 -39.8677 -39.8677
   -36.1972 -36.1972 -36.1900 -36.1900 -36.1808 -36.1808 -36.1623 -36.1623
   -36.1548 -36.1548 -36.1396 -36.1396 -36.1375 -36.1375 -36.1369 -36.1369
   -36.1357 -36.1357 -36.1344 -36.1344 -36.1286 -36.1286 -36.1199 -36.1199
   -16.5115 -16.5115 -16.4536 -16.4536 -16.4501 -16.4501 -16.4023 -16.4023
   -16.3952 -16.3952 -16.3744 -16.3744 -16.3557 -16.3557 -16.3059 -16.3059
   -16.2716 -16.2716 -16.2074 -16.2074 -16.1240 -16.1240 -16.0771 -16.0771
     9.2146   9.2146  11.5795  11.5795  12.5645  12.5645  13.1967  13.1967
    13.6323  13.6323  13.8561  13.8561  13.8940  13.8940  13.9815  13.9815
    14.0529  14.0529  14.3989  14.3989  14.5563  14.5563  14.6572  14.6572
    14.7307  14.7307  14.9259  14.9259  15.1868  15.1868  15.1988  15.1988
    15.2710  15.2710  15.2973  15.2973  15.4315  15.4315  15.4433  15.4433
    15.5181  15.5181  15.5842  15.5842  15.6142  15.6142  16.0292  16.0292
    17.0285  17.0285  17.4100  17.4100  17.4426  17.4426  17.4530  17.4530
    17.4918  17.4918  17.5508  17.5508  17.7172  17.7172  17.7918  17.7918
    17.8564  17.8564  18.0864  18.0864  18.2365  18.2365  18.6662  18.6662

          k = 0.0844-0.2531-0.2348 ( 32460 PWs)   bands (ev):

   -70.0723 -70.0723 -70.0717 -70.0717 -70.0690 -70.0690 -70.0685 -70.0685
   -40.1099 -40.1099 -40.1048 -40.1048 -40.0537 -40.0537 -39.8682 -39.8682
   -36.1937 -36.1937 -36.1924 -36.1924 -36.1729 -36.1729 -36.1691 -36.1691
   -36.1493 -36.1493 -36.1453 -36.1453 -36.1373 -36.1373 -36.1368 -36.1368
   -36.1359 -36.1359 -36.1353 -36.1353 -36.1259 -36.1258 -36.1239 -36.1239
   -16.5095 -16.5095 -16.4520 -16.4520 -16.3952 -16.3952 -16.3823 -16.3823
   -16.3792 -16.3792 -16.3720 -16.3720 -16.3560 -16.3560 -16.3374 -16.3374
   -16.3073 -16.3073 -16.2070 -16.2070 -16.1553 -16.1553 -16.0776 -16.0776
     9.2683   9.2683  11.5910  11.5910  12.4819  12.4819  13.4561  13.4561
    13.5581  13.5581  13.8692  13.8692  13.9652  13.9652  14.1367  14.1367
    14.2558  14.2558  14.3793  14.3793  14.5078  14.5078  14.6257  14.6257
    14.6730  14.6730  14.7701  14.7701  15.0730  15.0730  15.1047  15.1047
    15.2868  15.2868  15.3137  15.3137  15.3344  15.3344  15.3549  15.3549
    15.3908  15.3908  15.4744  15.4744  15.7876  15.7876  15.8071  15.8071
    17.0783  17.0783  17.4876  17.4876  17.5165  17.5165  17.5567  17.5567
    17.5748  17.5748  17.5775  17.5775  17.6903  17.6903  17.7881  17.7881
    17.8244  17.8244  18.1126  18.1126  18.3114  18.3114  18.4036  18.4036

          k = 0.1687 0.1687 0.1566 ( 32390 PWs)   bands (ev):

   -70.0726 -70.0720 -70.0707 -70.0707 -70.0701 -70.0701 -70.0688 -70.0681
   -40.1125 -40.1082 -40.1049 -40.0989 -40.0604 -40.0512 -39.8760 -39.8614
   -36.1935 -36.1914 -36.1844 -36.1830 -36.1828 -36.1819 -36.1669 -36.1663
   -36.1518 -36.1501 -36.1419 -36.1417 -36.1416 -36.1402 -36.1365 -36.1357
   -36.1354 -36.1346 -36.1323 -36.1320 -36.1318 -36.1299 -36.1253 -36.1246
   -16.4644 -16.4575 -16.4529 -16.4446 -16.4435 -16.4162 -16.4158 -16.4133
   -16.4040 -16.4010 -16.3977 -16.3513 -16.3369 -16.3309 -16.2832 -16.2776
   -16.2726 -16.2683 -16.2667 -16.2651 -16.1300 -16.1295 -16.1202 -16.1201
     8.6330  10.0444  11.3123  12.1805  12.3625  12.6980  12.8510  13.2534
    13.4190  13.8975  13.9213  13.9766  13.9860  14.0186  14.0989  14.2659
    14.2697  14.2972  14.3423  14.3438  14.5051  14.6226  14.6534  14.7854
    14.8391  14.8702  14.9405  15.0183  15.0255  15.0344  15.0490  15.0947
    15.1082  15.1571  15.1716  15.2047  15.2107  15.2451  15.3033  15.3152
    15.3452  15.3879  15.3987  15.5021  15.5091  15.5348  15.5519  15.9128
    16.9216  17.1894  17.3306  17.3977  17.4352  17.5588  17.5933  17.6477
    17.6533  17.6635  17.7790  17.7976  17.9064  17.9260  17.9570  18.0026
    18.0152  18.0216  18.0662  18.2270  18.2285  18.2761  18.4894  18.5675

          k = 0.1687 0.1687-0.2348 ( 32458 PWs)   bands (ev):

   -70.0723 -70.0723 -70.0704 -70.0704 -70.0704 -70.0704 -70.0685 -70.0684
   -40.1087 -40.1087 -40.1036 -40.1036 -40.0558 -40.0558 -39.8687 -39.8687
   -36.1924 -36.1924 -36.1837 -36.1837 -36.1824 -36.1824 -36.1666 -36.1666
   -36.1510 -36.1510 -36.1385 -36.1385 -36.1370 -36.1370 -36.1369 -36.1369
   -36.1359 -36.1359 -36.1350 -36.1350 -36.1334 -36.1334 -36.1250 -36.1250
   -16.4512 -16.4512 -16.4481 -16.4481 -16.4079 -16.4079 -16.4011 -16.4011
   -16.3893 -16.3893 -16.3733 -16.3733 -16.3608 -16.3608 -16.3087 -16.3087
   -16.2728 -16.2728 -16.2697 -16.2697 -16.1251 -16.1251 -16.1248 -16.1248
     9.2916   9.2916  11.7960  11.7960  12.5235  12.5235  13.0731  13.0731
    13.6279  13.6279  14.1290  14.1290  14.1327  14.1327  14.1535  14.1535
    14.1852  14.1852  14.3955  14.3955  14.6240  14.6240  14.6484  14.6484
    14.7024  14.7024  14.9721  14.9721  15.0484  15.0484  15.0512  15.0512
    15.1040  15.1040  15.1561  15.1561  15.1901  15.1901  15.2586  15.2586
    15.3096  15.3096  15.3152  15.3152  15.4193  15.4193  15.6968  15.6968
    17.0990  17.0990  17.5390  17.5390  17.6095  17.6095  17.6512  17.6512
    17.6733  17.6733  17.7901  17.7901  17.8817  17.8817  17.9938  17.9938
    18.0031  18.0031  18.0775  18.0776  18.3803  18.3803  18.7055  18.7055

          k = 0.1687-0.2531-0.2348 ( 32460 PWs)   bands (ev):

   -70.0716 -70.0716 -70.0711 -70.0711 -70.0697 -70.0697 -70.0691 -70.0691
   -40.1058 -40.1058 -40.1039 -40.1039 -40.0579 -40.0579 -39.8692 -39.8692
   -36.1879 -36.1879 -36.1863 -36.1863 -36.1759 -36.1759 -36.1723 -36.1723
   -36.1461 -36.1461 -36.1423 -36.1423 -36.1373 -36.1373 -36.1365 -36.1365
   -36.1363 -36.1363 -36.1357 -36.1357 -36.1316 -36.1316 -36.1296 -36.1296
   -16.4475 -16.4475 -16.4067 -16.4067 -16.3866 -16.3866 -16.3784 -16.3784
   -16.3754 -16.3754 -16.3723 -16.3723 -16.3632 -16.3632 -16.3420 -16.3420
   -16.3100 -16.3100 -16.2710 -16.2710 -16.1562 -16.1562 -16.1254 -16.1254
     9.3319   9.3319  11.9481  11.9481  12.4554  12.4554  13.0370  13.0370
    13.6076  13.6076  14.1414  14.1414  14.2446  14.2446  14.4275  14.4275
    14.4393  14.4393  14.4393  14.4393  14.4754  14.4754  14.5862  14.5862
    14.7738  14.7738  14.8037  14.8037  14.9754  14.9754  15.0259  15.0259
    15.0410  15.0410  15.0872  15.0872  15.1118  15.1118  15.1471  15.1471
    15.2611  15.2611  15.2661  15.2661  15.3612  15.3612  15.3829  15.3829
    17.1381  17.1381  17.6436  17.6436  17.6914  17.6914  17.7419  17.7419
    17.8220  17.8220  17.8774  17.8774  17.9475  17.9475  17.9516  17.9516
    18.0390  18.0390  18.3419  18.3419  18.4435  18.4435  18.5032  18.5032

          k =-0.2531-0.2531-0.2348 ( 32344 PWs)   bands (ev):

   -70.0709 -70.0709 -70.0704 -70.0704 -70.0704 -70.0704 -70.0698 -70.0698
   -40.1035 -40.1035 -40.1035 -40.1035 -40.0603 -40.0603 -39.8697 -39.8697
   -36.1815 -36.1814 -36.1809 -36.1809 -36.1809 -36.1809 -36.1763 -36.1763
   -36.1421 -36.1421 -36.1385 -36.1385 -36.1385 -36.1385 -36.1369 -36.1369
   -36.1360 -36.1360 -36.1359 -36.1359 -36.1351 -36.1351 -36.1351 -36.1351
   -16.3826 -16.3826 -16.3790 -16.3790 -16.3746 -16.3746 -16.3746 -16.3746
   -16.3713 -16.3713 -16.3704 -16.3704 -16.3699 -16.3699 -16.3449 -16.3449
   -16.3449 -16.3449 -16.3113 -16.3113 -16.1567 -16.1567 -16.1567 -16.1567
     9.3649   9.3649  12.4422  12.4422  12.4422  12.4422  12.5060  12.5060
    13.6230  13.6230  14.4344  14.4344  14.4344  14.4344  14.4390  14.4390
    14.5395  14.5395  14.5395  14.5395  14.5963  14.5963  14.6052  14.6052
    14.8982  14.8982  14.8982  14.8982  14.9053  14.9053  14.9252  14.9252
    14.9252  14.9252  14.9515  14.9515  14.9611  14.9611  14.9875  14.9875
    15.1209  15.1209  15.1209  15.1209  15.1255  15.1255  15.1258  15.1258
    17.1696  17.1696  17.8092  17.8092  17.8092  17.8092  17.8358  17.8358
    17.9273  17.9273  17.9540  17.9540  17.9540  17.9540  18.0496  18.0496
    18.1619  18.1619  18.6526  18.6526  18.6526  18.6526  18.7533  18.7533

          k = 0.0844 0.0000-0.0000 ( 32427 PWs)   bands (ev):

   -70.0745 -70.0732 -70.0712 -70.0707 -70.0700 -70.0695 -70.0675 -70.0663
   -40.1244 -40.1147 -40.1132 -40.0930 -40.0572 -40.0379 -39.8808 -39.8516
   -36.2069 -36.1983 -36.1923 -36.1901 -36.1893 -36.1864 -36.1645 -36.1568
   -36.1561 -36.1544 -36.1490 -36.1489 -36.1435 -36.1426 -36.1325 -36.1320
   -36.1309 -36.1295 -36.1274 -36.1272 -36.1267 -36.1228 -36.1145 -36.1128
   -16.5555 -16.5528 -16.5320 -16.5236 -16.5023 -16.4734 -16.4648 -16.4567
   -16.4532 -16.4519 -16.4371 -16.3863 -16.2961 -16.2898 -16.2204 -16.2148
   -16.2023 -16.1908 -16.1903 -16.1786 -16.0844 -16.0669 -16.0645 -16.0478
     7.8181  10.4778  10.8491  12.5297  12.6088  12.6823  12.7478  13.0833
    13.1271  13.2356  13.2749  13.3573  13.3592  13.3806  13.7238  13.8860
    14.4339  14.4401  14.5402  14.6524  14.6560  14.6607  14.6718  14.7324
    14.7874  14.9104  14.9613  14.9681  15.0083  15.0517  15.4300  15.4772
    15.5234  15.5323  15.5897  15.6903  15.7412  15.7641  15.8048  15.8861
    15.9595  16.0213  16.2076  16.2538  16.4371  16.5371  16.5382  16.5781
    16.6311  16.7534  16.8040  17.0222  17.0422  17.1409  17.1891  17.2034
    17.3012  17.3992  17.4858  17.5472  17.5661  17.7317  17.7392  17.8867
    17.9607  18.0171  18.0385  18.0912  18.1240  18.1480  18.2373  18.3405

          k = 0.1687 0.0000-0.0000 ( 32412 PWs)   bands (ev):

   -70.0739 -70.0726 -70.0719 -70.0706 -70.0701 -70.0688 -70.0682 -70.0669
   -40.1214 -40.1140 -40.1079 -40.0946 -40.0598 -40.0408 -39.8818 -39.8526
   -36.2023 -36.1959 -36.1926 -36.1926 -36.1815 -36.1788 -36.1618 -36.1599
   -36.1587 -36.1530 -36.1479 -36.1475 -36.1447 -36.1439 -36.1388 -36.1384
   -36.1310 -36.1283 -36.1273 -36.1259 -36.1252 -36.1236 -36.1188 -36.1169
   -16.5511 -16.5469 -16.5218 -16.4792 -16.4683 -16.4660 -16.4585 -16.4539
   -16.4419 -16.4062 -16.3921 -16.3889 -16.2935 -16.2896 -16.2795 -16.2645
   -16.2205 -16.1936 -16.1898 -16.1776 -16.1332 -16.1140 -16.0652 -16.0489
     7.9319  10.5594  10.8850  11.9224  12.7116  12.9037  13.0134  13.1741
    13.2633  13.3388  13.4041  13.4704  13.5480  13.6498  13.8689  13.8994
    14.1218  14.1569  14.4127  14.5815  14.6196  14.6519  14.6625  14.7509
    14.8279  14.8350  15.0823  15.1173  15.1487  15.1909  15.3579  15.4460
    15.4764  15.4985  15.5370  15.5415  15.6178  15.6450  15.7360  15.8081
    15.8358  15.8644  15.9698  16.1122  16.1298  16.2907  16.3990  16.5221
    16.6587  16.7146  16.7277  16.7317  16.8551  16.9609  17.0938  17.1459
    17.2133  17.3709  17.4377  17.6339  17.6847  17.8586  17.8922  17.9893
    18.1376  18.1765  18.2653  18.2832  18.3347  18.4540  18.4760  18.5926

          k =-0.2531-0.0000 0.0000 ( 32504 PWs)   bands (ev):

   -70.0731 -70.0726 -70.0719 -70.0713 -70.0694 -70.0688 -70.0682 -70.0676
   -40.1198 -40.1138 -40.1038 -40.0967 -40.0613 -40.0424 -39.8823 -39.8531
   -36.1977 -36.1962 -36.1941 -36.1933 -36.1732 -36.1708 -36.1692 -36.1669
   -36.1514 -36.1484 -36.1472 -36.1466 -36.1459 -36.1457 -36.1456 -36.1441
   -36.1300 -36.1294 -36.1250 -36.1245 -36.1245 -36.1226 -36.1225 -36.1206
   -16.5488 -16.5436 -16.5208 -16.4825 -16.4672 -16.4594 -16.4537 -16.3963
   -16.3902 -16.3855 -16.3741 -16.3668 -16.3422 -16.3288 -16.2913 -16.2904
   -16.2204 -16.1950 -16.1895 -16.1771 -16.1653 -16.1446 -16.0656 -16.0495
     7.9934  10.6190  10.9029  11.6546  12.7767  13.0655  13.1092  13.3650
    13.3665  13.4158  13.4735  13.6659  13.6777  13.7313  13.7725  13.8080
    13.8653  14.0303  14.0485  14.5598  14.7148  14.7599  14.8415  14.8782
    14.9057  14.9720  15.0168  15.0416  15.0911  15.2278  15.3553  15.3956
    15.4057  15.4331  15.4972  15.5627  15.6078  15.6961  15.8191  15.8568
    15.8683  15.8812  15.8869  15.8971  15.9052  15.9594  15.9919  16.0799
    16.5360  16.6868  16.7062  16.7575  16.7665  17.1955  17.2084  17.3780
    17.3867  17.4099  17.4524  17.4931  17.5971  17.8519  17.8731  18.1738
    18.1849  18.2497  18.2632  18.4181  18.6354  18.6642  18.7371  18.8214

          k = 0.0844-0.0844-0.0000 ( 32442 PWs)   bands (ev):

   -70.0743 -70.0730 -70.0710 -70.0710 -70.0697 -70.0697 -70.0677 -70.0665
   -40.1230 -40.1143 -40.1111 -40.0932 -40.0585 -40.0395 -39.8813 -39.8521
   -36.2049 -36.1971 -36.1900 -36.1888 -36.1874 -36.1871 -36.1627 -36.1579
   -36.1561 -36.1557 -36.1486 -36.1485 -36.1439 -36.1430 -36.1323 -36.1316
   -36.1312 -36.1303 -36.1300 -36.1271 -36.1271 -36.1231 -36.1164 -36.1146
   -16.5536 -16.5302 -16.5287 -16.5014 -16.5013 -16.4644 -16.4564 -16.4542
   -16.4523 -16.4380 -16.4380 -16.3877 -16.2950 -16.2895 -16.2207 -16.2158
   -16.2132 -16.2018 -16.2018 -16.1920 -16.0850 -16.0845 -16.0675 -16.0675
     7.8657  10.5235  10.8691  12.4541  12.7183  12.7202  12.7242  12.8062
    13.1738  13.2991  13.3738  13.3989  13.4381  13.6418  13.8252  13.9275
    14.4533  14.5123  14.5495  14.5558  14.5651  14.5975  14.6427  14.7616
    14.7760  14.9438  14.9492  14.9696  14.9746  15.0206  15.4036  15.4165
    15.4385  15.4441  15.5791  15.6028  15.6179  15.8113  15.8211  15.9856
    15.9874  16.0160  16.0454  16.1090  16.2710  16.3159  16.6446  16.6739
    16.7487  16.7516  16.7763  16.7968  16.8906  16.8908  16.9822  17.1198
    17.3224  17.5904  17.5966  17.6696  17.6759  17.7587  17.7759  17.8369
    17.9201  18.0108  18.1308  18.2217  18.2343  18.2354  18.2492  18.4555

          k =-0.0844-0.0844-0.0000 ( 32442 PWs)   bands (ev):

   -70.0743 -70.0730 -70.0710 -70.0710 -70.0697 -70.0697 -70.0677 -70.0665
   -40.1230 -40.1143 -40.1111 -40.0932 -40.0585 -40.0395 -39.8813 -39.8521
   -36.2049 -36.1971 -36.1900 -36.1888 -36.1874 -36.1871 -36.1627 -36.1579
   -36.1561 -36.1557 -36.1486 -36.1485 -36.1439 -36.1430 -36.1323 -36.1316
   -36.1312 -36.1303 -36.1300 -36.1271 -36.1271 -36.1231 -36.1164 -36.1146
   -16.5536 -16.5302 -16.5287 -16.5014 -16.5013 -16.4644 -16.4564 -16.4542
   -16.4523 -16.4380 -16.4380 -16.3877 -16.2950 -16.2895 -16.2207 -16.2158
   -16.2132 -16.2018 -16.2018 -16.1920 -16.0850 -16.0845 -16.0675 -16.0675
     7.8657  10.5235  10.8691  12.4541  12.7183  12.7202  12.7242  12.8062
    13.1738  13.2991  13.3738  13.3989  13.4381  13.6418  13.8252  13.9275
    14.4533  14.5123  14.5495  14.5558  14.5651  14.5975  14.6427  14.7616
    14.7760  14.9438  14.9492  14.9696  14.9746  15.0206  15.4036  15.4165
    15.4385  15.4441  15.5791  15.6028  15.6179  15.8112  15.8211  15.9856
    15.9874  16.0159  16.0454  16.1090  16.2710  16.3159  16.6446  16.6739
    16.7487  16.7516  16.7763  16.7968  16.8906  16.8908  16.9822  17.1198
    17.3224  17.5904  17.5966  17.6696  17.6759  17.7587  17.7759  17.8369
    17.9201  18.0108  18.1308  18.2217  18.2343  18.2354  18.2492  18.4555

          k = 0.1687-0.0844-0.0000 ( 32469 PWs)   bands (ev):

   -70.0736 -70.0723 -70.0717 -70.0704 -70.0703 -70.0691 -70.0684 -70.0672
   -40.1198 -40.1136 -40.1058 -40.0944 -40.0614 -40.0427 -39.8823 -39.8531
   -36.2001 -36.1943 -36.1901 -36.1900 -36.1817 -36.1798 -36.1631 -36.1614
   -36.1572 -36.1521 -36.1476 -36.1473 -36.1449 -36.1441 -36.1379 -36.1378
   -36.1307 -36.1295 -36.1280 -36.1280 -36.1262 -36.1239 -36.1208 -36.1190
   -16.5495 -16.5239 -16.4994 -16.4660 -16.4646 -16.4601 -16.4554 -16.4408
   -16.4398 -16.4081 -16.3930 -16.3905 -16.2925 -16.2891 -16.2794 -16.2642
   -16.2212 -16.2139 -16.2009 -16.1945 -16.1336 -16.1145 -16.0856 -16.0685
     7.9666  10.6465  10.9094  11.9278  12.7503  12.8207  12.9218  13.0440
    13.3687  13.4525  13.4768  13.6267  13.6828  13.6899  13.9215  13.9578
    14.1766  14.1814  14.4142  14.5989  14.6098  14.6986  14.7176  14.7348
    14.8002  14.8779  14.9928  15.0587  15.0966  15.1557  15.2707  15.3137
    15.3329  15.4169  15.5280  15.5321  15.5669  15.6439  15.6968  15.7055
    15.7638  15.8336  15.9102  15.9261  16.0483  16.2724  16.2759  16.3505
    16.4563  16.7019  16.7397  16.7407  16.8863  17.0958  17.1860  17.2471
    17.3418  17.5453  17.6437  17.7056  17.7875  17.8744  17.9398  17.9865
    17.9949  18.0298  18.1307  18.2635  18.3575  18.4302  18.4809  18.5515

          k =-0.1687-0.0844-0.0000 ( 32469 PWs)   bands (ev):

   -70.0736 -70.0723 -70.0717 -70.0704 -70.0703 -70.0691 -70.0684 -70.0672
   -40.1198 -40.1136 -40.1058 -40.0944 -40.0614 -40.0427 -39.8823 -39.8531
   -36.2001 -36.1943 -36.1901 -36.1900 -36.1817 -36.1798 -36.1631 -36.1614
   -36.1572 -36.1521 -36.1476 -36.1473 -36.1449 -36.1441 -36.1379 -36.1378
   -36.1307 -36.1295 -36.1280 -36.1280 -36.1262 -36.1239 -36.1208 -36.1190
   -16.5495 -16.5239 -16.4994 -16.4660 -16.4646 -16.4601 -16.4554 -16.4408
   -16.4398 -16.4081 -16.3930 -16.3905 -16.2925 -16.2891 -16.2794 -16.2642
   -16.2212 -16.2139 -16.2009 -16.1945 -16.1336 -16.1145 -16.0856 -16.0685
     7.9666  10.6465  10.9094  11.9278  12.7503  12.8207  12.9218  13.0440
    13.3687  13.4525  13.4768  13.6267  13.6828  13.6899  13.9215  13.9578
    14.1766  14.1814  14.4142  14.5989  14.6098  14.6986  14.7176  14.7348
    14.8002  14.8779  14.9928  15.0587  15.0966  15.1557  15.2707  15.3137
    15.3329  15.4169  15.5280  15.5321  15.5669  15.6439  15.6968  15.7055
    15.7638  15.8336  15.9102  15.9261  16.0483  16.2724  16.2759  16.3505
    16.4563  16.7019  16.7397  16.7407  16.8862  17.0958  17.1860  17.2471
    17.3418  17.5453  17.6437  17.7056  17.7875  17.8744  17.9398  17.9865
    17.9950  18.0298  18.1307  18.2635  18.3575  18.4302  18.4809  18.5515

          k = 0.0000 0.1687 0.0783 ( 32469 PWs)   bands (ev):

   -70.0738 -70.0727 -70.0718 -70.0707 -70.0700 -70.0689 -70.0681 -70.0670
   -40.1205 -40.1128 -40.1088 -40.0959 -40.0586 -40.0421 -39.8799 -39.8546
   -36.2019 -36.1963 -36.1927 -36.1926 -36.1813 -36.1790 -36.1617 -36.1600
   -36.1584 -36.1535 -36.1464 -36.1462 -36.1433 -36.1433 -36.1386 -36.1385
   -36.1317 -36.1296 -36.1274 -36.1272 -36.1253 -36.1250 -36.1187 -36.1170
   -16.5452 -16.5295 -16.5234 -16.4778 -16.4665 -16.4599 -16.4541 -16.4440
   -16.4415 -16.4054 -16.3931 -16.3777 -16.3065 -16.3011 -16.2783 -16.2654
   -16.2326 -16.2159 -16.1890 -16.1785 -16.1318 -16.1153 -16.0641 -16.0500
     8.0846  10.6015  10.6732  12.0064  12.5133  12.9951  13.0585  13.1811
    13.2206  13.4174  13.4757  13.5366  13.5967  13.6648  13.9137  13.9314
    14.1246  14.1277  14.3839  14.5999  14.6041  14.6268  14.6982  14.7116
    14.7532  14.8669  15.0343  15.0858  15.0983  15.1581  15.2858  15.4510
    15.4524  15.4780  15.4872  15.5591  15.5937  15.6288  15.6557  15.7273
    15.7862  15.9096  15.9184  15.9841  16.0508  16.0610  16.1243  16.3968
    16.5902  16.8972  16.9453  17.0513  17.0847  17.1027  17.1665  17.1792
    17.2229  17.3633  17.4635  17.5767  17.6370  17.6692  17.8238  17.9155
    17.9899  18.1749  18.2197  18.2350  18.3274  18.3760  18.3971  18.5658

          k =-0.2531-0.0844 0.0000 ( 32438 PWs)   bands (ev):

   -70.0729 -70.0724 -70.0716 -70.0711 -70.0696 -70.0691 -70.0684 -70.0679
   -40.1181 -40.1134 -40.1018 -40.0962 -40.0630 -40.0444 -39.8828 -39.8536
   -36.1953 -36.1936 -36.1920 -36.1912 -36.1739 -36.1719 -36.1699 -36.1682
   -36.1501 -36.1477 -36.1466 -36.1461 -36.1460 -36.1457 -36.1457 -36.1434
   -36.1297 -36.1290 -36.1266 -36.1254 -36.1251 -36.1248 -36.1248 -36.1230
   -16.5473 -16.5206 -16.4984 -16.4655 -16.4632 -16.4552 -16.4408 -16.3938
   -16.3919 -16.3849 -16.3725 -16.3665 -16.3445 -16.3305 -16.2904 -16.2897
   -16.2214 -16.2137 -16.2005 -16.1958 -16.1657 -16.1450 -16.0860 -16.0691
     8.0204  10.7436  10.9297  11.6461  12.7978  12.8842  13.0030  13.4127
    13.4815  13.4819  13.6432  13.7010  13.7333  13.7607  13.8603  13.8987
    13.9763  14.0648  14.0789  14.5990  14.7483  14.7990  14.8349  14.8465
    14.8521  14.9620  15.0300  15.1433  15.1441  15.1561  15.1681  15.2400
    15.2477  15.3785  15.4339  15.4412  15.4807  15.5775  15.7024  15.7160
    15.7598  15.7974  15.8043  15.8079  15.8210  15.9058  16.0063  16.0278
    16.6396  16.7192  16.7229  16.7867  16.7906  17.3017  17.3468  17.4755
    17.4921  17.5258  17.5678  17.6022  17.6781  17.8625  17.9197  18.1128
    18.1483  18.1634  18.1880  18.1896  18.5271  18.5556  18.6244  18.6886

          k =-0.0000-0.2531 0.0783 ( 32438 PWs)   bands (ev):

   -70.0731 -70.0725 -70.0720 -70.0714 -70.0693 -70.0688 -70.0682 -70.0677
   -40.1187 -40.1127 -40.1049 -40.0979 -40.0600 -40.0436 -39.8804 -39.8551
   -36.1975 -36.1960 -36.1943 -36.1935 -36.1730 -36.1710 -36.1690 -36.1670
   -36.1514 -36.1487 -36.1475 -36.1452 -36.1445 -36.1444 -36.1444 -36.1441
   -36.1309 -36.1304 -36.1265 -36.1259 -36.1244 -36.1226 -36.1225 -36.1207
   -16.5421 -16.5270 -16.5223 -16.4809 -16.4610 -16.4556 -16.4418 -16.3949
   -16.3843 -16.3791 -16.3754 -16.3679 -16.3414 -16.3297 -16.3032 -16.3026
   -16.2320 -16.2181 -16.1887 -16.1780 -16.1639 -16.1460 -16.0645 -16.0506
     8.1465  10.6320  10.7218  11.7586  12.5042  13.1427  13.1888  13.3062
    13.4532  13.5147  13.5569  13.6871  13.7539  13.7549  13.7995  13.8221
    13.8357  14.0389  14.1218  14.6006  14.7451  14.7731  14.8169  14.8313
    14.8320  14.8624  14.8710  14.9579  15.1976  15.2605  15.2863  15.3153
    15.4507  15.5329  15.5372  15.5644  15.5665  15.5741  15.5766  15.6087
    15.6719  15.7155  15.7366  15.7920  15.8129  16.0155  16.0783  16.0965
    16.6256  16.9244  16.9292  16.9442  16.9486  17.2111  17.2235  17.3824
    17.3939  17.4459  17.4478  17.5161  17.6346  17.7259  17.9307  18.0752
    18.1162  18.1441  18.1451  18.1906  18.2169  18.3146  18.6285  18.7002

          k = 0.1687-0.1687-0.0000 ( 32476 PWs)   bands (ev):

   -70.0729 -70.0717 -70.0710 -70.0710 -70.0697 -70.0697 -70.0691 -70.0678
   -40.1163 -40.1128 -40.1011 -40.0943 -40.0649 -40.0467 -39.8832 -39.8541
   -36.1945 -36.1904 -36.1851 -36.1833 -36.1823 -36.1814 -36.1671 -36.1660
   -36.1525 -36.1492 -36.1469 -36.1468 -36.1454 -36.1448 -36.1371 -36.1357
   -36.1348 -36.1337 -36.1298 -36.1272 -36.1272 -36.1256 -36.1247 -36.1243
   -16.5460 -16.4638 -16.4621 -16.4581 -16.4577 -16.4385 -16.4385 -16.4192
   -16.4068 -16.3951 -16.3948 -16.3938 -16.2902 -16.2881 -16.2823 -16.2756
   -16.2638 -16.2638 -16.2226 -16.1963 -16.1349 -16.1341 -16.1154 -16.1153
     8.0386  10.8840  10.9593  11.8416  12.3317  12.9037  13.1177  13.1310
    13.6133  13.6342  13.7469  13.7681  13.7864  13.8414  13.9492  13.9748
    14.2297  14.3798  14.4128  14.4507  14.5826  14.6889  14.7212  14.7743
    14.9115  14.9201  14.9578  14.9851  15.0605  15.0701  15.0888  15.1441
    15.1689  15.3167  15.3250  15.3670  15.3781  15.4683  15.5669  15.5946
    15.6817  15.7433  15.7733  15.8060  15.8560  15.9529  15.9618  16.0083
    16.7001  16.7416  16.7510  16.7605  16.8818  17.4237  17.4497  17.4511
    17.5386  17.7133  17.7596  17.7894  17.8250  17.8996  17.9121  17.9645
    18.0613  18.0760  18.2201  18.2244  18.2473  18.3173  18.3847  18.4313

          k =-0.1687-0.1687-0.0000 ( 32476 PWs)   bands (ev):

   -70.0729 -70.0717 -70.0710 -70.0710 -70.0697 -70.0697 -70.0691 -70.0678
   -40.1163 -40.1128 -40.1011 -40.0943 -40.0649 -40.0467 -39.8832 -39.8541
   -36.1945 -36.1904 -36.1851 -36.1833 -36.1823 -36.1814 -36.1671 -36.1660
   -36.1525 -36.1492 -36.1469 -36.1468 -36.1454 -36.1448 -36.1371 -36.1357
   -36.1348 -36.1337 -36.1298 -36.1272 -36.1272 -36.1256 -36.1247 -36.1243
   -16.5460 -16.4638 -16.4621 -16.4581 -16.4577 -16.4385 -16.4385 -16.4192
   -16.4068 -16.3951 -16.3948 -16.3938 -16.2902 -16.2881 -16.2824 -16.2756
   -16.2638 -16.2638 -16.2226 -16.1963 -16.1349 -16.1341 -16.1154 -16.1153
     8.0386  10.8840  10.9593  11.8416  12.3317  12.9037  13.1177  13.1310
    13.6133  13.6342  13.7469  13.7681  13.7864  13.8414  13.9492  13.9748
    14.2297  14.3798  14.4129  14.4507  14.5826  14.6890  14.7212  14.7743
    14.9115  14.9201  14.9578  14.9851  15.0605  15.0701  15.0888  15.1441
    15.1688  15.3167  15.3251  15.3670  15.3781  15.4683  15.5669  15.5946
    15.6816  15.7433  15.7733  15.8060  15.8560  15.9529  15.9618  16.0083
    16.7001  16.7416  16.7510  16.7605  16.8818  17.4237  17.4497  17.4511
    17.5386  17.7133  17.7596  17.7895  17.8250  17.8996  17.9121  17.9645
    18.0614  18.0760  18.2201  18.2244  18.2473  18.3173  18.3847  18.4314

          k =-0.2531-0.1687-0.0000 ( 32466 PWs)   bands (ev):

   -70.0722 -70.0717 -70.0710 -70.0704 -70.0703 -70.0698 -70.0691 -70.0685
   -40.1143 -40.1125 -40.0974 -40.0953 -40.0668 -40.0489 -39.8837 -39.8546
   -36.1891 -36.1869 -36.1869 -36.1860 -36.1761 -36.1753 -36.1722 -36.1721
   -36.1464 -36.1463 -36.1460 -36.1459 -36.1456 -36.1456 -36.1428 -36.1409
   -36.1317 -36.1317 -36.1301 -36.1291 -36.1288 -36.1282 -36.1262 -36.1257
   -16.5442 -16.4619 -16.4583 -16.4580 -16.4372 -16.4174 -16.3960 -16.3955
   -16.3871 -16.3836 -16.3689 -16.3658 -16.3502 -16.3341 -16.2884 -16.2882
   -16.2787 -16.2636 -16.2234 -16.1973 -16.1667 -16.1457 -16.1350 -16.1158
     8.0760  10.9848  11.0992  11.6245  12.2401  12.8996  13.1784  13.4399
    13.7496  13.7771  13.7831  13.7917  13.8209  13.8222  14.1199  14.1358
    14.1374  14.1494  14.2439  14.6527  14.7630  14.7926  14.8034  14.8306
    14.8343  14.8621  14.8712  14.8753  14.8953  14.9975  15.0301  15.0986
    15.2063  15.2090  15.2488  15.2517  15.4308  15.4318  15.5251  15.5705
    15.5848  15.6065  15.6539  15.6762  15.6965  15.7094  15.9661  15.9693
    16.7480  16.7587  16.8030  16.8274  16.8287  17.5230  17.5502  17.6884
    17.7014  17.7695  17.8054  17.8427  17.8534  17.8885  17.9049  17.9730
    18.0836  18.1104  18.1198  18.1384  18.2511  18.2944  18.3762  18.4021

          k =-0.0000-0.2531 0.1566 ( 32466 PWs)   bands (ev):

   -70.0728 -70.0723 -70.0722 -70.0717 -70.0691 -70.0685 -70.0685 -70.0679
   -40.1158 -40.1095 -40.1078 -40.1010 -40.0566 -40.0471 -39.8751 -39.8604
   -36.1969 -36.1955 -36.1950 -36.1940 -36.1726 -36.1714 -36.1686 -36.1675
   -36.1511 -36.1494 -36.1472 -36.1452 -36.1412 -36.1412 -36.1409 -36.1405
   -36.1336 -36.1331 -36.1304 -36.1298 -36.1240 -36.1230 -36.1221 -36.1211
   -16.5379 -16.5265 -16.4767 -16.4683 -16.4652 -16.4241 -16.4079 -16.3914
   -16.3813 -16.3790 -16.3711 -16.3482 -16.3396 -16.3363 -16.3352 -16.3322
   -16.2793 -16.2634 -16.1864 -16.1802 -16.1600 -16.1497 -16.0616 -16.0535
     8.5837   9.9859  11.0172  11.9962  12.0556  12.9753  13.3420  13.4005
    13.5330  13.6883  13.7156  13.7602  13.7842  13.8202  13.8449  13.9659
    14.0466  14.0473  14.2115  14.6167  14.6790  14.6831  14.7025  14.7127
    14.7230  14.7338  14.7699  14.7735  15.1881  15.1945  15.2227  15.2473
    15.3001  15.3059  15.3973  15.4257  15.4665  15.4838  15.5255  15.5400
    15.5409  15.6021  15.6704  15.7765  15.8086  15.8389  16.1163  16.1165
    16.8390  17.2067  17.2207  17.2279  17.2508  17.2673  17.3057  17.3117
    17.3752  17.3974  17.5188  17.5677  17.6724  17.6873  17.7069  17.7439
    17.8191  17.8955  18.0948  18.1558  18.1616  18.1648  18.5534  18.6071

          k =-0.2531 0.2531 0.0000 ( 32544 PWs)   bands (ev):

   -70.0715 -70.0710 -70.0710 -70.0705 -70.0703 -70.0697 -70.0697 -70.0692
   -40.1121 -40.1121 -40.0948 -40.0948 -40.0690 -40.0515 -39.8841 -39.8551
   -36.1835 -36.1822 -36.1822 -36.1796 -36.1796 -36.1793 -36.1781 -36.1745
   -36.1462 -36.1460 -36.1460 -36.1456 -36.1435 -36.1408 -36.1387 -36.1387
   -36.1372 -36.1353 -36.1353 -36.1346 -36.1278 -36.1272 -36.1272 -36.1266
   -16.5426 -16.4600 -16.4600 -16.3975 -16.3931 -16.3920 -16.3760 -16.3744
   -16.3670 -16.3665 -16.3655 -16.3655 -16.3544 -16.3544 -16.3363 -16.3363
   -16.2874 -16.2874 -16.2244 -16.1981 -16.1672 -16.1672 -16.1460 -16.1460
     8.1047  11.0132  11.6112  11.6112  11.6499  12.8550  13.4712  13.4712
    13.6640  13.8312  13.8594  13.8594  14.0597  14.0807  14.0876  14.0876
    14.4689  14.4690  14.5047  14.5247  14.5523  14.5830  14.5831  14.6375
    14.6990  14.8216  14.8417  14.8417  14.9358  15.0032  15.0033  15.0054
    15.0557  15.0747  15.0909  15.0909  15.5060  15.5060  15.5452  15.5452
    15.5572  15.5580  15.5800  15.6352  15.7187  15.7292  15.7574  15.7574
    16.7629  16.7990  16.7990  16.8091  16.9214  17.6557  17.6761  17.6762
    17.8107  17.8921  17.8921  17.9522  17.9892  18.0343  18.0343  18.0504
    18.0871  18.0871  18.1232  18.1441  18.1936  18.2349  18.2349  18.2386

          k = 0.0844-0.0844 0.0783 ( 32444 PWs)   bands (ev):

   -70.0742 -70.0731 -70.0709 -70.0709 -70.0698 -70.0698 -70.0677 -70.0666
   -40.1222 -40.1129 -40.1119 -40.0946 -40.0573 -40.0407 -39.8793 -39.8541
   -36.2044 -36.1976 -36.1898 -36.1887 -36.1875 -36.1873 -36.1622 -36.1577
   -36.1562 -36.1561 -36.1471 -36.1471 -36.1425 -36.1423 -36.1328 -36.1322
   -36.1307 -36.1303 -36.1302 -36.1285 -36.1285 -36.1245 -36.1163 -36.1147
   -16.5321 -16.5282 -16.5268 -16.5032 -16.5031 -16.4552 -16.4514 -16.4512
   -16.4435 -16.4393 -16.4388 -16.3764 -16.3083 -16.3006 -16.2333 -16.2154
   -16.2133 -16.2124 -16.2028 -16.2026 -16.0839 -16.0834 -16.0687 -16.0686
     8.0181  10.5713  10.6462  12.5078  12.6181  12.7385  12.7789  12.8919
    13.0668  13.3660  13.4187  13.4379  13.4910  13.7001  13.8563  13.9729
    14.3709  14.4500  14.4595  14.4944  14.5488  14.5846  14.6135  14.7273
    14.8442  14.8806  14.9816  15.0225  15.0454  15.1333  15.2078  15.3454
    15.3512  15.4797  15.5801  15.6121  15.6163  15.7504  15.7634  15.9124
    15.9352  16.0440  16.0529  16.0763  16.1432  16.2593  16.2664  16.3083
    16.6469  16.7358  16.8982  16.9017  17.1124  17.1343  17.2536  17.2616
    17.3796  17.4817  17.4998  17.6982  17.7264  17.7417  17.7481  17.7632
    18.0022  18.0046  18.0178  18.0466  18.1806  18.4124  18.4130  18.4229

          k = 0.0844-0.0844 0.1566 ( 32476 PWs)   bands (ev):

   -70.0740 -70.0733 -70.0707 -70.0707 -70.0700 -70.0700 -70.0674 -70.0668
   -40.1200 -40.1140 -40.1090 -40.0985 -40.0538 -40.0442 -39.8740 -39.8595
   -36.2030 -36.1990 -36.1893 -36.1884 -36.1878 -36.1878 -36.1610 -36.1575
   -36.1574 -36.1566 -36.1432 -36.1431 -36.1404 -36.1387 -36.1350 -36.1324
   -36.1324 -36.1318 -36.1306 -36.1304 -36.1303 -36.1283 -36.1159 -36.1151
   -16.5228 -16.5217 -16.5085 -16.5080 -16.4746 -16.4520 -16.4490 -16.4428
   -16.4419 -16.4137 -16.4133 -16.3457 -16.3457 -16.3310 -16.2803 -16.2591
   -16.2122 -16.2103 -16.2053 -16.2047 -16.0806 -16.0803 -16.0719 -16.0718
     8.4552   9.8844  11.0009  12.1593  12.6334  12.7668  12.9007  13.0010
    13.1604  13.5446  13.5506  13.5578  13.6452  13.7956  13.8504  13.9488
    14.0644  14.1922  14.3968  14.4473  14.5097  14.5215  14.5421  14.6639
    14.8601  14.9873  15.0420  15.0824  15.1668  15.2474  15.2487  15.3121
    15.4347  15.4589  15.4850  15.5144  15.5563  15.5787  15.6062  15.6810
    15.6867  15.7243  15.7401  15.9182  16.0989  16.1319  16.1476  16.2453
    16.6282  16.9724  17.1310  17.1795  17.1935  17.2014  17.3338  17.3514
    17.3738  17.4302  17.5328  17.5562  17.6000  17.6202  17.8184  17.8740
    17.9233  17.9656  18.0071  18.0225  18.3206  18.3678  18.6253  18.7474

          k = 0.1687-0.0844 0.0783 ( 32476 PWs)   bands (ev):

   -70.0735 -70.0724 -70.0716 -70.0705 -70.0702 -70.0692 -70.0683 -70.0673
   -40.1189 -40.1124 -40.1068 -40.0957 -40.0602 -40.0439 -39.8803 -39.8551
   -36.1997 -36.1947 -36.1901 -36.1900 -36.1816 -36.1800 -36.1630 -36.1615
   -36.1569 -36.1525 -36.1462 -36.1460 -36.1435 -36.1434 -36.1379 -36.1377
   -36.1316 -36.1293 -36.1292 -36.1281 -36.1277 -36.1253 -36.1207 -36.1191
   -16.5278 -16.5222 -16.5010 -16.4643 -16.4588 -16.4527 -16.4446 -16.4416
   -16.4410 -16.4071 -16.3941 -16.3792 -16.3054 -16.3005 -16.2782 -16.2652
   -16.2333 -16.2171 -16.2129 -16.2018 -16.1323 -16.1157 -16.0844 -16.0697
     8.1197  10.6307  10.7599  12.0126  12.6227  12.8295  13.0053  13.0165
    13.3321  13.5266  13.5446  13.6709  13.7119  13.7657  13.9865  13.9953
    14.1547  14.1679  14.4257  14.5802  14.5881  14.6267  14.6860  14.7626
    14.7826  14.9043  15.0134  15.0366  15.0726  15.1043  15.1977  15.2909
    15.3096  15.3687  15.4652  15.5174  15.5511  15.5979  15.6069  15.6905
    15.7044  15.7584  15.7866  15.8847  15.8936  15.9981  16.0468  16.1653
    16.5489  16.9183  17.0419  17.0576  17.0811  17.1594  17.2714  17.2723
    17.3394  17.5755  17.6073  17.6836  17.7419  17.7913  17.8730  17.9616
    17.9939  18.0636  18.0673  18.1884  18.3532  18.3586  18.4418  18.5626

          k =-0.1687-0.0844-0.0783 ( 32476 PWs)   bands (ev):

   -70.0735 -70.0724 -70.0716 -70.0705 -70.0702 -70.0692 -70.0683 -70.0673
   -40.1189 -40.1124 -40.1068 -40.0957 -40.0602 -40.0439 -39.8803 -39.8551
   -36.1997 -36.1947 -36.1901 -36.1900 -36.1816 -36.1800 -36.1630 -36.1615
   -36.1569 -36.1525 -36.1462 -36.1460 -36.1435 -36.1434 -36.1379 -36.1377
   -36.1316 -36.1293 -36.1292 -36.1281 -36.1277 -36.1253 -36.1207 -36.1191
   -16.5278 -16.5222 -16.5010 -16.4643 -16.4588 -16.4527 -16.4446 -16.4416
   -16.4410 -16.4071 -16.3941 -16.3792 -16.3054 -16.3005 -16.2782 -16.2652
   -16.2333 -16.2171 -16.2129 -16.2018 -16.1323 -16.1157 -16.0844 -16.0697
     8.1197  10.6307  10.7599  12.0126  12.6227  12.8295  13.0053  13.0165
    13.3321  13.5266  13.5446  13.6709  13.7119  13.7657  13.9865  13.9953
    14.1547  14.1679  14.4257  14.5802  14.5881  14.6267  14.6860  14.7626
    14.7826  14.9043  15.0134  15.0366  15.0726  15.1043  15.1977  15.2909
    15.3096  15.3687  15.4652  15.5175  15.5511  15.5979  15.6069  15.6905
    15.7044  15.7584  15.7866  15.8847  15.8936  15.9981  16.0468  16.1653
    16.5489  16.9183  17.0419  17.0576  17.0811  17.1594  17.2714  17.2723
    17.3394  17.5755  17.6073  17.6836  17.7419  17.7913  17.8730  17.9616
    17.9939  18.0636  18.0673  18.1883  18.3532  18.3585  18.4418  18.5626

          k = 0.0844-0.0844-0.2348 ( 32474 PWs)   bands (ev):

   -70.0736 -70.0736 -70.0704 -70.0704 -70.0704 -70.0704 -70.0671 -70.0671
   -40.1170 -40.1170 -40.1038 -40.1038 -40.0490 -40.0490 -39.8668 -39.8668
   -36.2010 -36.2010 -36.1886 -36.1886 -36.1881 -36.1881 -36.1592 -36.1592
   -36.1570 -36.1570 -36.1379 -36.1379 -36.1378 -36.1377 -36.1377 -36.1377
   -36.1335 -36.1335 -36.1312 -36.1312 -36.1303 -36.1303 -36.1155 -36.1155
   -16.5156 -16.5156 -16.5148 -16.5148 -16.4476 -16.4476 -16.4455 -16.4455
   -16.4034 -16.4034 -16.3723 -16.3723 -16.3538 -16.3538 -16.3032 -16.3032
   -16.2087 -16.2087 -16.2075 -16.2075 -16.0762 -16.0762 -16.0760 -16.0760
     9.1148   9.1148  11.5408  11.5408  12.7413  12.7413  12.9855  12.9855
    13.5815  13.5815  13.7046  13.7046  13.7135  13.7135  13.8001  13.8001
    13.8890  13.8890  14.4399  14.4399  14.4608  14.4608  14.6562  14.6562
    14.9590  14.9590  15.0964  15.0964  15.1377  15.1377  15.2680  15.2680
    15.4566  15.4566  15.4824  15.4824  15.5909  15.5909  15.6007  15.6007
    15.6499  15.6499  15.7492  15.7492  15.8077  15.8077  16.1833  16.1833
    16.9808  16.9808  17.2610  17.2610  17.3200  17.3200  17.3296  17.3296
    17.3357  17.3357  17.3921  17.3921  17.5713  17.5713  17.8838  17.8838
    17.9997  17.9997  18.0007  18.0007  18.3938  18.3938  18.7606  18.7606

          k =-0.2531-0.0844 0.0783 ( 32474 PWs)   bands (ev):

   -70.0728 -70.0723 -70.0717 -70.0712 -70.0695 -70.0690 -70.0685 -70.0680
   -40.1170 -40.1122 -40.1029 -40.0974 -40.0618 -40.0456 -39.8808 -39.8556
   -36.1951 -36.1934 -36.1922 -36.1914 -36.1737 -36.1721 -36.1698 -36.1683
   -36.1502 -36.1479 -36.1466 -36.1451 -36.1445 -36.1444 -36.1440 -36.1436
   -36.1307 -36.1301 -36.1268 -36.1265 -36.1262 -36.1252 -36.1246 -36.1231
   -16.5254 -16.5192 -16.4999 -16.4617 -16.4540 -16.4436 -16.4421 -16.3925
   -16.3837 -16.3807 -16.3738 -16.3675 -16.3436 -16.3314 -16.3022 -16.3018
   -16.2330 -16.2190 -16.2128 -16.2013 -16.1642 -16.1464 -16.0849 -16.0702
     8.1740  10.6614  10.8466  11.7497  12.6205  12.8884  13.0859  13.2949
    13.5603  13.6246  13.7118  13.7249  13.8104  13.8155  13.8938  13.9147
    13.9163  14.0801  14.1580  14.6336  14.7765  14.8076  14.8079  14.8217
    14.8310  14.8713  14.9059  14.9507  15.1749  15.2181  15.2185  15.2266
    15.2492  15.4103  15.4315  15.4485  15.4520  15.4559  15.4958  15.5586
    15.5677  15.6232  15.6267  15.6856  15.7006  15.8227  16.0418  16.0540
    16.7109  16.9577  16.9640  16.9960  17.0007  17.3073  17.3711  17.5071
    17.5199  17.5521  17.5719  17.6158  17.6961  17.7852  17.9279  18.0631
    18.0899  18.1275  18.1374  18.1779  18.2312  18.2430  18.5861  18.6537

          k = 0.1687-0.0844 0.1566 ( 32434 PWs)   bands (ev):

   -70.0733 -70.0726 -70.0713 -70.0707 -70.0700 -70.0694 -70.0681 -70.0675
   -40.1163 -40.1093 -40.1088 -40.0992 -40.0568 -40.0474 -39.8750 -39.8604
   -36.1986 -36.1957 -36.1900 -36.1900 -36.1813 -36.1803 -36.1627 -36.1618
   -36.1561 -36.1535 -36.1423 -36.1422 -36.1416 -36.1396 -36.1384 -36.1370
   -36.1336 -36.1327 -36.1316 -36.1292 -36.1289 -36.1283 -36.1203 -36.1195
   -16.5177 -16.5055 -16.4695 -16.4597 -16.4551 -16.4472 -16.4449 -16.4185
   -16.4112 -16.4046 -16.3967 -16.3483 -16.3410 -16.3317 -16.2811 -16.2753
   -16.2679 -16.2624 -16.2106 -16.2041 -16.1288 -16.1192 -16.0813 -16.0728
     8.5577   9.9712  11.0862  12.1447  12.2460  12.8641  13.0216  13.2521
    13.2676  13.6905  13.7117  13.8102  13.8164  13.9428  13.9692  14.0100
    14.0618  14.2506  14.3003  14.4772  14.5194  14.5700  14.6461  14.6794
    14.7765  14.9425  14.9472  14.9549  15.0231  15.1082  15.2821  15.3133
    15.3491  15.3503  15.3606  15.3861  15.3956  15.4163  15.4801  15.5145
    15.5186  15.5313  15.5734  15.6158  15.8364  15.8706  15.8900  16.1055
    16.7796  17.1579  17.2444  17.2964  17.3257  17.3386  17.3771  17.4613
    17.4989  17.5235  17.5842  17.6346  17.6558  17.6913  17.7075  17.8412
    17.9724  17.9817  18.1190  18.1277  18.2540  18.2686  18.5241  18.5641

          k = 0.1687-0.1687 0.0783 ( 32434 PWs)   bands (ev):

   -70.0728 -70.0717 -70.0709 -70.0709 -70.0698 -70.0698 -70.0690 -70.0679
   -40.1153 -40.1116 -40.1021 -40.0955 -40.0637 -40.0479 -39.8813 -39.8561
   -36.1942 -36.1907 -36.1849 -36.1832 -36.1825 -36.1815 -36.1670 -36.1661
   -36.1524 -36.1494 -36.1455 -36.1454 -36.1440 -36.1439 -36.1369 -36.1354
   -36.1350 -36.1341 -36.1305 -36.1285 -36.1285 -36.1261 -36.1255 -36.1244
   -16.5240 -16.4621 -16.4564 -16.4501 -16.4473 -16.4401 -16.4393 -16.4176
   -16.4061 -16.3967 -16.3956 -16.3824 -16.3027 -16.2996 -16.2809 -16.2748
   -16.2650 -16.2646 -16.2345 -16.2195 -16.1336 -16.1329 -16.1167 -16.1166
     8.1927  10.6910  10.9943  11.9314  12.4281  12.8740  12.9945  13.0622
    13.6020  13.7060  13.8081  13.8270  13.8688  13.8792  14.0194  14.0349
    14.2421  14.3850  14.4219  14.4585  14.5128  14.6582  14.6786  14.8529
    14.8846  14.9409  14.9850  15.0015  15.0244  15.0301  15.1027  15.1060
    15.1314  15.1447  15.2902  15.3050  15.3533  15.4511  15.4968  15.5055
    15.5633  15.6230  15.6340  15.6378  15.6892  15.7086  15.7459  16.0186
    16.7658  16.9525  17.0227  17.0520  17.1079  17.4638  17.4797  17.5294
    17.5338  17.7235  17.7863  17.8049  17.8336  17.9051  17.9501  17.9898
    18.0500  18.0842  18.1311  18.1896  18.2408  18.3043  18.3311  18.5018

          k =-0.1687-0.1687-0.0783 ( 32434 PWs)   bands (ev):

   -70.0728 -70.0717 -70.0709 -70.0709 -70.0698 -70.0698 -70.0690 -70.0679
   -40.1153 -40.1116 -40.1021 -40.0955 -40.0637 -40.0479 -39.8813 -39.8561
   -36.1942 -36.1907 -36.1849 -36.1832 -36.1825 -36.1815 -36.1670 -36.1661
   -36.1524 -36.1494 -36.1455 -36.1454 -36.1440 -36.1439 -36.1369 -36.1354
   -36.1350 -36.1341 -36.1305 -36.1285 -36.1285 -36.1261 -36.1255 -36.1244
   -16.5240 -16.4621 -16.4564 -16.4501 -16.4473 -16.4401 -16.4393 -16.4176
   -16.4061 -16.3967 -16.3956 -16.3824 -16.3027 -16.2996 -16.2809 -16.2748
   -16.2650 -16.2646 -16.2345 -16.2195 -16.1336 -16.1329 -16.1167 -16.1166
     8.1927  10.6910  10.9943  11.9314  12.4281  12.8740  12.9945  13.0622
    13.6020  13.7060  13.8081  13.8270  13.8688  13.8792  14.0194  14.0349
    14.2421  14.3850  14.4219  14.4585  14.5128  14.6582  14.6786  14.8529
    14.8846  14.9409  14.9850  15.0015  15.0244  15.0301  15.1027  15.1060
    15.1314  15.1447  15.2902  15.3050  15.3534  15.4511  15.4968  15.5055
    15.5633  15.6230  15.6340  15.6378  15.6892  15.7086  15.7459  16.0186
    16.7658  16.9525  17.0227  17.0520  17.1079  17.4638  17.4798  17.5294
    17.5338  17.7235  17.7863  17.8049  17.8336  17.9051  17.9501  17.9898
    18.0500  18.0842  18.1311  18.1895  18.2408  18.3043  18.3311  18.5018

          k = 0.1687-0.0844-0.2348 ( 32462 PWs)   bands (ev):

   -70.0730 -70.0730 -70.0710 -70.0710 -70.0697 -70.0697 -70.0678 -70.0678
   -40.1128 -40.1128 -40.1040 -40.1040 -40.0521 -40.0521 -39.8677 -39.8677
   -36.1972 -36.1972 -36.1900 -36.1900 -36.1808 -36.1808 -36.1623 -36.1623
   -36.1548 -36.1548 -36.1396 -36.1396 -36.1375 -36.1375 -36.1369 -36.1369
   -36.1357 -36.1357 -36.1344 -36.1344 -36.1286 -36.1286 -36.1199 -36.1199
   -16.5115 -16.5115 -16.4536 -16.4536 -16.4501 -16.4501 -16.4023 -16.4023
   -16.3952 -16.3952 -16.3744 -16.3744 -16.3557 -16.3557 -16.3059 -16.3059
   -16.2716 -16.2716 -16.2074 -16.2074 -16.1240 -16.1240 -16.0771 -16.0771
     9.2146   9.2146  11.5795  11.5795  12.5645  12.5645  13.1967  13.1967
    13.6323  13.6323  13.8561  13.8561  13.8940  13.8940  13.9815  13.9815
    14.0529  14.0529  14.3989  14.3989  14.5563  14.5563  14.6572  14.6572
    14.7307  14.7307  14.9259  14.9259  15.1868  15.1868  15.1988  15.1988
    15.2710  15.2710  15.2973  15.2973  15.4315  15.4315  15.4433  15.4433
    15.5181  15.5181  15.5842  15.5842  15.6142  15.6142  16.0292  16.0292
    17.0285  17.0285  17.4100  17.4100  17.4426  17.4426  17.4530  17.4530
    17.4918  17.4918  17.5508  17.5508  17.7172  17.7172  17.7918  17.7918
    17.8564  17.8564  18.0864  18.0864  18.2365  18.2365  18.6662  18.6662

          k =-0.2531-0.1687 0.0783 ( 32462 PWs)   bands (ev):

   -70.0721 -70.0716 -70.0711 -70.0705 -70.0702 -70.0697 -70.0691 -70.0686
   -40.1131 -40.1114 -40.0985 -40.0965 -40.0656 -40.0501 -39.8817 -39.8566
   -36.1890 -36.1870 -36.1868 -36.1861 -36.1761 -36.1754 -36.1722 -36.1722
   -36.1466 -36.1456 -36.1451 -36.1450 -36.1444 -36.1443 -36.1423 -36.1411
   -36.1319 -36.1317 -36.1303 -36.1297 -36.1292 -36.1291 -36.1276 -36.1270
   -16.5220 -16.4566 -16.4505 -16.4468 -16.4386 -16.4159 -16.3973 -16.3860
   -16.3842 -16.3825 -16.3701 -16.3669 -16.3491 -16.3352 -16.3002 -16.3000
   -16.2776 -16.2646 -16.2350 -16.2208 -16.1652 -16.1471 -16.1337 -16.1171
     8.2307  10.7220  11.2028  11.7274  12.3407  12.9436  12.9913  13.2989
    13.6849  13.8457  13.8710  13.8984  13.9016  13.9229  14.1389  14.1539
    14.1671  14.1842  14.2747  14.6734  14.7636  14.7739  14.7858  14.8235
    14.8344  14.8353  14.8729  14.8838  14.8987  15.0080  15.0274  15.0299
    15.1754  15.1888  15.2291  15.2327  15.3227  15.3365  15.3475  15.3522
    15.4402  15.4574  15.4900  15.5018  15.5889  15.6132  15.8831  15.8845
    16.8789  16.9740  17.0158  17.0551  17.0876  17.5469  17.5948  17.7307
    17.7484  17.7895  17.7917  17.8453  17.8511  17.9189  17.9553  18.0092
    18.0862  18.0971  18.1438  18.1639  18.2491  18.2973  18.3801  18.4347

          k =-0.0844-0.2531 0.1566 ( 32462 PWs)   bands (ev):

   -70.0726 -70.0720 -70.0719 -70.0714 -70.0693 -70.0688 -70.0687 -70.0682
   -40.1140 -40.1091 -40.1059 -40.1005 -40.0584 -40.0490 -39.8755 -39.8609
   -36.1945 -36.1930 -36.1928 -36.1918 -36.1734 -36.1724 -36.1695 -36.1686
   -36.1499 -36.1485 -36.1462 -36.1444 -36.1414 -36.1411 -36.1408 -36.1406
   -36.1335 -36.1329 -36.1306 -36.1301 -36.1262 -36.1255 -36.1243 -36.1235
   -16.5151 -16.5040 -16.4662 -16.4576 -16.4463 -16.4225 -16.4100 -16.3891
   -16.3807 -16.3773 -16.3709 -16.3496 -16.3415 -16.3352 -16.3342 -16.3340
   -16.2809 -16.2645 -16.2103 -16.2037 -16.1604 -16.1501 -16.0818 -16.0733
     8.6126  10.0174  11.1426  12.0452  12.1198  12.9558  13.1369  13.3086
    13.6298  13.6711  13.7965  13.8650  13.9378  13.9403  13.9412  14.0313
    14.0779  14.1265  14.2445  14.6198  14.6960  14.7036  14.7220  14.7221
    14.7283  14.7758  14.7868  14.8005  15.0621  15.0624  15.2032  15.2244
    15.2252  15.2277  15.3056  15.3450  15.3528  15.3874  15.3955  15.4338
    15.4540  15.4981  15.5180  15.5941  15.6226  15.6470  15.9767  15.9804
    16.8835  17.1883  17.2789  17.3331  17.3366  17.3777  17.4529  17.5482
    17.5494  17.5592  17.5934  17.6642  17.7377  17.7419  17.7847  17.8283
    17.9493  17.9962  18.1176  18.1376  18.1786  18.1893  18.5041  18.6335

          k =-0.2531 0.2531 0.0783 ( 32460 PWs)   bands (ev):

   -70.0714 -70.0709 -70.0709 -70.0704 -70.0704 -70.0698 -70.0698 -70.0693
   -40.1110 -40.1110 -40.0960 -40.0960 -40.0678 -40.0527 -39.8822 -39.8571
   -36.1832 -36.1820 -36.1820 -36.1797 -36.1797 -36.1796 -36.1778 -36.1748
   -36.1449 -36.1449 -36.1449 -36.1443 -36.1433 -36.1410 -36.1384 -36.1384
   -36.1370 -36.1357 -36.1357 -36.1348 -36.1290 -36.1284 -36.1284 -36.1279
   -16.5202 -16.4486 -16.4486 -16.3914 -16.3903 -16.3863 -16.3754 -16.3738
   -16.3687 -16.3672 -16.3670 -16.3661 -16.3532 -16.3532 -16.3374 -16.3374
   -16.2991 -16.2991 -16.2361 -16.2218 -16.1658 -16.1658 -16.1475 -16.1475
     8.2599  10.7533  11.7138  11.7138  11.7547  12.9504  13.3144  13.3144
    13.4566  13.9116  13.9393  13.9393  14.0931  14.1934  14.1934  14.2310
    14.4782  14.4782  14.5183  14.5354  14.5710  14.5832  14.5832  14.6345
    14.6872  14.8317  14.8453  14.8453  14.9401  14.9880  14.9881  14.9911
    15.0183  15.0498  15.0498  15.0615  15.3269  15.3286  15.3286  15.3329
    15.4204  15.4204  15.4926  15.5329  15.6004  15.6026  15.6245  15.6245
    16.9627  16.9809  17.0709  17.0709  17.0873  17.7019  17.7231  17.7231
    17.8534  17.9500  17.9500  17.9929  18.0392  18.0731  18.0731  18.0732
    18.0965  18.0965  18.1360  18.1911  18.3221  18.3315  18.3343  18.3577

          k = 0.1687-0.1687 0.1566 ( 32390 PWs)   bands (ev):

   -70.0726 -70.0720 -70.0707 -70.0707 -70.0701 -70.0701 -70.0688 -70.0681
   -40.1125 -40.1082 -40.1049 -40.0989 -40.0604 -40.0512 -39.8760 -39.8614
   -36.1935 -36.1914 -36.1844 -36.1830 -36.1828 -36.1819 -36.1669 -36.1663
   -36.1518 -36.1501 -36.1419 -36.1417 -36.1416 -36.1402 -36.1365 -36.1357
   -36.1354 -36.1346 -36.1323 -36.1320 -36.1318 -36.1299 -36.1253 -36.1246
   -16.4644 -16.4575 -16.4529 -16.4446 -16.4435 -16.4162 -16.4158 -16.4133
   -16.4040 -16.4010 -16.3977 -16.3513 -16.3369 -16.3309 -16.2832 -16.2776
   -16.2726 -16.2683 -16.2667 -16.2651 -16.1300 -16.1295 -16.1202 -16.1201
     8.6330  10.0444  11.3123  12.1805  12.3625  12.6980  12.8510  13.2534
    13.4190  13.8975  13.9213  13.9766  13.9860  14.0185  14.0989  14.2659
    14.2697  14.2972  14.3423  14.3438  14.5051  14.6226  14.6534  14.7854
    14.8391  14.8702  14.9405  15.0183  15.0255  15.0345  15.0491  15.0947
    15.1082  15.1570  15.1716  15.2047  15.2107  15.2451  15.3033  15.3152
    15.3452  15.3879  15.3987  15.5020  15.5091  15.5348  15.5519  15.9128
    16.9216  17.1894  17.3306  17.3977  17.4352  17.5588  17.5933  17.6478
    17.6533  17.6635  17.7790  17.7976  17.9064  17.9261  17.9570  18.0026
    18.0152  18.0216  18.0662  18.2270  18.2285  18.2761  18.4895  18.5675

          k = 0.1687-0.1687-0.2348 ( 32458 PWs)   bands (ev):

   -70.0723 -70.0723 -70.0704 -70.0704 -70.0704 -70.0704 -70.0685 -70.0684
   -40.1087 -40.1087 -40.1036 -40.1036 -40.0558 -40.0558 -39.8687 -39.8687
   -36.1924 -36.1924 -36.1837 -36.1837 -36.1824 -36.1824 -36.1666 -36.1666
   -36.1510 -36.1510 -36.1385 -36.1385 -36.1370 -36.1370 -36.1369 -36.1369
   -36.1359 -36.1359 -36.1350 -36.1350 -36.1334 -36.1334 -36.1250 -36.1250
   -16.4512 -16.4512 -16.4481 -16.4481 -16.4079 -16.4079 -16.4011 -16.4011
   -16.3893 -16.3893 -16.3733 -16.3733 -16.3608 -16.3608 -16.3087 -16.3087
   -16.2728 -16.2728 -16.2697 -16.2697 -16.1251 -16.1251 -16.1248 -16.1248
     9.2916   9.2916  11.7960  11.7960  12.5235  12.5235  13.0731  13.0731
    13.6279  13.6279  14.1290  14.1290  14.1327  14.1327  14.1534  14.1535
    14.1852  14.1852  14.3955  14.3955  14.6240  14.6240  14.6485  14.6485
    14.7024  14.7024  14.9721  14.9721  15.0484  15.0484  15.0512  15.0512
    15.1040  15.1040  15.1561  15.1561  15.1901  15.1901  15.2586  15.2586
    15.3096  15.3096  15.3151  15.3151  15.4193  15.4193  15.6968  15.6968
    17.0990  17.0990  17.5390  17.5390  17.6095  17.6095  17.6512  17.6512
    17.6733  17.6733  17.7901  17.7901  17.8817  17.8817  17.9938  17.9938
    18.0031  18.0031  18.0775  18.0775  18.3804  18.3804  18.7055  18.7055

          k =-0.2531-0.1687 0.1566 ( 32458 PWs)   bands (ev):

   -70.0719 -70.0714 -70.0713 -70.0708 -70.0700 -70.0695 -70.0694 -70.0688
   -40.1100 -40.1082 -40.1016 -40.0996 -40.0624 -40.0534 -39.8764 -39.8619
   -36.1885 -36.1873 -36.1866 -36.1862 -36.1761 -36.1757 -36.1723 -36.1723
   -36.1464 -36.1458 -36.1434 -36.1415 -36.1415 -36.1411 -36.1407 -36.1402
   -36.1335 -36.1326 -36.1317 -36.1316 -36.1309 -36.1307 -36.1297 -36.1294
   -16.4614 -16.4527 -16.4424 -16.4191 -16.4148 -16.4119 -16.4009 -16.3830
   -16.3794 -16.3734 -16.3705 -16.3526 -16.3465 -16.3381 -16.3323 -16.3322
   -16.2842 -16.2750 -16.2673 -16.2666 -16.1614 -16.1510 -16.1302 -16.1206
     8.6724  10.0828  11.5000  12.0209  12.4688  12.6257  12.9315  13.2504
    13.4470  13.8602  14.0558  14.0888  14.1168  14.1235  14.2104  14.2173
    14.2333  14.3286  14.3289  14.6607  14.6718  14.7155  14.7430  14.7457
    14.8126  14.8156  14.8337  14.8355  14.9083  14.9124  15.0063  15.0159
    15.0431  15.1001  15.1382  15.1500  15.1718  15.1949  15.2009  15.2277
    15.2341  15.2516  15.2545  15.3107  15.4138  15.4185  15.6452  15.6498
    16.9983  17.1990  17.3898  17.4439  17.5016  17.6462  17.7224  17.7590
    17.7712  17.7959  17.8272  17.8829  17.9198  17.9263  17.9563  17.9973
    18.0662  18.1537  18.2037  18.2747  18.3164  18.3358  18.4405  18.5993

          k =-0.2531 0.2531 0.1566 ( 32460 PWs)   bands (ev):

   -70.0712 -70.0707 -70.0707 -70.0706 -70.0702 -70.0701 -70.0701 -70.0695
   -40.1078 -40.1078 -40.0991 -40.0991 -40.0646 -40.0559 -39.8769 -39.8624
   -36.1825 -36.1815 -36.1815 -36.1804 -36.1802 -36.1802 -36.1772 -36.1755
   -36.1428 -36.1419 -36.1419 -36.1415 -36.1414 -36.1408 -36.1373 -36.1373
   -36.1366 -36.1366 -36.1366 -36.1353 -36.1324 -36.1315 -36.1315 -36.1313
   -16.4586 -16.4174 -16.4174 -16.3868 -16.3855 -16.3737 -16.3733 -16.3729
   -16.3722 -16.3689 -16.3677 -16.3539 -16.3501 -16.3501 -16.3406 -16.3406
   -16.3306 -16.3306 -16.2860 -16.2680 -16.1619 -16.1619 -16.1514 -16.1514
     8.7032  10.1167  12.0068  12.0068  12.0552  12.9254  12.9254  13.0179
    13.2235  13.9980  14.1354  14.1600  14.1600  14.4024  14.4024  14.4860
    14.5013  14.5013  14.5554  14.5630  14.5936  14.5936  14.6221  14.6535
    14.6882  14.8570  14.8570  14.8611  14.9083  14.9457  14.9457  14.9487
    14.9487  14.9535  14.9562  15.0276  15.0598  15.0598  15.0669  15.0787
    15.2070  15.2070  15.2798  15.2848  15.3185  15.3381  15.3381  15.3399
    17.0575  17.2053  17.5082  17.5082  17.5296  17.8138  17.8369  17.8369
    17.9318  17.9318  17.9541  17.9702  18.0018  18.0365  18.0365  18.1079
    18.1141  18.1751  18.3586  18.3586  18.4502  18.4738  18.4738  18.5571

     the Fermi energy is    16.7837 ev

!    total energy              =   -3590.79859449 Ry
     estimated scf accuracy    <          1.6E-10 Ry
     smearing contrib. (-TS)   =      -0.00015655 Ry
     internal energy E=F+TS    =   -3590.79843794 Ry

     The total energy is F=E-TS. E is the sum of the following terms:
     one-electron contribution =   -1257.99314626 Ry
     hartree contribution      =     750.83706683 Ry
     xc contribution           =    -424.35011981 Ry
     ewald contribution        =   -2050.07676836 Ry
     one-center paw contrib.   =    -609.21547034 Ry

     convergence has been achieved in  28 iterations

     negative rho (up, down):  7.639E-03 0.000E+00

     Forces acting on atoms (cartesian axes, Ry/au):

     atom    1 type  1   force =     0.00259593    0.00259593    0.00000000
     atom    2 type  1   force =    -0.00259566   -0.00259566   -0.00000000
     atom    3 type  1   force =    -0.00259499    0.00259425    0.00000000
     atom    4 type  1   force =     0.00259623   -0.00259658   -0.00000000
     atom    5 type  1   force =     0.00259808    0.00259808    0.00000000
     atom    6 type  1   force =    -0.00259540   -0.00259540   -0.00000000
     atom    7 type  1   force =    -0.00259658    0.00259623    0.00000000
     atom    8 type  1   force =     0.00259425   -0.00259499   -0.00000000
     atom    9 type  2   force =     0.00000018    0.00000018   -0.00000066
     atom   10 type  2   force =    -0.00000069   -0.00000069   -0.00000038
     atom   11 type  2   force =    -0.00000070    0.00000026   -0.00000037
     atom   12 type  2   force =     0.00000026   -0.00000070    0.00000037
     atom   13 type  2   force =     0.00000018    0.00000018    0.00000066
     atom   14 type  2   force =    -0.00000069   -0.00000069    0.00000038
     atom   15 type  2   force =    -0.00000070    0.00000026    0.00000037
     atom   16 type  2   force =     0.00000026   -0.00000070   -0.00000037
     atom   17 type  3   force =     0.00000005    0.00000005    0.00000000
     atom   18 type  3   force =    -0.00000002   -0.00000002   -0.00000000

     Total force =     0.010384     Total SCF correction =     0.000048


     Computing stress (Cartesian axis) and pressure


     negative rho (up, down):  7.639E-03 0.000E+00
          total   stress  (Ry/bohr**3)                   (kbar)     P=       -0.14
  -0.00002740  -0.00000001   0.00000000           -4.03       -0.00        0.00
  -0.00000001  -0.00002740  -0.00000000           -0.00       -4.03       -0.00
   0.00000000  -0.00000000   0.00005199            0.00       -0.00        7.65

     Energy error            =      3.7E-03 Ry
     Gradient error          =      2.6E-03 Ry/Bohr
     Cell gradient error     =      7.6E+00 kbar

     number of scf cycles    =   4
     number of bfgs steps    =   3

     enthalpy           old  =   -3590.7948449296 Ry
     enthalpy           new  =   -3590.7985944919 Ry

     CASE: enthalpy          _new < enthalpy          _old

     new trust radius        =       0.0316106449 bohr
     new conv_thr            =       0.0000000003 Ry

     new unit-cell volume =   1444.44970 a.u.^3 (   214.04536 Ang^3 )
     density =      6.45232 g/cm^3

CELL_PARAMETERS (alat=  5.58242261)
   1.970626186  -0.000005044  -0.000000000
  -0.000005044   1.970626186  -0.000000000
   0.000000000  -0.000000000   2.138089066

ATOMIC_POSITIONS (crystal)
Fe              -0.0025131217       -0.0025131217       -0.0000000000
Fe               0.5025125278        0.5025125278        0.0000000000
Fe               0.5025128817       -0.0025129543        0.0000000000
Fe              -0.0025127120        0.5025128438        0.5000000000
Fe              -0.0025121483       -0.0025121483        0.5000000000
Fe               0.5025125481        0.5025125481        0.5000000000
Fe               0.5025128438       -0.0025127120        0.5000000000
Fe              -0.0025129543        0.5025128817        0.0000000000
Ti               0.2499999745        0.2499999745        0.2499999099
Ti               0.7500000074        0.7500000074        0.2499999273
Ti               0.7500000294        0.2500000172        0.2499999039
Ti               0.2500000172        0.7500000294        0.7500000961
Ti               0.2499999745        0.2499999745        0.7500000901
Ti               0.7500000074        0.7500000074        0.7500000727
Ti               0.7500000294        0.2500000172        0.7500000961
Ti               0.2500000172        0.7500000294        0.2499999039
H                0.2500000513        0.2500000513        0.0000000000
H                0.2500000267        0.2500000267        0.5000000000



     Writing config-only to output data dir ./TiFeH_supercell.save/ :
     XML data file     NEW-OLD atomic charge density approx. for the potential
     New effective cutoffs (rho, wfc): 1787.95  127.71

     Check: negative core charge=   -0.000001

     negative rho (up, down):  7.635E-03 0.000E+00

     total cpu time spent up to now is     7053.0 secs

     per-process dynamical memory:   458.4 Mb

     Self-consistent Calculation

     iteration #  1     ecut=   124.00 Ry     beta= 0.70
     Davidson diagonalization with overlap
     ethr =  1.00E-06,  avg # of iterations =  5.6

     negative rho (up, down):  7.645E-03 0.000E+00

     total cpu time spent up to now is     7136.1 secs

     total energy              =   -3590.79858026 Ry
     estimated scf accuracy    <       0.00037811 Ry

     iteration #  2     ecut=   124.00 Ry     beta= 0.70
     Davidson diagonalization with overlap
     ethr =  1.67E-07,  avg # of iterations =  5.9

     negative rho (up, down):  7.623E-03 0.000E+00

     total cpu time spent up to now is     7210.0 secs

     total energy              =   -3590.79775205 Ry
     estimated scf accuracy    <       0.01839538 Ry

     iteration #  3     ecut=   124.00 Ry     beta= 0.70
     Davidson diagonalization with overlap
     ethr =  1.67E-07,  avg # of iterations =  5.9

     negative rho (up, down):  7.630E-03 0.000E+00

     total cpu time spent up to now is     7274.5 secs

     total energy              =   -3590.79879004 Ry
     estimated scf accuracy    <       0.00160307 Ry

     iteration #  4     ecut=   124.00 Ry     beta= 0.70
     Davidson diagonalization with overlap
     ethr =  1.67E-07,  avg # of iterations =  4.8

     negative rho (up, down):  7.631E-03 0.000E+00

     total cpu time spent up to now is     7328.2 secs

     total energy              =   -3590.79886036 Ry
     estimated scf accuracy    <       0.00138732 Ry

     iteration #  5     ecut=   124.00 Ry     beta= 0.70
     Davidson diagonalization with overlap
     ethr =  1.67E-07,  avg # of iterations =  5.2

     negative rho (up, down):  7.629E-03 0.000E+00

     total cpu time spent up to now is     7380.0 secs

     total energy              =   -3590.79872912 Ry
     estimated scf accuracy    <       0.00889919 Ry

     iteration #  6     ecut=   124.00 Ry     beta= 0.70
     Davidson diagonalization with overlap
     ethr =  1.67E-07,  avg # of iterations =  4.5

     negative rho (up, down):  7.629E-03 0.000E+00

     total cpu time spent up to now is     7429.8 secs

     total energy              =   -3590.79894946 Ry
     estimated scf accuracy    <       0.00056933 Ry

     iteration #  7     ecut=   124.00 Ry     beta= 0.70
     Davidson diagonalization with overlap
     ethr =  1.67E-07,  avg # of iterations =  2.0

     negative rho (up, down):  7.630E-03 0.000E+00

     total cpu time spent up to now is     7470.1 secs

     total energy              =   -3590.79896628 Ry
     estimated scf accuracy    <       0.00041685 Ry

     iteration #  8     ecut=   124.00 Ry     beta= 0.70
     Davidson diagonalization with overlap
     ethr =  1.67E-07,  avg # of iterations =  1.3

     negative rho (up, down):  7.629E-03 0.000E+00

     total cpu time spent up to now is     7506.9 secs

     total energy              =   -3590.79898563 Ry
     estimated scf accuracy    <       0.00001078 Ry

     iteration #  9     ecut=   124.00 Ry     beta= 0.70
     Davidson diagonalization with overlap
     ethr =  4.77E-09,  avg # of iterations =  5.2

     negative rho (up, down):  7.628E-03 0.000E+00

     total cpu time spent up to now is     7567.0 secs

     total energy              =   -3590.79897644 Ry
     estimated scf accuracy    <       0.00045786 Ry

     iteration # 10     ecut=   124.00 Ry     beta= 0.70
     Davidson diagonalization with overlap
     ethr =  4.77E-09,  avg # of iterations =  4.9

     negative rho (up, down):  7.629E-03 0.000E+00

     total cpu time spent up to now is     7620.9 secs

     total energy              =   -3590.79898991 Ry
     estimated scf accuracy    <       0.00002031 Ry

     iteration # 11     ecut=   124.00 Ry     beta= 0.70
     Davidson diagonalization with overlap
     ethr =  4.77E-09,  avg # of iterations =  1.9

     negative rho (up, down):  7.629E-03 0.000E+00

     total cpu time spent up to now is     7660.9 secs

     total energy              =   -3590.79899018 Ry
     estimated scf accuracy    <       0.00000671 Ry

     iteration # 12     ecut=   124.00 Ry     beta= 0.70
     Davidson diagonalization with overlap
     ethr =  2.97E-09,  avg # of iterations =  2.2

     negative rho (up, down):  7.629E-03 0.000E+00

     total cpu time spent up to now is     7701.7 secs

     total energy              =   -3590.79899052 Ry
     estimated scf accuracy    <       0.00000056 Ry

     iteration # 13     ecut=   124.00 Ry     beta= 0.70
     Davidson diagonalization with overlap
     ethr =  2.47E-10,  avg # of iterations =  5.0

     negative rho (up, down):  7.629E-03 0.000E+00

     total cpu time spent up to now is     7759.4 secs

     total energy              =   -3590.79899045 Ry
     estimated scf accuracy    <       0.00000598 Ry

     iteration # 14     ecut=   124.00 Ry     beta= 0.70
     Davidson diagonalization with overlap
     ethr =  2.47E-10,  avg # of iterations =  4.4

     negative rho (up, down):  7.629E-03 0.000E+00

     total cpu time spent up to now is     7810.7 secs

     total energy              =   -3590.79899061 Ry
     estimated scf accuracy    <       0.00000112 Ry

     iteration # 15     ecut=   124.00 Ry     beta= 0.70
     Davidson diagonalization with overlap
     c_bands:  1 eigenvalues not converged
     ethr =  2.47E-10,  avg # of iterations =  4.3

     negative rho (up, down):  7.629E-03 0.000E+00

     total cpu time spent up to now is     7858.4 secs

     total energy              =   -3590.79899059 Ry
     estimated scf accuracy    <       0.00000434 Ry

     iteration # 16     ecut=   124.00 Ry     beta= 0.70
     Davidson diagonalization with overlap
     ethr =  2.47E-10,  avg # of iterations =  3.5

     negative rho (up, down):  7.629E-03 0.000E+00

     total cpu time spent up to now is     7901.4 secs

     total energy              =   -3590.79899071 Ry
     estimated scf accuracy    <       0.00000036 Ry

     iteration # 17     ecut=   124.00 Ry     beta= 0.70
     Davidson diagonalization with overlap
     ethr =  1.58E-10,  avg # of iterations =  2.2

     negative rho (up, down):  7.629E-03 0.000E+00

     total cpu time spent up to now is     7941.8 secs

     total energy              =   -3590.79899072 Ry
     estimated scf accuracy    <       0.00000043 Ry

     iteration # 18     ecut=   124.00 Ry     beta= 0.70
     Davidson diagonalization with overlap
     ethr =  1.58E-10,  avg # of iterations =  1.0

     negative rho (up, down):  7.629E-03 0.000E+00

     total cpu time spent up to now is     7977.4 secs

     total energy              =   -3590.79899073 Ry
     estimated scf accuracy    <       0.00000006 Ry

     iteration # 19     ecut=   124.00 Ry     beta= 0.70
     Davidson diagonalization with overlap
     ethr =  2.47E-11,  avg # of iterations =  2.4

     negative rho (up, down):  7.629E-03 0.000E+00

     total cpu time spent up to now is     8019.1 secs

     total energy              =   -3590.79899072 Ry
     estimated scf accuracy    <       0.00000009 Ry

     iteration # 20     ecut=   124.00 Ry     beta= 0.70
     Davidson diagonalization with overlap
     ethr =  2.47E-11,  avg # of iterations =  5.0

     negative rho (up, down):  7.629E-03 0.000E+00

     total cpu time spent up to now is     8073.0 secs

     total energy              =   -3590.79899068 Ry
     estimated scf accuracy    <       0.00000152 Ry

     iteration # 21     ecut=   124.00 Ry     beta= 0.70
     Davidson diagonalization with overlap
     ethr =  2.47E-11,  avg # of iterations =  4.8

     negative rho (up, down):  7.629E-03 0.000E+00

     total cpu time spent up to now is     8125.2 secs

     total energy              =   -3590.79899074 Ry
     estimated scf accuracy    <       0.00000001 Ry

     iteration # 22     ecut=   124.00 Ry     beta= 0.70
     Davidson diagonalization with overlap
     ethr =  4.73E-12,  avg # of iterations =  2.1

     negative rho (up, down):  7.629E-03 0.000E+00

     total cpu time spent up to now is     8165.0 secs

     total energy              =   -3590.79899074 Ry
     estimated scf accuracy    <          6.2E-10 Ry

     iteration # 23     ecut=   124.00 Ry     beta= 0.70
     Davidson diagonalization with overlap
     ethr =  2.76E-13,  avg # of iterations =  6.0

     negative rho (up, down):  7.629E-03 0.000E+00

     total cpu time spent up to now is     8232.7 secs

     total energy              =   -3590.79899074 Ry
     estimated scf accuracy    <       0.00000004 Ry

     iteration # 24     ecut=   124.00 Ry     beta= 0.70
     Davidson diagonalization with overlap
     ethr =  2.76E-13,  avg # of iterations =  5.2

     negative rho (up, down):  7.629E-03 0.000E+00

     total cpu time spent up to now is     8291.4 secs

     total energy              =   -3590.79899074 Ry
     estimated scf accuracy    <          8.2E-10 Ry

     iteration # 25     ecut=   124.00 Ry     beta= 0.70
     Davidson diagonalization with overlap
     ethr =  2.76E-13,  avg # of iterations =  4.0

     negative rho (up, down):  7.629E-03 0.000E+00

     total cpu time spent up to now is     8338.4 secs

     total energy              =   -3590.79899074 Ry
     estimated scf accuracy    <          4.7E-09 Ry

     iteration # 26     ecut=   124.00 Ry     beta= 0.70
     Davidson diagonalization with overlap
     ethr =  2.76E-13,  avg # of iterations =  3.7

     negative rho (up, down):  7.629E-03 0.000E+00

     total cpu time spent up to now is     8381.8 secs

     total energy              =   -3590.79899074 Ry
     estimated scf accuracy    <          4.6E-10 Ry

     iteration # 27     ecut=   124.00 Ry     beta= 0.70
     Davidson diagonalization with overlap
     ethr =  2.02E-13,  avg # of iterations =  2.2

     negative rho (up, down):  7.629E-03 0.000E+00

     total cpu time spent up to now is     8421.8 secs

     End of self-consistent calculation

          k = 0.0000 0.0000 0.0000 ( 32423 PWs)   bands (ev):

   -70.0492 -70.0480 -70.0453 -70.0453 -70.0441 -70.0441 -70.0414 -70.0403
   -40.1036 -40.0941 -40.0918 -40.0702 -40.0325 -40.0138 -39.8726 -39.8449
   -36.1861 -36.1766 -36.1682 -36.1682 -36.1652 -36.1652 -36.1383 -36.1298
   -36.1297 -36.1282 -36.1253 -36.1253 -36.1189 -36.1180 -36.1093 -36.1039
   -36.1039 -36.1015 -36.1015 -36.0993 -36.0993 -36.0992 -36.0830 -36.0814
   -16.5434 -16.5386 -16.5386 -16.5081 -16.5081 -16.4551 -16.4551 -16.4413
   -16.4413 -16.4392 -16.4244 -16.3571 -16.2780 -16.2691 -16.2044 -16.1833
   -16.1651 -16.1651 -16.1544 -16.1544 -16.0485 -16.0485 -16.0326 -16.0326
     7.7690  10.4721  10.7890  12.5822  12.5822  12.7030  12.9938  13.1169
    13.1169  13.1835  13.2538  13.2835  13.3175  13.3230  13.4262  13.8585
    14.3587  14.3587  14.6922  14.7354  14.7895  14.7896  14.8040  14.8040
    14.8374  14.8374  14.9748  14.9872  15.0569  15.0569  15.4891  15.5112
    15.5528  15.5546  15.7241  15.7242  15.7820  15.7820  15.9111  15.9111
    16.0296  16.0915  16.3037  16.3065  16.3427  16.4503  16.6153  16.6153
    16.7735  16.9923  17.0148  17.1194  17.1398  17.1398  17.2306  17.2306
    17.4161  17.5654  17.5654  17.5744  17.7230  17.7927  17.7927  17.8535
    17.9192  17.9411  17.9411  18.0345  18.0346  18.0459  18.0542  18.1813

          k = 0.0000 0.0000 0.0780 ( 32427 PWs)   bands (ev):

   -70.0491 -70.0481 -70.0452 -70.0452 -70.0442 -70.0442 -70.0413 -70.0404
   -40.1030 -40.0948 -40.0903 -40.0717 -40.0312 -40.0151 -39.8707 -39.8467
   -36.1854 -36.1772 -36.1680 -36.1680 -36.1654 -36.1654 -36.1377 -36.1303
   -36.1297 -36.1283 -36.1239 -36.1239 -36.1176 -36.1175 -36.1100 -36.1053
   -36.1053 -36.1014 -36.1014 -36.1005 -36.0995 -36.0995 -36.0829 -36.0815
   -16.5365 -16.5365 -16.5226 -16.5100 -16.5100 -16.4543 -16.4543 -16.4424
   -16.4423 -16.4265 -16.4141 -16.3464 -16.2916 -16.2796 -16.2206 -16.1995
   -16.1644 -16.1644 -16.1551 -16.1551 -16.0475 -16.0475 -16.0336 -16.0336
     7.9189  10.4772  10.5992  12.6327  12.6327  12.7698  12.7989  13.1163
    13.1163  13.2440  13.2892  13.3147  13.3751  13.3883  13.4631  13.8938
    14.3604  14.3604  14.5126  14.5142  14.6194  14.6194  14.8306  14.8306
    14.9132  14.9132  15.0309  15.0451  15.0639  15.2725  15.2725  15.3939
    15.4753  15.7071  15.7071  15.7299  15.7300  15.8861  15.8861  16.0152
    16.1129  16.1406  16.1698  16.2313  16.2582  16.2582  16.4236  16.5199
    16.9092  16.9949  17.0135  17.0823  17.1477  17.1477  17.2241  17.2241
    17.2976  17.5611  17.5912  17.5913  17.6440  17.8235  17.8235  17.9271
    17.9271  17.9350  18.0570  18.0603  18.0603  18.0605  18.0898  18.1122

          k = 0.0000 0.0000 0.1559 ( 32412 PWs)   bands (ev):

   -70.0489 -70.0483 -70.0450 -70.0450 -70.0444 -70.0444 -70.0411 -70.0406
   -40.1012 -40.0965 -40.0864 -40.0756 -40.0278 -40.0185 -39.8657 -39.8518
   -36.1837 -36.1789 -36.1674 -36.1674 -36.1660 -36.1660 -36.1362 -36.1319
   -36.1294 -36.1286 -36.1200 -36.1200 -36.1159 -36.1140 -36.1116 -36.1092
   -36.1092 -36.1041 -36.1010 -36.1010 -36.0999 -36.0999 -36.0826 -36.0818
   -16.5307 -16.5307 -16.5154 -16.5154 -16.4663 -16.4519 -16.4519 -16.4451
   -16.4451 -16.3906 -16.3859 -16.3310 -16.3169 -16.3083 -16.2715 -16.2342
   -16.1624 -16.1624 -16.1571 -16.1571 -16.0446 -16.0446 -16.0366 -16.0366
     8.3496   9.7749  10.9670  12.1915  12.7690  12.7690  13.0734  13.0734
    13.0773  13.3938  13.3958  13.4140  13.5025  13.5414  13.5576  13.8552
    14.0275  14.1625  14.3709  14.3710  14.4827  14.4827  14.7827  14.9007
    14.9007  15.0605  15.0642  15.0642  15.1993  15.2151  15.4939  15.5173
    15.5173  15.6649  15.6649  15.7109  15.7109  15.7484  15.7484  15.8034
    15.8250  15.8402  15.8402  16.1731  16.3519  16.4217  16.5637  16.6419
    16.9154  16.9155  16.9500  16.9996  17.0099  17.1626  17.1768  17.1768
    17.2126  17.2126  17.4162  17.4999  17.5378  17.7479  17.8168  18.0584
    18.0802  18.0802  18.1121  18.1121  18.3810  18.3810  18.4894  18.5376

          k =-0.0000-0.0000-0.2339 ( 32504 PWs)   bands (ev):

   -70.0486 -70.0486 -70.0447 -70.0447 -70.0447 -70.0447 -70.0409 -70.0409
   -40.0989 -40.0989 -40.0810 -40.0810 -40.0231 -40.0231 -39.8588 -39.8588
   -36.1813 -36.1813 -36.1667 -36.1667 -36.1667 -36.1667 -36.1340 -36.1340
   -36.1290 -36.1290 -36.1146 -36.1146 -36.1146 -36.1146 -36.1137 -36.1137
   -36.1090 -36.1090 -36.1004 -36.1004 -36.1004 -36.1004 -36.0822 -36.0822
   -16.5229 -16.5229 -16.5229 -16.5229 -16.4486 -16.4486 -16.4486 -16.4486
   -16.3935 -16.3935 -16.3472 -16.3472 -16.3365 -16.3365 -16.2762 -16.2762
   -16.1598 -16.1598 -16.1598 -16.1598 -16.0406 -16.0406 -16.0406 -16.0406
     9.0034   9.0034  11.5302  11.5302  12.9422  12.9422  12.9422  12.9422
    13.4834  13.4834  13.4940  13.4940  13.5076  13.5076  13.7034  13.7034
    13.8210  13.8210  14.4054  14.4054  14.4054  14.4054  14.7852  14.7853
    15.1728  15.1728  15.1728  15.1728  15.2902  15.2902  15.2902  15.2902
    15.4666  15.4666  15.4844  15.4844  15.7844  15.7844  15.7844  15.7844
    15.8235  15.8235  16.2596  16.2596  16.2650  16.2650  16.2651  16.2651
    17.0049  17.0049  17.0644  17.0644  17.1020  17.1020  17.1947  17.1947
    17.1947  17.1947  17.3713  17.3713  17.4136  17.4136  17.9769  17.9769
    18.1901  18.1901  18.1901  18.1901  18.8247  18.8247  18.8247  18.8247

          k = 0.0000 0.0846 0.0780 ( 32442 PWs)   bands (ev):

   -70.0489 -70.0478 -70.0455 -70.0449 -70.0444 -70.0439 -70.0416 -70.0406
   -40.1014 -40.0925 -40.0900 -40.0720 -40.0325 -40.0165 -39.8713 -39.8473
   -36.1835 -36.1760 -36.1681 -36.1663 -36.1650 -36.1626 -36.1358 -36.1316
   -36.1302 -36.1290 -36.1235 -36.1234 -36.1180 -36.1179 -36.1097 -36.1056
   -36.1050 -36.1037 -36.1024 -36.1008 -36.1006 -36.0987 -36.0847 -36.0833
   -16.5338 -16.5207 -16.5126 -16.5089 -16.4872 -16.4569 -16.4434 -16.4345
   -16.4264 -16.4228 -16.4148 -16.3476 -16.2902 -16.2794 -16.2202 -16.2015
   -16.1890 -16.1789 -16.1641 -16.1546 -16.0686 -16.0543 -16.0479 -16.0342
     7.9722  10.5061  10.6273  12.5666  12.6039  12.7479  12.8580  12.9286
    13.1692  13.3144  13.3372  13.4104  13.4426  13.4666  13.7791  13.9298
    14.4211  14.4282  14.4342  14.5119  14.5456  14.5875  14.7330  14.7874
    14.8415  14.9549  14.9985  15.0803  15.1423  15.1518  15.2224  15.4345
    15.4407  15.6542  15.6656  15.7054  15.7093  15.7409  15.8048  15.8955
    16.1029  16.1468  16.1571  16.1818  16.2088  16.2712  16.5191  16.5470
    16.5906  16.7470  16.9079  17.0873  17.1671  17.2311  17.2382  17.2910
    17.3696  17.3947  17.4329  17.5227  17.6657  17.6658  17.6760  17.9769
    18.0269  18.0452  18.0981  18.1362  18.1456  18.1595  18.2288  18.4594

          k = 0.0000 0.0846 0.1559 ( 32469 PWs)   bands (ev):

   -70.0486 -70.0480 -70.0452 -70.0447 -70.0446 -70.0441 -70.0414 -70.0408
   -40.0996 -40.0944 -40.0862 -40.0758 -40.0291 -40.0199 -39.8663 -39.8524
   -36.1819 -36.1776 -36.1678 -36.1667 -36.1645 -36.1631 -36.1344 -36.1313
   -36.1305 -36.1305 -36.1196 -36.1196 -36.1162 -36.1144 -36.1116 -36.1093
   -36.1089 -36.1045 -36.1033 -36.1026 -36.1002 -36.0991 -36.0844 -36.0836
   -16.5284 -16.5140 -16.5071 -16.4925 -16.4641 -16.4542 -16.4465 -16.4322
   -16.4254 -16.3914 -16.3860 -16.3289 -16.3181 -16.3084 -16.2721 -16.2357
   -16.1869 -16.1810 -16.1620 -16.1566 -16.0656 -16.0573 -16.0450 -16.0372
     8.4026   9.8180  10.9850  12.1513  12.7049  12.8096  12.8801  13.1282
    13.1574  13.4678  13.4754  13.5097  13.5936  13.6145  13.7683  13.9001
    14.0443  14.1917  14.4124  14.4272  14.4791  14.5343  14.5669  14.8210
    14.8887  14.9762  15.0733  15.1267  15.1749  15.2962  15.3546  15.4807
    15.5023  15.6056  15.6085  15.6302  15.6501  15.6915  15.7078  15.7164
    15.7182  15.7550  15.8847  16.1628  16.1799  16.2928  16.3052  16.5894
    16.7300  16.8267  17.0913  17.1052  17.1802  17.2314  17.2330  17.2542
    17.2763  17.3182  17.4719  17.4796  17.6270  17.6492  17.8099  17.8166
    17.8704  18.0169  18.1185  18.1809  18.3107  18.4265  18.4919  18.8018

          k = 0.0000 0.0846-0.2339 ( 32438 PWs)   bands (ev):

   -70.0483 -70.0483 -70.0449 -70.0449 -70.0444 -70.0444 -70.0411 -70.0411
   -40.0970 -40.0970 -40.0810 -40.0810 -40.0245 -40.0245 -39.8594 -39.8594
   -36.1797 -36.1797 -36.1672 -36.1672 -36.1638 -36.1638 -36.1324 -36.1324
   -36.1309 -36.1309 -36.1145 -36.1145 -36.1142 -36.1142 -36.1139 -36.1139
   -36.1094 -36.1094 -36.1029 -36.1029 -36.0997 -36.0997 -36.0840 -36.0840
   -16.5211 -16.5211 -16.4997 -16.4997 -16.4504 -16.4504 -16.4289 -16.4289
   -16.3909 -16.3909 -16.3478 -16.3478 -16.3371 -16.3371 -16.2774 -16.2774
   -16.1840 -16.1840 -16.1593 -16.1593 -16.0615 -16.0615 -16.0411 -16.0411
     9.0539   9.0539  11.5294  11.5294  12.7836  12.7836  13.0429  13.0429
    13.5543  13.5543  13.5833  13.5833  13.6310  13.6310  13.7523  13.7523
    13.8692  13.8692  14.4234  14.4234  14.4502  14.4502  14.7046  14.7046
    15.0429  15.0429  15.1324  15.1324  15.2701  15.2701  15.2813  15.2813
    15.4640  15.4640  15.5751  15.5751  15.7097  15.7097  15.7148  15.7148
    15.7377  15.7377  15.9116  15.9116  16.1473  16.1473  16.2605  16.2605
    17.0296  17.0296  17.1724  17.1724  17.1744  17.1744  17.2415  17.2415
    17.2866  17.2866  17.4070  17.4070  17.4997  17.4997  17.8912  17.8912
    17.9324  17.9324  18.2152  18.2152  18.5662  18.5662  18.7529  18.7529

          k = 0.0000 0.1692 0.1559 ( 32476 PWs)   bands (ev):

   -70.0479 -70.0473 -70.0459 -70.0453 -70.0440 -70.0435 -70.0421 -70.0415
   -40.0957 -40.0894 -40.0863 -40.0770 -40.0319 -40.0228 -39.8674 -39.8535
   -36.1777 -36.1744 -36.1690 -36.1689 -36.1567 -36.1554 -36.1371 -36.1362
   -36.1292 -36.1262 -36.1186 -36.1185 -36.1174 -36.1154 -36.1124 -36.1097
   -36.1097 -36.1085 -36.1080 -36.1054 -36.0979 -36.0968 -36.0888 -36.0879
   -16.5232 -16.5110 -16.4597 -16.4593 -16.4494 -16.4429 -16.4300 -16.3949
   -16.3849 -16.3840 -16.3768 -16.3235 -16.3208 -16.3099 -16.2729 -16.2524
   -16.2453 -16.2389 -16.1612 -16.1555 -16.1167 -16.1077 -16.0460 -16.0383
     8.5170   9.9101  11.0206  12.0591  12.2621  12.9192  13.1913  13.2640
    13.3341  13.6045  13.6439  13.7296  13.7606  13.7795  13.9276  13.9494
    13.9925  14.2764  14.2948  14.4765  14.5676  14.5754  14.6486  14.6937
    14.7625  14.8603  14.9483  15.0568  15.1065  15.1895  15.3902  15.4257
    15.4667  15.4868  15.4908  15.5234  15.5428  15.5582  15.5739  15.5925
    15.6192  15.6223  15.6578  15.7838  16.0340  16.1054  16.1908  16.2484
    16.7559  17.1708  17.1736  17.2360  17.2625  17.2826  17.3333  17.3712
    17.3807  17.4478  17.4738  17.4810  17.5115  17.5712  17.5716  17.8046
    17.9356  18.0031  18.1407  18.2245  18.2684  18.3760  18.4928  18.5871

          k = 0.0000 0.1692-0.2339 ( 32466 PWs)   bands (ev):

   -70.0476 -70.0476 -70.0456 -70.0456 -70.0438 -70.0438 -70.0418 -70.0418
   -40.0925 -40.0925 -40.0816 -40.0816 -40.0273 -40.0273 -39.8605 -39.8605
   -36.1761 -36.1761 -36.1689 -36.1689 -36.1560 -36.1560 -36.1366 -36.1366
   -36.1278 -36.1278 -36.1149 -36.1149 -36.1141 -36.1141 -36.1132 -36.1132
   -36.1104 -36.1104 -36.1091 -36.1091 -36.0973 -36.0973 -36.0883 -36.0883
   -16.5171 -16.5171 -16.4544 -16.4544 -16.4367 -16.4367 -16.3864 -16.3864
   -16.3791 -16.3791 -16.3517 -16.3517 -16.3366 -16.3366 -16.2802 -16.2802
   -16.2488 -16.2488 -16.1584 -16.1584 -16.1122 -16.1122 -16.0421 -16.0421
     9.1632   9.1632  11.5069  11.5069  12.5824  12.5824  13.3081  13.3081
    13.6493  13.6493  13.7555  13.7555  13.8018  13.8018  13.8798  13.8798
    14.0340  14.0340  14.4190  14.4190  14.5477  14.5477  14.6507  14.6507
    14.8016  14.8016  14.8762  14.8762  15.2835  15.2835  15.3416  15.3416
    15.3515  15.3515  15.3908  15.3908  15.5567  15.5567  15.5678  15.5678
    15.6117  15.6117  15.8048  15.8048  15.8615  15.8615  16.2004  16.2004
    17.0521  17.0521  17.2924  17.2924  17.3482  17.3482  17.3535  17.3535
    17.4158  17.4158  17.4823  17.4823  17.5808  17.5808  17.7211  17.7211
    17.8059  17.8059  18.1323  18.1323  18.2243  18.2243  18.6532  18.6532

          k =-0.0000-0.2537-0.2339 ( 32544 PWs)   bands (ev):

   -70.0469 -70.0469 -70.0464 -70.0464 -70.0430 -70.0430 -70.0425 -70.0425
   -40.0894 -40.0894 -40.0827 -40.0827 -40.0288 -40.0288 -39.8611 -39.8611
   -36.1726 -36.1726 -36.1714 -36.1714 -36.1477 -36.1477 -36.1440 -36.1440
   -36.1221 -36.1221 -36.1186 -36.1186 -36.1135 -36.1135 -36.1127 -36.1127
   -36.1121 -36.1121 -36.1115 -36.1115 -36.0943 -36.0943 -36.0924 -36.0924
   -16.5149 -16.5149 -16.4566 -16.4566 -16.3836 -16.3836 -16.3619 -16.3619
   -16.3610 -16.3610 -16.3495 -16.3495 -16.3357 -16.3357 -16.3140 -16.3140
   -16.2817 -16.2817 -16.1579 -16.1579 -16.1464 -16.1464 -16.0427 -16.0427
     9.2227   9.2228  11.4818  11.4818  12.5126  12.5126  13.5420  13.5420
    13.6510  13.6510  13.7870  13.7870  13.8736  13.8736  13.9935  13.9935
    14.2096  14.2096  14.3798  14.3798  14.5699  14.5699  14.6194  14.6194
    14.6833  14.6833  14.7373  14.7373  15.1922  15.1922  15.1926  15.1926
    15.4172  15.4172  15.4174  15.4174  15.4290  15.4290  15.4384  15.4384
    15.5744  15.5745  15.6637  15.6637  16.0233  16.0233  16.0441  16.0441
    17.1142  17.1142  17.3606  17.3606  17.3908  17.3908  17.4549  17.4549
    17.4562  17.4562  17.5118  17.5118  17.5254  17.5254  17.6309  17.6309
    17.7657  17.7657  18.1305  18.1305  18.3105  18.3105  18.3951  18.3951

          k = 0.0846 0.0846 0.0780 ( 32444 PWs)   bands (ev):

   -70.0486 -70.0476 -70.0452 -70.0452 -70.0442 -70.0442 -70.0419 -70.0409
   -40.0999 -40.0904 -40.0897 -40.0721 -40.0339 -40.0181 -39.8719 -39.8478
   -36.1815 -36.1747 -36.1658 -36.1647 -36.1636 -36.1634 -36.1340 -36.1334
   -36.1320 -36.1278 -36.1230 -36.1230 -36.1183 -36.1183 -36.1094 -36.1053
   -36.1053 -36.1035 -36.1023 -36.1017 -36.1015 -36.1011 -36.0866 -36.0851
   -16.5189 -16.5107 -16.5093 -16.4861 -16.4860 -16.4389 -16.4351 -16.4259
   -16.4240 -16.4237 -16.4157 -16.3490 -16.2887 -16.2791 -16.2202 -16.2034
   -16.1899 -16.1875 -16.1785 -16.1783 -16.0693 -16.0688 -16.0549 -16.0549
     8.0202  10.5349  10.6706  12.5366  12.6281  12.7543  12.8041  12.9083
    13.0720  13.3812  13.4352  13.4591  13.5176  13.7273  13.8865  13.9798
    14.3878  14.4435  14.4786  14.5118  14.5455  14.6068  14.6335  14.7464
    14.8623  14.9164  15.0182  15.0613  15.0802  15.1677  15.2217  15.3642
    15.3644  15.5031  15.6060  15.6313  15.6393  15.7829  15.7862  15.9280
    15.9535  16.0582  16.0914  16.1093  16.1538  16.2915  16.3053  16.3216
    16.6935  16.7450  16.9132  16.9215  17.1164  17.1718  17.2529  17.2601
    17.3991  17.4825  17.4966  17.6991  17.7663  17.7748  17.7829  17.7988
    18.0389  18.0466  18.0509  18.0594  18.1775  18.4423  18.4436  18.4580

          k = 0.0846 0.0846 0.1559 ( 32476 PWs)   bands (ev):

   -70.0484 -70.0478 -70.0450 -70.0450 -70.0444 -70.0444 -70.0416 -70.0411
   -40.0979 -40.0924 -40.0860 -40.0759 -40.0305 -40.0214 -39.8668 -39.8530
   -36.1801 -36.1761 -36.1653 -36.1645 -36.1639 -36.1638 -36.1331 -36.1327
   -36.1323 -36.1291 -36.1193 -36.1192 -36.1165 -36.1147 -36.1115 -36.1090
   -36.1090 -36.1048 -36.1031 -36.1020 -36.1019 -36.1017 -36.0863 -36.0854
   -16.5054 -16.5043 -16.4913 -16.4908 -16.4620 -16.4359 -16.4328 -16.4272
   -16.4262 -16.3911 -16.3871 -16.3268 -16.3195 -16.3082 -16.2730 -16.2372
   -16.1875 -16.1855 -16.1809 -16.1802 -16.0663 -16.0659 -16.0580 -16.0579
     8.4507   9.8587  11.0209  12.1669  12.6577  12.7833  12.9223  13.0142
    13.1731  13.5573  13.5715  13.5740  13.6704  13.8183  13.8750  13.9576
    14.0708  14.2121  14.4133  14.4451  14.5217  14.5337  14.5462  14.6867
    14.8832  15.0228  15.0615  15.1142  15.2001  15.2713  15.2784  15.3503
    15.4693  15.4890  15.5101  15.5389  15.5752  15.6008  15.6237  15.7126
    15.7142  15.7494  15.7674  15.9372  16.1382  16.1675  16.1827  16.2901
    16.6539  16.9756  17.1591  17.1990  17.2154  17.2321  17.3444  17.3604
    17.3831  17.4280  17.5300  17.5919  17.6172  17.6427  17.8333  17.8945
    17.9521  17.9764  18.0131  18.0495  18.3618  18.4005  18.6546  18.7836

          k = 0.0846 0.0846-0.2339 ( 32474 PWs)   bands (ev):

   -70.0481 -70.0481 -70.0447 -70.0447 -70.0447 -70.0447 -70.0414 -70.0414
   -40.0951 -40.0951 -40.0809 -40.0809 -40.0260 -40.0260 -39.8599 -39.8599
   -36.1781 -36.1781 -36.1646 -36.1646 -36.1641 -36.1641 -36.1327 -36.1327
   -36.1310 -36.1310 -36.1142 -36.1142 -36.1141 -36.1141 -36.1140 -36.1140
   -36.1097 -36.1097 -36.1025 -36.1025 -36.1018 -36.1018 -36.0859 -36.0859
   -16.4983 -16.4983 -16.4975 -16.4975 -16.4317 -16.4317 -16.4296 -16.4296
   -16.3884 -16.3884 -16.3478 -16.3478 -16.3384 -16.3384 -16.2787 -16.2787
   -16.1842 -16.1842 -16.1829 -16.1829 -16.0621 -16.0621 -16.0619 -16.0619
     9.1004   9.1005  11.5544  11.5544  12.7607  12.7607  13.0024  13.0024
    13.5900  13.5900  13.7188  13.7188  13.7351  13.7351  13.8144  13.8144
    13.9115  13.9115  14.4504  14.4504  14.4651  14.4651  14.6718  14.6718
    14.9802  14.9802  15.1203  15.1203  15.1698  15.1698  15.2978  15.2978
    15.4860  15.4860  15.5146  15.5146  15.6138  15.6138  15.6243  15.6243
    15.6809  15.6809  15.7898  15.7898  15.8465  15.8465  16.2190  16.2190
    17.0075  17.0075  17.2619  17.2619  17.3339  17.3339  17.3374  17.3374
    17.3731  17.3732  17.4187  17.4187  17.5799  17.5799  17.8896  17.8896
    18.0149  18.0149  18.0199  18.0199  18.4257  18.4257  18.7990  18.7990

          k = 0.0846 0.1692 0.1559 ( 32434 PWs)   bands (ev):

   -70.0477 -70.0471 -70.0457 -70.0451 -70.0443 -70.0437 -70.0423 -70.0418
   -40.0939 -40.0874 -40.0859 -40.0766 -40.0336 -40.0246 -39.8680 -39.8541
   -36.1755 -36.1726 -36.1663 -36.1663 -36.1572 -36.1563 -36.1385 -36.1377
   -36.1277 -36.1251 -36.1184 -36.1183 -36.1174 -36.1156 -36.1119 -36.1094
   -36.1089 -36.1082 -36.1081 -36.1057 -36.1001 -36.0995 -36.0909 -36.0900
   -16.4998 -16.4880 -16.4578 -16.4408 -16.4394 -16.4297 -16.4284 -16.3936
   -16.3865 -16.3857 -16.3782 -16.3223 -16.3214 -16.3091 -16.2745 -16.2522
   -16.2451 -16.2401 -16.1857 -16.1796 -16.1172 -16.1082 -16.0671 -16.0591
     8.5532   9.9449  11.1072  12.1558  12.2696  12.8785  13.0449  13.2681
    13.2824  13.7097  13.7274  13.8352  13.8358  13.9648  13.9819  14.0340
    14.0763  14.2720  14.3190  14.4939  14.5363  14.5727  14.6587  14.6840
    14.8002  14.9572  14.9759  14.9862  15.0462  15.1444  15.2980  15.3450
    15.3711  15.3745  15.3774  15.4181  15.4275  15.4399  15.4969  15.5459
    15.5460  15.5637  15.5955  15.6474  15.8619  15.9092  15.9217  16.1361
    16.8169  17.1846  17.2582  17.3038  17.3304  17.3404  17.4049  17.4738
    17.5055  17.5557  17.6001  17.6419  17.6640  17.7211  17.7298  17.8754
    17.9858  18.0022  18.1366  18.1515  18.2777  18.2887  18.5610  18.5986

          k = 0.0846 0.1692-0.2339 ( 32462 PWs)   bands (ev):

   -70.0474 -70.0474 -70.0454 -70.0454 -70.0440 -70.0440 -70.0420 -70.0420
   -40.0906 -40.0906 -40.0812 -40.0812 -40.0291 -40.0291 -39.8610 -39.8610
   -36.1741 -36.1741 -36.1663 -36.1663 -36.1568 -36.1568 -36.1381 -36.1381
   -36.1265 -36.1265 -36.1146 -36.1146 -36.1138 -36.1138 -36.1132 -36.1132
   -36.1107 -36.1107 -36.1085 -36.1085 -36.0998 -36.0998 -36.0904 -36.0904
   -16.4939 -16.4939 -16.4349 -16.4349 -16.4345 -16.4345 -16.3850 -16.3850
   -16.3794 -16.3794 -16.3505 -16.3505 -16.3390 -16.3390 -16.2816 -16.2816
   -16.2485 -16.2485 -16.1826 -16.1826 -16.1127 -16.1127 -16.0631 -16.0631
     9.1999   9.1999  11.5952  11.5952  12.5830  12.5830  13.2151  13.2151
    13.6442  13.6442  13.8758  13.8758  13.9110  13.9110  14.0009  14.0009
    14.0730  14.0730  14.4157  14.4157  14.5638  14.5638  14.6699  14.6699
    14.7496  14.7496  14.9486  14.9486  15.2216  15.2216  15.2229  15.2229
    15.2991  15.2991  15.3247  15.3247  15.4523  15.4523  15.4710  15.4710
    15.5513  15.5513  15.6199  15.6199  15.6447  15.6447  16.0604  16.0604
    17.0632  17.0632  17.4292  17.4293  17.4492  17.4492  17.4694  17.4694
    17.4958  17.4958  17.5822  17.5822  17.7423  17.7423  17.7963  17.7963
    17.8633  17.8633  18.1076  18.1076  18.2656  18.2656  18.7023  18.7023

          k = 0.0846-0.2537-0.2339 ( 32460 PWs)   bands (ev):

   -70.0466 -70.0466 -70.0461 -70.0461 -70.0433 -70.0433 -70.0428 -70.0428
   -40.0875 -40.0875 -40.0822 -40.0822 -40.0308 -40.0308 -39.8616 -39.8616
   -36.1703 -36.1703 -36.1690 -36.1690 -36.1487 -36.1487 -36.1451 -36.1451
   -36.1209 -36.1209 -36.1176 -36.1176 -36.1134 -36.1134 -36.1125 -36.1125
   -36.1122 -36.1122 -36.1117 -36.1117 -36.0967 -36.0967 -36.0947 -36.0947
   -16.4917 -16.4917 -16.4367 -16.4367 -16.3807 -16.3807 -16.3602 -16.3602
   -16.3594 -16.3594 -16.3493 -16.3493 -16.3382 -16.3382 -16.3161 -16.3161
   -16.2830 -16.2830 -16.1822 -16.1822 -16.1468 -16.1468 -16.0636 -16.0636
     9.2534   9.2534  11.6081  11.6081  12.4998  12.4998  13.4761  13.4761
    13.5723  13.5723  13.8888  13.8888  13.9844  13.9844  14.1546  14.1546
    14.2738  14.2738  14.3998  14.3998  14.5238  14.5238  14.6444  14.6444
    14.6874  14.6874  14.7860  14.7860  15.1024  15.1024  15.1288  15.1288
    15.3078  15.3078  15.3353  15.3353  15.3640  15.3640  15.3852  15.3852
    15.4234  15.4234  15.5061  15.5061  15.8161  15.8161  15.8367  15.8367
    17.1162  17.1162  17.4991  17.4991  17.5347  17.5347  17.5597  17.5597
    17.5972  17.5972  17.6141  17.6142  17.7015  17.7015  17.7896  17.7896
    17.8316  17.8316  18.1447  18.1447  18.3379  18.3379  18.4249  18.4249

          k = 0.1692 0.1692 0.1559 ( 32390 PWs)   bands (ev):

   -70.0470 -70.0464 -70.0450 -70.0450 -70.0444 -70.0444 -70.0430 -70.0424
   -40.0898 -40.0852 -40.0827 -40.0763 -40.0374 -40.0287 -39.8690 -39.8552
   -36.1703 -36.1682 -36.1606 -36.1592 -36.1591 -36.1581 -36.1429 -36.1423
   -36.1234 -36.1215 -36.1180 -36.1176 -36.1175 -36.1162 -36.1108 -36.1087
   -36.1086 -36.1076 -36.1066 -36.1065 -36.1061 -36.1047 -36.0959 -36.0953
   -16.4537 -16.4382 -16.4336 -16.4257 -16.4245 -16.3949 -16.3915 -16.3898
   -16.3854 -16.3830 -16.3795 -16.3254 -16.3163 -16.3081 -16.2780 -16.2544
   -16.2491 -16.2454 -16.2436 -16.2427 -16.1186 -16.1180 -16.1094 -16.1092
     8.6287  10.0176  11.3345  12.2046  12.3754  12.7226  12.8677  13.2727
    13.4350  13.9132  13.9381  13.9984  14.0132  14.0357  14.1189  14.2857
    14.2903  14.3214  14.3630  14.3664  14.5240  14.6373  14.6554  14.8159
    14.8462  14.8830  14.9714  15.0330  15.0502  15.0560  15.0804  15.1075
    15.1306  15.1819  15.1955  15.2361  15.2364  15.2642  15.3280  15.3372
    15.3784  15.4184  15.4328  15.5225  15.5362  15.5605  15.5839  15.9372
    16.9676  17.2135  17.3352  17.3981  17.4384  17.5695  17.6276  17.6595
    17.6783  17.6788  17.7862  17.8130  17.9347  17.9388  17.9666  18.0214
    18.0267  18.0532  18.1085  18.2362  18.2542  18.3145  18.5311  18.5926

          k = 0.1692 0.1692-0.2339 ( 32458 PWs)   bands (ev):

   -70.0467 -70.0467 -70.0447 -70.0447 -70.0447 -70.0447 -70.0427 -70.0427
   -40.0863 -40.0863 -40.0807 -40.0807 -40.0330 -40.0330 -39.8621 -39.8621
   -36.1692 -36.1692 -36.1599 -36.1599 -36.1586 -36.1586 -36.1426 -36.1426
   -36.1225 -36.1225 -36.1143 -36.1143 -36.1133 -36.1133 -36.1131 -36.1131
   -36.1113 -36.1113 -36.1071 -36.1071 -36.1053 -36.1053 -36.0956 -36.0956
   -16.4321 -16.4321 -16.4290 -16.4290 -16.3899 -16.3899 -16.3827 -16.3827
   -16.3752 -16.3752 -16.3488 -16.3488 -16.3441 -16.3441 -16.2844 -16.2844
   -16.2497 -16.2497 -16.2464 -16.2464 -16.1140 -16.1140 -16.1136 -16.1136
     9.2766   9.2766  11.8133  11.8133  12.5433  12.5433  13.0933  13.0933
    13.6424  13.6424  14.1470  14.1470  14.1542  14.1542  14.1742  14.1742
    14.2073  14.2073  14.4126  14.4126  14.6331  14.6331  14.6646  14.6646
    14.7158  14.7158  14.9887  14.9887  15.0802  15.0802  15.0811  15.0811
    15.1231  15.1231  15.1869  15.1869  15.2246  15.2246  15.2749  15.2749
    15.3377  15.3377  15.3448  15.3448  15.4536  15.4536  15.7231  15.7231
    17.1396  17.1396  17.5532  17.5532  17.6167  17.6167  17.6603  17.6603
    17.6811  17.6811  17.8248  17.8248  17.8883  17.8883  18.0058  18.0058
    18.0231  18.0231  18.1017  18.1017  18.4083  18.4083  18.7417  18.7417

          k = 0.1692-0.2537-0.2339 ( 32460 PWs)   bands (ev):

   -70.0460 -70.0460 -70.0454 -70.0454 -70.0440 -70.0440 -70.0435 -70.0435
   -40.0832 -40.0832 -40.0812 -40.0812 -40.0352 -40.0352 -39.8627 -39.8627
   -36.1644 -36.1644 -36.1629 -36.1629 -36.1519 -36.1519 -36.1486 -36.1486
   -36.1176 -36.1175 -36.1150 -36.1150 -36.1133 -36.1133 -36.1125 -36.1125
   -36.1121 -36.1121 -36.1114 -36.1114 -36.1026 -36.1026 -36.1006 -36.1006
   -16.4282 -16.4282 -16.3888 -16.3888 -16.3728 -16.3728 -16.3562 -16.3562
   -16.3556 -16.3556 -16.3492 -16.3492 -16.3447 -16.3447 -16.3208 -16.3208
   -16.2858 -16.2858 -16.2478 -16.2478 -16.1478 -16.1478 -16.1144 -16.1144
     9.3168   9.3168  11.9671  11.9671  12.4745  12.4745  13.0591  13.0591
    13.6239  13.6239  14.1619  14.1619  14.2667  14.2667  14.4454  14.4454
    14.4565  14.4565  14.4598  14.4598  14.4938  14.4938  14.6085  14.6085
    14.7862  14.7862  14.8140  14.8140  15.0076  15.0076  15.0513  15.0513
    15.0698  15.0698  15.1050  15.1050  15.1318  15.1318  15.1730  15.1730
    15.2950  15.2950  15.3014  15.3014  15.3848  15.3848  15.4077  15.4077
    17.1805  17.1805  17.6534  17.6534  17.6982  17.6982  17.7485  17.7485
    17.8444  17.8444  17.9102  17.9102  17.9579  17.9579  17.9729  17.9729
    18.0420  18.0420  18.3685  18.3685  18.4698  18.4698  18.5256  18.5256

          k =-0.2537-0.2537-0.2339 ( 32344 PWs)   bands (ev):

   -70.0452 -70.0452 -70.0447 -70.0447 -70.0447 -70.0447 -70.0442 -70.0442
   -40.0807 -40.0807 -40.0807 -40.0807 -40.0377 -40.0377 -39.8632 -39.8632
   -36.1577 -36.1577 -36.1572 -36.1572 -36.1572 -36.1572 -36.1529 -36.1529
   -36.1135 -36.1135 -36.1135 -36.1135 -36.1133 -36.1133 -36.1130 -36.1130
   -36.1124 -36.1124 -36.1075 -36.1075 -36.1075 -36.1075 -36.1070 -36.1070
   -16.3692 -16.3692 -16.3577 -16.3577 -16.3569 -16.3569 -16.3504 -16.3504
   -16.3502 -16.3502 -16.3502 -16.3502 -16.3483 -16.3483 -16.3238 -16.3238
   -16.3238 -16.3238 -16.2872 -16.2872 -16.1484 -16.1484 -16.1484 -16.1484
     9.3497   9.3497  12.4620  12.4620  12.4620  12.4620  12.5286  12.5286
    13.6403  13.6404  14.4500  14.4500  14.4500  14.4500  14.4546  14.4546
    14.5641  14.5641  14.5641  14.5641  14.6212  14.6212  14.6378  14.6378
    14.9128  14.9128  14.9128  14.9128  14.9226  14.9226  14.9449  14.9449
    14.9449  14.9449  14.9736  14.9736  14.9779  14.9779  15.0006  15.0006
    15.1527  15.1527  15.1527  15.1527  15.1612  15.1612  15.1612  15.1612
    17.2135  17.2135  17.8173  17.8173  17.8173  17.8173  17.8415  17.8415
    17.9550  17.9550  17.9751  17.9751  17.9751  17.9751  18.0692  18.0692
    18.1655  18.1655  18.6714  18.6714  18.6714  18.6714  18.7796  18.7800

          k = 0.0846 0.0000-0.0000 ( 32427 PWs)   bands (ev):

   -70.0489 -70.0477 -70.0455 -70.0450 -70.0444 -70.0439 -70.0417 -70.0405
   -40.1021 -40.0919 -40.0914 -40.0706 -40.0337 -40.0153 -39.8732 -39.8454
   -36.1841 -36.1754 -36.1683 -36.1662 -36.1652 -36.1624 -36.1363 -36.1317
   -36.1301 -36.1285 -36.1249 -36.1248 -36.1193 -36.1185 -36.1090 -36.1043
   -36.1038 -36.1036 -36.1024 -36.1007 -36.0995 -36.0986 -36.0848 -36.0831
   -16.5416 -16.5358 -16.5146 -16.5071 -16.4853 -16.4579 -16.4423 -16.4389
   -16.4353 -16.4253 -16.4217 -16.3584 -16.2767 -16.2688 -16.2039 -16.1899
   -16.1852 -16.1781 -16.1648 -16.1539 -16.0697 -16.0532 -16.0489 -16.0332
     7.8223  10.5036  10.8073  12.5588  12.6230  12.6985  12.7632  13.0809
    13.1584  13.2508  13.2933  13.3798  13.3833  13.4086  13.7559  13.8895
    14.4251  14.4310  14.5632  14.6701  14.6718  14.6884  14.6980  14.7626
    14.8102  14.9479  14.9832  15.0000  15.0423  15.0848  15.4325  15.5078
    15.5368  15.5381  15.6100  15.7052  15.7575  15.7960  15.8403  15.9208
    15.9682  16.0665  16.2453  16.2764  16.4493  16.5473  16.5771  16.6055
    16.6269  16.7648  16.8056  17.0117  17.0800  17.1519  17.1997  17.2402
    17.2778  17.4476  17.5371  17.5374  17.6094  17.7297  17.7676  17.9276
    17.9934  18.0569  18.0803  18.0835  18.1667  18.1878  18.2309  18.3947

          k = 0.1692 0.0000-0.0000 ( 32412 PWs)   bands (ev):

   -70.0482 -70.0470 -70.0462 -70.0450 -70.0443 -70.0432 -70.0424 -70.0412
   -40.0989 -40.0909 -40.0862 -40.0723 -40.0364 -40.0182 -39.8744 -39.8465
   -36.1793 -36.1728 -36.1690 -36.1688 -36.1573 -36.1548 -36.1376 -36.1357
   -36.1304 -36.1246 -36.1237 -36.1234 -36.1204 -36.1198 -36.1103 -36.1098
   -36.1080 -36.1052 -36.1027 -36.1003 -36.0984 -36.0963 -36.0892 -36.0874
   -16.5377 -16.5295 -16.5050 -16.4641 -16.4493 -16.4443 -16.4391 -16.4264
   -16.4234 -16.3870 -16.3739 -16.3611 -16.2737 -16.2688 -16.2562 -16.2418
   -16.2021 -16.1902 -16.1641 -16.1527 -16.1213 -16.1032 -16.0498 -16.0345
     7.9368  10.5850  10.8441  11.9509  12.7220  12.9226  13.0311  13.2037
    13.2670  13.3558  13.4247  13.4941  13.5756  13.6721  13.9000  13.9081
    14.1430  14.1826  14.4384  14.6079  14.6130  14.6446  14.6860  14.7730
    14.8511  14.8698  15.1128  15.1570  15.1875  15.1909  15.3636  15.4457
    15.4931  15.5153  15.5486  15.5682  15.6547  15.6573  15.7713  15.8474
    15.8534  15.8998  16.0123  16.1292  16.1506  16.3334  16.4096  16.5290
    16.6578  16.7162  16.7394  16.7587  16.8449  16.9708  17.1239  17.1824
    17.2491  17.4179  17.4821  17.6457  17.6654  17.8929  17.8951  18.0153
    18.1769  18.1771  18.2975  18.3174  18.3841  18.4486  18.5191  18.6317

          k =-0.2537-0.0000 0.0000 ( 32504 PWs)   bands (ev):

   -70.0475 -70.0470 -70.0463 -70.0458 -70.0436 -70.0431 -70.0425 -70.0419
   -40.0970 -40.0908 -40.0819 -40.0746 -40.0379 -40.0198 -39.8750 -39.8471
   -36.1744 -36.1729 -36.1707 -36.1699 -36.1488 -36.1466 -36.1450 -36.1429
   -36.1229 -36.1224 -36.1218 -36.1217 -36.1216 -36.1198 -36.1189 -36.1158
   -36.1069 -36.1063 -36.1018 -36.1013 -36.0953 -36.0934 -36.0933 -36.0914
   -16.5356 -16.5258 -16.5039 -16.4678 -16.4454 -16.4397 -16.4265 -16.3754
   -16.3639 -16.3625 -16.3540 -16.3459 -16.3204 -16.3078 -16.2705 -16.2704
   -16.1995 -16.1943 -16.1637 -16.1563 -16.1521 -16.1366 -16.0502 -16.0351
     7.9986  10.6441  10.8626  11.6832  12.7845  13.0899  13.1334  13.3751
    13.3801  13.4319  13.5005  13.6933  13.7007  13.7504  13.8034  13.8314
    13.8778  14.0556  14.0720  14.5890  14.7449  14.7893  14.8680  14.8766
    14.9004  14.9715  15.0078  15.0590  15.1164  15.2602  15.3949  15.4326
    15.4421  15.4761  15.5214  15.5725  15.6169  15.7114  15.8285  15.8620
    15.9011  15.9073  15.9098  15.9209  15.9348  15.9800  16.0094  16.1141
    16.5862  16.6901  16.7097  16.7465  16.7550  17.2330  17.2421  17.4239
    17.4263  17.4324  17.4574  17.4999  17.6244  17.8902  17.9151  18.2067
    18.2134  18.2404  18.2477  18.4514  18.6749  18.7107  18.7738  18.7817

          k = 0.0846-0.0846-0.0000 ( 32442 PWs)   bands (ev):

   -70.0487 -70.0475 -70.0453 -70.0453 -70.0441 -70.0441 -70.0419 -70.0408
   -40.1006 -40.0910 -40.0896 -40.0708 -40.0351 -40.0168 -39.8737 -39.8460
   -36.1821 -36.1741 -36.1660 -36.1647 -36.1635 -36.1632 -36.1344 -36.1335
   -36.1319 -36.1273 -36.1245 -36.1244 -36.1197 -36.1189 -36.1087 -36.1039
   -36.1039 -36.1036 -36.1025 -36.1017 -36.1014 -36.0998 -36.0867 -36.0850
   -16.5398 -16.5126 -16.5112 -16.4843 -16.4843 -16.4400 -16.4382 -16.4359
   -16.4263 -16.4228 -16.4226 -16.3598 -16.2755 -16.2684 -16.2037 -16.1909
   -16.1882 -16.1871 -16.1776 -16.1776 -16.0704 -16.0699 -16.0538 -16.0538
     7.8702  10.5493  10.8275  12.4846  12.7359  12.7383  12.7435  12.8253
    13.1733  13.3152  13.3921  13.4203  13.4653  13.6705  13.8576  13.9324
    14.4452  14.5352  14.5474  14.5787  14.5888  14.6198  14.6593  14.7884
    14.8059  14.9797  14.9804  15.0094  15.0096  15.0282  15.4049  15.4390
    15.4448  15.4599  15.6122  15.6313  15.6316  15.8379  15.8432  15.9953
    16.0289  16.0315  16.0810  16.1477  16.2902  16.3547  16.6571  16.6670
    16.7398  16.7606  16.8042  16.8443  16.9001  16.9017  16.9746  17.1573
    17.3565  17.5796  17.5840  17.7097  17.7146  17.7760  17.7939  17.8821
    17.9603  18.0522  18.1234  18.2460  18.2720  18.2721  18.2762  18.4941

          k =-0.0846-0.0846-0.0000 ( 32442 PWs)   bands (ev):

   -70.0487 -70.0475 -70.0453 -70.0453 -70.0441 -70.0441 -70.0419 -70.0408
   -40.1006 -40.0910 -40.0896 -40.0708 -40.0351 -40.0168 -39.8737 -39.8460
   -36.1821 -36.1741 -36.1660 -36.1647 -36.1635 -36.1632 -36.1344 -36.1335
   -36.1319 -36.1273 -36.1245 -36.1244 -36.1197 -36.1189 -36.1087 -36.1039
   -36.1039 -36.1036 -36.1025 -36.1017 -36.1014 -36.0998 -36.0867 -36.0850
   -16.5398 -16.5126 -16.5112 -16.4843 -16.4843 -16.4400 -16.4382 -16.4359
   -16.4263 -16.4228 -16.4226 -16.3598 -16.2755 -16.2684 -16.2037 -16.1909
   -16.1882 -16.1871 -16.1776 -16.1776 -16.0704 -16.0699 -16.0538 -16.0538
     7.8702  10.5493  10.8275  12.4846  12.7359  12.7383  12.7435  12.8253
    13.1733  13.3152  13.3921  13.4203  13.4653  13.6705  13.8576  13.9324
    14.4452  14.5352  14.5474  14.5787  14.5888  14.6198  14.6593  14.7884
    14.8059  14.9797  14.9804  15.0094  15.0096  15.0283  15.4049  15.4390
    15.4448  15.4599  15.6122  15.6313  15.6316  15.8379  15.8432  15.9953
    16.0289  16.0315  16.0810  16.1477  16.2902  16.3547  16.6572  16.6670
    16.7398  16.7606  16.8042  16.8443  16.9001  16.9017  16.9746  17.1573
    17.3565  17.5796  17.5840  17.7097  17.7146  17.7760  17.7939  17.8821
    17.9603  18.0522  18.1234  18.2459  18.2719  18.2721  18.2762  18.4940

          k = 0.1692-0.0846-0.0000 ( 32469 PWs)   bands (ev):

   -70.0480 -70.0468 -70.0460 -70.0448 -70.0446 -70.0434 -70.0426 -70.0415
   -40.0972 -40.0904 -40.0841 -40.0720 -40.0381 -40.0201 -39.8749 -39.8471
   -36.1770 -36.1711 -36.1663 -36.1663 -36.1576 -36.1558 -36.1389 -36.1373
   -36.1288 -36.1236 -36.1235 -36.1232 -36.1207 -36.1200 -36.1094 -36.1092
   -36.1077 -36.1049 -36.1031 -36.1007 -36.1006 -36.0991 -36.0913 -36.0896
   -16.5362 -16.5059 -16.4821 -16.4469 -16.4441 -16.4376 -16.4277 -16.4248
   -16.4223 -16.3890 -16.3749 -16.3627 -16.2725 -16.2681 -16.2560 -16.2416
   -16.2025 -16.1917 -16.1888 -16.1765 -16.1218 -16.1037 -16.0711 -16.0550
     7.9717  10.6724  10.8683  11.9566  12.7775  12.8321  12.9440  13.0607
    13.3741  13.4706  13.4950  13.6545  13.7051  13.7160  13.9515  13.9686
    14.2039  14.2040  14.4415  14.5929  14.6327  14.7232  14.7429  14.7593
    14.7939  14.9124  15.0262  15.0968  15.1339  15.1560  15.2934  15.3186
    15.3485  15.4231  15.5434  15.5592  15.5685  15.6794  15.7314  15.7342
    15.7981  15.8527  15.9437  15.9513  16.0641  16.2829  16.3178  16.3581
    16.5019  16.6970  16.7294  16.7450  16.8770  17.1071  17.2148  17.2834
    17.3795  17.5861  17.6878  17.7216  17.7736  17.9101  17.9677  17.9882
    18.0340  18.0664  18.1300  18.3092  18.3936  18.4273  18.5212  18.6008

          k =-0.1692-0.0846-0.0000 ( 32469 PWs)   bands (ev):

   -70.0480 -70.0468 -70.0460 -70.0448 -70.0446 -70.0434 -70.0426 -70.0415
   -40.0972 -40.0904 -40.0841 -40.0720 -40.0381 -40.0201 -39.8749 -39.8471
   -36.1770 -36.1711 -36.1663 -36.1663 -36.1576 -36.1558 -36.1389 -36.1373
   -36.1288 -36.1236 -36.1235 -36.1232 -36.1207 -36.1200 -36.1094 -36.1092
   -36.1077 -36.1049 -36.1031 -36.1007 -36.1006 -36.0991 -36.0913 -36.0896
   -16.5362 -16.5059 -16.4821 -16.4469 -16.4441 -16.4376 -16.4277 -16.4248
   -16.4223 -16.3890 -16.3749 -16.3627 -16.2725 -16.2681 -16.2560 -16.2416
   -16.2025 -16.1917 -16.1888 -16.1765 -16.1218 -16.1037 -16.0711 -16.0550
     7.9717  10.6724  10.8683  11.9565  12.7775  12.8321  12.9440  13.0607
    13.3741  13.4706  13.4950  13.6545  13.7051  13.7160  13.9515  13.9686
    14.2039  14.2040  14.4415  14.5929  14.6327  14.7232  14.7429  14.7593
    14.7939  14.9125  15.0262  15.0969  15.1339  15.1560  15.2934  15.3186
    15.3485  15.4231  15.5434  15.5592  15.5685  15.6794  15.7314  15.7342
    15.7981  15.8527  15.9437  15.9513  16.0641  16.2829  16.3178  16.3581
    16.5019  16.6970  16.7295  16.7450  16.8770  17.1071  17.2148  17.2834
    17.3795  17.5861  17.6878  17.7215  17.7736  17.9101  17.9677  17.9882
    18.0340  18.0664  18.1300  18.3091  18.3936  18.4273  18.5212  18.6008

          k = 0.0000 0.1692 0.0780 ( 32469 PWs)   bands (ev):

   -70.0482 -70.0471 -70.0462 -70.0451 -70.0443 -70.0433 -70.0423 -70.0413
   -40.0980 -40.0897 -40.0871 -40.0735 -40.0352 -40.0195 -39.8725 -39.8484
   -36.1788 -36.1732 -36.1690 -36.1688 -36.1571 -36.1549 -36.1374 -36.1358
   -36.1301 -36.1251 -36.1223 -36.1221 -36.1192 -36.1191 -36.1106 -36.1102
   -36.1082 -36.1064 -36.1041 -36.1017 -36.0982 -36.0964 -36.0891 -36.0875
   -16.5278 -16.5166 -16.5066 -16.4628 -16.4476 -16.4457 -16.4285 -16.4242
   -16.4152 -16.3862 -16.3748 -16.3503 -16.2866 -16.2798 -16.2551 -16.2428
   -16.2186 -16.2065 -16.1633 -16.1535 -16.1201 -16.1044 -16.0487 -16.0355
     8.0870  10.5654  10.6974  12.0334  12.5230  13.0128  13.0760  13.1862
    13.2484  13.4348  13.4937  13.5606  13.6236  13.6849  13.9431  13.9436
    14.1455  14.1487  14.4056  14.5998  14.6196  14.6216  14.7263  14.7336
    14.7743  14.9003  15.0436  15.1247  15.1288  15.1713  15.3238  15.4589
    15.4714  15.4886  15.5055  15.5958  15.6198  15.6425  15.6900  15.7547
    15.8194  15.9323  15.9468  15.9955  16.0650  16.0962  16.1486  16.4357
    16.6327  16.9077  16.9435  17.0464  17.0834  17.1005  17.2006  17.2050
    17.2620  17.4092  17.5057  17.5709  17.6410  17.6913  17.8388  17.9290
    18.0156  18.2075  18.2575  18.2646  18.3580  18.3972  18.4228  18.6049

          k =-0.2537-0.0846 0.0000 ( 32438 PWs)   bands (ev):

   -70.0472 -70.0467 -70.0460 -70.0455 -70.0439 -70.0433 -70.0427 -70.0422
   -40.0952 -40.0903 -40.0798 -40.0740 -40.0397 -40.0219 -39.8755 -39.8477
   -36.1719 -36.1703 -36.1686 -36.1677 -36.1496 -36.1478 -36.1459 -36.1443
   -36.1224 -36.1218 -36.1216 -36.1216 -36.1215 -36.1190 -36.1177 -36.1149
   -36.1066 -36.1060 -36.1022 -36.1016 -36.0974 -36.0959 -36.0955 -36.0939
   -16.5343 -16.5024 -16.4810 -16.4476 -16.4379 -16.4278 -16.4259 -16.3730
   -16.3642 -16.3632 -16.3524 -16.3455 -16.3228 -16.3095 -16.2695 -16.2694
   -16.2006 -16.1953 -16.1886 -16.1760 -16.1566 -16.1370 -16.0715 -16.0556
     8.0258  10.7693  10.8889  11.6746  12.8254  12.8931  13.0281  13.4280
    13.4917  13.4984  13.6671  13.7287  13.7556  13.7809  13.8909  13.9234
    13.9913  14.0905  14.1030  14.6283  14.7791  14.8283  14.8441  14.8491
    14.8613  14.9827  15.0565  15.1427  15.1506  15.1766  15.1994  15.2748
    15.2802  15.4152  15.4430  15.4682  15.4885  15.5939  15.7342  15.7387
    15.7654  15.8129  15.8174  15.8325  15.8604  15.9421  16.0252  16.0444
    16.6914  16.7181  16.7239  16.7763  16.7804  17.3370  17.3850  17.5074
    17.5319  17.5523  17.5749  17.6108  17.7075  17.8999  17.9633  18.1495
    18.1763  18.1787  18.1832  18.1933  18.5636  18.5977  18.6611  18.7215

          k =-0.0000-0.2537 0.0780 ( 32438 PWs)   bands (ev):

   -70.0474 -70.0469 -70.0464 -70.0459 -70.0435 -70.0430 -70.0425 -70.0420
   -40.0960 -40.0897 -40.0829 -40.0757 -40.0366 -40.0210 -39.8731 -39.8490
   -36.1742 -36.1727 -36.1709 -36.1701 -36.1487 -36.1467 -36.1449 -36.1430
   -36.1232 -36.1212 -36.1210 -36.1204 -36.1201 -36.1200 -36.1181 -36.1161
   -36.1078 -36.1072 -36.1032 -36.1026 -36.0952 -36.0935 -36.0932 -36.0915
   -16.5244 -16.5145 -16.5053 -16.4663 -16.4469 -16.4286 -16.4152 -16.3741
   -16.3628 -16.3553 -16.3519 -16.3468 -16.3196 -16.3086 -16.2825 -16.2819
   -16.2161 -16.2107 -16.1630 -16.1549 -16.1529 -16.1379 -16.0492 -16.0361
     8.1491  10.5959  10.7458  11.7858  12.5134  13.1656  13.2118  13.3138
    13.4684  13.5299  13.5825  13.7129  13.7751  13.7759  13.8148  13.8458
    13.8631  14.0625  14.1434  14.6296  14.7739  14.8007  14.8188  14.8361
    14.8562  14.8609  14.8780  14.9754  15.2126  15.2881  15.3234  15.3548
    15.4776  15.5444  15.5582  15.5778  15.5809  15.5942  15.6030  15.6375
    15.6836  15.7489  15.7676  15.8075  15.8501  16.0494  16.1063  16.1222
    16.6720  16.9154  16.9327  16.9388  16.9494  17.2492  17.2563  17.4273
    17.4379  17.4518  17.4611  17.5223  17.6579  17.7603  17.9696  18.0841
    18.1197  18.1687  18.1760  18.2096  18.2291  18.3434  18.6605  18.7292

          k = 0.1692-0.1692-0.0000 ( 32476 PWs)   bands (ev):

   -70.0473 -70.0461 -70.0453 -70.0453 -70.0441 -70.0441 -70.0433 -70.0422
   -40.0934 -40.0896 -40.0791 -40.0719 -40.0417 -40.0243 -39.8759 -39.8482
   -36.1713 -36.1671 -36.1612 -36.1596 -36.1586 -36.1575 -36.1431 -36.1420
   -36.1239 -36.1228 -36.1227 -36.1212 -36.1207 -36.1205 -36.1082 -36.1069
   -36.1067 -36.1060 -36.1048 -36.1040 -36.1040 -36.1015 -36.0962 -36.0950
   -16.5331 -16.4443 -16.4383 -16.4349 -16.4302 -16.4197 -16.4196 -16.4006
   -16.3881 -16.3773 -16.3769 -16.3662 -16.2698 -16.2670 -16.2589 -16.2519
   -16.2410 -16.2409 -16.2029 -16.1952 -16.1233 -16.1224 -16.1047 -16.1047
     8.0442  10.9107  10.9178  11.8703  12.3606  12.9280  13.1301  13.1469
    13.6237  13.6534  13.7669  13.7911  13.8101  13.8701  13.9748  13.9972
    14.2529  14.4094  14.4408  14.4779  14.6021  14.6851  14.7469  14.8020
    14.9460  14.9552  14.9901  15.0200  15.0682  15.0854  15.1058  15.1420
    15.1743  15.3277  15.3511  15.3756  15.3950  15.4991  15.5975  15.6306
    15.7060  15.7780  15.7787  15.8144  15.8962  15.9634  15.9706  16.0251
    16.7370  16.7506  16.7512  16.7516  16.8726  17.4603  17.4640  17.4770
    17.5750  17.7452  17.8003  17.8324  17.8577  17.9296  17.9360  18.0054
    18.0603  18.0689  18.2243  18.2714  18.2831  18.3233  18.3779  18.4649

          k =-0.1692-0.1692-0.0000 ( 32476 PWs)   bands (ev):

   -70.0473 -70.0461 -70.0453 -70.0453 -70.0441 -70.0441 -70.0433 -70.0422
   -40.0934 -40.0896 -40.0791 -40.0719 -40.0417 -40.0243 -39.8759 -39.8482
   -36.1713 -36.1671 -36.1612 -36.1596 -36.1586 -36.1575 -36.1431 -36.1420
   -36.1239 -36.1228 -36.1227 -36.1212 -36.1207 -36.1205 -36.1082 -36.1069
   -36.1067 -36.1060 -36.1048 -36.1040 -36.1040 -36.1015 -36.0962 -36.0950
   -16.5331 -16.4443 -16.4383 -16.4349 -16.4302 -16.4197 -16.4196 -16.4006
   -16.3881 -16.3773 -16.3769 -16.3662 -16.2698 -16.2670 -16.2589 -16.2519
   -16.2410 -16.2409 -16.2029 -16.1952 -16.1233 -16.1224 -16.1047 -16.1047
     8.0442  10.9107  10.9178  11.8703  12.3606  12.9280  13.1301  13.1469
    13.6237  13.6534  13.7669  13.7911  13.8101  13.8701  13.9748  13.9972
    14.2529  14.4094  14.4408  14.4779  14.6021  14.6851  14.7469  14.8020
    14.9460  14.9552  14.9901  15.0200  15.0682  15.0854  15.1058  15.1420
    15.1742  15.3277  15.3511  15.3756  15.3950  15.4991  15.5975  15.6306
    15.7060  15.7780  15.7787  15.8144  15.8962  15.9634  15.9706  16.0251
    16.7370  16.7506  16.7512  16.7516  16.8726  17.4603  17.4640  17.4770
    17.5750  17.7452  17.8003  17.8324  17.8577  17.9296  17.9360  18.0054
    18.0603  18.0689  18.2243  18.2714  18.2830  18.3233  18.3779  18.4649

          k =-0.2537-0.1692-0.0000 ( 32466 PWs)   bands (ev):

   -70.0465 -70.0460 -70.0454 -70.0449 -70.0446 -70.0440 -70.0434 -70.0429
   -40.0912 -40.0894 -40.0752 -40.0730 -40.0437 -40.0266 -39.8765 -39.8488
   -36.1657 -36.1635 -36.1633 -36.1625 -36.1521 -36.1514 -36.1484 -36.1484
   -36.1222 -36.1219 -36.1218 -36.1215 -36.1175 -36.1166 -36.1142 -36.1122
   -36.1057 -36.1051 -36.1031 -36.1026 -36.1026 -36.1025 -36.1010 -36.1000
   -16.5315 -16.4383 -16.4342 -16.4307 -16.4183 -16.3989 -16.3783 -16.3680
   -16.3662 -16.3619 -16.3486 -16.3448 -16.3286 -16.3133 -16.2674 -16.2674
   -16.2551 -16.2407 -16.2027 -16.1974 -16.1578 -16.1378 -16.1234 -16.1052
     8.0819  10.9430  11.1264  11.6527  12.2696  12.9259  13.1906  13.4552
    13.7770  13.7918  13.8035  13.8138  13.8422  13.8436  14.1515  14.1626
    14.1628  14.1767  14.2642  14.6796  14.7869  14.8184  14.8348  14.8593
    14.8654  14.8753  14.8899  14.8936  14.9061  15.0266  15.0585  15.1154
    15.2132  15.2332  15.2568  15.2780  15.4292  15.4328  15.5577  15.5782
    15.6129  15.6160  15.6712  15.7126  15.7139  15.7459  15.9800  15.9817
    16.7464  16.7542  16.7945  16.8182  16.8850  17.5587  17.5886  17.7217
    17.7378  17.7924  17.8446  17.8704  17.8889  17.8997  17.9176  18.0154
    18.1124  18.1241  18.1315  18.1439  18.2843  18.3272  18.4065  18.4363

          k =-0.0000-0.2537 0.1559 ( 32466 PWs)   bands (ev):

   -70.0472 -70.0467 -70.0466 -70.0461 -70.0433 -70.0428 -70.0427 -70.0422
   -40.0932 -40.0868 -40.0857 -40.0786 -40.0333 -40.0243 -39.8680 -39.8541
   -36.1735 -36.1721 -36.1716 -36.1706 -36.1482 -36.1471 -36.1445 -36.1434
   -36.1230 -36.1210 -36.1201 -36.1173 -36.1172 -36.1170 -36.1166 -36.1159
   -36.1101 -36.1095 -36.1070 -36.1064 -36.0948 -36.0938 -36.0929 -36.0919
   -16.5203 -16.5094 -16.4622 -16.4570 -16.4510 -16.3983 -16.3837 -16.3709
   -16.3599 -16.3586 -16.3499 -16.3222 -16.3191 -16.3159 -16.3127 -16.3109
   -16.2728 -16.2408 -16.1608 -16.1550 -16.1512 -16.1415 -16.0464 -16.0389
     8.5792   9.9596  11.0380  12.0083  12.0788  12.9863  13.3606  13.4205
    13.5462  13.7050  13.7372  13.7816  13.8059  13.8366  13.8642  13.9872
    14.0663  14.0704  14.2310  14.6268  14.6922  14.7053  14.7208  14.7270
    14.7426  14.7527  14.7811  14.7915  15.2089  15.2172  15.2412  15.2743
    15.3360  15.3443  15.4246  15.4442  15.4815  15.4991  15.5602  15.5625
    15.5719  15.6227  15.7041  15.8120  15.8452  15.8729  16.1451  16.1466
    16.8779  17.2015  17.2374  17.2457  17.2506  17.3049  17.3186  17.3311
    17.4185  17.4381  17.5248  17.5722  17.6924  17.6993  17.7329  17.7618
    17.8207  17.8957  18.1274  18.1805  18.1913  18.1917  18.5532  18.5853

          k =-0.2537 0.2537 0.0000 ( 32544 PWs)   bands (ev):

   -70.0458 -70.0453 -70.0453 -70.0448 -70.0446 -70.0441 -70.0441 -70.0436
   -40.0889 -40.0889 -40.0724 -40.0724 -40.0460 -40.0294 -39.8770 -39.8494
   -36.1598 -36.1585 -36.1585 -36.1559 -36.1559 -36.1556 -36.1546 -36.1510
   -36.1221 -36.1219 -36.1219 -36.1215 -36.1143 -36.1117 -36.1098 -36.1098
   -36.1083 -36.1064 -36.1064 -36.1058 -36.1047 -36.1041 -36.1041 -36.1035
   -16.5301 -16.4321 -16.4321 -16.3721 -16.3703 -16.3701 -16.3547 -16.3524
   -16.3467 -16.3460 -16.3445 -16.3443 -16.3329 -16.3329 -16.3155 -16.3155
   -16.2663 -16.2663 -16.2038 -16.1985 -16.1584 -16.1584 -16.1382 -16.1382
     8.1108  10.9708  11.6391  11.6391  11.6799  12.8820  13.4869  13.4869
    13.6884  13.8531  13.8805  13.8805  14.0784  14.1064  14.1133  14.1133
    14.5001  14.5001  14.5409  14.5519  14.5821  14.6058  14.6058  14.6607
    14.7248  14.8531  14.8669  14.8669  14.9595  15.0032  15.0033  15.0120
    15.0773  15.0812  15.1143  15.1143  15.5363  15.5363  15.5598  15.5598
    15.5683  15.5710  15.6183  15.6707  15.7214  15.7354  15.7647  15.7647
    16.7607  16.7910  16.7910  16.8027  16.9807  17.6986  17.7113  17.7114
    17.8449  17.9295  17.9295  17.9889  18.0237  18.0699  18.0699  18.0706
    18.1200  18.1200  18.1585  18.1635  18.1971  18.2297  18.2297  18.2402

          k = 0.0846-0.0846 0.0780 ( 32444 PWs)   bands (ev):

   -70.0486 -70.0476 -70.0452 -70.0452 -70.0442 -70.0442 -70.0419 -70.0409
   -40.0999 -40.0904 -40.0897 -40.0721 -40.0339 -40.0181 -39.8719 -39.8478
   -36.1815 -36.1747 -36.1658 -36.1647 -36.1636 -36.1634 -36.1340 -36.1334
   -36.1320 -36.1278 -36.1230 -36.1230 -36.1183 -36.1183 -36.1094 -36.1053
   -36.1053 -36.1035 -36.1023 -36.1017 -36.1015 -36.1011 -36.0866 -36.0851
   -16.5189 -16.5107 -16.5093 -16.4861 -16.4860 -16.4389 -16.4351 -16.4259
   -16.4240 -16.4237 -16.4157 -16.3490 -16.2887 -16.2791 -16.2202 -16.2034
   -16.1899 -16.1875 -16.1785 -16.1783 -16.0693 -16.0688 -16.0549 -16.0549
     8.0202  10.5349  10.6706  12.5366  12.6281  12.7543  12.8041  12.9083
    13.0720  13.3812  13.4352  13.4591  13.5176  13.7273  13.8865  13.9798
    14.3878  14.4435  14.4786  14.5118  14.5455  14.6068  14.6335  14.7464
    14.8623  14.9164  15.0182  15.0613  15.0802  15.1677  15.2217  15.3642
    15.3644  15.5031  15.6060  15.6313  15.6393  15.7829  15.7862  15.9280
    15.9535  16.0582  16.0914  16.1093  16.1538  16.2915  16.3053  16.3216
    16.6934  16.7450  16.9132  16.9215  17.1165  17.1718  17.2529  17.2601
    17.3991  17.4825  17.4966  17.6991  17.7663  17.7748  17.7829  17.7988
    18.0390  18.0466  18.0509  18.0594  18.1775  18.4423  18.4436  18.4580

          k = 0.0846-0.0846 0.1559 ( 32476 PWs)   bands (ev):

   -70.0484 -70.0478 -70.0450 -70.0450 -70.0444 -70.0444 -70.0416 -70.0411
   -40.0979 -40.0924 -40.0860 -40.0759 -40.0305 -40.0214 -39.8668 -39.8530
   -36.1801 -36.1761 -36.1653 -36.1645 -36.1639 -36.1638 -36.1331 -36.1327
   -36.1323 -36.1291 -36.1193 -36.1192 -36.1165 -36.1147 -36.1115 -36.1090
   -36.1090 -36.1048 -36.1031 -36.1020 -36.1019 -36.1017 -36.0863 -36.0854
   -16.5054 -16.5043 -16.4913 -16.4908 -16.4620 -16.4359 -16.4328 -16.4272
   -16.4262 -16.3911 -16.3871 -16.3268 -16.3195 -16.3082 -16.2730 -16.2372
   -16.1875 -16.1855 -16.1809 -16.1802 -16.0663 -16.0659 -16.0580 -16.0579
     8.4507   9.8587  11.0209  12.1669  12.6577  12.7833  12.9223  13.0142
    13.1731  13.5573  13.5715  13.5740  13.6704  13.8183  13.8750  13.9576
    14.0708  14.2121  14.4133  14.4451  14.5217  14.5337  14.5462  14.6867
    14.8832  15.0228  15.0615  15.1142  15.2001  15.2713  15.2783  15.3503
    15.4694  15.4890  15.5101  15.5389  15.5752  15.6008  15.6237  15.7126
    15.7142  15.7494  15.7674  15.9372  16.1382  16.1675  16.1827  16.2901
    16.6539  16.9755  17.1591  17.1990  17.2154  17.2321  17.3444  17.3604
    17.3831  17.4280  17.5300  17.5919  17.6172  17.6427  17.8333  17.8945
    17.9521  17.9764  18.0131  18.0495  18.3618  18.4005  18.6546  18.7836

          k = 0.1692-0.0846 0.0780 ( 32476 PWs)   bands (ev):

   -70.0479 -70.0469 -70.0459 -70.0449 -70.0445 -70.0435 -70.0425 -70.0415
   -40.0963 -40.0892 -40.0850 -40.0732 -40.0369 -40.0213 -39.8730 -39.8490
   -36.1766 -36.1715 -36.1663 -36.1663 -36.1575 -36.1560 -36.1388 -36.1374
   -36.1286 -36.1240 -36.1221 -36.1219 -36.1194 -36.1193 -36.1098 -36.1093
   -36.1079 -36.1061 -36.1044 -36.1020 -36.1004 -36.0992 -36.0911 -36.0897
   -16.5151 -16.5043 -16.4837 -16.4453 -16.4429 -16.4268 -16.4261 -16.4233
   -16.4165 -16.3881 -16.3759 -16.3519 -16.2852 -16.2791 -16.2549 -16.2425
   -16.2191 -16.2081 -16.1879 -16.1774 -16.1206 -16.1049 -16.0700 -16.0561
     8.1223  10.5943  10.7845  12.0399  12.6330  12.8559  13.0257  13.0316
    13.3407  13.5451  13.5616  13.6983  13.7329  13.7907  14.0079  14.0159
    14.1773  14.1892  14.4483  14.5840  14.6002  14.6485  14.7136  14.7598
    14.8095  14.9376  15.0337  15.0729  15.0787  15.1276  15.2334  15.3097
    15.3329  15.3780  15.4851  15.5304  15.5742  15.6299  15.6346  15.7247
    15.7247  15.7891  15.8164  15.8955  15.9047  16.0176  16.0755  16.2067
    16.5912  16.9252  17.0384  17.0503  17.0759  17.1675  17.2971  17.3068
    17.3767  17.6099  17.6482  17.6956  17.7396  17.8191  17.8857  17.9739
    18.0193  18.0979  18.1017  18.2267  18.3604  18.3917  18.4772  18.5742

          k =-0.1692-0.0846-0.0780 ( 32476 PWs)   bands (ev):

   -70.0479 -70.0469 -70.0459 -70.0449 -70.0445 -70.0435 -70.0425 -70.0415
   -40.0963 -40.0892 -40.0850 -40.0732 -40.0369 -40.0213 -39.8730 -39.8490
   -36.1766 -36.1715 -36.1663 -36.1663 -36.1575 -36.1560 -36.1388 -36.1374
   -36.1286 -36.1240 -36.1221 -36.1219 -36.1194 -36.1193 -36.1098 -36.1093
   -36.1079 -36.1061 -36.1044 -36.1020 -36.1004 -36.0992 -36.0911 -36.0897
   -16.5151 -16.5043 -16.4837 -16.4453 -16.4429 -16.4268 -16.4261 -16.4233
   -16.4165 -16.3881 -16.3759 -16.3519 -16.2852 -16.2791 -16.2549 -16.2425
   -16.2191 -16.2081 -16.1879 -16.1774 -16.1206 -16.1049 -16.0700 -16.0561
     8.1223  10.5943  10.7845  12.0399  12.6330  12.8559  13.0257  13.0316
    13.3407  13.5451  13.5616  13.6983  13.7329  13.7907  14.0079  14.0159
    14.1773  14.1892  14.4483  14.5840  14.6002  14.6485  14.7136  14.7598
    14.8094  14.9376  15.0337  15.0729  15.0787  15.1276  15.2334  15.3097
    15.3329  15.3780  15.4851  15.5304  15.5742  15.6299  15.6346  15.7246
    15.7247  15.7890  15.8164  15.8955  15.9047  16.0176  16.0755  16.2067
    16.5912  16.9252  17.0384  17.0503  17.0759  17.1675  17.2971  17.3068
    17.3767  17.6099  17.6482  17.6956  17.7396  17.8191  17.8857  17.9739
    18.0193  18.0979  18.1018  18.2267  18.3604  18.3917  18.4772  18.5742

          k = 0.0846-0.0846-0.2339 ( 32474 PWs)   bands (ev):

   -70.0481 -70.0481 -70.0447 -70.0447 -70.0447 -70.0447 -70.0414 -70.0414
   -40.0951 -40.0951 -40.0809 -40.0809 -40.0260 -40.0260 -39.8599 -39.8599
   -36.1781 -36.1781 -36.1646 -36.1646 -36.1641 -36.1641 -36.1327 -36.1327
   -36.1310 -36.1310 -36.1142 -36.1142 -36.1141 -36.1141 -36.1140 -36.1140
   -36.1097 -36.1097 -36.1025 -36.1025 -36.1018 -36.1018 -36.0859 -36.0859
   -16.4983 -16.4983 -16.4975 -16.4975 -16.4317 -16.4317 -16.4296 -16.4296
   -16.3884 -16.3884 -16.3478 -16.3478 -16.3384 -16.3384 -16.2787 -16.2787
   -16.1842 -16.1842 -16.1829 -16.1829 -16.0621 -16.0621 -16.0619 -16.0619
     9.1004   9.1004  11.5544  11.5544  12.7607  12.7607  13.0024  13.0024
    13.5900  13.5900  13.7188  13.7188  13.7351  13.7351  13.8144  13.8144
    13.9115  13.9115  14.4504  14.4504  14.4651  14.4651  14.6718  14.6719
    14.9802  14.9802  15.1203  15.1203  15.1698  15.1698  15.2978  15.2978
    15.4860  15.4860  15.5146  15.5146  15.6138  15.6138  15.6243  15.6243
    15.6810  15.6810  15.7898  15.7898  15.8465  15.8465  16.2190  16.2190
    17.0075  17.0075  17.2618  17.2619  17.3339  17.3339  17.3374  17.3374
    17.3732  17.3732  17.4187  17.4187  17.5799  17.5799  17.8896  17.8896
    18.0149  18.0149  18.0199  18.0199  18.4257  18.4257  18.7990  18.7990

          k =-0.2537-0.0846 0.0780 ( 32474 PWs)   bands (ev):

   -70.0472 -70.0466 -70.0461 -70.0456 -70.0438 -70.0433 -70.0428 -70.0423
   -40.0941 -40.0892 -40.0809 -40.0751 -40.0385 -40.0231 -39.8736 -39.8495
   -36.1717 -36.1701 -36.1688 -36.1679 -36.1495 -36.1479 -36.1458 -36.1444
   -36.1222 -36.1210 -36.1210 -36.1204 -36.1198 -36.1193 -36.1172 -36.1152
   -36.1075 -36.1069 -36.1035 -36.1029 -36.0973 -36.0960 -36.0954 -36.0940
   -16.5130 -16.5009 -16.4824 -16.4462 -16.4274 -16.4269 -16.4166 -16.3717
   -16.3621 -16.3536 -16.3536 -16.3465 -16.3219 -16.3104 -16.2813 -16.2809
   -16.2173 -16.2117 -16.1877 -16.1768 -16.1553 -16.1384 -16.0705 -16.0567
     8.1768  10.6248  10.8712  11.7768  12.6307  12.9148  13.1095  13.3061
    13.5733  13.6410  13.7376  13.7476  13.8312  13.8346  13.9241  13.9336
    13.9393  14.1044  14.1801  14.6631  14.8057  14.8080  14.8223  14.8364
    14.8545  14.8849  14.9256  14.9646  15.2073  15.2288  15.2518  15.2560
    15.2700  15.4210  15.4477  15.4614  15.4754  15.4762  15.5166  15.5752
    15.5890  15.6419  15.6584  15.7185  15.7364  15.8570  16.0656  16.0758
    16.7600  16.9607  16.9629  16.9884  16.9923  17.3416  17.4102  17.5363
    17.5588  17.5753  17.5798  17.6244  17.7194  17.8193  17.9641  18.0722
    18.0998  18.1500  18.1601  18.1967  18.2602  18.2780  18.6151  18.6793

          k = 0.1692-0.0846 0.1559 ( 32434 PWs)   bands (ev):

   -70.0477 -70.0471 -70.0457 -70.0451 -70.0443 -70.0437 -70.0423 -70.0418
   -40.0939 -40.0874 -40.0859 -40.0766 -40.0336 -40.0246 -39.8680 -39.8541
   -36.1755 -36.1726 -36.1663 -36.1663 -36.1572 -36.1563 -36.1385 -36.1377
   -36.1277 -36.1251 -36.1184 -36.1183 -36.1174 -36.1156 -36.1119 -36.1094
   -36.1089 -36.1082 -36.1081 -36.1057 -36.1001 -36.0995 -36.0909 -36.0900
   -16.4998 -16.4880 -16.4578 -16.4408 -16.4394 -16.4297 -16.4284 -16.3936
   -16.3865 -16.3857 -16.3782 -16.3223 -16.3214 -16.3091 -16.2745 -16.2522
   -16.2451 -16.2401 -16.1857 -16.1796 -16.1172 -16.1082 -16.0671 -16.0591
     8.5532   9.9449  11.1072  12.1558  12.2696  12.8785  13.0449  13.2681
    13.2824  13.7097  13.7274  13.8352  13.8358  13.9648  13.9818  14.0340
    14.0763  14.2720  14.3190  14.4939  14.5363  14.5727  14.6587  14.6840
    14.8002  14.9572  14.9759  14.9862  15.0462  15.1444  15.2980  15.3451
    15.3712  15.3745  15.3774  15.4181  15.4275  15.4399  15.4969  15.5459
    15.5459  15.5637  15.5955  15.6474  15.8619  15.9092  15.9217  16.1361
    16.8169  17.1846  17.2582  17.3038  17.3304  17.3404  17.4049  17.4738
    17.5055  17.5557  17.6001  17.6419  17.6640  17.7211  17.7298  17.8754
    17.9858  18.0022  18.1366  18.1515  18.2777  18.2887  18.5610  18.5987

          k = 0.1692-0.1692 0.0780 ( 32434 PWs)   bands (ev):

   -70.0472 -70.0462 -70.0452 -70.0452 -70.0442 -70.0442 -70.0432 -70.0422
   -40.0925 -40.0884 -40.0800 -40.0731 -40.0405 -40.0255 -39.8741 -39.8501
   -36.1710 -36.1674 -36.1610 -36.1595 -36.1587 -36.1577 -36.1430 -36.1421
   -36.1240 -36.1214 -36.1212 -36.1207 -36.1199 -36.1198 -36.1081 -36.1080
   -36.1067 -36.1062 -36.1053 -36.1052 -36.1046 -36.1028 -36.0961 -36.0951
   -16.5118 -16.4426 -16.4371 -16.4235 -16.4221 -16.4213 -16.4182 -16.3991
   -16.3874 -16.3789 -16.3776 -16.3552 -16.2820 -16.2780 -16.2576 -16.2511
   -16.2422 -16.2416 -16.2199 -16.2116 -16.1221 -16.1212 -16.1060 -16.1059
     8.1957  10.6538  11.0198  11.9589  12.4559  12.8855  13.0175  13.0780
    13.6143  13.7241  13.8282  13.8494  13.8915  13.9075  14.0394  14.0595
    14.2637  14.4118  14.4479  14.4874  14.5331  14.6763  14.6797  14.8836
    14.9100  14.9761  15.0023  15.0113  15.0539  15.0634  15.1070  15.1265
    15.1402  15.1522  15.3223  15.3239  15.3631  15.4843  15.5281  15.5394
    15.5847  15.6348  15.6469  15.6663  15.7092  15.7209  15.7796  16.0403
    16.8154  16.9561  17.0193  17.0452  17.1004  17.4894  17.5026  17.5536
    17.5681  17.7575  17.8164  17.8429  17.8491  17.9218  17.9671  18.0274
    18.0741  18.1016  18.1384  18.2245  18.2556  18.3102  18.3699  18.5283

          k =-0.1692-0.1692-0.0780 ( 32434 PWs)   bands (ev):

   -70.0472 -70.0462 -70.0452 -70.0452 -70.0442 -70.0442 -70.0432 -70.0422
   -40.0925 -40.0884 -40.0800 -40.0731 -40.0405 -40.0255 -39.8741 -39.8501
   -36.1710 -36.1674 -36.1610 -36.1595 -36.1587 -36.1577 -36.1430 -36.1421
   -36.1240 -36.1214 -36.1212 -36.1207 -36.1199 -36.1198 -36.1081 -36.1080
   -36.1067 -36.1062 -36.1053 -36.1052 -36.1046 -36.1028 -36.0961 -36.0951
   -16.5118 -16.4426 -16.4371 -16.4235 -16.4221 -16.4213 -16.4182 -16.3991
   -16.3874 -16.3789 -16.3776 -16.3552 -16.2820 -16.2780 -16.2576 -16.2511
   -16.2422 -16.2416 -16.2199 -16.2116 -16.1221 -16.1212 -16.1060 -16.1059
     8.1957  10.6538  11.0198  11.9589  12.4559  12.8855  13.0176  13.0780
    13.6143  13.7242  13.8282  13.8494  13.8915  13.9075  14.0394  14.0595
    14.2637  14.4118  14.4479  14.4874  14.5331  14.6763  14.6797  14.8836
    14.9100  14.9761  15.0023  15.0113  15.0539  15.0634  15.1070  15.1265
    15.1402  15.1522  15.3223  15.3239  15.3632  15.4843  15.5281  15.5394
    15.5847  15.6348  15.6469  15.6663  15.7092  15.7209  15.7796  16.0403
    16.8154  16.9561  17.0193  17.0452  17.1004  17.4894  17.5026  17.5536
    17.5681  17.7575  17.8164  17.8429  17.8491  17.9218  17.9671  18.0274
    18.0741  18.1016  18.1384  18.2245  18.2556  18.3102  18.3699  18.5283

          k = 0.1692-0.0846-0.2339 ( 32462 PWs)   bands (ev):

   -70.0474 -70.0474 -70.0454 -70.0454 -70.0440 -70.0440 -70.0420 -70.0420
   -40.0906 -40.0906 -40.0812 -40.0812 -40.0291 -40.0291 -39.8610 -39.8610
   -36.1741 -36.1741 -36.1663 -36.1663 -36.1568 -36.1568 -36.1381 -36.1381
   -36.1265 -36.1265 -36.1146 -36.1146 -36.1138 -36.1138 -36.1132 -36.1132
   -36.1107 -36.1107 -36.1085 -36.1085 -36.0998 -36.0998 -36.0904 -36.0904
   -16.4939 -16.4939 -16.4349 -16.4349 -16.4345 -16.4345 -16.3850 -16.3850
   -16.3794 -16.3794 -16.3505 -16.3505 -16.3390 -16.3390 -16.2816 -16.2816
   -16.2485 -16.2485 -16.1826 -16.1826 -16.1127 -16.1127 -16.0631 -16.0631
     9.1999   9.1999  11.5952  11.5952  12.5830  12.5830  13.2151  13.2151
    13.6442  13.6442  13.8758  13.8758  13.9110  13.9110  14.0009  14.0009
    14.0730  14.0730  14.4157  14.4157  14.5638  14.5638  14.6699  14.6699
    14.7496  14.7496  14.9486  14.9486  15.2216  15.2216  15.2229  15.2229
    15.2991  15.2991  15.3247  15.3247  15.4523  15.4523  15.4710  15.4710
    15.5513  15.5513  15.6199  15.6199  15.6447  15.6447  16.0604  16.0604
    17.0632  17.0632  17.4292  17.4292  17.4492  17.4492  17.4694  17.4694
    17.4958  17.4958  17.5822  17.5822  17.7423  17.7423  17.7963  17.7963
    17.8633  17.8633  18.1076  18.1076  18.2656  18.2656  18.7023  18.7023

          k =-0.2537-0.1692 0.0780 ( 32462 PWs)   bands (ev):

   -70.0465 -70.0460 -70.0454 -70.0449 -70.0445 -70.0440 -70.0435 -70.0430
   -40.0901 -40.0883 -40.0762 -40.0741 -40.0426 -40.0278 -39.8746 -39.8507
   -36.1655 -36.1635 -36.1634 -36.1625 -36.1521 -36.1515 -36.1485 -36.1485
   -36.1209 -36.1209 -36.1208 -36.1203 -36.1172 -36.1167 -36.1139 -36.1124
   -36.1068 -36.1061 -36.1044 -36.1038 -36.1026 -36.1025 -36.1009 -36.1001
   -16.5101 -16.4369 -16.4233 -16.4196 -16.4195 -16.3975 -16.3796 -16.3651
   -16.3608 -16.3572 -16.3498 -16.3457 -16.3276 -16.3143 -16.2789 -16.2787
   -16.2541 -16.2416 -16.2199 -16.2139 -16.1564 -16.1392 -16.1222 -16.1065
     8.2339  10.6845  11.2289  11.7543  12.3691  12.9567  13.0164  13.3133
    13.7094  13.8602  13.8917  13.9188  13.9219  13.9429  14.1700  14.1763
    14.1941  14.2103  14.2970  14.6999  14.7863  14.7996  14.8086  14.8517
    14.8537  14.8631  14.8878  14.8915  14.9275  15.0348  15.0464  15.0567
    15.1970  15.1989  15.2392  15.2586  15.3359  15.3436  15.3512  15.3625
    15.4721  15.4762  15.5079  15.5336  15.6257  15.6487  15.8994  15.8995
    16.9334  16.9762  17.0123  17.0483  17.0799  17.5822  17.6329  17.7566
    17.7806  17.8112  17.8182  17.8666  17.8721  17.9420  17.9879  18.0330
    18.1120  18.1258  18.1532  18.1630  18.2818  18.3354  18.4059  18.4590

          k =-0.0846-0.2537 0.1559 ( 32462 PWs)   bands (ev):

   -70.0469 -70.0464 -70.0463 -70.0458 -70.0436 -70.0431 -70.0430 -70.0425
   -40.0913 -40.0863 -40.0837 -40.0781 -40.0352 -40.0263 -39.8685 -39.8546
   -36.1711 -36.1696 -36.1694 -36.1683 -36.1492 -36.1483 -36.1455 -36.1447
   -36.1218 -36.1200 -36.1194 -36.1174 -36.1169 -36.1167 -36.1162 -36.1154
   -36.1100 -36.1093 -36.1072 -36.1066 -36.0970 -36.0963 -36.0951 -36.0943
   -16.4970 -16.4863 -16.4552 -16.4422 -16.4313 -16.3966 -16.3854 -16.3684
   -16.3592 -16.3569 -16.3496 -16.3237 -16.3202 -16.3151 -16.3128 -16.3116
   -16.2749 -16.2420 -16.1854 -16.1791 -16.1517 -16.1419 -16.0676 -16.0596
     8.6082   9.9908  11.1641  12.0686  12.1327  12.9683  13.1601  13.3282
    13.6426  13.6925  13.8141  13.8860  13.9555  13.9602  13.9609  14.0529
    14.1019  14.1478  14.2646  14.6329  14.7159  14.7277  14.7357  14.7390
    14.7392  14.7934  14.7972  14.8248  15.0813  15.0835  15.2221  15.2511
    15.2578  15.2583  15.3345  15.3673  15.3681  15.4005  15.4216  15.4558
    15.4865  15.5311  15.5530  15.6249  15.6547  15.6807  16.0021  16.0071
    16.9270  17.2148  17.2823  17.3295  17.3337  17.3931  17.4931  17.5755
    17.5787  17.5828  17.6030  17.6713  17.7510  17.7640  17.8147  17.8492
    17.9522  17.9954  18.1492  18.1661  18.2123  18.2210  18.5220  18.6106

          k =-0.2537 0.2537 0.0780 ( 32460 PWs)   bands (ev):

   -70.0457 -70.0452 -70.0452 -70.0447 -70.0447 -70.0442 -70.0442 -70.0437
   -40.0878 -40.0878 -40.0735 -40.0735 -40.0449 -40.0305 -39.8751 -39.8512
   -36.1595 -36.1583 -36.1583 -36.1561 -36.1561 -36.1559 -36.1544 -36.1513
   -36.1209 -36.1208 -36.1208 -36.1202 -36.1141 -36.1119 -36.1095 -36.1095
   -36.1081 -36.1070 -36.1070 -36.1059 -36.1058 -36.1049 -36.1049 -36.1047
   -16.5085 -16.4212 -16.4212 -16.3704 -16.3686 -16.3594 -16.3542 -16.3519
   -16.3484 -16.3466 -16.3459 -16.3448 -16.3318 -16.3318 -16.3167 -16.3167
   -16.2775 -16.2775 -16.2213 -16.2150 -16.1571 -16.1571 -16.1396 -16.1396
     8.2633  10.7152  11.7406  11.7406  11.7837  12.9761  13.3301  13.3302
    13.4784  13.9325  13.9595  13.9595  14.1104  14.2169  14.2169  14.2570
    14.5087  14.5087  14.5541  14.5622  14.5992  14.6066  14.6066  14.6578
    14.7144  14.8608  14.8690  14.8690  14.9625  14.9896  14.9896  14.9991
    15.0453  15.0655  15.0750  15.0750  15.3442  15.3442  15.3448  15.3457
    15.4503  15.4503  15.5310  15.5632  15.6117  15.6118  15.6356  15.6356
    16.9834  17.0204  17.0643  17.0643  17.0814  17.7430  17.7569  17.7569
    17.8859  17.9804  17.9804  18.0218  18.0599  18.0951  18.0951  18.0967
    18.1313  18.1313  18.1506  18.2214  18.3385  18.3437  18.3519  18.3667

          k = 0.1692-0.1692 0.1559 ( 32390 PWs)   bands (ev):

   -70.0470 -70.0464 -70.0450 -70.0450 -70.0444 -70.0444 -70.0430 -70.0424
   -40.0898 -40.0852 -40.0827 -40.0763 -40.0374 -40.0287 -39.8690 -39.8552
   -36.1703 -36.1682 -36.1606 -36.1592 -36.1591 -36.1581 -36.1429 -36.1423
   -36.1234 -36.1215 -36.1180 -36.1177 -36.1175 -36.1162 -36.1108 -36.1087
   -36.1086 -36.1076 -36.1066 -36.1065 -36.1061 -36.1047 -36.0959 -36.0953
   -16.4537 -16.4382 -16.4336 -16.4257 -16.4245 -16.3949 -16.3915 -16.3898
   -16.3854 -16.3830 -16.3795 -16.3254 -16.3163 -16.3081 -16.2780 -16.2544
   -16.2491 -16.2454 -16.2436 -16.2427 -16.1186 -16.1180 -16.1094 -16.1092
     8.6287  10.0176  11.3345  12.2046  12.3754  12.7226  12.8677  13.2727
    13.4350  13.9132  13.9381  13.9984  14.0132  14.0357  14.1189  14.2857
    14.2903  14.3214  14.3630  14.3664  14.5240  14.6373  14.6553  14.8159
    14.8462  14.8830  14.9714  15.0330  15.0502  15.0560  15.0805  15.1075
    15.1306  15.1819  15.1955  15.2361  15.2364  15.2642  15.3280  15.3372
    15.3784  15.4183  15.4328  15.5225  15.5362  15.5605  15.5839  15.9372
    16.9676  17.2135  17.3352  17.3981  17.4384  17.5694  17.6276  17.6595
    17.6783  17.6787  17.7862  17.8130  17.9347  17.9388  17.9666  18.0214
    18.0267  18.0532  18.1085  18.2362  18.2543  18.3145  18.5311  18.5926

          k = 0.1692-0.1692-0.2339 ( 32458 PWs)   bands (ev):

   -70.0467 -70.0467 -70.0447 -70.0447 -70.0447 -70.0447 -70.0427 -70.0427
   -40.0863 -40.0863 -40.0807 -40.0807 -40.0330 -40.0330 -39.8621 -39.8621
   -36.1692 -36.1692 -36.1599 -36.1599 -36.1586 -36.1586 -36.1426 -36.1426
   -36.1225 -36.1225 -36.1143 -36.1143 -36.1133 -36.1133 -36.1131 -36.1131
   -36.1113 -36.1113 -36.1071 -36.1071 -36.1053 -36.1053 -36.0956 -36.0956
   -16.4321 -16.4321 -16.4290 -16.4290 -16.3899 -16.3899 -16.3827 -16.3827
   -16.3752 -16.3752 -16.3488 -16.3488 -16.3441 -16.3441 -16.2844 -16.2844
   -16.2497 -16.2497 -16.2464 -16.2464 -16.1140 -16.1140 -16.1136 -16.1136
     9.2766   9.2766  11.8133  11.8133  12.5433  12.5433  13.0933  13.0933
    13.6423  13.6423  14.1470  14.1470  14.1542  14.1542  14.1742  14.1742
    14.2073  14.2073  14.4126  14.4126  14.6331  14.6331  14.6646  14.6646
    14.7158  14.7158  14.9887  14.9887  15.0802  15.0802  15.0811  15.0811
    15.1231  15.1231  15.1869  15.1869  15.2246  15.2246  15.2749  15.2749
    15.3377  15.3377  15.3448  15.3448  15.4536  15.4536  15.7231  15.7231
    17.1396  17.1396  17.5532  17.5532  17.6166  17.6166  17.6603  17.6603
    17.6811  17.6811  17.8248  17.8248  17.8884  17.8884  18.0058  18.0058
    18.0231  18.0231  18.1017  18.1017  18.4083  18.4083  18.7417  18.7417

          k =-0.2537-0.1692 0.1559 ( 32458 PWs)   bands (ev):

   -70.0463 -70.0457 -70.0457 -70.0451 -70.0443 -70.0437 -70.0437 -70.0432
   -40.0872 -40.0853 -40.0792 -40.0771 -40.0395 -40.0309 -39.8696 -39.8557
   -36.1650 -36.1638 -36.1632 -36.1626 -36.1521 -36.1517 -36.1486 -36.1485
   -36.1189 -36.1181 -36.1175 -36.1170 -36.1168 -36.1160 -36.1132 -36.1131
   -36.1096 -36.1088 -36.1078 -36.1073 -36.1027 -36.1025 -36.1008 -36.1003
   -16.4513 -16.4332 -16.4233 -16.3936 -16.3930 -16.3893 -16.3829 -16.3622
   -16.3578 -16.3529 -16.3491 -16.3269 -16.3251 -16.3171 -16.3108 -16.3094
   -16.2799 -16.2516 -16.2442 -16.2442 -16.1528 -16.1429 -16.1189 -16.1098
     8.6681  10.0555  11.5231  12.0446  12.4839  12.6512  12.9466  13.2718
    13.4681  13.8736  14.0739  14.1083  14.1342  14.1419  14.2393  14.2434
    14.2537  14.3504  14.3534  14.6803  14.6931  14.7325  14.7667  14.7717
    14.8290  14.8340  14.8408  14.8430  14.9367  14.9373  15.0310  15.0437
    15.0657  15.1232  15.1505  15.1702  15.1861  15.2057  15.2262  15.2615
    15.2653  15.2775  15.2783  15.3438  15.4499  15.4531  15.6647  15.6705
    17.0486  17.2214  17.3917  17.4417  17.4982  17.6747  17.7584  17.7768
    17.7912  17.8086  17.8453  17.8967  17.9331  17.9481  17.9848  18.0206
    18.0827  18.1608  18.2314  18.2960  18.3450  18.3724  18.4639  18.6232

          k =-0.2537 0.2537 0.1559 ( 32460 PWs)   bands (ev):

   -70.0455 -70.0450 -70.0450 -70.0449 -70.0445 -70.0444 -70.0444 -70.0439
   -40.0848 -40.0848 -40.0765 -40.0765 -40.0419 -40.0336 -39.8701 -39.8563
   -36.1588 -36.1578 -36.1578 -36.1567 -36.1566 -36.1566 -36.1538 -36.1520
   -36.1177 -36.1177 -36.1176 -36.1169 -36.1136 -36.1124 -36.1095 -36.1095
   -36.1090 -36.1087 -36.1087 -36.1080 -36.1077 -36.1064 -36.1063 -36.1063
   -16.4491 -16.3912 -16.3912 -16.3660 -16.3640 -16.3529 -16.3526 -16.3516
   -16.3504 -16.3482 -16.3463 -16.3288 -16.3288 -16.3283 -16.3197 -16.3197
   -16.3079 -16.3079 -16.2830 -16.2457 -16.1534 -16.1534 -16.1433 -16.1433
     8.6991  10.0891  12.0306  12.0306  12.0814  12.9419  12.9419  13.0382
    13.2457  14.0128  14.1536  14.1777  14.1777  14.4211  14.4211  14.5091
    14.5299  14.5299  14.5891  14.5899  14.6187  14.6188  14.6459  14.6835
    14.7107  14.8768  14.8768  14.8847  14.9270  14.9546  14.9547  14.9633
    14.9633  14.9653  14.9747  15.0354  15.0888  15.0888  15.0966  15.1084
    15.2320  15.2320  15.3001  15.3059  15.3457  15.3607  15.3607  15.3724
    17.1109  17.2277  17.5058  17.5058  17.5271  17.8490  17.8658  17.8658
    17.9533  17.9533  17.9807  17.9872  18.0244  18.0537  18.0537  18.1237
    18.1276  18.1820  18.3847  18.3847  18.4725  18.4966  18.4967  18.5780

     the Fermi energy is    16.7968 ev

!    total energy              =   -3590.79899074 Ry
     estimated scf accuracy    <          1.7E-10 Ry
     smearing contrib. (-TS)   =      -0.00003222 Ry
     internal energy E=F+TS    =   -3590.79895852 Ry

     The total energy is F=E-TS. E is the sum of the following terms:
     one-electron contribution =   -1257.08256607 Ry
     hartree contribution      =     750.56503304 Ry
     xc contribution           =    -424.35994778 Ry
     ewald contribution        =   -2050.70582874 Ry
     one-center paw contrib.   =    -609.21564898 Ry

     convergence has been achieved in  27 iterations

     negative rho (up, down):  7.629E-03 0.000E+00

     Forces acting on atoms (cartesian axes, Ry/au):

     atom    1 type  1   force =     0.00321403    0.00321403    0.00000000
     atom    2 type  1   force =    -0.00321128   -0.00321128   -0.00000000
     atom    3 type  1   force =    -0.00321294    0.00321246    0.00000000
     atom    4 type  1   force =     0.00321187   -0.00321191   -0.00000000
     atom    5 type  1   force =     0.00321128    0.00321128    0.00000000
     atom    6 type  1   force =    -0.00321254   -0.00321254   -0.00000000
     atom    7 type  1   force =    -0.00321191    0.00321187    0.00000000
     atom    8 type  1   force =     0.00321246   -0.00321294   -0.00000000
     atom    9 type  2   force =    -0.00000002   -0.00000002    0.00000040
     atom   10 type  2   force =    -0.00000017   -0.00000017    0.00000025
     atom   11 type  2   force =    -0.00000024   -0.00000005    0.00000023
     atom   12 type  2   force =    -0.00000005   -0.00000024   -0.00000023
     atom   13 type  2   force =    -0.00000002   -0.00000002   -0.00000040
     atom   14 type  2   force =    -0.00000017   -0.00000017   -0.00000025
     atom   15 type  2   force =    -0.00000024   -0.00000005   -0.00000023
     atom   16 type  2   force =    -0.00000005   -0.00000024    0.00000023
     atom   17 type  3   force =     0.00000009    0.00000009    0.00000000
     atom   18 type  3   force =    -0.00000008   -0.00000008   -0.00000000

     Total force =     0.012849     Total SCF correction =     0.000012


     Computing stress (Cartesian axis) and pressure


     negative rho (up, down):  7.629E-03 0.000E+00
          total   stress  (Ry/bohr**3)                   (kbar)     P=        1.10
   0.00000023  -0.00000001  -0.00000000            0.03       -0.00       -0.00
  -0.00000001   0.00000023   0.00000000           -0.00        0.03        0.00
  -0.00000000   0.00000000   0.00002203           -0.00        0.00        3.24

     Energy error            =      4.0E-04 Ry
     Gradient error          =      3.2E-03 Ry/Bohr
     Cell gradient error     =      3.2E+00 kbar

     number of scf cycles    =   5
     number of bfgs steps    =   4

     enthalpy           old  =   -3590.7985944919 Ry
     enthalpy           new  =   -3590.7989907377 Ry

     CASE: enthalpy          _new < enthalpy          _old

     new trust radius        =       0.0236520527 bohr
     new conv_thr            =       0.0000000003 Ry

     new unit-cell volume =   1444.34281 a.u.^3 (   214.02952 Ang^3 )
     density =      6.45280 g/cm^3

CELL_PARAMETERS (alat=  5.58242261)
   1.967494592  -0.000006540  -0.000000000
  -0.000006540   1.967494592   0.000000000
  -0.000000000   0.000000000   2.144742003

ATOMIC_POSITIONS (crystal)
Fe              -0.0020451460       -0.0020451460        0.0000000000
Fe               0.5020449277        0.5020449277        0.0000000000
Fe               0.5020450872       -0.0020452662        0.0000000000
Fe              -0.0020449990        0.5020451200        0.5000000000
Fe              -0.0020444321       -0.0020444321        0.5000000000
Fe               0.5020447767        0.5020447767        0.5000000000
Fe               0.5020451200       -0.0020449990        0.5000000000
Fe              -0.0020452662        0.5020450872       -0.0000000000
Ti               0.2499999734        0.2499999734        0.2499999426
Ti               0.7499999595        0.7499999595        0.2499999497
Ti               0.7499999712        0.2500000187        0.2499999242
Ti               0.2500000187        0.7499999712        0.7500000758
Ti               0.2499999734        0.2499999734        0.7500000574
Ti               0.7499999595        0.7499999595        0.7500000503
Ti               0.7499999712        0.2500000187        0.7500000758
Ti               0.2500000187        0.7499999712        0.2499999242
H                0.2500000699        0.2500000699       -0.0000000000
H                0.2500000165        0.2500000165        0.5000000000



     Writing config-only to output data dir ./TiFeH_supercell.save/ :
     XML data file     NEW-OLD atomic charge density approx. for the potential
     New effective cutoffs (rho, wfc): 1793.65  128.12

     Check: negative core charge=   -0.000001

     negative rho (up, down):  7.628E-03 0.000E+00

     total cpu time spent up to now is     8461.9 secs

     per-process dynamical memory:   458.4 Mb

     Self-consistent Calculation

     iteration #  1     ecut=   124.00 Ry     beta= 0.70
     Davidson diagonalization with overlap
     ethr =  1.00E-06,  avg # of iterations =  7.0

     negative rho (up, down):  7.634E-03 0.000E+00

     total cpu time spent up to now is     8556.2 secs

     total energy              =   -3590.79890781 Ry
     estimated scf accuracy    <       0.00049217 Ry

     iteration #  2     ecut=   124.00 Ry     beta= 0.70
     Davidson diagonalization with overlap
     c_bands:  1 eigenvalues not converged
     ethr =  2.18E-07,  avg # of iterations =  7.7

     negative rho (up, down):  7.613E-03 0.000E+00

     total cpu time spent up to now is     8629.0 secs

     total energy              =   -3590.79770358 Ry
     estimated scf accuracy    <       0.02147271 Ry

     iteration #  3     ecut=   124.00 Ry     beta= 0.70
     Davidson diagonalization with overlap
     ethr =  2.18E-07,  avg # of iterations =  5.7

     negative rho (up, down):  7.623E-03 0.000E+00

     total cpu time spent up to now is     8692.9 secs

     total energy              =   -3590.79902447 Ry
     estimated scf accuracy    <       0.00206788 Ry

     iteration #  4     ecut=   124.00 Ry     beta= 0.70
     Davidson diagonalization with overlap
     ethr =  2.18E-07,  avg # of iterations =  4.8

     negative rho (up, down):  7.622E-03 0.000E+00

     total cpu time spent up to now is     8745.5 secs

     total energy              =   -3590.79915734 Ry
     estimated scf accuracy    <       0.00109031 Ry

     iteration #  5     ecut=   124.00 Ry     beta= 0.70
     Davidson diagonalization with overlap
     ethr =  2.18E-07,  avg # of iterations =  4.3

     negative rho (up, down):  7.621E-03 0.000E+00

     total cpu time spent up to now is     8794.6 secs

     total energy              =   -3590.79905263 Ry
     estimated scf accuracy    <       0.00567904 Ry

     iteration #  6     ecut=   124.00 Ry     beta= 0.70
     Davidson diagonalization with overlap
     ethr =  2.18E-07,  avg # of iterations =  4.1

     negative rho (up, down):  7.622E-03 0.000E+00

     total cpu time spent up to now is     8840.1 secs

     total energy              =   -3590.79921161 Ry
     estimated scf accuracy    <       0.00061656 Ry

     iteration #  7     ecut=   124.00 Ry     beta= 0.70
     Davidson diagonalization with overlap
     ethr =  2.18E-07,  avg # of iterations =  2.3

     negative rho (up, down):  7.622E-03 0.000E+00

     total cpu time spent up to now is     8880.0 secs

     total energy              =   -3590.79924026 Ry
     estimated scf accuracy    <       0.00005366 Ry

     iteration #  8     ecut=   124.00 Ry     beta= 0.70
     Davidson diagonalization with overlap
     ethr =  2.37E-08,  avg # of iterations =  4.3

     negative rho (up, down):  7.620E-03 0.000E+00

     total cpu time spent up to now is     8930.1 secs

     total energy              =   -3590.79924474 Ry
     estimated scf accuracy    <       0.00024226 Ry

     iteration #  9     ecut=   124.00 Ry     beta= 0.70
     Davidson diagonalization with overlap
     ethr =  2.37E-08,  avg # of iterations =  3.2

     negative rho (up, down):  7.620E-03 0.000E+00

     total cpu time spent up to now is     8973.0 secs

     total energy              =   -3590.79925049 Ry
     estimated scf accuracy    <       0.00007580 Ry

     iteration # 10     ecut=   124.00 Ry     beta= 0.70
     Davidson diagonalization with overlap
     ethr =  2.37E-08,  avg # of iterations =  1.0

     negative rho (up, down):  7.621E-03 0.000E+00

     total cpu time spent up to now is     9008.6 secs

     total energy              =   -3590.79925344 Ry
     estimated scf accuracy    <       0.00000475 Ry

     iteration # 11     ecut=   124.00 Ry     beta= 0.70
     Davidson diagonalization with overlap
     ethr =  2.10E-09,  avg # of iterations =  4.6

     negative rho (up, down):  7.621E-03 0.000E+00

     total cpu time spent up to now is     9058.4 secs

     total energy              =   -3590.79925262 Ry
     estimated scf accuracy    <       0.00004336 Ry

     iteration # 12     ecut=   124.00 Ry     beta= 0.70
     Davidson diagonalization with overlap
     ethr =  2.10E-09,  avg # of iterations =  3.4

     negative rho (up, down):  7.621E-03 0.000E+00

     total cpu time spent up to now is     9102.1 secs

     total energy              =   -3590.79925404 Ry
     estimated scf accuracy    <       0.00000060 Ry

     iteration # 13     ecut=   124.00 Ry     beta= 0.70
     Davidson diagonalization with overlap
     ethr =  2.66E-10,  avg # of iterations =  4.7

     negative rho (up, down):  7.621E-03 0.000E+00

     total cpu time spent up to now is     9153.8 secs

     total energy              =   -3590.79925400 Ry
     estimated scf accuracy    <       0.00000232 Ry

     iteration # 14     ecut=   124.00 Ry     beta= 0.70
     Davidson diagonalization with overlap
     ethr =  2.66E-10,  avg # of iterations =  4.4

     negative rho (up, down):  7.621E-03 0.000E+00

     total cpu time spent up to now is     9206.1 secs

     total energy              =   -3590.79925384 Ry
     estimated scf accuracy    <       0.00000463 Ry

     iteration # 15     ecut=   124.00 Ry     beta= 0.70
     Davidson diagonalization with overlap
     ethr =  2.66E-10,  avg # of iterations =  5.1

     negative rho (up, down):  7.621E-03 0.000E+00

     total cpu time spent up to now is     9260.4 secs

     total energy              =   -3590.79925388 Ry
     estimated scf accuracy    <       0.00000740 Ry

     iteration # 16     ecut=   124.00 Ry     beta= 0.70
     Davidson diagonalization with overlap
     ethr =  2.66E-10,  avg # of iterations =  4.4

     negative rho (up, down):  7.621E-03 0.000E+00

     total cpu time spent up to now is     9307.7 secs

     total energy              =   -3590.79925410 Ry
     estimated scf accuracy    <       0.00000167 Ry

     iteration # 17     ecut=   124.00 Ry     beta= 0.70
     Davidson diagonalization with overlap
     ethr =  2.66E-10,  avg # of iterations =  2.1

     negative rho (up, down):  7.621E-03 0.000E+00

     total cpu time spent up to now is     9347.8 secs

     total energy              =   -3590.79925415 Ry
     estimated scf accuracy    <       0.00000010 Ry

     iteration # 18     ecut=   124.00 Ry     beta= 0.70
     Davidson diagonalization with overlap
     ethr =  4.62E-11,  avg # of iterations =  3.4

     negative rho (up, down):  7.621E-03 0.000E+00

     total cpu time spent up to now is     9392.5 secs

     total energy              =   -3590.79925416 Ry
     estimated scf accuracy    <          7.4E-09 Ry

     iteration # 19     ecut=   124.00 Ry     beta= 0.70
     Davidson diagonalization with overlap
     ethr =  3.29E-12,  avg # of iterations =  5.0

     negative rho (up, down):  7.621E-03 0.000E+00

     total cpu time spent up to now is     9449.3 secs

     total energy              =   -3590.79925416 Ry
     estimated scf accuracy    <       0.00000011 Ry

     iteration # 20     ecut=   124.00 Ry     beta= 0.70
     Davidson diagonalization with overlap
     ethr =  3.29E-12,  avg # of iterations =  4.7

     negative rho (up, down):  7.621E-03 0.000E+00

     total cpu time spent up to now is     9500.3 secs

     total energy              =   -3590.79925417 Ry
     estimated scf accuracy    <       0.00000003 Ry

     iteration # 21     ecut=   124.00 Ry     beta= 0.70
     Davidson diagonalization with overlap
     ethr =  3.29E-12,  avg # of iterations =  2.7

     negative rho (up, down):  7.621E-03 0.000E+00

     total cpu time spent up to now is     9542.7 secs

     total energy              =   -3590.79925417 Ry
     estimated scf accuracy    <          4.2E-09 Ry

     iteration # 22     ecut=   124.00 Ry     beta= 0.70
     Davidson diagonalization with overlap
     ethr =  1.86E-12,  avg # of iterations =  3.2

     negative rho (up, down):  7.621E-03 0.000E+00

     total cpu time spent up to now is     9586.6 secs

     total energy              =   -3590.79925417 Ry
     estimated scf accuracy    <       0.00000001 Ry

     iteration # 23     ecut=   124.00 Ry     beta= 0.70
     Davidson diagonalization with overlap
     ethr =  1.86E-12,  avg # of iterations =  2.2

     negative rho (up, down):  7.621E-03 0.000E+00

     total cpu time spent up to now is     9626.2 secs

     total energy              =   -3590.79925417 Ry
     estimated scf accuracy    <          1.0E-09 Ry

     iteration # 24     ecut=   124.00 Ry     beta= 0.70
     Davidson diagonalization with overlap
     ethr =  4.43E-13,  avg # of iterations =  3.2

     negative rho (up, down):  7.621E-03 0.000E+00

     total cpu time spent up to now is     9670.7 secs

     total energy              =   -3590.79925417 Ry
     estimated scf accuracy    <          2.6E-09 Ry

     iteration # 25     ecut=   124.00 Ry     beta= 0.70
     Davidson diagonalization with overlap
     ethr =  4.43E-13,  avg # of iterations =  2.7

     negative rho (up, down):  7.621E-03 0.000E+00

     total cpu time spent up to now is     9713.6 secs

     total energy              =   -3590.79925417 Ry
     estimated scf accuracy    <          1.3E-09 Ry

     iteration # 26     ecut=   124.00 Ry     beta= 0.70
     Davidson diagonalization with overlap
     ethr =  4.43E-13,  avg # of iterations =  1.2

     negative rho (up, down):  7.621E-03 0.000E+00

     total cpu time spent up to now is     9750.2 secs

     total energy              =   -3590.79925417 Ry
     estimated scf accuracy    <          6.9E-10 Ry

     iteration # 27     ecut=   124.00 Ry     beta= 0.70
     Davidson diagonalization with overlap
     ethr =  3.07E-13,  avg # of iterations =  1.8

     negative rho (up, down):  7.621E-03 0.000E+00

     total cpu time spent up to now is     9789.7 secs

     total energy              =   -3590.79925417 Ry
     estimated scf accuracy    <          8.7E-10 Ry

     iteration # 28     ecut=   124.00 Ry     beta= 0.70
     Davidson diagonalization with overlap
     ethr =  3.07E-13,  avg # of iterations =  1.4

     negative rho (up, down):  7.621E-03 0.000E+00

     total cpu time spent up to now is     9827.3 secs

     End of self-consistent calculation

          k = 0.0000 0.0000 0.0000 ( 32423 PWs)   bands (ev):

   -70.0419 -70.0408 -70.0379 -70.0379 -70.0368 -70.0368 -70.0340 -70.0329
   -40.1013 -40.0925 -40.0875 -40.0666 -40.0327 -40.0147 -39.8772 -39.8504
   -36.1811 -36.1717 -36.1623 -36.1623 -36.1595 -36.1595 -36.1289 -36.1239
   -36.1223 -36.1203 -36.1187 -36.1187 -36.1121 -36.1114 -36.1035 -36.0979
   -36.0979 -36.0932 -36.0919 -36.0919 -36.0898 -36.0898 -36.0726 -36.0711
   -16.5458 -16.5403 -16.5403 -16.5103 -16.5103 -16.4559 -16.4559 -16.4427
   -16.4427 -16.4334 -16.4165 -16.3536 -16.2773 -16.2662 -16.2118 -16.1887
   -16.1622 -16.1622 -16.1520 -16.1520 -16.0478 -16.0478 -16.0325 -16.0325
     7.7529  10.4784  10.7379  12.5833  12.5833  12.7047  12.9802  13.1280
    13.1280  13.1851  13.2567  13.2897  13.3263  13.3338  13.4405  13.8479
    14.3429  14.3429  14.6931  14.7240  14.7979  14.7979  14.8193  14.8193
    14.8443  14.8443  14.9908  15.0068  15.0675  15.0675  15.5022  15.5119
    15.5494  15.5549  15.7253  15.7254  15.7930  15.7930  15.9253  15.9253
    16.0187  16.1126  16.3098  16.3106  16.3497  16.4638  16.6003  16.6003
    16.7719  17.0094  17.0301  17.0963  17.1106  17.1106  17.2480  17.2480
    17.4096  17.5619  17.5619  17.5997  17.7061  17.8173  17.8173  17.8650
    17.9248  17.9579  17.9579  18.0230  18.0588  18.0589  18.0652  18.1632

          k = 0.0000-0.0000 0.0777 ( 32427 PWs)   bands (ev):

   -70.0418 -70.0408 -70.0378 -70.0378 -70.0369 -70.0369 -70.0339 -70.0330
   -40.1007 -40.0930 -40.0861 -40.0680 -40.0315 -40.0159 -39.8754 -39.8522
   -36.1805 -36.1723 -36.1621 -36.1621 -36.1597 -36.1597 -36.1283 -36.1238
   -36.1224 -36.1209 -36.1172 -36.1172 -36.1109 -36.1109 -36.1041 -36.0993
   -36.0993 -36.0944 -36.0918 -36.0918 -36.0900 -36.0900 -36.0725 -36.0712
   -16.5382 -16.5382 -16.5254 -16.5122 -16.5122 -16.4551 -16.4551 -16.4437
   -16.4437 -16.4212 -16.4065 -16.3432 -16.2911 -16.2763 -16.2290 -16.2025
   -16.1615 -16.1615 -16.1526 -16.1526 -16.0468 -16.0468 -16.0335 -16.0335
     7.9011  10.4310  10.6042  12.6338  12.6338  12.7565  12.7998  13.1257
    13.1257  13.2448  13.2896  13.3208  13.3831  13.3977  13.4764  13.8862
    14.3456  14.3456  14.5035  14.5144  14.6233  14.6233  14.8377  14.8377
    14.9302  14.9302  15.0470  15.0643  15.0734  15.2845  15.2846  15.3988
    15.4747  15.7189  15.7190  15.7316  15.7317  15.8996  15.8996  16.0194
    16.1335  16.1471  16.1793  16.2197  16.2510  16.2510  16.4378  16.5213
    16.9093  17.0115  17.0288  17.0787  17.1270  17.1270  17.2373  17.2373
    17.2758  17.5835  17.6130  17.6130  17.6272  17.8179  17.8179  17.9152
    17.9429  17.9429  18.0664  18.0694  18.0720  18.0759  18.0759  18.1169

          k = 0.0000-0.0000 0.1554 ( 32412 PWs)   bands (ev):

   -70.0416 -70.0410 -70.0376 -70.0376 -70.0371 -70.0371 -70.0337 -70.0332
   -40.0991 -40.0947 -40.0823 -40.0719 -40.0282 -40.0192 -39.8706 -39.8572
   -36.1787 -36.1740 -36.1616 -36.1616 -36.1602 -36.1602 -36.1268 -36.1235
   -36.1227 -36.1225 -36.1135 -36.1135 -36.1095 -36.1074 -36.1055 -36.1031
   -36.1031 -36.0979 -36.0914 -36.0914 -36.0904 -36.0904 -36.0722 -36.0715
   -16.5325 -16.5325 -16.5174 -16.5174 -16.4698 -16.4529 -16.4529 -16.4463
   -16.4463 -16.3871 -16.3792 -16.3316 -16.3146 -16.3041 -16.2778 -16.2347
   -16.1596 -16.1596 -16.1545 -16.1545 -16.0440 -16.0440 -16.0364 -16.0364
     8.3273   9.7374  10.9683  12.1813  12.7702  12.7702  13.0761  13.0789
    13.0789  13.3926  13.4016  13.4130  13.5082  13.5465  13.5686  13.8510
    14.0196  14.1665  14.3591  14.3591  14.4808  14.4809  14.7951  14.9083
    14.9083  15.0700  15.0805  15.0805  15.2144  15.2331  15.4977  15.5304
    15.5304  15.6691  15.6691  15.7245  15.7246  15.7524  15.7524  15.8135
    15.8381  15.8492  15.8492  16.1926  16.3678  16.4225  16.5646  16.6289
    16.9353  16.9354  16.9456  17.0157  17.0254  17.1678  17.1690  17.1690
    17.2214  17.2214  17.3997  17.5175  17.5290  17.7277  17.8017  18.0612
    18.0837  18.0837  18.1061  18.1061  18.3946  18.3946  18.4952  18.5393

          k =-0.0000 0.0000-0.2331 ( 32504 PWs)   bands (ev):

   -70.0413 -70.0413 -70.0374 -70.0374 -70.0374 -70.0374 -70.0334 -70.0334
   -40.0969 -40.0969 -40.0771 -40.0771 -40.0237 -40.0237 -39.8639 -39.8639
   -36.1764 -36.1764 -36.1609 -36.1609 -36.1609 -36.1609 -36.1246 -36.1246
   -36.1231 -36.1231 -36.1083 -36.1083 -36.1083 -36.1083 -36.1075 -36.1075
   -36.1026 -36.1026 -36.0909 -36.0909 -36.0909 -36.0909 -36.0719 -36.0719
   -16.5249 -16.5249 -16.5249 -16.5249 -16.4497 -16.4497 -16.4497 -16.4497
   -16.3966 -16.3966 -16.3418 -16.3418 -16.3369 -16.3369 -16.2752 -16.2752
   -16.1570 -16.1570 -16.1570 -16.1570 -16.0402 -16.0402 -16.0402 -16.0402
     8.9742   8.9742  11.5258  11.5258  12.9445  12.9445  12.9445  12.9445
    13.4893  13.4893  13.4922  13.4922  13.5032  13.5032  13.7032  13.7032
    13.8276  13.8276  14.3982  14.3982  14.3982  14.3982  14.7983  14.7983
    15.1788  15.1788  15.1788  15.1788  15.3052  15.3052  15.3052  15.3052
    15.4797  15.4797  15.5003  15.5003  15.7914  15.7914  15.7914  15.7914
    15.8277  15.8278  16.2774  16.2774  16.2826  16.2826  16.2827  16.2827
    17.0207  17.0207  17.0501  17.0501  17.0984  17.0984  17.1973  17.1973
    17.1973  17.1973  17.3830  17.3830  17.4027  17.4027  17.9693  17.9693
    18.1858  18.1858  18.1858  18.1858  18.8375  18.8375  18.8375  18.8375

          k = 0.0000 0.0847 0.0777 ( 32442 PWs)   bands (ev):

   -70.0416 -70.0406 -70.0381 -70.0376 -70.0371 -70.0366 -70.0342 -70.0332
   -40.0991 -40.0907 -40.0858 -40.0684 -40.0328 -40.0174 -39.8761 -39.8528
   -36.1786 -36.1710 -36.1623 -36.1606 -36.1591 -36.1568 -36.1264 -36.1258
   -36.1244 -36.1196 -36.1168 -36.1168 -36.1114 -36.1113 -36.1038 -36.0996
   -36.0990 -36.0947 -36.0942 -36.0930 -36.0910 -36.0892 -36.0744 -36.0730
   -16.5354 -16.5236 -16.5139 -16.5110 -16.4890 -16.4578 -16.4449 -16.4348
   -16.4236 -16.4209 -16.4073 -16.3446 -16.2894 -16.2762 -16.2288 -16.2045
   -16.1865 -16.1768 -16.1611 -16.1520 -16.0685 -16.0548 -16.0473 -16.0342
     7.9543  10.4596  10.6330  12.5641  12.6124  12.7492  12.8596  12.9190
    13.1788  13.3161  13.3395  13.4151  13.4512  13.4783  13.7903  13.9232
    14.4072  14.4137  14.4328  14.5142  14.5537  14.5921  14.7304  14.7938
    14.8569  14.9696  15.0147  15.0972  15.1468  15.1654  15.2352  15.4391
    15.4401  15.6607  15.6714  15.7059  15.7220  15.7439  15.8190  15.8955
    16.1217  16.1590  16.1645  16.1769  16.2031  16.2862  16.5356  16.5414
    16.5911  16.7516  16.9067  17.1020  17.1500  17.2256  17.2406  17.3034
    17.3590  17.3907  17.4463  17.5170  17.6506  17.6759  17.6834  17.9858
    18.0225  18.0625  18.1113  18.1263  18.1530  18.1619  18.2448  18.4676

          k = 0.0000 0.0847 0.1554 ( 32469 PWs)   bands (ev):

   -70.0414 -70.0408 -70.0379 -70.0374 -70.0373 -70.0368 -70.0340 -70.0334
   -40.0973 -40.0925 -40.0822 -40.0721 -40.0296 -40.0207 -39.8712 -39.8578
   -36.1770 -36.1726 -36.1620 -36.1610 -36.1586 -36.1573 -36.1255 -36.1250
   -36.1247 -36.1210 -36.1131 -36.1131 -36.1098 -36.1078 -36.1055 -36.1032
   -36.1028 -36.0982 -36.0938 -36.0932 -36.0906 -36.0895 -36.0741 -36.0733
   -16.5301 -16.5160 -16.5085 -16.4942 -16.4678 -16.4552 -16.4478 -16.4326
   -16.4261 -16.3874 -16.3795 -16.3293 -16.3160 -16.3042 -16.2784 -16.2363
   -16.1844 -16.1788 -16.1592 -16.1539 -16.0656 -16.0577 -16.0445 -16.0370
     8.3799   9.7800  10.9871  12.1441  12.7101  12.8083  12.8814  13.1280
    13.1627  13.4712  13.4754  13.5120  13.5989  13.6242  13.7752  13.8967
    14.0383  14.1958  14.4030  14.4159  14.4789  14.5320  14.5758  14.8277
    14.9003  14.9836  15.0894  15.1404  15.1871  15.3132  15.3597  15.4952
    15.5159  15.6088  15.6175  15.6349  15.6640  15.6992  15.7102  15.7216
    15.7245  15.7652  15.8959  16.1651  16.1964  16.3078  16.3223  16.5962
    16.7485  16.8166  17.0893  17.1204  17.1840  17.2227  17.2386  17.2586
    17.2765  17.3328  17.4565  17.4681  17.6316  17.6423  17.8101  17.8156
    17.8580  18.0183  18.1166  18.1863  18.3211  18.4418  18.4965  18.8222

          k = 0.0000 0.0847-0.2331 ( 32438 PWs)   bands (ev):

   -70.0411 -70.0411 -70.0376 -70.0376 -70.0371 -70.0371 -70.0337 -70.0337
   -40.0949 -40.0949 -40.0771 -40.0771 -40.0251 -40.0251 -39.8645 -39.8645
   -36.1748 -36.1748 -36.1615 -36.1615 -36.1579 -36.1579 -36.1251 -36.1251
   -36.1230 -36.1230 -36.1082 -36.1082 -36.1079 -36.1079 -36.1077 -36.1077
   -36.1030 -36.1030 -36.0935 -36.0935 -36.0901 -36.0901 -36.0737 -36.0737
   -16.5230 -16.5230 -16.5013 -16.5013 -16.4516 -16.4516 -16.4295 -16.4295
   -16.3942 -16.3942 -16.3427 -16.3427 -16.3369 -16.3369 -16.2766 -16.2766
   -16.1816 -16.1816 -16.1565 -16.1565 -16.0616 -16.0616 -16.0407 -16.0407
     9.0243   9.0243  11.5264  11.5264  12.7853  12.7853  13.0453  13.0453
    13.5507  13.5507  13.5849  13.5849  13.6342  13.6342  13.7529  13.7529
    13.8756  13.8756  14.4188  14.4188  14.4435  14.4435  14.7144  14.7144
    15.0487  15.0487  15.1405  15.1405  15.2853  15.2853  15.2913  15.2913
    15.4764  15.4764  15.5895  15.5895  15.7169  15.7169  15.7243  15.7243
    15.7414  15.7414  15.9276  15.9276  16.1639  16.1639  16.2761  16.2761
    17.0345  17.0345  17.1595  17.1595  17.1909  17.1909  17.2448  17.2448
    17.2793  17.2793  17.4158  17.4158  17.4911  17.4911  17.8892  17.8892
    17.9232  17.9232  18.2145  18.2145  18.5750  18.5750  18.7662  18.7662

          k = 0.0000 0.1694 0.1554 ( 32476 PWs)   bands (ev):

   -70.0406 -70.0401 -70.0386 -70.0380 -70.0367 -70.0361 -70.0347 -70.0341
   -40.0931 -40.0871 -40.0823 -40.0733 -40.0325 -40.0237 -39.8724 -39.8590
   -36.1726 -36.1693 -36.1635 -36.1633 -36.1508 -36.1496 -36.1313 -36.1304
   -36.1198 -36.1167 -36.1120 -36.1120 -36.1108 -36.1089 -36.1056 -36.1035
   -36.1018 -36.1004 -36.0998 -36.0992 -36.0881 -36.0871 -36.0786 -36.0778
   -16.5248 -16.5129 -16.4639 -16.4605 -16.4509 -16.4433 -16.4305 -16.3897
   -16.3828 -16.3796 -16.3752 -16.3236 -16.3189 -16.3062 -16.2788 -16.2511
   -16.2443 -16.2396 -16.1583 -16.1528 -16.1183 -16.1097 -16.0455 -16.0382
     8.4934   9.8709  11.0253  12.0566  12.2661  12.9144  13.1924  13.2648
    13.3401  13.6082  13.6467  13.7381  13.7636  13.7867  13.9336  13.9498
    13.9920  14.2848  14.2978  14.4794  14.5581  14.5681  14.6475  14.6988
    14.7744  14.8633  14.9570  15.0643  15.1197  15.2049  15.3915  15.4277
    15.4728  15.4927  15.5056  15.5287  15.5589  15.5695  15.5796  15.6016
    15.6230  15.6328  15.6684  15.7869  16.0433  16.1197  16.2032  16.2638
    16.7740  17.1667  17.1770  17.2292  17.2720  17.2846  17.3205  17.3712
    17.3905  17.4468  17.4676  17.4786  17.5245  17.5597  17.5724  17.8122
    17.9297  18.0014  18.1454  18.2294  18.2684  18.3748  18.4992  18.6000

          k = 0.0000 0.1694-0.2331 ( 32466 PWs)   bands (ev):

   -70.0404 -70.0404 -70.0383 -70.0383 -70.0364 -70.0364 -70.0344 -70.0344
   -40.0901 -40.0901 -40.0778 -40.0778 -40.0281 -40.0281 -39.8657 -39.8657
   -36.1709 -36.1709 -36.1634 -36.1634 -36.1502 -36.1502 -36.1309 -36.1309
   -36.1183 -36.1183 -36.1083 -36.1083 -36.1077 -36.1077 -36.1069 -36.1069
   -36.1040 -36.1040 -36.1000 -36.1000 -36.0876 -36.0876 -36.0782 -36.0782
   -16.5188 -16.5188 -16.4557 -16.4557 -16.4372 -16.4372 -16.3894 -16.3894
   -16.3788 -16.3788 -16.3473 -16.3473 -16.3348 -16.3348 -16.2796 -16.2796
   -16.2476 -16.2476 -16.1556 -16.1556 -16.1140 -16.1140 -16.0418 -16.0418
     9.1323   9.1323  11.5077  11.5077  12.5822  12.5822  13.3097  13.3097
    13.6483  13.6483  13.7610  13.7610  13.8034  13.8034  13.8828  13.8828
    14.0383  14.0383  14.4229  14.4229  14.5438  14.5438  14.6536  14.6536
    14.8061  14.8061  14.8830  14.8830  15.2992  15.2992  15.3491  15.3491
    15.3555  15.3555  15.4057  15.4057  15.5640  15.5640  15.5804  15.5804
    15.6151  15.6151  15.8171  15.8171  15.8753  15.8753  16.2133  16.2133
    17.0647  17.0647  17.3091  17.3091  17.3359  17.3359  17.3602  17.3602
    17.4039  17.4039  17.4880  17.4880  17.5795  17.5795  17.7151  17.7151
    17.7958  17.7958  18.1310  18.1310  18.2336  18.2336  18.6648  18.6648

          k =-0.0000-0.2541-0.2331 ( 32544 PWs)   bands (ev):

   -70.0396 -70.0396 -70.0391 -70.0391 -70.0356 -70.0356 -70.0352 -70.0352
   -40.0868 -40.0868 -40.0790 -40.0790 -40.0297 -40.0297 -39.8663 -39.8663
   -36.1671 -36.1671 -36.1662 -36.1662 -36.1415 -36.1415 -36.1386 -36.1386
   -36.1127 -36.1127 -36.1104 -36.1104 -36.1067 -36.1067 -36.1057 -36.1057
   -36.1056 -36.1056 -36.1052 -36.1052 -36.0842 -36.0842 -36.0826 -36.0826
   -16.5165 -16.5165 -16.4580 -16.4580 -16.3876 -16.3876 -16.3615 -16.3615
   -16.3571 -16.3571 -16.3455 -16.3455 -16.3333 -16.3333 -16.3150 -16.3150
   -16.2812 -16.2812 -16.1551 -16.1551 -16.1498 -16.1498 -16.0424 -16.0424
     9.1911   9.1911  11.4849  11.4849  12.5112  12.5112  13.5383  13.5383
    13.6569  13.6569  13.7939  13.7939  13.8750  13.8750  13.9981  13.9981
    14.2113  14.2113  14.3877  14.3877  14.5705  14.5705  14.6215  14.6215
    14.6869  14.6869  14.7425  14.7425  15.1944  15.1944  15.2063  15.2063
    15.4280  15.4280  15.4343  15.4343  15.4353  15.4353  15.4383  15.4383
    15.5856  15.5857  15.6715  15.6715  16.0339  16.0339  16.0576  16.0576
    17.1311  17.1311  17.3793  17.3793  17.4063  17.4063  17.4438  17.4438
    17.4619  17.4619  17.5005  17.5005  17.5106  17.5106  17.6159  17.6159
    17.7650  17.7650  18.1415  18.1415  18.3138  18.3138  18.3943  18.3943

          k = 0.0847 0.0847 0.0777 ( 32444 PWs)   bands (ev):

   -70.0413 -70.0403 -70.0378 -70.0378 -70.0369 -70.0369 -70.0344 -70.0335
   -40.0973 -40.0884 -40.0855 -40.0685 -40.0343 -40.0190 -39.8767 -39.8534
   -36.1765 -36.1697 -36.1600 -36.1589 -36.1579 -36.1576 -36.1276 -36.1262
   -36.1245 -36.1183 -36.1164 -36.1164 -36.1117 -36.1117 -36.1035 -36.0993
   -36.0993 -36.0951 -36.0939 -36.0928 -36.0922 -36.0920 -36.0763 -36.0749
   -16.5219 -16.5119 -16.5106 -16.4879 -16.4878 -16.4393 -16.4354 -16.4249
   -16.4245 -16.4201 -16.4082 -16.3460 -16.2878 -16.2758 -16.2290 -16.2064
   -16.1874 -16.1848 -16.1764 -16.1761 -16.0692 -16.0687 -16.0554 -16.0554
     8.0021  10.4882  10.6768  12.5464  12.6247  12.7552  12.8117  12.9108
    13.0645  13.3837  13.4367  13.4652  13.5274  13.7394  13.8977  13.9739
    14.3906  14.4296  14.4817  14.5143  14.5364  14.6130  14.6380  14.7500
    14.8679  14.9318  15.0325  15.0796  15.0929  15.1795  15.2221  15.3639
    15.3705  15.5096  15.6156  15.6301  15.6487  15.7916  15.7956  15.9281
    15.9558  16.0570  16.1077  16.1204  16.1507  16.3089  16.3199  16.3207
    16.7139  16.7406  16.9101  16.9267  17.1066  17.1866  17.2398  17.2466
    17.4019  17.4698  17.4816  17.6868  17.7833  17.7894  17.7944  17.8152
    18.0343  18.0484  18.0685  18.0730  18.1626  18.4505  18.4528  18.4711

          k = 0.0847 0.0847 0.1554 ( 32476 PWs)   bands (ev):

   -70.0411 -70.0405 -70.0376 -70.0376 -70.0371 -70.0371 -70.0342 -70.0337
   -40.0954 -40.0903 -40.0819 -40.0721 -40.0311 -40.0223 -39.8718 -39.8584
   -36.1751 -36.1711 -36.1595 -36.1587 -36.1581 -36.1581 -36.1273 -36.1265
   -36.1233 -36.1197 -36.1128 -36.1127 -36.1101 -36.1082 -36.1054 -36.1029
   -36.1029 -36.0986 -36.0935 -36.0925 -36.0924 -36.0922 -36.0760 -36.0752
   -16.5067 -16.5056 -16.4930 -16.4925 -16.4659 -16.4364 -16.4333 -16.4280
   -16.4270 -16.3870 -16.3804 -16.3271 -16.3174 -16.3040 -16.2794 -16.2378
   -16.1850 -16.1830 -16.1787 -16.1779 -16.0663 -16.0659 -16.0583 -16.0582
     8.4277   9.8203  11.0238  12.1609  12.6643  12.7847  12.9268  13.0124
    13.1730  13.5577  13.5751  13.5771  13.6792  13.8254  13.8822  13.9544
    14.0662  14.2167  14.4174  14.4343  14.5206  14.5338  14.5417  14.6934
    14.8929  15.0377  15.0664  15.1272  15.2139  15.2769  15.2914  15.3642
    15.4832  15.5001  15.5184  15.5471  15.5790  15.6035  15.6253  15.7233
    15.7236  15.7560  15.7765  15.9397  16.1536  16.1812  16.1962  16.3090
    16.6660  16.9669  17.1684  17.2008  17.2139  17.2477  17.3386  17.3538
    17.3772  17.4156  17.5155  17.6005  17.6049  17.6611  17.8327  17.8962
    17.9606  17.9726  18.0068  18.0536  18.3759  18.4111  18.6616  18.7945

          k = 0.0847 0.0847-0.2331 ( 32474 PWs)   bands (ev):

   -70.0408 -70.0408 -70.0374 -70.0374 -70.0374 -70.0374 -70.0340 -70.0340
   -40.0929 -40.0929 -40.0770 -40.0770 -40.0267 -40.0267 -39.8651 -39.8651
   -36.1731 -36.1731 -36.1588 -36.1588 -36.1584 -36.1584 -36.1269 -36.1269
   -36.1215 -36.1215 -36.1079 -36.1079 -36.1078 -36.1078 -36.1077 -36.1077
   -36.1034 -36.1034 -36.0929 -36.0929 -36.0923 -36.0923 -36.0756 -36.0756
   -16.4998 -16.4998 -16.4990 -16.4990 -16.4324 -16.4324 -16.4302 -16.4302
   -16.3918 -16.3918 -16.3423 -16.3423 -16.3383 -16.3383 -16.2780 -16.2780
   -16.1818 -16.1818 -16.1805 -16.1805 -16.0623 -16.0623 -16.0621 -16.0621
     9.0704   9.0704  11.5524  11.5524  12.7639  12.7639  13.0033  13.0033
    13.5870  13.5870  13.7186  13.7186  13.7408  13.7408  13.8157  13.8157
    13.9181  13.9181  14.4501  14.4501  14.4588  14.4588  14.6770  14.6770
    14.9856  14.9857  15.1274  15.1274  15.1823  15.1823  15.3091  15.3091
    15.4967  15.4967  15.5276  15.5276  15.6178  15.6178  15.6328  15.6328
    15.6920  15.6920  15.8053  15.8053  15.8612  15.8612  16.2329  16.2329
    17.0182  17.0182  17.2517  17.2517  17.3293  17.3293  17.3313  17.3313
    17.3887  17.3887  17.4250  17.4250  17.5739  17.5739  17.8793  17.8793
    18.0133  18.0133  18.0228  18.0228  18.4353  18.4353  18.8119  18.8119

          k = 0.0847 0.1694 0.1554 ( 32434 PWs)   bands (ev):

   -70.0404 -70.0398 -70.0384 -70.0378 -70.0369 -70.0364 -70.0349 -70.0344
   -40.0911 -40.0849 -40.0818 -40.0729 -40.0344 -40.0257 -39.8730 -39.8596
   -36.1704 -36.1675 -36.1607 -36.1607 -36.1514 -36.1505 -36.1328 -36.1320
   -36.1183 -36.1155 -36.1119 -36.1117 -36.1108 -36.1091 -36.1052 -36.1032
   -36.1020 -36.0995 -36.0995 -36.0991 -36.0904 -36.0897 -36.0807 -36.0799
   -16.5011 -16.4895 -16.4622 -16.4411 -16.4399 -16.4306 -16.4289 -16.3883
   -16.3846 -16.3810 -16.3768 -16.3213 -16.3205 -16.3052 -16.2808 -16.2509
   -16.2439 -16.2410 -16.1831 -16.1773 -16.1189 -16.1102 -16.0672 -16.0595
     8.5294   9.9053  11.1122  12.1536  12.2747  12.8771  13.0514  13.2695
    13.2814  13.7138  13.7299  13.8398  13.8440  13.9730  13.9813  14.0405
    14.0766  14.2798  14.3226  14.4970  14.5362  14.5677  14.6585  14.6785
    14.8105  14.9579  14.9863  14.9979  15.0531  15.1588  15.2991  15.3567
    15.3764  15.3783  15.3848  15.4256  15.4411  15.4469  15.4979  15.5539
    15.5590  15.5769  15.5986  15.6590  15.8686  15.9231  15.9330  16.1468
    16.8386  17.1920  17.2575  17.2981  17.3175  17.3310  17.4136  17.4697
    17.4990  17.5674  17.5983  17.6323  17.6582  17.7325  17.7337  17.8865
    17.9824  18.0003  18.1387  18.1557  18.2820  18.2915  18.5725  18.6099

          k = 0.0847 0.1694-0.2331 ( 32462 PWs)   bands (ev):

   -70.0401 -70.0401 -70.0381 -70.0381 -70.0367 -70.0367 -70.0347 -70.0347
   -40.0880 -40.0880 -40.0774 -40.0774 -40.0301 -40.0301 -39.8663 -39.8663
   -36.1690 -36.1690 -36.1607 -36.1607 -36.1510 -36.1510 -36.1324 -36.1324
   -36.1170 -36.1170 -36.1081 -36.1081 -36.1075 -36.1075 -36.1069 -36.1069
   -36.1043 -36.1043 -36.0993 -36.0993 -36.0901 -36.0901 -36.0803 -36.0803
   -16.4953 -16.4953 -16.4355 -16.4355 -16.4351 -16.4351 -16.3875 -16.3875
   -16.3801 -16.3801 -16.3459 -16.3459 -16.3371 -16.3371 -16.2811 -16.2811
   -16.2473 -16.2473 -16.1802 -16.1802 -16.1146 -16.1146 -16.0633 -16.0633
     9.1687   9.1687  11.5963  11.5963  12.5844  12.5844  13.2174  13.2174
    13.6428  13.6428  13.8818  13.8818  13.9121  13.9121  14.0050  14.0050
    14.0775  14.0775  14.4215  14.4215  14.5599  14.5599  14.6708  14.6708
    14.7535  14.7535  14.9550  14.9550  15.2288  15.2288  15.2380  15.2380
    15.3055  15.3055  15.3356  15.3356  15.4551  15.4551  15.4823  15.4823
    15.5646  15.5646  15.6315  15.6315  15.6547  15.6547  16.0713  16.0713
    17.0809  17.0809  17.4294  17.4294  17.4446  17.4446  17.4668  17.4668
    17.4861  17.4861  17.5926  17.5926  17.7482  17.7482  17.7874  17.7874
    17.8554  17.8554  18.1100  18.1100  18.2740  18.2740  18.7136  18.7136

          k = 0.0847-0.2541-0.2331 ( 32460 PWs)   bands (ev):

   -70.0393 -70.0393 -70.0389 -70.0389 -70.0359 -70.0359 -70.0355 -70.0355
   -40.0846 -40.0846 -40.0784 -40.0784 -40.0319 -40.0319 -39.8669 -39.8669
   -36.1648 -36.1648 -36.1638 -36.1638 -36.1426 -36.1426 -36.1398 -36.1398
   -36.1115 -36.1115 -36.1096 -36.1096 -36.1066 -36.1066 -36.1058 -36.1058
   -36.1055 -36.1055 -36.1051 -36.1051 -36.0866 -36.0866 -36.0849 -36.0849
   -16.4930 -16.4930 -16.4376 -16.4376 -16.3850 -16.3850 -16.3597 -16.3597
   -16.3554 -16.3554 -16.3451 -16.3451 -16.3355 -16.3355 -16.3172 -16.3172
   -16.2827 -16.2827 -16.1797 -16.1797 -16.1503 -16.1503 -16.0639 -16.0639
     9.2215   9.2215  11.6115  11.6115  12.4995  12.4995  13.4824  13.4824
    13.5688  13.5689  13.8959  13.8959  13.9865  13.9865  14.1595  14.1595
    14.2755  14.2755  14.4078  14.4078  14.5251  14.5251  14.6494  14.6494
    14.6882  14.6882  14.7889  14.7889  15.1162  15.1162  15.1321  15.1321
    15.3152  15.3152  15.3348  15.3348  15.3759  15.3759  15.3954  15.3954
    15.4398  15.4398  15.5140  15.5140  15.8238  15.8238  15.8482  15.8482
    17.1366  17.1366  17.4998  17.4998  17.5315  17.5315  17.5488  17.5488
    17.5983  17.5983  17.6308  17.6308  17.6959  17.6959  17.7759  17.7759
    17.8281  17.8281  18.1581  18.1581  18.3419  18.3419  18.4246  18.4246

          k = 0.1694 0.1694 0.1554 ( 32390 PWs)   bands (ev):

   -70.0397 -70.0391 -70.0377 -70.0376 -70.0371 -70.0371 -70.0356 -70.0351
   -40.0866 -40.0811 -40.0798 -40.0726 -40.0386 -40.0302 -39.8742 -39.8608
   -36.1650 -36.1629 -36.1549 -36.1536 -36.1535 -36.1524 -36.1373 -36.1368
   -36.1142 -36.1118 -36.1115 -36.1110 -36.1107 -36.1097 -36.1045 -36.1025
   -36.1024 -36.1003 -36.0980 -36.0969 -36.0964 -36.0952 -36.0859 -36.0853
   -16.4586 -16.4383 -16.4339 -16.4262 -16.4249 -16.3940 -16.3858 -16.3844
   -16.3835 -16.3824 -16.3783 -16.3239 -16.3153 -16.3039 -16.2852 -16.2531
   -16.2475 -16.2442 -16.2438 -16.2424 -16.1204 -16.1198 -16.1115 -16.1113
     8.6044   9.9769  11.3407  12.2112  12.3745  12.7300  12.8688  13.2747
    13.4353  13.9159  13.9388  14.0040  14.0232  14.0377  14.1288  14.2868
    14.2978  14.3284  14.3675  14.3723  14.5285  14.6384  14.6475  14.8295
    14.8422  14.8845  14.9831  15.0274  15.0599  15.0614  15.0954  15.1077
    15.1353  15.1891  15.2035  15.2456  15.2491  15.2641  15.3263  15.3533
    15.3899  15.4278  15.4457  15.5259  15.5452  15.5682  15.5946  15.9438
    16.9953  17.2183  17.3296  17.3869  17.4265  17.5650  17.6393  17.6570
    17.6772  17.6862  17.7800  17.8076  17.9288  17.9510  17.9600  18.0204
    18.0235  18.0625  18.1258  18.2294  18.2615  18.3269  18.5453  18.5996

          k = 0.1694 0.1694-0.2331 ( 32458 PWs)   bands (ev):

   -70.0394 -70.0394 -70.0374 -70.0374 -70.0374 -70.0374 -70.0354 -70.0354
   -40.0832 -40.0832 -40.0768 -40.0768 -40.0344 -40.0344 -39.8675 -39.8675
   -36.1640 -36.1640 -36.1543 -36.1543 -36.1530 -36.1530 -36.1370 -36.1370
   -36.1129 -36.1129 -36.1078 -36.1078 -36.1070 -36.1070 -36.1066 -36.1066
   -36.1050 -36.1050 -36.0974 -36.0974 -36.0958 -36.0958 -36.0856 -36.0856
   -16.4324 -16.4324 -16.4293 -16.4293 -16.3897 -16.3897 -16.3818 -16.3818
   -16.3796 -16.3796 -16.3434 -16.3434 -16.3418 -16.3418 -16.2842 -16.2842
   -16.2484 -16.2484 -16.2449 -16.2449 -16.1159 -16.1159 -16.1155 -16.1155
     9.2446   9.2446  11.8159  11.8159  12.5468  12.5468  13.0971  13.0971
    13.6407  13.6407  14.1483  14.1483  14.1644  14.1644  14.1786  14.1786
    14.2106  14.2106  14.4197  14.4197  14.6303  14.6303  14.6667  14.6667
    14.7160  14.7160  14.9891  14.9891  15.0906  15.0906  15.0970  15.0970
    15.1282  15.1282  15.1971  15.1971  15.2390  15.2390  15.2748  15.2748
    15.3459  15.3459  15.3550  15.3550  15.4668  15.4668  15.7310  15.7310
    17.1611  17.1612  17.5545  17.5545  17.6100  17.6100  17.6509  17.6509
    17.6752  17.6752  17.8360  17.8360  17.8790  17.8790  18.0030  18.0030
    18.0220  18.0220  18.1101  18.1101  18.4153  18.4153  18.7534  18.7534

          k = 0.1694-0.2541-0.2331 ( 32460 PWs)   bands (ev):

   -70.0386 -70.0386 -70.0382 -70.0382 -70.0366 -70.0366 -70.0362 -70.0362
   -40.0797 -40.0797 -40.0773 -40.0773 -40.0368 -40.0368 -39.8681 -39.8681
   -36.1588 -36.1588 -36.1576 -36.1576 -36.1460 -36.1460 -36.1434 -36.1434
   -36.1087 -36.1087 -36.1079 -36.1079 -36.1065 -36.1065 -36.1058 -36.1058
   -36.1053 -36.1053 -36.1030 -36.1030 -36.0926 -36.0926 -36.0909 -36.0909
   -16.4285 -16.4285 -16.3884 -16.3884 -16.3780 -16.3780 -16.3550 -16.3550
   -16.3519 -16.3519 -16.3445 -16.3445 -16.3408 -16.3408 -16.3224 -16.3224
   -16.2858 -16.2858 -16.2464 -16.2464 -16.1514 -16.1514 -16.1163 -16.1163
     9.2843   9.2844  11.9715  11.9715  12.4766  12.4766  13.0660  13.0660
    13.6214  13.6214  14.1690  14.1690  14.2706  14.2706  14.4513  14.4513
    14.4586  14.4586  14.4669  14.4669  14.4944  14.4944  14.6163  14.6163
    14.7860  14.7860  14.8123  14.8123  15.0225  15.0225  15.0558  15.0558
    15.0832  15.0832  15.1122  15.1122  15.1290  15.1290  15.1805  15.1805
    15.3059  15.3059  15.3180  15.3180  15.3889  15.3889  15.4170  15.4170
    17.2027  17.2027  17.6521  17.6521  17.6902  17.6902  17.7397  17.7397
    17.8466  17.8466  17.9212  17.9212  17.9537  17.9537  17.9742  17.9742
    18.0318  18.0318  18.3763  18.3763  18.4748  18.4748  18.5262  18.5262

          k =-0.2541-0.2541-0.2331 ( 32344 PWs)   bands (ev):

   -70.0378 -70.0378 -70.0374 -70.0374 -70.0374 -70.0374 -70.0370 -70.0370
   -40.0768 -40.0768 -40.0768 -40.0768 -40.0398 -40.0398 -39.8687 -39.8687
   -36.1518 -36.1518 -36.1517 -36.1517 -36.1517 -36.1517 -36.1480 -36.1480
   -36.1070 -36.1070 -36.1070 -36.1070 -36.1069 -36.1069 -36.1062 -36.1062
   -36.1025 -36.1025 -36.0979 -36.0979 -36.0979 -36.0979 -36.0977 -36.0977
   -16.3758 -16.3758 -16.3558 -16.3558 -16.3545 -16.3545 -16.3479 -16.3479
   -16.3450 -16.3450 -16.3448 -16.3448 -16.3448 -16.3448 -16.3258 -16.3258
   -16.3258 -16.3258 -16.2874 -16.2874 -16.1520 -16.1520 -16.1520 -16.1520
     9.3169   9.3169  12.4653  12.4653  12.4653  12.4653  12.5372  12.5372
    13.6382  13.6382  14.4512  14.4512  14.4512  14.4512  14.4612  14.4612
    14.5708  14.5708  14.5708  14.5708  14.6247  14.6247  14.6552  14.6552
    14.9127  14.9127  14.9127  14.9127  14.9316  14.9316  14.9496  14.9496
    14.9496  14.9496  14.9760  14.9760  14.9827  14.9827  14.9938  14.9938
    15.1644  15.1644  15.1645  15.1645  15.1713  15.1713  15.1821  15.1821
    17.2362  17.2362  17.8119  17.8119  17.8119  17.8119  17.8351  17.8351
    17.9660  17.9660  17.9759  17.9759  17.9759  17.9759  18.0666  18.0666
    18.1561  18.1561  18.6726  18.6726  18.6726  18.6726  18.7399  18.7399

          k = 0.0847 0.0000 0.0000 ( 32427 PWs)   bands (ev):

   -70.0417 -70.0405 -70.0382 -70.0377 -70.0371 -70.0365 -70.0342 -70.0332
   -40.0997 -40.0901 -40.0872 -40.0670 -40.0340 -40.0162 -39.8778 -39.8510
   -36.1791 -36.1705 -36.1625 -36.1605 -36.1593 -36.1566 -36.1269 -36.1259
   -36.1243 -36.1191 -36.1182 -36.1181 -36.1126 -36.1119 -36.1032 -36.0983
   -36.0976 -36.0943 -36.0935 -36.0929 -36.0911 -36.0890 -36.0745 -36.0729
   -16.5441 -16.5374 -16.5159 -16.5092 -16.4872 -16.4587 -16.4438 -16.4356
   -16.4329 -16.4226 -16.4174 -16.3550 -16.2759 -16.2659 -16.2113 -16.1909
   -16.1873 -16.1761 -16.1618 -16.1513 -16.0696 -16.0537 -16.0483 -16.0332
     7.8060  10.5105  10.7564  12.5685  12.6229  12.6999  12.7656  13.0687
    13.1697  13.2533  13.2970  13.3854  13.3930  13.4211  13.7689  13.8798
    14.4098  14.4155  14.5709  14.6724  14.6727  14.6991  14.7063  14.7765
    14.8164  14.9636  14.9836  15.0153  15.0578  15.0961  15.4239  15.5219
    15.5324  15.5392  15.6138  15.7053  15.7589  15.8079  15.8551  15.9394
    15.9634  16.0868  16.2605  16.2816  16.4474  16.5417  16.5935  16.6128
    16.6141  16.7617  16.7970  16.9919  17.0947  17.1467  17.1945  17.2495
    17.2561  17.4714  17.5188  17.5595  17.6288  17.7157  17.7752  17.9423
    18.0024  18.0646  18.0734  18.0953  18.1827  18.2017  18.2136  18.4193

          k = 0.1694 0.0000 0.0000 ( 32412 PWs)   bands (ev):

   -70.0409 -70.0398 -70.0389 -70.0378 -70.0369 -70.0358 -70.0350 -70.0339
   -40.0961 -40.0867 -40.0841 -40.0688 -40.0369 -40.0193 -39.8791 -39.8522
   -36.1742 -36.1677 -36.1635 -36.1632 -36.1514 -36.1489 -36.1318 -36.1300
   -36.1209 -36.1170 -36.1168 -36.1151 -36.1137 -36.1132 -36.1021 -36.1009
   -36.1004 -36.0993 -36.0968 -36.0943 -36.0886 -36.0866 -36.0791 -36.0773
   -16.5405 -16.5309 -16.5070 -16.4651 -16.4495 -16.4459 -16.4324 -16.4242
   -16.4187 -16.3856 -16.3731 -16.3578 -16.2723 -16.2661 -16.2548 -16.2409
   -16.2091 -16.1965 -16.1610 -16.1501 -16.1228 -16.1054 -16.0491 -16.0345
     7.9199  10.5936  10.7936  11.9589  12.7191  12.9270  13.0329  13.2142
    13.2590  13.3586  13.4305  13.5056  13.5860  13.6785  13.9020  13.9127
    14.1496  14.1917  14.4464  14.5992  14.6182  14.6302  14.6933  14.7801
    14.8571  14.8837  15.1244  15.1737  15.1810  15.2060  15.3562  15.4351
    15.4949  15.5168  15.5444  15.5808  15.6547  15.6707  15.7878  15.8558
    15.8644  15.9117  16.0303  16.1299  16.1545  16.3602  16.4048  16.5217
    16.6462  16.6973  16.7335  16.7763  16.8265  16.9664  17.1339  17.1963
    17.2632  17.4399  17.5022  17.6391  17.6396  17.8804  17.9051  18.0171
    18.1653  18.1946  18.3069  18.3347  18.4040  18.4317  18.5351  18.6456

          k =-0.2541-0.0000-0.0000 ( 32504 PWs)   bands (ev):

   -70.0401 -70.0397 -70.0390 -70.0386 -70.0362 -70.0357 -70.0351 -70.0346
   -40.0939 -40.0868 -40.0796 -40.0712 -40.0384 -40.0209 -39.8798 -39.8528
   -36.1689 -36.1678 -36.1653 -36.1646 -36.1425 -36.1404 -36.1396 -36.1375
   -36.1157 -36.1151 -36.1150 -36.1150 -36.1130 -36.1099 -36.1098 -36.1066
   -36.1010 -36.1005 -36.0958 -36.0953 -36.0852 -36.0835 -36.0833 -36.0816
   -16.5386 -16.5272 -16.5059 -16.4689 -16.4471 -16.4325 -16.4190 -16.3741
   -16.3605 -16.3594 -16.3530 -16.3430 -16.3209 -16.3091 -16.2687 -16.2681
   -16.2056 -16.2018 -16.1606 -16.1594 -16.1495 -16.1405 -16.0496 -16.0352
     7.9814  10.6541  10.8123  11.6900  12.7797  13.0977  13.1407  13.3688
    13.3833  13.4292  13.5137  13.7068  13.7069  13.7598  13.8175  13.8358
    13.8746  14.0650  14.0774  14.6030  14.7601  14.7964  14.8687  14.8755
    14.8844  14.9677  14.9856  15.0635  15.1207  15.2759  15.4154  15.4469
    15.4516  15.5009  15.5265  15.5724  15.6098  15.7181  15.8171  15.8544
    15.8996  15.9013  15.9288  15.9405  15.9467  15.9869  16.0084  16.1202
    16.6218  16.6828  16.6996  16.7283  16.7356  17.2501  17.2521  17.4207
    17.4439  17.4531  17.4543  17.4883  17.6334  17.9019  17.9278  18.2173
    18.2197  18.2213  18.2239  18.4686  18.6875  18.7359  18.7766  18.7817

          k = 0.0847-0.0847 0.0000 ( 32442 PWs)   bands (ev):

   -70.0414 -70.0402 -70.0379 -70.0379 -70.0368 -70.0368 -70.0345 -70.0334
   -40.0980 -40.0877 -40.0868 -40.0672 -40.0355 -40.0179 -39.8784 -39.8516
   -36.1771 -36.1691 -36.1602 -36.1590 -36.1578 -36.1575 -36.1277 -36.1261
   -36.1249 -36.1178 -36.1178 -36.1178 -36.1129 -36.1123 -36.1028 -36.0980
   -36.0980 -36.0940 -36.0938 -36.0929 -36.0922 -36.0919 -36.0764 -36.0748
   -16.5425 -16.5138 -16.5124 -16.4861 -16.4861 -16.4404 -16.4362 -16.4320
   -16.4237 -16.4235 -16.4184 -16.3565 -16.2745 -16.2655 -16.2111 -16.1930
   -16.1883 -16.1855 -16.1755 -16.1754 -16.0703 -16.0697 -16.0543 -16.0543
     7.8537  10.5567  10.7766  12.4956  12.7368  12.7381  12.7513  12.8296
    13.1624  13.3184  13.3953  13.4267  13.4755  13.6842  13.8704  13.9237
    14.4304  14.5323  14.5428  14.5916  14.5955  14.6258  14.6609  14.7974
    14.8185  14.9884  14.9942  15.0221  15.0264  15.0277  15.3953  15.4401
    15.4447  15.4638  15.6277  15.6306  15.6409  15.8394  15.8555  15.9912
    16.0273  16.0517  16.0948  16.1687  16.2928  16.3702  16.6513  16.6556
    16.7229  16.7559  16.8126  16.8654  16.8942  16.8966  16.9577  17.1717
    17.3682  17.5604  17.5632  17.7249  17.7279  17.7673  17.8113  17.9015
    17.9713  18.0643  18.1048  18.2308  18.2859  18.2865  18.2987  18.5100

          k =-0.0847-0.0847-0.0000 ( 32442 PWs)   bands (ev):

   -70.0414 -70.0402 -70.0379 -70.0379 -70.0368 -70.0368 -70.0345 -70.0334
   -40.0980 -40.0877 -40.0868 -40.0672 -40.0355 -40.0179 -39.8784 -39.8516
   -36.1771 -36.1691 -36.1602 -36.1590 -36.1578 -36.1575 -36.1277 -36.1261
   -36.1249 -36.1178 -36.1178 -36.1178 -36.1129 -36.1123 -36.1028 -36.0980
   -36.0980 -36.0940 -36.0938 -36.0929 -36.0922 -36.0919 -36.0764 -36.0748
   -16.5425 -16.5138 -16.5124 -16.4861 -16.4861 -16.4404 -16.4362 -16.4320
   -16.4237 -16.4235 -16.4184 -16.3565 -16.2745 -16.2655 -16.2111 -16.1930
   -16.1883 -16.1855 -16.1755 -16.1754 -16.0703 -16.0697 -16.0543 -16.0543
     7.8537  10.5567  10.7766  12.4955  12.7368  12.7381  12.7513  12.8296
    13.1624  13.3184  13.3953  13.4267  13.4755  13.6842  13.8704  13.9237
    14.4304  14.5323  14.5428  14.5916  14.5955  14.6258  14.6609  14.7974
    14.8185  14.9885  14.9942  15.0221  15.0264  15.0277  15.3953  15.4401
    15.4447  15.4638  15.6276  15.6307  15.6409  15.8394  15.8555  15.9912
    16.0273  16.0517  16.0948  16.1688  16.2928  16.3702  16.6513  16.6556
    16.7229  16.7559  16.8126  16.8654  16.8942  16.8966  16.9577  17.1717
    17.3682  17.5605  17.5632  17.7249  17.7279  17.7673  17.8113  17.9015
    17.9713  18.0643  18.1048  18.2308  18.2859  18.2865  18.2986  18.5100

          k = 0.1694-0.0847 0.0000 ( 32469 PWs)   bands (ev):

   -70.0407 -70.0395 -70.0386 -70.0375 -70.0372 -70.0361 -70.0352 -70.0341
   -40.0943 -40.0863 -40.0818 -40.0685 -40.0387 -40.0214 -39.8797 -39.8528
   -36.1719 -36.1660 -36.1608 -36.1607 -36.1518 -36.1501 -36.1332 -36.1316
   -36.1192 -36.1168 -36.1166 -36.1140 -36.1140 -36.1134 -36.1018 -36.0999
   -36.0996 -36.0990 -36.0971 -36.0947 -36.0908 -36.0894 -36.0811 -36.0795
   -16.5391 -16.5070 -16.4838 -16.4471 -16.4446 -16.4308 -16.4258 -16.4230
   -16.4200 -16.3877 -16.3742 -16.3596 -16.2710 -16.2653 -16.2545 -16.2406
   -16.2096 -16.1983 -16.1861 -16.1743 -16.1233 -16.1059 -16.0710 -16.0556
     7.9547  10.6813  10.8175  11.9655  12.7874  12.8299  12.9498  13.0618
    13.3671  13.4741  13.4993  13.6651  13.7113  13.7293  13.9635  13.9645
    14.2108  14.2137  14.4507  14.5794  14.6393  14.7303  14.7515  14.7687
    14.7802  14.9261  15.0392  15.1128  15.1462  15.1512  15.2973  15.3129
    15.3500  15.4183  15.5403  15.5591  15.5717  15.6964  15.7444  15.7454
    15.8090  15.8550  15.9459  15.9692  16.0644  16.2781  16.3343  16.3515
    16.5304  16.6828  16.7110  16.7374  16.8592  17.1037  17.2235  17.2966
    17.3951  17.6006  17.7059  17.7221  17.7517  17.9199  17.9720  17.9764
    18.0519  18.0799  18.1173  18.3285  18.4057  18.4121  18.5346  18.6223

          k =-0.1694-0.0847-0.0000 ( 32469 PWs)   bands (ev):

   -70.0407 -70.0395 -70.0386 -70.0375 -70.0372 -70.0361 -70.0352 -70.0341
   -40.0943 -40.0863 -40.0818 -40.0685 -40.0387 -40.0214 -39.8797 -39.8528
   -36.1719 -36.1660 -36.1608 -36.1607 -36.1518 -36.1501 -36.1332 -36.1316
   -36.1192 -36.1168 -36.1166 -36.1140 -36.1140 -36.1134 -36.1018 -36.0999
   -36.0996 -36.0990 -36.0971 -36.0947 -36.0908 -36.0894 -36.0811 -36.0795
   -16.5391 -16.5070 -16.4838 -16.4471 -16.4446 -16.4308 -16.4258 -16.4230
   -16.4200 -16.3877 -16.3742 -16.3596 -16.2710 -16.2653 -16.2545 -16.2406
   -16.2096 -16.1983 -16.1861 -16.1743 -16.1233 -16.1059 -16.0710 -16.0556
     7.9547  10.6813  10.8175  11.9654  12.7873  12.8299  12.9498  13.0618
    13.3671  13.4741  13.4993  13.6651  13.7113  13.7293  13.9635  13.9645
    14.2108  14.2137  14.4507  14.5795  14.6393  14.7303  14.7515  14.7687
    14.7802  14.9261  15.0392  15.1128  15.1462  15.1512  15.2973  15.3129
    15.3500  15.4183  15.5403  15.5591  15.5717  15.6964  15.7444  15.7454
    15.8090  15.8550  15.9459  15.9692  16.0644  16.2781  16.3343  16.3515
    16.5304  16.6828  16.7110  16.7374  16.8592  17.1037  17.2235  17.2966
    17.3951  17.6006  17.7059  17.7221  17.7517  17.9198  17.9720  17.9764
    18.0519  18.0798  18.1173  18.3285  18.4057  18.4121  18.5346  18.6223

          k = 0.0000 0.1694 0.0777 ( 32469 PWs)   bands (ev):

   -70.0409 -70.0399 -70.0388 -70.0378 -70.0369 -70.0359 -70.0349 -70.0339
   -40.0953 -40.0856 -40.0849 -40.0700 -40.0357 -40.0205 -39.8773 -39.8540
   -36.1737 -36.1681 -36.1635 -36.1632 -36.1512 -36.1491 -36.1316 -36.1301
   -36.1207 -36.1157 -36.1155 -36.1154 -36.1126 -36.1124 -36.1033 -36.1008
   -36.1005 -36.1000 -36.0981 -36.0956 -36.0885 -36.0867 -36.0790 -36.0774
   -16.5293 -16.5199 -16.5086 -16.4639 -16.4479 -16.4473 -16.4265 -16.4205
   -16.4080 -16.3849 -16.3739 -16.3474 -16.2853 -16.2768 -16.2537 -16.2418
   -16.2277 -16.2093 -16.1603 -16.1508 -16.1216 -16.1065 -16.0482 -16.0355
     8.0684  10.5185  10.7050  12.0404  12.5199  13.0163  13.0776  13.1777
    13.2577  13.4379  13.4978  13.5719  13.6334  13.6896  13.9412  13.9540
    14.1512  14.1557  14.4113  14.5877  14.6083  14.6235  14.7394  14.7396
    14.7794  14.9138  15.0407  15.1405  15.1416  15.1708  15.3395  15.4529
    15.4749  15.4865  15.5085  15.6118  15.6292  15.6405  15.7052  15.7642
    15.8295  15.9307  15.9623  15.9921  16.0635  16.1106  16.1544  16.4580
    16.6509  16.9036  16.9303  17.0320  17.0714  17.0866  17.2118  17.2131
    17.2788  17.4304  17.5240  17.5538  17.6302  17.6923  17.8368  17.9259
    18.0170  18.2205  18.2715  18.2779  18.3649  18.3842  18.4412  18.6188

          k =-0.2541-0.0847-0.0000 ( 32438 PWs)   bands (ev):

   -70.0399 -70.0394 -70.0387 -70.0383 -70.0364 -70.0360 -70.0353 -70.0349
   -40.0919 -40.0863 -40.0773 -40.0706 -40.0404 -40.0232 -39.8803 -39.8534
   -36.1664 -36.1652 -36.1632 -36.1624 -36.1434 -36.1417 -36.1405 -36.1390
   -36.1156 -36.1152 -36.1150 -36.1149 -36.1116 -36.1090 -36.1086 -36.1057
   -36.1006 -36.1001 -36.0961 -36.0957 -36.0873 -36.0859 -36.0857 -36.0841
   -16.5373 -16.5034 -16.4826 -16.4482 -16.4307 -16.4270 -16.4202 -16.3715
   -16.3613 -16.3598 -16.3512 -16.3426 -16.3235 -16.3110 -16.2674 -16.2670
   -16.2069 -16.2029 -16.1859 -16.1738 -16.1597 -16.1409 -16.0715 -16.0563
     8.0086  10.7796  10.8381  11.6820  12.8358  12.8890  13.0354  13.4256
    13.4865  13.5023  13.6780  13.7424  13.7617  13.7903  13.9052  13.9285
    13.9890  14.1000  14.1090  14.6420  14.7951  14.8339  14.8350  14.8371
    14.8683  14.9896  15.0617  15.1338  15.1342  15.1930  15.2087  15.2900
    15.2932  15.4352  15.4428  15.4730  15.4803  15.5949  15.7411  15.7571
    15.7584  15.8046  15.8103  15.8431  15.8809  15.9505  16.0301  16.0435
    16.7077  16.7121  16.7269  16.7580  16.7626  17.3483  17.4025  17.5131
    17.5470  17.5599  17.5719  17.6006  17.7175  17.9087  17.9793  18.1549
    18.1590  18.1683  18.1974  18.1979  18.5755  18.6183  18.6669  18.6694

          k =-0.0000-0.2541 0.0777 ( 32438 PWs)   bands (ev):

   -70.0400 -70.0396 -70.0391 -70.0386 -70.0361 -70.0357 -70.0351 -70.0347
   -40.0930 -40.0857 -40.0806 -40.0722 -40.0373 -40.0221 -39.8780 -39.8546
   -36.1687 -36.1676 -36.1655 -36.1648 -36.1424 -36.1405 -36.1395 -36.1377
   -36.1148 -36.1143 -36.1143 -36.1138 -36.1120 -36.1102 -36.1093 -36.1071
   -36.1017 -36.1012 -36.0971 -36.0966 -36.0850 -36.0834 -36.0834 -36.0818
   -16.5257 -16.5179 -16.5073 -16.4674 -16.4485 -16.4218 -16.4081 -16.3728
   -16.3594 -16.3543 -16.3491 -16.3439 -16.3202 -16.3099 -16.2809 -16.2791
   -16.2263 -16.2125 -16.1599 -16.1581 -16.1502 -16.1417 -16.0486 -16.0362
     8.1301  10.5488  10.7549  11.7916  12.5101  13.1721  13.2186  13.3061
    13.4650  13.5328  13.5945  13.7255  13.7797  13.7857  13.8144  13.8506
    13.8756  14.0703  14.1478  14.6438  14.7875  14.8070  14.8131  14.8242
    14.8481  14.8619  14.8782  14.9801  15.2095  15.3011  15.3382  15.3738
    15.4849  15.5454  15.5589  15.5723  15.5879  15.5945  15.6120  15.6519
    15.6748  15.7646  15.7750  15.8072  15.8700  16.0558  16.1176  16.1271
    16.7043  16.8984  16.9202  16.9256  16.9391  17.2662  17.2665  17.4466
    17.4481  17.4536  17.4586  17.5106  17.6642  17.7707  17.9802  18.0763
    18.1052  18.1704  18.1875  18.2112  18.2291  18.3568  18.6683  18.7368

          k = 0.1694-0.1694 0.0000 ( 32476 PWs)   bands (ev):

   -70.0400 -70.0388 -70.0379 -70.0379 -70.0368 -70.0368 -70.0359 -70.0348
   -40.0900 -40.0854 -40.0763 -40.0683 -40.0428 -40.0260 -39.8808 -39.8541
   -36.1661 -36.1619 -36.1556 -36.1540 -36.1530 -36.1519 -36.1375 -36.1365
   -36.1161 -36.1160 -36.1145 -36.1142 -36.1141 -36.1107 -36.1008 -36.0985
   -36.0981 -36.0981 -36.0972 -36.0963 -36.0956 -36.0951 -36.0862 -36.0850
   -16.5362 -16.4442 -16.4385 -16.4276 -16.4223 -16.4204 -16.4202 -16.3995
   -16.3869 -16.3768 -16.3762 -16.3634 -16.2677 -16.2641 -16.2575 -16.2502
   -16.2400 -16.2398 -16.2101 -16.2024 -16.1249 -16.1239 -16.1070 -16.1070
     8.0270  10.8662  10.9205  11.8803  12.3714  12.9339  13.1285  13.1470
    13.6202  13.6584  13.7711  13.7980  13.8234  13.8811  13.9838  14.0045
    14.2563  14.4204  14.4505  14.4867  14.6053  14.6732  14.7557  14.8126
    14.9602  14.9699  15.0033  15.0340  15.0586  15.0930  15.1094  15.1287
    15.1696  15.3187  15.3664  15.3707  15.3967  15.5108  15.6061  15.6482
    15.7133  15.7717  15.7902  15.8098  15.9122  15.9591  15.9646  16.0266
    16.7220  16.7338  16.7404  16.7848  16.8549  17.4615  17.4740  17.4843
    17.5880  17.7510  17.8236  17.8539  17.8669  17.9326  17.9420  18.0170
    18.0479  18.0512  18.2142  18.2921  18.2948  18.3146  18.3602  18.4755

          k =-0.1694-0.1694-0.0000 ( 32476 PWs)   bands (ev):

   -70.0400 -70.0388 -70.0379 -70.0379 -70.0368 -70.0368 -70.0359 -70.0348
   -40.0900 -40.0854 -40.0763 -40.0683 -40.0428 -40.0260 -39.8808 -39.8541
   -36.1661 -36.1619 -36.1556 -36.1541 -36.1530 -36.1519 -36.1375 -36.1365
   -36.1161 -36.1160 -36.1145 -36.1142 -36.1141 -36.1107 -36.1008 -36.0985
   -36.0981 -36.0981 -36.0972 -36.0963 -36.0956 -36.0951 -36.0862 -36.0850
   -16.5362 -16.4442 -16.4385 -16.4276 -16.4223 -16.4204 -16.4202 -16.3995
   -16.3869 -16.3768 -16.3762 -16.3634 -16.2677 -16.2641 -16.2575 -16.2502
   -16.2400 -16.2398 -16.2101 -16.2024 -16.1249 -16.1239 -16.1070 -16.1070
     8.0270  10.8662  10.9205  11.8803  12.3714  12.9339  13.1285  13.1470
    13.6202  13.6584  13.7711  13.7980  13.8234  13.8811  13.9838  14.0046
    14.2563  14.4204  14.4505  14.4867  14.6053  14.6732  14.7557  14.8126
    14.9602  14.9699  15.0033  15.0340  15.0586  15.0930  15.1094  15.1287
    15.1695  15.3187  15.3664  15.3708  15.3967  15.5108  15.6061  15.6482
    15.7133  15.7717  15.7902  15.8098  15.9123  15.9591  15.9646  16.0265
    16.7220  16.7338  16.7404  16.7848  16.8549  17.4616  17.4740  17.4843
    17.5880  17.7510  17.8236  17.8539  17.8669  17.9327  17.9420  18.0170
    18.0480  18.0512  18.2142  18.2920  18.2948  18.3146  18.3602  18.4755

          k =-0.2541-0.1694-0.0000 ( 32466 PWs)   bands (ev):

   -70.0392 -70.0387 -70.0380 -70.0376 -70.0371 -70.0367 -70.0360 -70.0356
   -40.0874 -40.0852 -40.0720 -40.0694 -40.0451 -40.0286 -39.8814 -39.8547
   -36.1600 -36.1584 -36.1578 -36.1571 -36.1461 -36.1455 -36.1433 -36.1432
   -36.1155 -36.1152 -36.1151 -36.1149 -36.1075 -36.1064 -36.1048 -36.1029
   -36.0997 -36.0992 -36.0971 -36.0966 -36.0925 -36.0925 -36.0912 -36.0904
   -16.5348 -16.4382 -16.4265 -16.4229 -16.4188 -16.3978 -16.3778 -16.3654
   -16.3643 -16.3584 -16.3469 -16.3418 -16.3298 -16.3153 -16.2648 -16.2646
   -16.2534 -16.2395 -16.2095 -16.2053 -16.1610 -16.1417 -16.1250 -16.1075
     8.0645  10.8910  11.1375  11.6615  12.2817  12.9321  13.1885  13.4535
    13.7899  13.7904  13.8096  13.8262  13.8491  13.8498  14.1666  14.1700
    14.1722  14.1835  14.2641  14.6897  14.7895  14.8291  14.8519  14.8661
    14.8679  14.8775  14.8813  14.8953  14.9237  15.0394  15.0665  15.1192
    15.2118  15.2375  15.2471  15.2920  15.4160  15.4245  15.5719  15.5730
    15.6058  15.6250  15.6756  15.7098  15.7345  15.7555  15.9788  15.9802
    16.7332  16.7411  16.7777  16.8007  16.9224  17.5702  17.6069  17.7344
    17.7504  17.7925  17.8656  17.8776  17.8933  17.8992  17.9105  18.0345
    18.0965  18.1125  18.1415  18.1502  18.2946  18.3391  18.4131  18.4441

          k =-0.0000-0.2541 0.1554 ( 32466 PWs)   bands (ev):

   -70.0398 -70.0394 -70.0393 -70.0389 -70.0359 -70.0355 -70.0353 -70.0349
   -40.0904 -40.0832 -40.0829 -40.0751 -40.0341 -40.0253 -39.8731 -39.8596
   -36.1680 -36.1670 -36.1662 -36.1654 -36.1420 -36.1409 -36.1391 -36.1381
   -36.1140 -36.1126 -36.1113 -36.1107 -36.1102 -36.1097 -36.1084 -36.1078
   -36.1038 -36.1031 -36.1008 -36.1003 -36.0847 -36.0837 -36.0831 -36.0821
   -16.5218 -16.5112 -16.4634 -16.4616 -16.4525 -16.3924 -16.3781 -16.3697
   -16.3575 -16.3566 -16.3469 -16.3204 -16.3196 -16.3163 -16.3121 -16.3091
   -16.2785 -16.2417 -16.1578 -16.1545 -16.1523 -16.1451 -16.0460 -16.0388
     8.5551   9.9196  11.0446  12.0078  12.0816  12.9804  13.3629  13.4259
    13.5410  13.7094  13.7468  13.7915  13.8134  13.8373  13.8661  13.9917
    14.0713  14.0804  14.2342  14.6210  14.6910  14.7189  14.7257  14.7307
    14.7460  14.7550  14.7761  14.7976  15.2115  15.2250  15.2402  15.2867
    15.3480  15.3633  15.4305  15.4511  15.4849  15.4964  15.5630  15.5771
    15.5805  15.6267  15.7203  15.8248  15.8613  15.8804  16.1527  16.1583
    16.9031  17.1871  17.2291  17.2337  17.2520  17.3191  17.3231  17.3376
    17.4371  17.4558  17.5136  17.5594  17.6955  17.6957  17.7430  17.7577
    17.8093  17.8860  18.1397  18.1820  18.1970  18.2016  18.5501  18.5928

          k =-0.2541 0.2541-0.0000 ( 32544 PWs)   bands (ev):

   -70.0384 -70.0379 -70.0379 -70.0375 -70.0372 -70.0368 -70.0368 -70.0364
   -40.0847 -40.0847 -40.0688 -40.0688 -40.0478 -40.0318 -39.8820 -39.8553
   -36.1538 -36.1530 -36.1529 -36.1505 -36.1505 -36.1499 -36.1497 -36.1461
   -36.1154 -36.1152 -36.1152 -36.1148 -36.1038 -36.1013 -36.1000 -36.1000
   -36.0989 -36.0986 -36.0981 -36.0981 -36.0977 -36.0965 -36.0965 -36.0965
   -16.5334 -16.4242 -16.4242 -16.3695 -16.3677 -16.3668 -16.3520 -16.3489
   -16.3447 -16.3438 -16.3417 -16.3411 -16.3348 -16.3348 -16.3180 -16.3180
   -16.2634 -16.2634 -16.2110 -16.2066 -16.1617 -16.1617 -16.1421 -16.1421
     8.0934  10.9182  11.6486  11.6486  11.6943  12.8877  13.4857  13.4857
    13.7004  13.8658  13.8868  13.8869  14.0786  14.1158  14.1213  14.1214
    14.5121  14.5121  14.5548  14.5624  14.5828  14.6126  14.6126  14.6659
    14.7346  14.8734  14.8751  14.8752  14.9585  14.9935  14.9935  15.0131
    15.0642  15.0967  15.1206  15.1206  15.5459  15.5459  15.5590  15.5590
    15.5670  15.5682  15.6419  15.6789  15.7111  15.7306  15.7593  15.7593
    16.7474  16.7744  16.7744  16.7880  17.0199  17.7230  17.7230  17.7272
    17.8468  17.9484  17.9484  18.0105  18.0273  18.0721  18.0764  18.0764
    18.1327  18.1327  18.1559  18.1690  18.1915  18.2130  18.2131  18.2260

          k = 0.0847-0.0847 0.0777 ( 32444 PWs)   bands (ev):

   -70.0413 -70.0403 -70.0378 -70.0378 -70.0369 -70.0369 -70.0344 -70.0335
   -40.0973 -40.0884 -40.0855 -40.0685 -40.0343 -40.0190 -39.8767 -39.8534
   -36.1765 -36.1697 -36.1600 -36.1589 -36.1579 -36.1576 -36.1276 -36.1262
   -36.1245 -36.1183 -36.1164 -36.1164 -36.1117 -36.1117 -36.1035 -36.0993
   -36.0993 -36.0951 -36.0939 -36.0928 -36.0922 -36.0920 -36.0763 -36.0749
   -16.5219 -16.5119 -16.5106 -16.4879 -16.4878 -16.4393 -16.4354 -16.4249
   -16.4245 -16.4201 -16.4082 -16.3460 -16.2878 -16.2758 -16.2290 -16.2064
   -16.1874 -16.1848 -16.1764 -16.1761 -16.0692 -16.0687 -16.0554 -16.0554
     8.0021  10.4882  10.6768  12.5464  12.6247  12.7553  12.8117  12.9108
    13.0645  13.3836  13.4367  13.4652  13.5274  13.7394  13.8977  13.9739
    14.3906  14.4296  14.4817  14.5143  14.5365  14.6130  14.6380  14.7500
    14.8679  14.9318  15.0325  15.0796  15.0929  15.1796  15.2221  15.3639
    15.3705  15.5096  15.6156  15.6301  15.6487  15.7917  15.7956  15.9281
    15.9558  16.0570  16.1077  16.1204  16.1507  16.3089  16.3199  16.3208
    16.7139  16.7406  16.9101  16.9267  17.1066  17.1866  17.2398  17.2466
    17.4019  17.4698  17.4816  17.6868  17.7833  17.7894  17.7944  17.8152
    18.0343  18.0484  18.0686  18.0730  18.1626  18.4505  18.4528  18.4711

          k = 0.0847-0.0847 0.1554 ( 32476 PWs)   bands (ev):

   -70.0411 -70.0405 -70.0376 -70.0376 -70.0371 -70.0371 -70.0342 -70.0337
   -40.0954 -40.0903 -40.0819 -40.0721 -40.0311 -40.0223 -39.8718 -39.8584
   -36.1751 -36.1711 -36.1595 -36.1587 -36.1581 -36.1581 -36.1273 -36.1265
   -36.1233 -36.1197 -36.1128 -36.1127 -36.1101 -36.1082 -36.1054 -36.1029
   -36.1029 -36.0986 -36.0935 -36.0925 -36.0924 -36.0922 -36.0760 -36.0752
   -16.5067 -16.5056 -16.4930 -16.4925 -16.4659 -16.4364 -16.4333 -16.4280
   -16.4270 -16.3870 -16.3804 -16.3271 -16.3174 -16.3040 -16.2794 -16.2378
   -16.1850 -16.1830 -16.1787 -16.1779 -16.0663 -16.0659 -16.0583 -16.0582
     8.4277   9.8203  11.0238  12.1609  12.6644  12.7847  12.9268  13.0124
    13.1730  13.5577  13.5751  13.5771  13.6792  13.8254  13.8822  13.9544
    14.0662  14.2167  14.4174  14.4343  14.5206  14.5338  14.5417  14.6934
    14.8929  15.0378  15.0664  15.1272  15.2139  15.2769  15.2914  15.3642
    15.4832  15.5001  15.5184  15.5471  15.5790  15.6035  15.6253  15.7233
    15.7236  15.7560  15.7765  15.9397  16.1536  16.1812  16.1962  16.3089
    16.6660  16.9669  17.1684  17.2008  17.2139  17.2477  17.3386  17.3538
    17.3772  17.4156  17.5155  17.6006  17.6049  17.6611  17.8327  17.8962
    17.9607  17.9726  18.0068  18.0536  18.3759  18.4111  18.6616  18.7946

          k = 0.1694-0.0847 0.0777 ( 32476 PWs)   bands (ev):

   -70.0406 -70.0396 -70.0386 -70.0376 -70.0371 -70.0362 -70.0351 -70.0342
   -40.0934 -40.0851 -40.0827 -40.0697 -40.0375 -40.0225 -39.8779 -39.8546
   -36.1715 -36.1664 -36.1607 -36.1607 -36.1517 -36.1502 -36.1331 -36.1317
   -36.1191 -36.1154 -36.1152 -36.1144 -36.1128 -36.1126 -36.1029 -36.1001
   -36.0998 -36.0993 -36.0984 -36.0960 -36.0907 -36.0895 -36.0810 -36.0796
   -16.5184 -16.5054 -16.4853 -16.4455 -16.4434 -16.4271 -16.4250 -16.4192
   -16.4093 -16.3869 -16.3751 -16.3491 -16.2837 -16.2760 -16.2535 -16.2415
   -16.2286 -16.2109 -16.1853 -16.1751 -16.1221 -16.1071 -16.0700 -16.0567
     8.1036  10.5469  10.7924  12.0478  12.6302  12.8650  13.0301  13.0313
    13.3351  13.5488  13.5652  13.7087  13.7381  13.8028  14.0063  14.0271
    14.1839  14.1954  14.4543  14.5716  14.6043  14.6536  14.7256  14.7491
    14.8192  14.9510  15.0363  15.0731  15.0878  15.1352  15.2480  15.3129
    15.3399  15.3751  15.4876  15.5285  15.5812  15.6426  15.6465  15.7286
    15.7362  15.7994  15.8272  15.8909  15.9009  16.0204  16.0851  16.2228
    16.6175  16.9189  17.0243  17.0339  17.0608  17.1619  17.3029  17.3191
    17.3922  17.6179  17.6667  17.6940  17.7241  17.8238  17.8823  17.9709
    18.0220  18.1109  18.1157  18.2395  18.3488  18.4061  18.4864  18.5701

          k =-0.1694-0.0847-0.0777 ( 32476 PWs)   bands (ev):

   -70.0406 -70.0396 -70.0386 -70.0376 -70.0371 -70.0362 -70.0351 -70.0342
   -40.0934 -40.0851 -40.0827 -40.0697 -40.0375 -40.0225 -39.8779 -39.8546
   -36.1715 -36.1664 -36.1607 -36.1607 -36.1517 -36.1502 -36.1331 -36.1317
   -36.1191 -36.1154 -36.1152 -36.1144 -36.1128 -36.1126 -36.1029 -36.1001
   -36.0998 -36.0993 -36.0984 -36.0960 -36.0907 -36.0895 -36.0810 -36.0796
   -16.5184 -16.5054 -16.4853 -16.4455 -16.4434 -16.4271 -16.4250 -16.4192
   -16.4093 -16.3869 -16.3751 -16.3491 -16.2837 -16.2760 -16.2535 -16.2415
   -16.2286 -16.2109 -16.1853 -16.1751 -16.1221 -16.1071 -16.0700 -16.0567
     8.1036  10.5469  10.7924  12.0478  12.6302  12.8650  13.0301  13.0313
    13.3351  13.5488  13.5653  13.7087  13.7381  13.8028  14.0063  14.0271
    14.1839  14.1954  14.4543  14.5716  14.6043  14.6536  14.7256  14.7491
    14.8192  14.9510  15.0364  15.0731  15.0878  15.1352  15.2480  15.3129
    15.3399  15.3751  15.4876  15.5285  15.5812  15.6426  15.6465  15.7286
    15.7362  15.7994  15.8272  15.8909  15.9009  16.0204  16.0851  16.2228
    16.6175  16.9189  17.0243  17.0339  17.0608  17.1620  17.3029  17.3191
    17.3922  17.6179  17.6667  17.6940  17.7241  17.8238  17.8823  17.9709
    18.0220  18.1109  18.1157  18.2395  18.3488  18.4061  18.4864  18.5701

          k = 0.0847-0.0847-0.2331 ( 32474 PWs)   bands (ev):

   -70.0408 -70.0408 -70.0374 -70.0374 -70.0374 -70.0374 -70.0340 -70.0340
   -40.0929 -40.0929 -40.0770 -40.0770 -40.0267 -40.0267 -39.8651 -39.8651
   -36.1731 -36.1731 -36.1588 -36.1588 -36.1584 -36.1584 -36.1269 -36.1269
   -36.1215 -36.1215 -36.1079 -36.1079 -36.1078 -36.1078 -36.1077 -36.1077
   -36.1034 -36.1034 -36.0929 -36.0929 -36.0923 -36.0923 -36.0756 -36.0756
   -16.4998 -16.4998 -16.4990 -16.4990 -16.4324 -16.4324 -16.4302 -16.4302
   -16.3918 -16.3918 -16.3423 -16.3423 -16.3383 -16.3383 -16.2780 -16.2780
   -16.1818 -16.1818 -16.1805 -16.1805 -16.0623 -16.0623 -16.0621 -16.0621
     9.0703   9.0704  11.5524  11.5524  12.7639  12.7639  13.0033  13.0033
    13.5870  13.5870  13.7186  13.7186  13.7408  13.7408  13.8157  13.8157
    13.9181  13.9181  14.4501  14.4501  14.4588  14.4588  14.6770  14.6770
    14.9857  14.9857  15.1274  15.1274  15.1823  15.1823  15.3091  15.3091
    15.4967  15.4967  15.5276  15.5276  15.6178  15.6178  15.6328  15.6328
    15.6920  15.6920  15.8052  15.8052  15.8612  15.8612  16.2329  16.2329
    17.0182  17.0182  17.2517  17.2517  17.3293  17.3293  17.3313  17.3313
    17.3887  17.3887  17.4250  17.4250  17.5739  17.5739  17.8793  17.8793
    18.0133  18.0133  18.0228  18.0228  18.4353  18.4353  18.8119  18.8119

          k =-0.2541-0.0847 0.0777 ( 32474 PWs)   bands (ev):

   -70.0398 -70.0394 -70.0388 -70.0384 -70.0363 -70.0359 -70.0354 -70.0350
   -40.0910 -40.0852 -40.0783 -40.0716 -40.0393 -40.0244 -39.8785 -39.8552
   -36.1662 -36.1650 -36.1634 -36.1626 -36.1433 -36.1418 -36.1404 -36.1391
   -36.1144 -36.1143 -36.1143 -36.1138 -36.1110 -36.1093 -36.1082 -36.1062
   -36.1014 -36.1009 -36.0974 -36.0970 -36.0872 -36.0860 -36.0856 -36.0842
   -16.5166 -16.5020 -16.4840 -16.4468 -16.4284 -16.4199 -16.4094 -16.3702
   -16.3588 -16.3524 -16.3509 -16.3435 -16.3227 -16.3118 -16.2794 -16.2780
   -16.2278 -16.2137 -16.1851 -16.1746 -16.1584 -16.1421 -16.0705 -16.0573
     8.1577  10.5772  10.8806  11.7833  12.6281  12.9244  13.1156  13.3013
    13.5687  13.6446  13.7501  13.7576  13.8362  13.8430  13.9337  13.9379
    13.9446  14.1127  14.1847  14.6772  14.7970  14.8145  14.8201  14.8430
    14.8593  14.8828  14.9319  14.9657  15.2174  15.2231  15.2675  15.2677
    15.2784  15.4218  15.4445  15.4542  15.4745  15.4904  15.5219  15.5783
    15.5958  15.6375  15.6754  15.7281  15.7547  15.8645  16.0736  16.0785
    16.7930  16.9492  16.9525  16.9726  16.9751  17.3528  17.4278  17.5393
    17.5731  17.5775  17.5824  17.6145  17.7250  17.8273  17.9763  18.0636
    18.0876  18.1474  18.1757  18.2017  18.2672  18.2902  18.6212  18.6843

          k = 0.1694-0.0847 0.1554 ( 32434 PWs)   bands (ev):

   -70.0404 -70.0398 -70.0384 -70.0378 -70.0369 -70.0364 -70.0349 -70.0344
   -40.0911 -40.0849 -40.0818 -40.0729 -40.0344 -40.0257 -39.8730 -39.8596
   -36.1704 -36.1675 -36.1607 -36.1607 -36.1514 -36.1505 -36.1328 -36.1320
   -36.1183 -36.1155 -36.1119 -36.1117 -36.1108 -36.1091 -36.1052 -36.1032
   -36.1020 -36.0995 -36.0995 -36.0991 -36.0904 -36.0897 -36.0807 -36.0799
   -16.5011 -16.4895 -16.4622 -16.4411 -16.4399 -16.4306 -16.4289 -16.3883
   -16.3846 -16.3810 -16.3768 -16.3213 -16.3205 -16.3052 -16.2808 -16.2509
   -16.2439 -16.2410 -16.1831 -16.1773 -16.1189 -16.1102 -16.0672 -16.0595
     8.5294   9.9053  11.1122  12.1536  12.2747  12.8771  13.0514  13.2695
    13.2814  13.7138  13.7299  13.8398  13.8440  13.9730  13.9813  14.0405
    14.0766  14.2798  14.3226  14.4970  14.5362  14.5677  14.6585  14.6785
    14.8105  14.9580  14.9863  14.9979  15.0531  15.1588  15.2991  15.3567
    15.3764  15.3783  15.3848  15.4256  15.4411  15.4469  15.4979  15.5539
    15.5590  15.5769  15.5986  15.6590  15.8686  15.9231  15.9330  16.1468
    16.8386  17.1920  17.2575  17.2981  17.3175  17.3310  17.4136  17.4697
    17.4990  17.5674  17.5983  17.6323  17.6582  17.7325  17.7337  17.8865
    17.9824  18.0003  18.1387  18.1557  18.2820  18.2915  18.5726  18.6099

          k = 0.1694-0.1694 0.0777 ( 32434 PWs)   bands (ev):

   -70.0399 -70.0389 -70.0379 -70.0379 -70.0369 -70.0369 -70.0358 -70.0349
   -40.0891 -40.0842 -40.0772 -40.0694 -40.0416 -40.0271 -39.8790 -39.8559
   -36.1658 -36.1622 -36.1554 -36.1539 -36.1532 -36.1520 -36.1374 -36.1365
   -36.1154 -36.1148 -36.1134 -36.1133 -36.1132 -36.1110 -36.1019 -36.0993
   -36.0993 -36.0984 -36.0970 -36.0968 -36.0965 -36.0951 -36.0861 -36.0851
   -16.5154 -16.4426 -16.4373 -16.4220 -16.4217 -16.4165 -16.4115 -16.3980
   -16.3862 -16.3783 -16.3769 -16.3528 -16.2799 -16.2748 -16.2561 -16.2495
   -16.2411 -16.2405 -16.2304 -16.2142 -16.1237 -16.1228 -16.1082 -16.1081
     8.1766  10.6055  11.0287  11.9680  12.4658  12.8834  13.0225  13.0783
    13.6116  13.7285  13.8325  13.8558  13.9039  13.9182  14.0445  14.0677
    14.2674  14.4208  14.4557  14.4971  14.5372  14.6655  14.6855  14.8959
    14.9190  14.9911  14.9943  15.0198  15.0652  15.0752  15.0963  15.1342
    15.1369  15.1489  15.3243  15.3383  15.3596  15.4977  15.5374  15.5548
    15.5921  15.6315  15.6424  15.6727  15.7149  15.7189  15.7911  16.0452
    16.8470  16.9468  17.0062  17.0293  17.0834  17.4869  17.5154  17.5585
    17.5803  17.7677  17.8256  17.8482  17.8619  17.9198  17.9623  18.0367
    18.0787  18.1036  18.1315  18.2357  18.2521  18.3015  18.3848  18.5343

          k =-0.1694-0.1694-0.0777 ( 32434 PWs)   bands (ev):

   -70.0399 -70.0389 -70.0379 -70.0379 -70.0369 -70.0369 -70.0358 -70.0349
   -40.0891 -40.0842 -40.0772 -40.0694 -40.0416 -40.0271 -39.8790 -39.8559
   -36.1658 -36.1622 -36.1554 -36.1539 -36.1532 -36.1520 -36.1374 -36.1365
   -36.1154 -36.1148 -36.1134 -36.1133 -36.1132 -36.1110 -36.1019 -36.0993
   -36.0993 -36.0984 -36.0970 -36.0968 -36.0965 -36.0951 -36.0861 -36.0851
   -16.5154 -16.4426 -16.4373 -16.4220 -16.4217 -16.4165 -16.4115 -16.3980
   -16.3862 -16.3783 -16.3769 -16.3528 -16.2799 -16.2748 -16.2561 -16.2495
   -16.2411 -16.2405 -16.2304 -16.2142 -16.1237 -16.1228 -16.1082 -16.1081
     8.1766  10.6055  11.0287  11.9679  12.4658  12.8834  13.0225  13.0783
    13.6116  13.7285  13.8325  13.8558  13.9039  13.9182  14.0445  14.0677
    14.2674  14.4208  14.4558  14.4971  14.5372  14.6655  14.6855  14.8959
    14.9190  14.9911  14.9943  15.0198  15.0652  15.0752  15.0963  15.1341
    15.1369  15.1489  15.3243  15.3383  15.3596  15.4977  15.5374  15.5548
    15.5920  15.6315  15.6424  15.6727  15.7149  15.7189  15.7911  16.0452
    16.8470  16.9468  17.0062  17.0293  17.0834  17.4869  17.5154  17.5585
    17.5802  17.7677  17.8256  17.8482  17.8619  17.9198  17.9623  18.0367
    18.0787  18.1036  18.1315  18.2357  18.2520  18.3015  18.3848  18.5343

          k = 0.1694-0.0847-0.2331 ( 32462 PWs)   bands (ev):

   -70.0401 -70.0401 -70.0381 -70.0381 -70.0367 -70.0367 -70.0347 -70.0347
   -40.0880 -40.0880 -40.0774 -40.0774 -40.0301 -40.0301 -39.8663 -39.8663
   -36.1690 -36.1690 -36.1607 -36.1607 -36.1510 -36.1510 -36.1324 -36.1324
   -36.1170 -36.1170 -36.1081 -36.1081 -36.1075 -36.1075 -36.1069 -36.1069
   -36.1043 -36.1043 -36.0993 -36.0993 -36.0901 -36.0901 -36.0803 -36.0803
   -16.4953 -16.4953 -16.4355 -16.4355 -16.4351 -16.4351 -16.3875 -16.3875
   -16.3801 -16.3801 -16.3459 -16.3459 -16.3371 -16.3371 -16.2811 -16.2811
   -16.2473 -16.2473 -16.1802 -16.1802 -16.1146 -16.1146 -16.0633 -16.0633
     9.1687   9.1687  11.5963  11.5963  12.5844  12.5844  13.2174  13.2174
    13.6428  13.6428  13.8818  13.8818  13.9121  13.9121  14.0050  14.0050
    14.0775  14.0775  14.4215  14.4215  14.5599  14.5599  14.6708  14.6708
    14.7535  14.7535  14.9550  14.9550  15.2288  15.2288  15.2380  15.2380
    15.3055  15.3055  15.3356  15.3356  15.4551  15.4551  15.4823  15.4823
    15.5646  15.5646  15.6315  15.6315  15.6547  15.6547  16.0713  16.0713
    17.0809  17.0809  17.4294  17.4294  17.4446  17.4446  17.4668  17.4668
    17.4861  17.4861  17.5926  17.5926  17.7482  17.7482  17.7874  17.7874
    17.8554  17.8554  18.1100  18.1100  18.2740  18.2740  18.7136  18.7136

          k =-0.2541-0.1694 0.0777 ( 32462 PWs)   bands (ev):

   -70.0391 -70.0387 -70.0381 -70.0377 -70.0371 -70.0366 -70.0361 -70.0357
   -40.0863 -40.0841 -40.0731 -40.0705 -40.0440 -40.0297 -39.8796 -39.8565
   -36.1599 -36.1583 -36.1580 -36.1572 -36.1461 -36.1456 -36.1433 -36.1433
   -36.1143 -36.1142 -36.1142 -36.1137 -36.1073 -36.1065 -36.1045 -36.1032
   -36.1007 -36.1001 -36.0983 -36.0978 -36.0926 -36.0925 -36.0911 -36.0905
   -16.5138 -16.4369 -16.4202 -16.4158 -16.4122 -16.3964 -16.3791 -16.3632
   -16.3573 -16.3550 -16.3481 -16.3428 -16.3289 -16.3163 -16.2761 -16.2756
   -16.2524 -16.2405 -16.2312 -16.2161 -16.1597 -16.1430 -16.1239 -16.1087
     8.2146  10.6357  11.2391  11.7623  12.3804  12.9558  13.0216  13.3113
    13.7197  13.8569  13.9034  13.9247  13.9273  13.9486  14.1801  14.1847
    14.2007  14.2198  14.3003  14.7098  14.7887  14.8095  14.8103  14.8497
    14.8697  14.8720  14.8817  14.9034  14.9346  15.0460  15.0523  15.0643
    15.1964  15.2021  15.2304  15.2730  15.3346  15.3397  15.3414  15.3591
    15.4812  15.4862  15.5073  15.5432  15.6452  15.6581  15.8982  15.9014
    16.9648  16.9688  17.0001  17.0322  17.0632  17.5939  17.6505  17.7630
    17.7904  17.8128  17.8254  17.8659  17.8748  17.9457  17.9994  18.0386
    18.1114  18.1196  18.1486  18.1631  18.2932  18.3505  18.4095  18.4606

          k =-0.0847-0.2541 0.1554 ( 32462 PWs)   bands (ev):

   -70.0396 -70.0392 -70.0390 -70.0386 -70.0361 -70.0357 -70.0356 -70.0352
   -40.0883 -40.0823 -40.0810 -40.0745 -40.0362 -40.0275 -39.8736 -39.8602
   -36.1656 -36.1645 -36.1640 -36.1631 -36.1430 -36.1421 -36.1402 -36.1394
   -36.1131 -36.1121 -36.1108 -36.1102 -36.1102 -36.1092 -36.1074 -36.1070
   -36.1036 -36.1029 -36.1010 -36.1005 -36.0869 -36.0862 -36.0853 -36.0845
   -16.4982 -16.4878 -16.4600 -16.4429 -16.4322 -16.3906 -16.3796 -16.3671
   -16.3559 -16.3556 -16.3466 -16.3220 -16.3210 -16.3150 -16.3141 -16.3079
   -16.2810 -16.2430 -16.1828 -16.1767 -16.1549 -16.1456 -16.0677 -16.0601
     8.5839   9.9505  11.1710  12.0722  12.1326  12.9642  13.1678  13.3305
    13.6370  13.7011  13.8190  13.8954  13.9566  13.9626  13.9676  14.0577
    14.1122  14.1542  14.2681  14.6292  14.7225  14.7325  14.7386  14.7402
    14.7446  14.7881  14.8018  14.8334  15.0859  15.0868  15.2217  15.2631
    15.2669  15.2726  15.3418  15.3705  15.3750  15.3958  15.4331  15.4572
    15.5013  15.5413  15.5708  15.6341  15.6682  15.6888  16.0074  16.0166
    16.9544  17.2201  17.2768  17.3157  17.3191  17.3922  17.5103  17.5794
    17.5826  17.5934  17.6003  17.6605  17.7485  17.7672  17.8262  17.8484
    17.9407  17.9836  18.1629  18.1780  18.2206  18.2263  18.5212  18.6168

          k =-0.2541 0.2541 0.0777 ( 32460 PWs)   bands (ev):

   -70.0383 -70.0379 -70.0379 -70.0374 -70.0373 -70.0369 -70.0369 -70.0365
   -40.0836 -40.0836 -40.0699 -40.0699 -40.0467 -40.0329 -39.8802 -39.8571
   -36.1535 -36.1528 -36.1528 -36.1507 -36.1506 -36.1500 -36.1496 -36.1464
   -36.1142 -36.1141 -36.1141 -36.1137 -36.1036 -36.1015 -36.0997 -36.0997
   -36.0997 -36.0996 -36.0996 -36.0988 -36.0988 -36.0966 -36.0965 -36.0965
   -16.5124 -16.4136 -16.4136 -16.3679 -16.3651 -16.3574 -16.3515 -16.3483
   -16.3463 -16.3444 -16.3430 -16.3417 -16.3337 -16.3337 -16.3191 -16.3191
   -16.2742 -16.2742 -16.2331 -16.2175 -16.1604 -16.1604 -16.1435 -16.1434
     8.2440  10.6658  11.7492  11.7493  11.7973  12.9809  13.3295  13.3295
    13.4873  13.9444  13.9651  13.9651  14.1092  14.2227  14.2227  14.2679
    14.5202  14.5202  14.5652  14.5752  14.5994  14.6139  14.6139  14.6627
    14.7256  14.8765  14.8765  14.8792  14.9608  14.9808  14.9809  15.0012
    15.0532  15.0624  15.0825  15.0825  15.3443  15.3443  15.3456  15.3465
    15.4597  15.4597  15.5548  15.5672  15.6081  15.6092  15.6331  15.6331
    16.9727  17.0484  17.0484  17.0575  17.0670  17.7676  17.7676  17.7695
    17.8870  17.9949  17.9949  18.0340  18.0622  18.0897  18.0897  18.0937
    18.1450  18.1450  18.1478  18.2245  18.3345  18.3409  18.3619  18.3620

          k = 0.1694-0.1694 0.1554 ( 32390 PWs)   bands (ev):

   -70.0397 -70.0391 -70.0376 -70.0376 -70.0371 -70.0371 -70.0356 -70.0351
   -40.0866 -40.0811 -40.0798 -40.0726 -40.0386 -40.0302 -39.8742 -39.8608
   -36.1650 -36.1629 -36.1549 -36.1536 -36.1535 -36.1524 -36.1373 -36.1368
   -36.1142 -36.1118 -36.1115 -36.1110 -36.1107 -36.1097 -36.1045 -36.1025
   -36.1024 -36.1003 -36.0980 -36.0969 -36.0964 -36.0952 -36.0859 -36.0853
   -16.4586 -16.4383 -16.4339 -16.4262 -16.4249 -16.3940 -16.3858 -16.3844
   -16.3835 -16.3824 -16.3783 -16.3239 -16.3153 -16.3039 -16.2852 -16.2531
   -16.2475 -16.2442 -16.2438 -16.2424 -16.1204 -16.1198 -16.1115 -16.1113
     8.6044   9.9769  11.3407  12.2112  12.3745  12.7300  12.8688  13.2747
    13.4353  13.9159  13.9388  14.0040  14.0232  14.0377  14.1289  14.2868
    14.2978  14.3284  14.3675  14.3723  14.5285  14.6384  14.6475  14.8295
    14.8422  14.8845  14.9831  15.0274  15.0599  15.0614  15.0954  15.1077
    15.1352  15.1891  15.2035  15.2456  15.2491  15.2641  15.3263  15.3533
    15.3900  15.4278  15.4457  15.5259  15.5451  15.5682  15.5946  15.9438
    16.9953  17.2183  17.3296  17.3869  17.4265  17.5650  17.6393  17.6571
    17.6771  17.6863  17.7800  17.8076  17.9288  17.9510  17.9600  18.0204
    18.0235  18.0626  18.1258  18.2294  18.2615  18.3268  18.5453  18.5996

          k = 0.1694-0.1694-0.2331 ( 32458 PWs)   bands (ev):

   -70.0394 -70.0394 -70.0374 -70.0374 -70.0374 -70.0374 -70.0354 -70.0354
   -40.0832 -40.0832 -40.0768 -40.0768 -40.0344 -40.0344 -39.8675 -39.8675
   -36.1640 -36.1640 -36.1543 -36.1543 -36.1530 -36.1530 -36.1371 -36.1370
   -36.1129 -36.1129 -36.1078 -36.1078 -36.1070 -36.1070 -36.1066 -36.1066
   -36.1050 -36.1050 -36.0974 -36.0974 -36.0958 -36.0958 -36.0856 -36.0856
   -16.4324 -16.4324 -16.4293 -16.4293 -16.3897 -16.3897 -16.3818 -16.3818
   -16.3796 -16.3796 -16.3434 -16.3434 -16.3418 -16.3418 -16.2842 -16.2842
   -16.2484 -16.2484 -16.2450 -16.2450 -16.1159 -16.1159 -16.1155 -16.1155
     9.2446   9.2446  11.8159  11.8159  12.5468  12.5468  13.0971  13.0971
    13.6406  13.6406  14.1483  14.1483  14.1644  14.1644  14.1786  14.1786
    14.2106  14.2106  14.4197  14.4197  14.6303  14.6303  14.6667  14.6667
    14.7160  14.7160  14.9891  14.9891  15.0906  15.0906  15.0970  15.0970
    15.1282  15.1282  15.1971  15.1971  15.2390  15.2390  15.2748  15.2748
    15.3459  15.3459  15.3549  15.3549  15.4668  15.4668  15.7310  15.7310
    17.1611  17.1612  17.5545  17.5546  17.6100  17.6100  17.6509  17.6509
    17.6752  17.6752  17.8360  17.8360  17.8790  17.8790  18.0030  18.0030
    18.0220  18.0220  18.1100  18.1100  18.4153  18.4153  18.7534  18.7534

          k =-0.2541-0.1694 0.1554 ( 32458 PWs)   bands (ev):

   -70.0389 -70.0384 -70.0383 -70.0379 -70.0369 -70.0364 -70.0363 -70.0359
   -40.0835 -40.0813 -40.0759 -40.0734 -40.0409 -40.0327 -39.8747 -39.8614
   -36.1594 -36.1583 -36.1580 -36.1573 -36.1461 -36.1458 -36.1434 -36.1434
   -36.1117 -36.1114 -36.1109 -36.1104 -36.1070 -36.1066 -36.1047 -36.1039
   -36.1032 -36.1019 -36.1016 -36.1011 -36.0926 -36.0926 -36.0910 -36.0907
   -16.4565 -16.4333 -16.4237 -16.3927 -16.3866 -16.3837 -16.3815 -16.3604
   -16.3545 -16.3511 -16.3460 -16.3265 -16.3255 -16.3189 -16.3091 -16.3054
   -16.2875 -16.2502 -16.2454 -16.2430 -16.1562 -16.1466 -16.1207 -16.1120
     8.6435  10.0142  11.5309  12.0500  12.4851  12.6604  12.9456  13.2739
    13.4749  13.8682  14.0819  14.1136  14.1372  14.1475  14.2499  14.2521
    14.2559  14.3546  14.3624  14.6802  14.7001  14.7328  14.7754  14.7825
    14.8320  14.8367  14.8398  14.8398  14.9446  14.9459  15.0424  15.0504
    15.0747  15.1245  15.1510  15.1784  15.1828  15.1996  15.2317  15.2761
    15.2796  15.2852  15.2868  15.3545  15.4634  15.4682  15.6660  15.6760
    17.0792  17.2250  17.3841  17.4279  17.4835  17.6829  17.7734  17.7797
    17.7933  17.8044  17.8461  17.8929  17.9289  17.9510  17.9930  18.0219
    18.0804  18.1510  18.2397  18.3015  18.3529  18.3831  18.4688  18.5790

          k =-0.2541 0.2541 0.1554 ( 32460 PWs)   bands (ev):

   -70.0381 -70.0377 -70.0377 -70.0375 -70.0372 -70.0371 -70.0371 -70.0367
   -40.0807 -40.0807 -40.0728 -40.0728 -40.0438 -40.0358 -39.8753 -39.8620
   -36.1528 -36.1523 -36.1523 -36.1511 -36.1511 -36.1508 -36.1490 -36.1471
   -36.1112 -36.1112 -36.1111 -36.1105 -36.1032 -36.1028 -36.1028 -36.1028
   -36.1019 -36.1019 -36.0990 -36.0989 -36.0983 -36.0971 -36.0970 -36.0970
   -16.4547 -16.3845 -16.3845 -16.3636 -16.3606 -16.3507 -16.3500 -16.3486
   -16.3469 -16.3459 -16.3431 -16.3308 -16.3308 -16.3272 -16.3220 -16.3220
   -16.3037 -16.3037 -16.2931 -16.2471 -16.1568 -16.1568 -16.1471 -16.1471
     8.6744  10.0472  12.0370  12.0370  12.0928  12.9425  12.9425  13.0453
    13.2476  14.0084  14.1632  14.1813  14.1813  14.4223  14.4223  14.5185
    14.5397  14.5397  14.5922  14.6096  14.6276  14.6276  14.6500  14.6979
    14.7101  14.8834  14.8834  14.8986  14.9367  14.9488  14.9488  14.9642
    14.9642  14.9702  14.9709  15.0255  15.0986  15.0986  15.1121  15.1167
    15.2383  15.2383  15.2979  15.3139  15.3639  15.3667  15.3667  15.3795
    17.1430  17.2315  17.4926  17.4926  17.5149  17.8688  17.8729  17.8729
    17.9597  17.9597  17.9798  17.9886  18.0295  18.0486  18.0486  18.1207
    18.1289  18.1714  18.3913  18.3913  18.4702  18.5005  18.5005  18.5623

     the Fermi energy is    16.7985 ev

!    total energy              =   -3590.79925417 Ry
     estimated scf accuracy    <          1.6E-10 Ry
     smearing contrib. (-TS)   =       0.00010261 Ry
     internal energy E=F+TS    =   -3590.79935677 Ry

     The total energy is F=E-TS. E is the sum of the following terms:
     one-electron contribution =   -1257.09965293 Ry
     hartree contribution      =     750.60422334 Ry
     xc contribution           =    -424.35953874 Ry
     ewald contribution        =   -2050.72874583 Ry
     one-center paw contrib.   =    -609.21564262 Ry

     convergence has been achieved in  28 iterations

     negative rho (up, down):  7.621E-03 0.000E+00

     Forces acting on atoms (cartesian axes, Ry/au):

     atom    1 type  1   force =     0.00260086    0.00260086    0.00000000
     atom    2 type  1   force =    -0.00260354   -0.00260354   -0.00000000
     atom    3 type  1   force =    -0.00260253    0.00260293   -0.00000000
     atom    4 type  1   force =     0.00260173   -0.00260139    0.00000000
     atom    5 type  1   force =     0.00260103    0.00260103    0.00000000
     atom    6 type  1   force =    -0.00260209   -0.00260209   -0.00000000
     atom    7 type  1   force =    -0.00260139    0.00260173   -0.00000000
     atom    8 type  1   force =     0.00260293   -0.00260253    0.00000000
     atom    9 type  2   force =     0.00000007    0.00000007    0.00000003
     atom   10 type  2   force =     0.00000070    0.00000070    0.00000027
     atom   11 type  2   force =     0.00000049   -0.00000005    0.00000015
     atom   12 type  2   force =    -0.00000005    0.00000049   -0.00000015
     atom   13 type  2   force =     0.00000007    0.00000007   -0.00000003
     atom   14 type  2   force =     0.00000070    0.00000070   -0.00000027
     atom   15 type  2   force =     0.00000049   -0.00000005   -0.00000015
     atom   16 type  2   force =    -0.00000005    0.00000049    0.00000015
     atom   17 type  3   force =     0.00000034    0.00000034    0.00000000
     atom   18 type  3   force =     0.00000024    0.00000024    0.00000000

     Total force =     0.010408     Total SCF correction =     0.000081


     Computing stress (Cartesian axis) and pressure


     negative rho (up, down):  7.621E-03 0.000E+00
          total   stress  (Ry/bohr**3)                   (kbar)     P=        0.86
   0.00000987  -0.00000001   0.00000000            1.45       -0.00        0.00
  -0.00000001   0.00000987  -0.00000000           -0.00        1.45       -0.00
   0.00000000  -0.00000000  -0.00000210            0.00       -0.00       -0.31

     Energy error            =      2.6E-04 Ry
     Gradient error          =      2.6E-03 Ry/Bohr
     Cell gradient error     =      1.5E+00 kbar

     number of scf cycles    =   6
     number of bfgs steps    =   5

     enthalpy           old  =   -3590.7989907377 Ry
     enthalpy           new  =   -3590.7992541682 Ry

     CASE: enthalpy          _new < enthalpy          _old

     new trust radius        =       0.0137026900 bohr
     new conv_thr            =       0.0000000003 Ry

     new unit-cell volume =   1444.77008 a.u.^3 (   214.09284 Ang^3 )
     density =      6.45089 g/cm^3

CELL_PARAMETERS (alat=  5.58242261)
   1.966014248  -0.000008132  -0.000000000
  -0.000008132   1.966014248   0.000000000
  -0.000000000   0.000000000   2.148608483

ATOMIC_POSITIONS (crystal)
Fe              -0.0013502146       -0.0013502146        0.0000000000
Fe               0.5013497265        0.5013497265        0.0000000000
Fe               0.5013499958       -0.0013501856       -0.0000000000
Fe              -0.0013500137        0.5013501729        0.5000000000
Fe              -0.0013494745       -0.0013494745        0.5000000000
Fe               0.5013497488        0.5013497488        0.5000000000
Fe               0.5013501729       -0.0013500137        0.5000000000
Fe              -0.0013501856        0.5013499958       -0.0000000000
Ti               0.2499999898        0.2499999898        0.2499999308
Ti               0.7500000223        0.7500000223        0.2499999878
Ti               0.7499999971        0.2500000213        0.2499999399
Ti               0.2500000213        0.7499999971        0.7500000601
Ti               0.2499999898        0.2499999898        0.7500000692
Ti               0.7500000223        0.7500000223        0.7500000122
Ti               0.7499999971        0.2500000213        0.7500000601
Ti               0.2500000213        0.7499999971        0.2499999399
H                0.2500001336        0.2500001336       -0.0000000000
H                0.2500000500        0.2500000500        0.5000000000



     Writing config-only to output data dir ./TiFeH_supercell.save/ :
     XML data file     NEW-OLD atomic charge density approx. for the potential
     New effective cutoffs (rho, wfc): 1796.35  128.31

     Check: negative core charge=   -0.000001

     negative rho (up, down):  7.621E-03 0.000E+00

     total cpu time spent up to now is     9867.5 secs

     per-process dynamical memory:   458.4 Mb

     Self-consistent Calculation

     iteration #  1     ecut=   124.00 Ry     beta= 0.70
     Davidson diagonalization with overlap
     ethr =  1.00E-06,  avg # of iterations =  7.1

     negative rho (up, down):  7.627E-03 0.000E+00

     total cpu time spent up to now is     9964.7 secs

     total energy              =   -3590.79864912 Ry
     estimated scf accuracy    <       0.00119578 Ry

     iteration #  2     ecut=   124.00 Ry     beta= 0.70
     Davidson diagonalization with overlap
     ethr =  5.29E-07,  avg # of iterations =  7.4

     negative rho (up, down):  7.608E-03 0.000E+00

     total cpu time spent up to now is    10043.0 secs

     total energy              =   -3590.79507059 Ry
     estimated scf accuracy    <       0.05997804 Ry

     iteration #  3     ecut=   124.00 Ry     beta= 0.70
     Davidson diagonalization with overlap
     ethr =  5.29E-07,  avg # of iterations =  7.2

     negative rho (up, down):  7.620E-03 0.000E+00

     total cpu time spent up to now is    10118.1 secs

     total energy              =   -3590.79914683 Ry
     estimated scf accuracy    <       0.00262051 Ry

     iteration #  4     ecut=   124.00 Ry     beta= 0.70
     Davidson diagonalization with overlap
     ethr =  5.29E-07,  avg # of iterations =  4.3

     negative rho (up, down):  7.620E-03 0.000E+00

     total cpu time spent up to now is    10165.9 secs

     total energy              =   -3590.79932643 Ry
     estimated scf accuracy    <       0.00138951 Ry

     iteration #  5     ecut=   124.00 Ry     beta= 0.70
     Davidson diagonalization with overlap
     ethr =  5.29E-07,  avg # of iterations =  4.0

     negative rho (up, down):  7.619E-03 0.000E+00

     total cpu time spent up to now is    10210.9 secs

     total energy              =   -3590.79915655 Ry
     estimated scf accuracy    <       0.00830816 Ry

     iteration #  6     ecut=   124.00 Ry     beta= 0.70
     Davidson diagonalization with overlap
     ethr =  5.29E-07,  avg # of iterations =  3.5

     negative rho (up, down):  7.618E-03 0.000E+00

     total cpu time spent up to now is    10253.2 secs

     total energy              =   -3590.79939994 Ry
     estimated scf accuracy    <       0.00019514 Ry

     iteration #  7     ecut=   124.00 Ry     beta= 0.70
     Davidson diagonalization with overlap
     ethr =  8.63E-08,  avg # of iterations =  3.9

     negative rho (up, down):  7.618E-03 0.000E+00

     total cpu time spent up to now is    10299.8 secs

     total energy              =   -3590.79940086 Ry
     estimated scf accuracy    <       0.00061898 Ry

     iteration #  8     ecut=   124.00 Ry     beta= 0.70
     Davidson diagonalization with overlap
     ethr =  8.63E-08,  avg # of iterations =  2.4

     negative rho (up, down):  7.616E-03 0.000E+00

     total cpu time spent up to now is    10341.2 secs

     total energy              =   -3590.79942845 Ry
     estimated scf accuracy    <       0.00008981 Ry

     iteration #  9     ecut=   124.00 Ry     beta= 0.70
     Davidson diagonalization with overlap
     ethr =  3.97E-08,  avg # of iterations =  2.1

     negative rho (up, down):  7.615E-03 0.000E+00

     total cpu time spent up to now is    10381.7 secs

     total energy              =   -3590.79942884 Ry
     estimated scf accuracy    <       0.00014392 Ry

     iteration # 10     ecut=   124.00 Ry     beta= 0.70
     Davidson diagonalization with overlap
     ethr =  3.97E-08,  avg # of iterations =  1.1

     negative rho (up, down):  7.616E-03 0.000E+00

     total cpu time spent up to now is    10418.2 secs

     total energy              =   -3590.79943516 Ry
     estimated scf accuracy    <       0.00000242 Ry

     iteration # 11     ecut=   124.00 Ry     beta= 0.70
     Davidson diagonalization with overlap
     ethr =  1.07E-09,  avg # of iterations =  4.9

     negative rho (up, down):  7.616E-03 0.000E+00

     total cpu time spent up to now is    10471.1 secs

     total energy              =   -3590.79943496 Ry
     estimated scf accuracy    <       0.00001532 Ry

     iteration # 12     ecut=   124.00 Ry     beta= 0.70
     Davidson diagonalization with overlap
     ethr =  1.07E-09,  avg # of iterations =  4.1

     negative rho (up, down):  7.616E-03 0.000E+00

     total cpu time spent up to now is    10517.0 secs

     total energy              =   -3590.79943560 Ry
     estimated scf accuracy    <       0.00000104 Ry

     iteration # 13     ecut=   124.00 Ry     beta= 0.70
     Davidson diagonalization with overlap
     ethr =  4.60E-10,  avg # of iterations =  4.2

     negative rho (up, down):  7.616E-03 0.000E+00

     total cpu time spent up to now is    10564.8 secs

     total energy              =   -3590.79943535 Ry
     estimated scf accuracy    <       0.00000887 Ry

     iteration # 14     ecut=   124.00 Ry     beta= 0.70
     Davidson diagonalization with overlap
     ethr =  4.60E-10,  avg # of iterations =  4.2

     negative rho (up, down):  7.616E-03 0.000E+00

     total cpu time spent up to now is    10613.9 secs

     total energy              =   -3590.79943552 Ry
     estimated scf accuracy    <       0.00000393 Ry

     iteration # 15     ecut=   124.00 Ry     beta= 0.70
     Davidson diagonalization with overlap
     ethr =  4.60E-10,  avg # of iterations =  3.0

     negative rho (up, down):  7.616E-03 0.000E+00

     total cpu time spent up to now is    10657.0 secs

     total energy              =   -3590.79943568 Ry
     estimated scf accuracy    <       0.00000065 Ry

     iteration # 16     ecut=   124.00 Ry     beta= 0.70
     Davidson diagonalization with overlap
     ethr =  2.86E-10,  avg # of iterations =  2.1

     negative rho (up, down):  7.616E-03 0.000E+00

     total cpu time spent up to now is    10697.2 secs

     total energy              =   -3590.79943571 Ry
     estimated scf accuracy    <       0.00000003 Ry

     iteration # 17     ecut=   124.00 Ry     beta= 0.70
     Davidson diagonalization with overlap
     ethr =  1.24E-11,  avg # of iterations =  5.0

     negative rho (up, down):  7.616E-03 0.000E+00

     total cpu time spent up to now is    10757.2 secs

     total energy              =   -3590.79943570 Ry
     estimated scf accuracy    <       0.00000055 Ry

     iteration # 18     ecut=   124.00 Ry     beta= 0.70
     Davidson diagonalization with overlap
     ethr =  1.24E-11,  avg # of iterations =  5.0

     negative rho (up, down):  7.616E-03 0.000E+00

     total cpu time spent up to now is    10812.2 secs

     total energy              =   -3590.79943573 Ry
     estimated scf accuracy    <       0.00000003 Ry

     iteration # 19     ecut=   124.00 Ry     beta= 0.70
     Davidson diagonalization with overlap
     ethr =  1.24E-11,  avg # of iterations =  1.1

     negative rho (up, down):  7.616E-03 0.000E+00

     total cpu time spent up to now is    10848.0 secs

     total energy              =   -3590.79943573 Ry
     estimated scf accuracy    <          6.4E-09 Ry

     iteration # 20     ecut=   124.00 Ry     beta= 0.70
     Davidson diagonalization with overlap
     ethr =  2.83E-12,  avg # of iterations =  3.5

     negative rho (up, down):  7.616E-03 0.000E+00

     total cpu time spent up to now is    10892.4 secs

     total energy              =   -3590.79943573 Ry
     estimated scf accuracy    <       0.00000001 Ry

     iteration # 21     ecut=   124.00 Ry     beta= 0.70
     Davidson diagonalization with overlap
     ethr =  2.83E-12,  avg # of iterations =  2.5

     negative rho (up, down):  7.616E-03 0.000E+00

     total cpu time spent up to now is    10933.5 secs

     total energy              =   -3590.79943573 Ry
     estimated scf accuracy    <          2.2E-09 Ry

     iteration # 22     ecut=   124.00 Ry     beta= 0.70
     Davidson diagonalization with overlap
     ethr =  9.89E-13,  avg # of iterations =  2.1

     negative rho (up, down):  7.616E-03 0.000E+00

     total cpu time spent up to now is    10973.9 secs

     total energy              =   -3590.79943573 Ry
     estimated scf accuracy    <          7.2E-10 Ry

     iteration # 23     ecut=   124.00 Ry     beta= 0.70
     Davidson diagonalization with overlap
     ethr =  3.19E-13,  avg # of iterations =  3.3

     negative rho (up, down):  7.616E-03 0.000E+00

     total cpu time spent up to now is    11017.8 secs

     total energy              =   -3590.79943573 Ry
     estimated scf accuracy    <          2.1E-09 Ry

     iteration # 24     ecut=   124.00 Ry     beta= 0.70
     Davidson diagonalization with overlap
     ethr =  3.19E-13,  avg # of iterations =  2.3

     negative rho (up, down):  7.616E-03 0.000E+00

     total cpu time spent up to now is    11057.9 secs

     total energy              =   -3590.79943573 Ry
     estimated scf accuracy    <          2.9E-10 Ry

     iteration # 25     ecut=   124.00 Ry     beta= 0.70
     Davidson diagonalization with overlap
     ethr =  1.30E-13,  avg # of iterations =  1.9

     negative rho (up, down):  7.616E-03 0.000E+00

     total cpu time spent up to now is    11097.4 secs

     End of self-consistent calculation

          k = 0.0000 0.0000 0.0000 ( 32423 PWs)   bands (ev):

   -70.0445 -70.0434 -70.0405 -70.0405 -70.0394 -70.0394 -70.0365 -70.0355
   -40.1088 -40.1001 -40.0922 -40.0717 -40.0445 -40.0271 -39.8842 -39.8579
   -36.1855 -36.1760 -36.1660 -36.1660 -36.1633 -36.1633 -36.1299 -36.1278
   -36.1263 -36.1214 -36.1214 -36.1213 -36.1149 -36.1143 -36.1067 -36.1011
   -36.1011 -36.0963 -36.0930 -36.0930 -36.0909 -36.0909 -36.0732 -36.0717
   -16.5545 -16.5499 -16.5499 -16.5205 -16.5205 -16.4630 -16.4630 -16.4500
   -16.4500 -16.4378 -16.4188 -16.3630 -16.2846 -16.2713 -16.2259 -16.2007
   -16.1705 -16.1705 -16.1605 -16.1605 -16.0523 -16.0523 -16.0374 -16.0374
     7.7266  10.4735  10.6904  12.5774  12.5774  12.7007  12.9668  13.1276
    13.1276  13.1814  13.2524  13.2881  13.3251  13.3373  13.4434  13.8340
    14.3285  14.3285  14.6877  14.7127  14.7962  14.7962  14.8236  14.8236
    14.8420  14.8420  14.9929  15.0117  15.0643  15.0643  15.4904  15.5289
    15.5408  15.5562  15.7197  15.7198  15.7927  15.7927  15.9269  15.9269
    16.0065  16.1170  16.3060  16.3072  16.3472  16.4639  16.5855  16.5855
    16.7643  17.0122  17.0313  17.0758  17.0877  17.0877  17.2528  17.2528
    17.3994  17.5525  17.5525  17.6089  17.6899  17.8256  17.8256  17.8639
    17.9174  17.9576  17.9576  18.0017  18.0592  18.0614  18.0615  18.1460

          k = 0.0000-0.0000 0.0776 ( 32427 PWs)   bands (ev):

   -70.0444 -70.0435 -70.0404 -70.0404 -70.0395 -70.0395 -70.0365 -70.0356
   -40.1082 -40.1007 -40.0908 -40.0731 -40.0433 -40.0282 -39.8825 -39.8597
   -36.1848 -36.1767 -36.1659 -36.1659 -36.1635 -36.1635 -36.1293 -36.1277
   -36.1264 -36.1219 -36.1200 -36.1200 -36.1138 -36.1137 -36.1073 -36.1025
   -36.1025 -36.0976 -36.0929 -36.0929 -36.0911 -36.0911 -36.0731 -36.0718
   -16.5478 -16.5478 -16.5342 -16.5224 -16.5224 -16.4623 -16.4623 -16.4510
   -16.4510 -16.4259 -16.4090 -16.3528 -16.2985 -16.2813 -16.2424 -16.2142
   -16.1699 -16.1699 -16.1612 -16.1612 -16.0513 -16.0513 -16.0384 -16.0384
     7.8740  10.3868  10.5984  12.6278  12.6278  12.7416  12.7955  13.1243
    13.1243  13.2406  13.2835  13.3190  13.3810  13.3998  13.4791  13.8754
    14.3317  14.3317  14.4924  14.5096  14.6197  14.6197  14.8356  14.8356
    14.9341  14.9341  15.0494  15.0690  15.0781  15.2829  15.2830  15.4022
    15.4685  15.7183  15.7183  15.7272  15.7272  15.9010  15.9010  16.0202
    16.1375  16.1441  16.1783  16.2070  16.2402  16.2402  16.4384  16.5160
    16.9025  17.0139  17.0301  17.0702  17.1086  17.1086  17.2388  17.2388
    17.2559  17.5896  17.6111  17.6171  17.6172  17.8085  17.8085  17.8961
    17.9439  17.9439  18.0551  18.0626  18.0642  18.0746  18.0747  18.1105

          k = 0.0000-0.0000 0.1551 ( 32412 PWs)   bands (ev):

   -70.0442 -70.0437 -70.0402 -70.0402 -70.0397 -70.0397 -70.0363 -70.0357
   -40.1066 -40.1023 -40.0871 -40.0768 -40.0401 -40.0314 -39.8777 -39.8645
   -36.1831 -36.1784 -36.1654 -36.1654 -36.1640 -36.1640 -36.1277 -36.1274
   -36.1267 -36.1234 -36.1164 -36.1164 -36.1124 -36.1102 -36.1087 -36.1062
   -36.1062 -36.1010 -36.0925 -36.0925 -36.0914 -36.0914 -36.0728 -36.0721
   -16.5423 -16.5423 -16.5276 -16.5276 -16.4792 -16.4601 -16.4601 -16.4536
   -16.4536 -16.3928 -16.3823 -16.3397 -16.3247 -16.3085 -16.2889 -16.2461
   -16.1680 -16.1680 -16.1630 -16.1630 -16.0486 -16.0486 -16.0412 -16.0412
     8.2976   9.6990  10.9601  12.1667  12.7643  12.7643  13.0705  13.0752
    13.0752  13.3873  13.3994  13.4058  13.5037  13.5446  13.5714  13.8433
    14.0101  14.1632  14.3469  14.3469  14.4741  14.4741  14.8032  14.9065
    14.9065  15.0773  15.0835  15.0835  15.2163  15.2370  15.4940  15.5314
    15.5314  15.6658  15.6658  15.7240  15.7241  15.7485  15.7485  15.8125
    15.8392  15.8472  15.8472  16.1962  16.3694  16.4163  16.5626  16.6156
    16.9369  16.9388  16.9388  17.0176  17.0268  17.1564  17.1564  17.1636
    17.2196  17.2196  17.3838  17.5195  17.5201  17.7062  17.7865  18.0515
    18.0792  18.0792  18.0972  18.0972  18.3921  18.3922  18.4910  18.5318

          k =-0.0000 0.0000-0.2327 ( 32504 PWs)   bands (ev):

   -70.0440 -70.0440 -70.0399 -70.0399 -70.0399 -70.0399 -70.0360 -70.0360
   -40.1044 -40.1044 -40.0820 -40.0820 -40.0358 -40.0358 -39.8711 -39.8711
   -36.1807 -36.1807 -36.1647 -36.1647 -36.1647 -36.1647 -36.1270 -36.1270
   -36.1256 -36.1255 -36.1113 -36.1113 -36.1113 -36.1113 -36.1106 -36.1106
   -36.1056 -36.1056 -36.0920 -36.0920 -36.0920 -36.0920 -36.0724 -36.0724
   -16.5348 -16.5348 -16.5348 -16.5348 -16.4569 -16.4569 -16.4569 -16.4569
   -16.4059 -16.4059 -16.3455 -16.3455 -16.3446 -16.3446 -16.2860 -16.2860
   -16.1655 -16.1655 -16.1655 -16.1655 -16.0449 -16.0449 -16.0449 -16.0449
     8.9407   8.9407  11.5142  11.5142  12.9392  12.9392  12.9392  12.9392
    13.4852  13.4852  13.4867  13.4867  13.4958  13.4958  13.6976  13.6976
    13.8262  13.8262  14.3885  14.3885  14.3885  14.3885  14.8081  14.8081
    15.1759  15.1759  15.1759  15.1759  15.3076  15.3077  15.3077  15.3077
    15.4804  15.4804  15.5031  15.5031  15.7889  15.7889  15.7889  15.7889
    15.8240  15.8240  16.2801  16.2801  16.2842  16.2842  16.2843  16.2843
    17.0222  17.0222  17.0357  17.0357  17.0925  17.0925  17.1914  17.1914
    17.1914  17.1914  17.3822  17.3822  17.3900  17.3900  17.9547  17.9547
    18.1773  18.1773  18.1773  18.1773  18.8355  18.8355  18.8355  18.8355

          k = 0.0000 0.0848 0.0776 ( 32442 PWs)   bands (ev):

   -70.0442 -70.0432 -70.0407 -70.0401 -70.0397 -70.0392 -70.0367 -70.0358
   -40.1064 -40.0982 -40.0906 -40.0734 -40.0448 -40.0298 -39.8831 -39.8603
   -36.1829 -36.1754 -36.1661 -36.1645 -36.1629 -36.1606 -36.1297 -36.1283
   -36.1273 -36.1205 -36.1196 -36.1196 -36.1142 -36.1141 -36.1070 -36.1028
   -36.1022 -36.0979 -36.0952 -36.0940 -36.0920 -36.0902 -36.0750 -36.0736
   -16.5451 -16.5326 -16.5234 -16.5213 -16.4990 -16.4649 -16.4521 -16.4418
   -16.4306 -16.4254 -16.4098 -16.3542 -16.2967 -16.2811 -16.2422 -16.2164
   -16.1951 -16.1856 -16.1695 -16.1606 -16.0732 -16.0598 -16.0518 -16.0390
     7.9265  10.4151  10.6284  12.5563  12.6105  12.7432  12.8555  12.9063
    13.1776  13.3124  13.3346  13.4123  13.4504  13.4818  13.7909  13.9128
    14.3937  14.4000  14.4267  14.5095  14.5543  14.5892  14.7238  14.7912
    14.8615  14.9722  15.0174  15.1008  15.1456  15.1641  15.2351  15.4341
    15.4392  15.6580  15.6684  15.7000  15.7220  15.7399  15.8210  15.8889
    16.1249  16.1622  16.1656  16.1675  16.1932  16.2875  16.5318  16.5375
    16.5853  16.7480  16.8992  17.1029  17.1337  17.2097  17.2390  17.3036
    17.3457  17.3790  17.4491  17.5077  17.6353  17.6672  17.6877  17.9800
    18.0137  18.0621  18.1105  18.1112  18.1488  18.1586  18.2447  18.4650

          k = 0.0000 0.0848 0.1551 ( 32469 PWs)   bands (ev):

   -70.0440 -70.0434 -70.0405 -70.0399 -70.0399 -70.0394 -70.0365 -70.0360
   -40.1047 -40.1000 -40.0869 -40.0770 -40.0416 -40.0330 -39.8783 -39.8651
   -36.1813 -36.1770 -36.1658 -36.1648 -36.1624 -36.1611 -36.1294 -36.1286
   -36.1259 -36.1220 -36.1160 -36.1160 -36.1127 -36.1107 -36.1086 -36.1063
   -36.1059 -36.1013 -36.0949 -36.0942 -36.0916 -36.0906 -36.0747 -36.0739
   -16.5399 -16.5261 -16.5181 -16.5041 -16.4773 -16.4624 -16.4550 -16.4396
   -16.4331 -16.3928 -16.3826 -16.3374 -16.3262 -16.3087 -16.2892 -16.2479
   -16.1931 -16.1876 -16.1676 -16.1625 -16.0704 -16.0627 -16.0491 -16.0417
     8.3496   9.7409  10.9803  12.1322  12.7063  12.8003  12.8754  13.1222
    13.1596  13.4668  13.4706  13.5075  13.5958  13.6254  13.7733  13.8892
    14.0298  14.1924  14.3924  14.4039  14.4737  14.5251  14.5794  14.8255
    14.9053  14.9836  15.0923  15.1417  15.1902  15.3172  15.3565  15.4946
    15.5171  15.6054  15.6164  15.6321  15.6637  15.6975  15.7053  15.7171
    15.7214  15.7636  15.8959  16.1600  16.1984  16.3091  16.3241  16.5978
    16.7514  16.8046  17.0818  17.1214  17.1791  17.2097  17.2357  17.2554
    17.2683  17.3342  17.4409  17.4566  17.6115  17.6444  17.8003  17.8109
    17.8445  18.0079  18.1088  18.1825  18.3190  18.4413  18.4910  18.8255

          k = 0.0000 0.0848-0.2327 ( 32438 PWs)   bands (ev):

   -70.0437 -70.0437 -70.0402 -70.0402 -70.0397 -70.0397 -70.0363 -70.0363
   -40.1023 -40.1023 -40.0820 -40.0820 -40.0373 -40.0373 -39.8717 -39.8717
   -36.1791 -36.1791 -36.1653 -36.1653 -36.1617 -36.1617 -36.1290 -36.1290
   -36.1239 -36.1239 -36.1111 -36.1111 -36.1109 -36.1109 -36.1107 -36.1107
   -36.1060 -36.1060 -36.0946 -36.0945 -36.0911 -36.0911 -36.0743 -36.0743
   -16.5330 -16.5330 -16.5110 -16.5110 -16.4588 -16.4588 -16.4365 -16.4365
   -16.4037 -16.4037 -16.3473 -16.3473 -16.3435 -16.3435 -16.2875 -16.2875
   -16.1903 -16.1903 -16.1650 -16.1650 -16.0665 -16.0665 -16.0454 -16.0454
     8.9901   8.9901  11.5165  11.5165  12.7793  12.7793  13.0398  13.0398
    13.5436  13.5436  13.5802  13.5802  13.6297  13.6297  13.7478  13.7478
    13.8739  13.8739  14.4113  14.4113  14.4342  14.4342  14.7206  14.7206
    15.0459  15.0459  15.1394  15.1394  15.2876  15.2876  15.2908  15.2908
    15.4770  15.4770  15.5916  15.5916  15.7146  15.7146  15.7232  15.7232
    15.7373  15.7373  15.9282  15.9282  16.1647  16.1647  16.2776  16.2776
    17.0344  17.0344  17.1455  17.1455  17.1925  17.1925  17.2396  17.2397
    17.2686  17.2686  17.4135  17.4135  17.4797  17.4797  17.8816  17.8816
    17.9081  17.9081  18.2072  18.2072  18.5720  18.5720  18.7647  18.7647

          k = 0.0000 0.1695 0.1551 ( 32476 PWs)   bands (ev):

   -70.0432 -70.0427 -70.0412 -70.0407 -70.0392 -70.0387 -70.0372 -70.0367
   -40.1001 -40.0943 -40.0871 -40.0783 -40.0448 -40.0362 -39.8796 -39.8664
   -36.1768 -36.1736 -36.1674 -36.1672 -36.1546 -36.1533 -36.1353 -36.1344
   -36.1208 -36.1176 -36.1148 -36.1148 -36.1137 -36.1118 -36.1085 -36.1065
   -36.1049 -36.1023 -36.1016 -36.1011 -36.0890 -36.0880 -36.0793 -36.0785
   -16.5348 -16.5231 -16.4736 -16.4675 -16.4580 -16.4524 -16.4398 -16.3943
   -16.3892 -16.3844 -16.3804 -16.3316 -16.3294 -16.3113 -16.2887 -16.2604
   -16.2537 -16.2517 -16.1667 -16.1614 -16.1236 -16.1152 -16.0501 -16.0430
     8.4614   9.8302  11.0224  12.0495  12.2598  12.9026  13.1856  13.2592
    13.3378  13.6047  13.6437  13.7400  13.7602  13.7847  13.9305  13.9434
    13.9870  14.2870  14.2936  14.4765  14.5463  14.5590  14.6415  14.6965
    14.7801  14.8604  14.9553  15.0632  15.1217  15.2059  15.3861  15.4221
    15.4708  15.4890  15.5083  15.5258  15.5576  15.5718  15.5745  15.6013
    15.6163  15.6345  15.6664  15.7820  16.0414  16.1209  16.2032  16.2633
    16.7857  17.1567  17.1730  17.2195  17.2710  17.2772  17.3081  17.3584
    17.3946  17.4406  17.4559  17.4695  17.5211  17.5476  17.5696  17.8080
    17.9181  17.9886  18.1429  18.2244  18.2616  18.3682  18.4942  18.5976

          k = 0.0000 0.1695-0.2327 ( 32466 PWs)   bands (ev):

   -70.0430 -70.0430 -70.0409 -70.0409 -70.0390 -70.0390 -70.0370 -70.0370
   -40.0972 -40.0972 -40.0827 -40.0827 -40.0405 -40.0405 -39.8730 -39.8730
   -36.1752 -36.1752 -36.1673 -36.1673 -36.1539 -36.1539 -36.1349 -36.1349
   -36.1193 -36.1193 -36.1112 -36.1112 -36.1106 -36.1106 -36.1099 -36.1099
   -36.1070 -36.1070 -36.1012 -36.1012 -36.0885 -36.0885 -36.0789 -36.0789
   -16.5289 -16.5289 -16.4628 -16.4628 -16.4464 -16.4464 -16.3990 -16.3990
   -16.3855 -16.3855 -16.3523 -16.3523 -16.3402 -16.3402 -16.2909 -16.2909
   -16.2569 -16.2569 -16.1640 -16.1640 -16.1194 -16.1194 -16.0465 -16.0465
     9.0963   9.0963  11.5024  11.5024  12.5733  12.5733  13.3033  13.3033
    13.6430  13.6430  13.7610  13.7610  13.7971  13.7971  13.8783  13.8783
    14.0349  14.0349  14.4224  14.4224  14.5362  14.5362  14.6527  14.6527
    14.8026  14.8026  14.8816  14.8816  15.3027  15.3027  15.3459  15.3459
    15.3513  15.3513  15.4072  15.4072  15.5629  15.5629  15.5808  15.5808
    15.6100  15.6100  15.8168  15.8168  15.8739  15.8739  16.2135  16.2135
    17.0713  17.0713  17.3114  17.3114  17.3228  17.3228  17.3558  17.3558
    17.3887  17.3887  17.4852  17.4852  17.5714  17.5714  17.7064  17.7064
    17.7817  17.7817  18.1188  18.1188  18.2341  18.2341  18.6619  18.6619

          k =-0.0000-0.2543-0.2327 ( 32544 PWs)   bands (ev):

   -70.0421 -70.0421 -70.0418 -70.0418 -70.0381 -70.0381 -70.0378 -70.0378
   -40.0938 -40.0938 -40.0839 -40.0839 -40.0422 -40.0422 -39.8736 -39.8736
   -36.1710 -36.1710 -36.1706 -36.1706 -36.1447 -36.1447 -36.1431 -36.1431
   -36.1138 -36.1138 -36.1127 -36.1127 -36.1089 -36.1089 -36.1086 -36.1086
   -36.1083 -36.1083 -36.1078 -36.1078 -36.0847 -36.0847 -36.0836 -36.0836
   -16.5267 -16.5267 -16.4650 -16.4650 -16.3976 -16.3976 -16.3698 -16.3698
   -16.3620 -16.3620 -16.3503 -16.3503 -16.3383 -16.3383 -16.3265 -16.3265
   -16.2927 -16.2927 -16.1636 -16.1636 -16.1556 -16.1556 -16.0471 -16.0471
     9.1539   9.1539  11.4827  11.4827  12.5000  12.5000  13.5263  13.5263
    13.6578  13.6578  13.7952  13.7952  13.8679  13.8679  13.9966  13.9966
    14.2051  14.2051  14.3899  14.3899  14.5645  14.5645  14.6176  14.6176
    14.6841  14.6841  14.7424  14.7424  15.1849  15.1849  15.2119  15.2119
    15.4237  15.4237  15.4281  15.4281  15.4344  15.4344  15.4421  15.4421
    15.5880  15.5880  15.6642  15.6642  16.0316  16.0316  16.0596  16.0596
    17.1418  17.1418  17.3828  17.3828  17.4079  17.4079  17.4324  17.4324
    17.4641  17.4641  17.4807  17.4807  17.4932  17.4932  17.5956  17.5956
    17.7615  17.7615  18.1434  18.1434  18.3056  18.3056  18.3834  18.3834

          k = 0.0848 0.0848 0.0776 ( 32444 PWs)   bands (ev):

   -70.0439 -70.0429 -70.0404 -70.0404 -70.0395 -70.0395 -70.0370 -70.0361
   -40.1045 -40.0958 -40.0902 -40.0735 -40.0464 -40.0316 -39.8838 -39.8609
   -36.1808 -36.1740 -36.1638 -36.1627 -36.1618 -36.1615 -36.1315 -36.1302
   -36.1254 -36.1192 -36.1192 -36.1192 -36.1146 -36.1144 -36.1067 -36.1025
   -36.1025 -36.0982 -36.0949 -36.0938 -36.0932 -36.0930 -36.0769 -36.0755
   -16.5310 -16.5214 -16.5202 -16.4979 -16.4978 -16.4463 -16.4424 -16.4319
   -16.4315 -16.4245 -16.4107 -16.3558 -16.2949 -16.2808 -16.2424 -16.2185
   -16.1960 -16.1934 -16.1852 -16.1849 -16.0740 -16.0734 -16.0605 -16.0604
     7.9737  10.4432  10.6731  12.5456  12.6164  12.7491  12.8098  12.9066
    13.0529  13.3803  13.4311  13.4634  13.5273  13.7435  13.8978  13.9638
    14.3872  14.4162  14.4771  14.5096  14.5281  14.6106  14.6349  14.7475
    14.8672  14.9346  15.0324  15.0848  15.0921  15.1775  15.2173  15.3581
    15.3720  15.5073  15.6151  15.6226  15.6479  15.7884  15.7964  15.9214
    15.9509  16.0496  16.1099  16.1195  16.1424  16.3126  16.3186  16.3218
    16.7176  16.7318  16.9016  16.9231  17.0946  17.1882  17.2252  17.2313
    17.3955  17.4552  17.4661  17.6732  17.7791  17.7933  17.7989  17.8191
    18.0201  18.0420  18.0681  18.0701  18.1470  18.4475  18.4506  18.4722

          k = 0.0848 0.0848 0.1551 ( 32476 PWs)   bands (ev):

   -70.0437 -70.0431 -70.0402 -70.0402 -70.0397 -70.0397 -70.0368 -70.0363
   -40.1027 -40.0976 -40.0867 -40.0771 -40.0433 -40.0347 -39.8789 -39.8658
   -36.1794 -36.1755 -36.1633 -36.1625 -36.1620 -36.1620 -36.1313 -36.1305
   -36.1242 -36.1206 -36.1157 -36.1156 -36.1130 -36.1110 -36.1085 -36.1060
   -36.1059 -36.1016 -36.0945 -36.0936 -36.0934 -36.0933 -36.0766 -36.0758
   -16.5164 -16.5153 -16.5029 -16.5024 -16.4755 -16.4434 -16.4402 -16.4351
   -16.4340 -16.3922 -16.3834 -16.3351 -16.3278 -16.3084 -16.2901 -16.2496
   -16.1937 -16.1916 -16.1874 -16.1867 -16.0711 -16.0707 -16.0633 -16.0632
     8.3967   9.7805  11.0180  12.1502  12.6618  12.7789  12.9226  13.0038
    13.1678  13.5531  13.5690  13.5747  13.6784  13.8246  13.8801  13.9471
    14.0585  14.2135  14.4163  14.4227  14.5144  14.5293  14.5356  14.6915
    14.8971  15.0398  15.0643  15.1288  15.2159  15.2740  15.2942  15.3626
    15.4851  15.4998  15.5170  15.5461  15.5756  15.5959  15.6197  15.7220
    15.7229  15.7527  15.7757  15.9349  16.1543  16.1816  16.1967  16.3113
    16.6724  16.9557  17.1687  17.1943  17.2065  17.2492  17.3278  17.3427
    17.3671  17.4034  17.5003  17.5813  17.6048  17.6643  17.8259  17.8884
    17.9579  17.9638  17.9974  18.0460  18.3743  18.4100  18.6580  18.7920

          k = 0.0848 0.0848-0.2327 ( 32474 PWs)   bands (ev):

   -70.0434 -70.0434 -70.0399 -70.0399 -70.0399 -70.0399 -70.0365 -70.0365
   -40.1002 -40.1002 -40.0819 -40.0819 -40.0390 -40.0390 -39.8724 -39.8724
   -36.1774 -36.1774 -36.1627 -36.1627 -36.1622 -36.1622 -36.1309 -36.1309
   -36.1224 -36.1224 -36.1109 -36.1109 -36.1107 -36.1107 -36.1107 -36.1107
   -36.1063 -36.1063 -36.0940 -36.0940 -36.0934 -36.0934 -36.0762 -36.0762
   -16.5096 -16.5096 -16.5088 -16.5088 -16.4394 -16.4394 -16.4372 -16.4372
   -16.4014 -16.4014 -16.3460 -16.3460 -16.3454 -16.3454 -16.2891 -16.2891
   -16.1905 -16.1905 -16.1891 -16.1891 -16.0672 -16.0672 -16.0670 -16.0670
     9.0355   9.0355  11.5437  11.5437  12.7593  12.7593  12.9965  12.9965
    13.5801  13.5801  13.7120  13.7120  13.7379  13.7379  13.8113  13.8113
    13.9162  13.9162  14.4463  14.4463  14.4497  14.4497  14.6789  14.6789
    14.9830  14.9830  15.1259  15.1259  15.1829  15.1829  15.3093  15.3093
    15.4969  15.4969  15.5290  15.5290  15.6107  15.6107  15.6347  15.6347
    15.6916  15.6916  15.8050  15.8050  15.8610  15.8610  16.2336  16.2336
    17.0218  17.0218  17.2399  17.2399  17.3190  17.3190  17.3212  17.3212
    17.3900  17.3900  17.4212  17.4212  17.5637  17.5637  17.8639  17.8639
    18.0044  18.0044  18.0181  18.0181  18.4333  18.4333  18.8104  18.8104

          k = 0.0848 0.1695 0.1551 ( 32434 PWs)   bands (ev):

   -70.0430 -70.0424 -70.0409 -70.0404 -70.0395 -70.0390 -70.0375 -70.0370
   -40.0980 -40.0919 -40.0866 -40.0779 -40.0469 -40.0384 -39.8802 -39.8670
   -36.1746 -36.1717 -36.1647 -36.1646 -36.1552 -36.1544 -36.1368 -36.1360
   -36.1193 -36.1164 -36.1148 -36.1144 -36.1137 -36.1120 -36.1082 -36.1063
   -36.1051 -36.1026 -36.1006 -36.1003 -36.0913 -36.0906 -36.0814 -36.0806
   -16.5109 -16.4995 -16.4720 -16.4502 -16.4468 -16.4384 -16.4375 -16.3927
   -16.3910 -16.3856 -16.3820 -16.3311 -16.3292 -16.3100 -16.2908 -16.2602
   -16.2533 -16.2532 -16.1917 -16.1860 -16.1242 -16.1157 -16.0720 -16.0645
     8.4969   9.8640  11.1097  12.1467  12.2699  12.8685  13.0492  13.2640
    13.2730  13.7103  13.7265  13.8361  13.8435  13.9747  13.9758  14.0377
    14.0708  14.2811  14.3187  14.4942  14.5281  14.5611  14.6532  14.6705
    14.8148  14.9530  14.9847  14.9993  15.0517  15.1593  15.2938  15.3569
    15.3728  15.3729  15.3866  15.4188  15.4433  15.4448  15.4921  15.5519
    15.5620  15.5779  15.5917  15.6590  15.8653  15.9217  15.9326  16.1460
    16.8522  17.1903  17.2518  17.2882  17.3035  17.3185  17.4108  17.4599
    17.4881  17.5694  17.5889  17.6176  17.6486  17.7288  17.7329  17.8846
    17.9722  17.9876  18.1351  18.1495  18.2771  18.2871  18.5706  18.6083

          k = 0.0848 0.1695-0.2327 ( 32462 PWs)   bands (ev):

   -70.0427 -70.0427 -70.0407 -70.0407 -70.0392 -70.0392 -70.0372 -70.0372
   -40.0950 -40.0950 -40.0823 -40.0823 -40.0427 -40.0427 -39.8736 -39.8736
   -36.1732 -36.1732 -36.1647 -36.1647 -36.1548 -36.1548 -36.1364 -36.1364
   -36.1179 -36.1179 -36.1110 -36.1110 -36.1104 -36.1104 -36.1098 -36.1098
   -36.1073 -36.1073 -36.1004 -36.1004 -36.0910 -36.0910 -36.0810 -36.0810
   -16.5052 -16.5052 -16.4445 -16.4445 -16.4423 -16.4423 -16.3971 -16.3971
   -16.3870 -16.3870 -16.3507 -16.3507 -16.3423 -16.3423 -16.2925 -16.2925
   -16.2567 -16.2567 -16.1888 -16.1888 -16.1200 -16.1200 -16.0682 -16.0682
     9.1321   9.1321  11.5914  11.5914  12.5774  12.5774  13.2118  13.2118
    13.6362  13.6362  13.8815  13.8815  13.9053  13.9053  14.0015  14.0015
    14.0741  14.0741  14.4229  14.4229  14.5525  14.5525  14.6675  14.6676
    14.7501  14.7501  14.9531  14.9531  15.2257  15.2257  15.2426  15.2426
    15.3011  15.3011  15.3352  15.3352  15.4489  15.4489  15.4849  15.4849
    15.5660  15.5660  15.6283  15.6283  15.6531  15.6531  16.0707  16.0707
    17.0901  17.0901  17.4214  17.4214  17.4398  17.4398  17.4548  17.4548
    17.4730  17.4730  17.5910  17.5910  17.7437  17.7437  17.7756  17.7756
    17.8434  17.8435  18.1026  18.1026  18.2723  18.2723  18.7109  18.7109

          k = 0.0848-0.2543-0.2327 ( 32460 PWs)   bands (ev):

   -70.0418 -70.0418 -70.0416 -70.0415 -70.0384 -70.0384 -70.0381 -70.0381
   -40.0913 -40.0913 -40.0834 -40.0834 -40.0446 -40.0446 -39.8742 -39.8742
   -36.1687 -36.1686 -36.1682 -36.1682 -36.1459 -36.1459 -36.1443 -36.1443
   -36.1128 -36.1128 -36.1120 -36.1120 -36.1089 -36.1089 -36.1085 -36.1085
   -36.1083 -36.1083 -36.1072 -36.1072 -36.0871 -36.0871 -36.0860 -36.0860
   -16.5029 -16.5029 -16.4444 -16.4444 -16.3952 -16.3952 -16.3677 -16.3677
   -16.3603 -16.3603 -16.3498 -16.3498 -16.3403 -16.3403 -16.3291 -16.3291
   -16.2944 -16.2944 -16.1884 -16.1884 -16.1561 -16.1561 -16.0688 -16.0688
     9.1839   9.1839  11.6095  11.6095  12.4900  12.4900  13.4828  13.4828
    13.5568  13.5568  13.8973  13.8973  13.9796  13.9796  14.1587  14.1587
    14.2687  14.2687  14.4100  14.4100  14.5197  14.5197  14.6481  14.6481
    14.6833  14.6833  14.7866  14.7866  15.1213  15.1213  15.1233  15.1233
    15.3171  15.3171  15.3227  15.3227  15.3780  15.3780  15.3926  15.3926
    15.4467  15.4467  15.5073  15.5073  15.8194  15.8194  15.8498  15.8498
    17.1475  17.1475  17.4986  17.4986  17.5187  17.5187  17.5353  17.5353
    17.5908  17.5908  17.6334  17.6334  17.6838  17.6838  17.7580  17.7580
    17.8224  17.8224  18.1618  18.1618  18.3343  18.3343  18.4139  18.4139

          k = 0.1695 0.1695 0.1551 ( 32390 PWs)   bands (ev):

   -70.0422 -70.0417 -70.0402 -70.0402 -70.0397 -70.0397 -70.0382 -70.0377
   -40.0928 -40.0862 -40.0859 -40.0775 -40.0517 -40.0435 -39.8814 -39.8682
   -36.1692 -36.1671 -36.1589 -36.1576 -36.1575 -36.1564 -36.1414 -36.1409
   -36.1158 -36.1144 -36.1139 -36.1127 -36.1126 -36.1125 -36.1075 -36.1056
   -36.1054 -36.1034 -36.0989 -36.0978 -36.0974 -36.0962 -36.0866 -36.0861
   -16.4686 -16.4474 -16.4432 -16.4356 -16.4343 -16.4004 -16.3907 -16.3898
   -16.3889 -16.3875 -16.3839 -16.3350 -16.3229 -16.3083 -16.2954 -16.2626
   -16.2566 -16.2564 -16.2537 -16.2516 -16.1257 -16.1250 -16.1170 -16.1167
     8.5709   9.9342  11.3393  12.2088  12.3686  12.7285  12.8628  13.2678
    13.4285  13.9126  13.9320  14.0010  14.0230  14.0326  14.1349  14.2808
    14.2962  14.3259  14.3633  14.3692  14.5265  14.6335  14.6375  14.8326
    14.8343  14.8829  14.9836  15.0177  15.0562  15.0599  15.0989  15.1031
    15.1311  15.1869  15.2043  15.2449  15.2509  15.2539  15.3190  15.3583
    15.3885  15.4255  15.4461  15.5211  15.5430  15.5667  15.5933  15.9410
    17.0121  17.2138  17.3232  17.3743  17.4112  17.5556  17.6378  17.6490
    17.6689  17.6862  17.7706  17.7932  17.9187  17.9475  17.9519  18.0110
    18.0154  18.0597  18.1278  18.2185  18.2584  18.3245  18.5428  18.5984

          k = 0.1695 0.1695-0.2327 ( 32458 PWs)   bands (ev):

   -70.0420 -70.0420 -70.0400 -70.0400 -70.0400 -70.0400 -70.0380 -70.0380
   -40.0895 -40.0895 -40.0817 -40.0817 -40.0476 -40.0476 -39.8748 -39.8748
   -36.1682 -36.1682 -36.1582 -36.1582 -36.1570 -36.1570 -36.1412 -36.1412
   -36.1139 -36.1139 -36.1108 -36.1108 -36.1100 -36.1100 -36.1093 -36.1093
   -36.1080 -36.1080 -36.0983 -36.0983 -36.0967 -36.0967 -36.0864 -36.0864
   -16.4417 -16.4417 -16.4387 -16.4387 -16.3970 -16.3970 -16.3892 -16.3892
   -16.3882 -16.3882 -16.3472 -16.3472 -16.3471 -16.3471 -16.2962 -16.2962
   -16.2578 -16.2578 -16.2541 -16.2541 -16.1214 -16.1214 -16.1209 -16.1209
     9.2069   9.2069  11.8121  11.8121  12.5424  12.5424  13.0932  13.0932
    13.6315  13.6315  14.1439  14.1439  14.1664  14.1664  14.1745  14.1745
    14.2032  14.2032  14.4231  14.4231  14.6234  14.6234  14.6623  14.6623
    14.7107  14.7107  14.9827  14.9827  15.0916  15.0916  15.1026  15.1026
    15.1250  15.1250  15.1948  15.1948  15.2411  15.2411  15.2677  15.2677
    15.3432  15.3432  15.3531  15.3531  15.4676  15.4676  15.7292  15.7292
    17.1717  17.1717  17.5518  17.5518  17.5997  17.5997  17.6350  17.6350
    17.6653  17.6653  17.8340  17.8340  17.8649  17.8649  17.9946  17.9946
    18.0135  18.0135  18.1087  18.1087  18.4116  18.4116  18.7514  18.7514

          k = 0.1695-0.2543-0.2327 ( 32460 PWs)   bands (ev):

   -70.0411 -70.0411 -70.0408 -70.0408 -70.0391 -70.0391 -70.0388 -70.0388
   -40.0855 -40.0855 -40.0822 -40.0822 -40.0505 -40.0505 -39.8754 -39.8754
   -36.1626 -36.1626 -36.1620 -36.1620 -36.1495 -36.1495 -36.1480 -36.1480
   -36.1110 -36.1110 -36.1107 -36.1107 -36.1093 -36.1093 -36.1089 -36.1089
   -36.1063 -36.1063 -36.1046 -36.1046 -36.0931 -36.0931 -36.0920 -36.0920
   -16.4379 -16.4379 -16.3953 -16.3953 -16.3883 -16.3883 -16.3623 -16.3623
   -16.3567 -16.3567 -16.3487 -16.3487 -16.3451 -16.3451 -16.3350 -16.3350
   -16.2981 -16.2981 -16.2556 -16.2556 -16.1572 -16.1572 -16.1217 -16.1217
     9.2459   9.2459  11.9698  11.9698  12.4704  12.4704  13.0660  13.0660
    13.6092  13.6092  14.1698  14.1698  14.2647  14.2647  14.4521  14.4521
    14.4533  14.4533  14.4677  14.4677  14.4858  14.4858  14.6169  14.6169
    14.7806  14.7806  14.8061  14.8061  15.0276  15.0276  15.0482  15.0482
    15.0883  15.0883  15.1150  15.1150  15.1155  15.1155  15.1761  15.1761
    15.3024  15.3024  15.3231  15.3231  15.3826  15.3826  15.4193  15.4193
    17.2129  17.2129  17.6490  17.6490  17.6774  17.6774  17.7261  17.7261
    17.8399  17.8399  17.9205  17.9205  17.9450  17.9450  17.9659  17.9659
    18.0189  18.0189  18.3748  18.3748  18.4690  18.4690  18.5163  18.5163

          k =-0.2543-0.2543-0.2327 ( 32344 PWs)   bands (ev):

   -70.0402 -70.0402 -70.0400 -70.0400 -70.0400 -70.0400 -70.0397 -70.0397
   -40.0817 -40.0817 -40.0817 -40.0817 -40.0544 -40.0544 -39.8760 -39.8760
   -36.1558 -36.1558 -36.1558 -36.1558 -36.1551 -36.1551 -36.1530 -36.1530
   -36.1099 -36.1099 -36.1099 -36.1099 -36.1098 -36.1098 -36.1093 -36.1093
   -36.1024 -36.1024 -36.0993 -36.0993 -36.0988 -36.0988 -36.0988 -36.0988
   -16.3870 -16.3870 -16.3621 -16.3621 -16.3595 -16.3595 -16.3538 -16.3538
   -16.3499 -16.3499 -16.3491 -16.3491 -16.3491 -16.3491 -16.3390 -16.3390
   -16.3390 -16.3390 -16.3000 -16.3000 -16.1578 -16.1578 -16.1578 -16.1578
     9.2780   9.2780  12.4609  12.4609  12.4609  12.4609  12.5399  12.5399
    13.6259  13.6259  14.4460  14.4460  14.4460  14.4460  14.4653  14.4653
    14.5676  14.5676  14.5677  14.5677  14.6156  14.6156  14.6641  14.6641
    14.9015  14.9015  14.9015  14.9015  14.9386  14.9386  14.9518  14.9518
    14.9518  14.9518  14.9645  14.9645  14.9765  14.9765  14.9857  14.9857
    15.1642  15.1642  15.1642  15.1642  15.1649  15.1649  15.1949  15.1949
    17.2459  17.2459  17.8027  17.8027  17.8027  17.8027  17.8266  17.8266
    17.9677  17.9678  17.9678  17.9678  17.9694  17.9694  18.0531  18.0531
    18.1444  18.1444  18.6663  18.6663  18.6663  18.6663  18.7235  18.7235

          k = 0.0848 0.0000 0.0000 ( 32427 PWs)   bands (ev):

   -70.0443 -70.0431 -70.0408 -70.0402 -70.0397 -70.0391 -70.0368 -70.0357
   -40.1070 -40.0976 -40.0919 -40.0721 -40.0459 -40.0286 -39.8849 -39.8585
   -36.1835 -36.1748 -36.1663 -36.1643 -36.1630 -36.1604 -36.1298 -36.1282
   -36.1278 -36.1210 -36.1209 -36.1200 -36.1153 -36.1147 -36.1064 -36.1015
   -36.1008 -36.0966 -36.0954 -36.0940 -36.0921 -36.0901 -36.0751 -36.0735
   -16.5528 -16.5471 -16.5253 -16.5195 -16.4973 -16.4658 -16.4510 -16.4426
   -16.4372 -16.4296 -16.4197 -16.3644 -16.2830 -16.2710 -16.2254 -16.2030
   -16.1959 -16.1848 -16.1702 -16.1599 -16.0743 -16.0588 -16.0528 -16.0380
     7.7791  10.5066  10.7088  12.5674  12.6165  12.6940  12.7619  13.0559
    13.1695  13.2500  13.2935  13.3831  13.3933  13.4250  13.7706  13.8663
    14.3957  14.4013  14.5705  14.6675  14.6676  14.7006  14.7047  14.7810
    14.8136  14.9658  14.9784  15.0151  15.0600  15.0941  15.4127  15.5234
    15.5269  15.5389  15.6097  15.6989  15.7534  15.8083  15.8570  15.9494
    15.9543  16.0909  16.2621  16.2779  16.4402  16.5318  16.5953  16.5985
    16.6127  16.7532  16.7867  16.9732  17.0955  17.1363  17.1843  17.2270
    17.2591  17.4786  17.5016  17.5632  17.6334  17.7010  17.7711  17.9403
    17.9988  18.0458  18.0766  18.0943  18.1827  18.1966  18.1999  18.4248

          k = 0.1695 0.0000 0.0000 ( 32412 PWs)   bands (ev):

   -70.0435 -70.0424 -70.0415 -70.0404 -70.0395 -70.0384 -70.0375 -70.0365
   -40.1031 -40.0915 -40.0914 -40.0739 -40.0491 -40.0319 -39.8862 -39.8597
   -36.1784 -36.1719 -36.1675 -36.1671 -36.1552 -36.1527 -36.1357 -36.1340
   -36.1217 -36.1198 -36.1196 -36.1165 -36.1160 -36.1159 -36.1054 -36.1025
   -36.1020 -36.1015 -36.0999 -36.0975 -36.0895 -36.0875 -36.0797 -36.0780
   -16.5493 -16.5408 -16.5173 -16.4721 -16.4585 -16.4531 -16.4362 -16.4337
   -16.4212 -16.3920 -16.3797 -16.3676 -16.2790 -16.2715 -16.2640 -16.2504
   -16.2229 -16.2091 -16.1694 -16.1587 -16.1279 -16.1109 -16.0536 -16.0394
     7.8915  10.5931  10.7459  11.9551  12.7111  12.9243  13.0266  13.2139
    13.2480  13.3551  13.4290  13.5110  13.5861  13.6762  13.8901  13.9146
    14.1488  14.1918  14.4447  14.5858  14.6164  14.6200  14.6918  14.7798
    14.8537  14.8849  15.1252  15.1694  15.1751  15.2113  15.3449  15.4231
    15.4902  15.5117  15.5366  15.5827  15.6462  15.6734  15.7932  15.8508
    15.8675  15.9088  16.0329  16.1238  16.1501  16.3776  16.3948  16.5106
    16.6334  16.6806  16.7234  16.7775  16.8098  16.9571  17.1331  17.1964
    17.2646  17.4453  17.5070  17.6183  17.6260  17.8658  17.8992  18.0051
    18.1515  18.1997  18.3042  18.3438  18.4051  18.4145  18.5343  18.6451

          k =-0.2543-0.0000-0.0000 ( 32504 PWs)   bands (ev):

   -70.0426 -70.0424 -70.0415 -70.0413 -70.0386 -70.0384 -70.0376 -70.0373
   -40.1007 -40.0916 -40.0868 -40.0763 -40.0508 -40.0336 -39.8869 -39.8604
   -36.1727 -36.1722 -36.1693 -36.1688 -36.1458 -36.1441 -36.1437 -36.1421
   -36.1183 -36.1180 -36.1178 -36.1178 -36.1133 -36.1114 -36.1102 -36.1082
   -36.1041 -36.1038 -36.0989 -36.0986 -36.0856 -36.0846 -36.0838 -36.0827
   -16.5475 -16.5371 -16.5162 -16.4757 -16.4543 -16.4361 -16.4215 -16.3822
   -16.3692 -16.3653 -16.3611 -16.3481 -16.3322 -16.3211 -16.2748 -16.2741
   -16.2186 -16.2151 -16.1690 -16.1650 -16.1581 -16.1464 -16.0541 -16.0400
     7.9521  10.6567  10.7646  11.6838  12.7705  13.0967  13.1390  13.3567
    13.3821  13.4165  13.5198  13.7038  13.7131  13.7654  13.8218  13.8291
    13.8642  14.0657  14.0728  14.6087  14.7670  14.7898  14.8618  14.8663
    14.8726  14.9599  14.9670  15.0630  15.1128  15.2822  15.4236  15.4435
    15.4463  15.5141  15.5214  15.5700  15.5957  15.7236  15.7961  15.8434
    15.8896  15.8921  15.9404  15.9421  15.9478  15.9878  15.9980  16.1089
    16.6487  16.6739  16.6855  16.7124  16.7181  17.2480  17.2550  17.4047
    17.4468  17.4483  17.4612  17.4697  17.6337  17.8975  17.9218  18.2031
    18.2037  18.2072  18.2226  18.4786  18.6850  18.7485  18.7696  18.7720

          k = 0.0848-0.0848 0.0000 ( 32442 PWs)   bands (ev):

   -70.0440 -70.0429 -70.0405 -70.0405 -70.0394 -70.0394 -70.0371 -70.0360
   -40.1052 -40.0951 -40.0915 -40.0722 -40.0476 -40.0304 -39.8855 -39.8591
   -36.1814 -36.1735 -36.1640 -36.1628 -36.1617 -36.1613 -36.1316 -36.1301
   -36.1258 -36.1206 -36.1205 -36.1187 -36.1157 -36.1152 -36.1060 -36.1012
   -36.1012 -36.0970 -36.0950 -36.0939 -36.0932 -36.0929 -36.0770 -36.0754
   -16.5512 -16.5233 -16.5220 -16.4962 -16.4962 -16.4473 -16.4431 -16.4361
   -16.4308 -16.4306 -16.4208 -16.3661 -16.2815 -16.2706 -16.2252 -16.2053
   -16.1969 -16.1941 -16.1844 -16.1842 -16.0750 -16.0744 -16.0594 -16.0594
     7.8262  10.5537  10.7289  12.4955  12.7306  12.7315  12.7500  12.8262
    13.1503  13.3154  13.3912  13.4251  13.4756  13.6897  13.8715  13.9105
    14.4165  14.5183  14.5424  14.5933  14.5957  14.6232  14.6554  14.7963
    14.8212  14.9872  14.9934  15.0193  15.0208  15.0316  15.3833  15.4322
    15.4417  15.4640  15.6234  15.6328  15.6399  15.8339  15.8561  15.9822
    16.0202  16.0563  16.0955  16.1799  16.2879  16.3715  16.6363  16.6487
    16.7072  16.7467  16.8107  16.8694  16.8835  16.8862  16.9416  17.1723
    17.3667  17.5430  17.5447  17.7242  17.7267  17.7582  17.8186  17.9058
    17.9650  18.0582  18.0862  18.2150  18.2822  18.2863  18.3065  18.5131

          k =-0.0848-0.0848-0.0000 ( 32442 PWs)   bands (ev):

   -70.0440 -70.0429 -70.0405 -70.0405 -70.0394 -70.0394 -70.0371 -70.0360
   -40.1052 -40.0951 -40.0915 -40.0722 -40.0476 -40.0304 -39.8855 -39.8591
   -36.1814 -36.1735 -36.1640 -36.1628 -36.1617 -36.1613 -36.1316 -36.1301
   -36.1258 -36.1206 -36.1205 -36.1187 -36.1157 -36.1152 -36.1060 -36.1012
   -36.1012 -36.0970 -36.0950 -36.0939 -36.0932 -36.0929 -36.0770 -36.0754
   -16.5512 -16.5233 -16.5220 -16.4962 -16.4962 -16.4473 -16.4431 -16.4361
   -16.4308 -16.4306 -16.4208 -16.3661 -16.2815 -16.2706 -16.2252 -16.2053
   -16.1969 -16.1941 -16.1844 -16.1842 -16.0750 -16.0744 -16.0594 -16.0594
     7.8262  10.5537  10.7289  12.4955  12.7306  12.7315  12.7500  12.8262
    13.1503  13.3155  13.3912  13.4251  13.4756  13.6897  13.8715  13.9105
    14.4165  14.5183  14.5424  14.5933  14.5958  14.6232  14.6554  14.7963
    14.8212  14.9872  14.9934  15.0193  15.0208  15.0316  15.3833  15.4322
    15.4417  15.4640  15.6235  15.6328  15.6399  15.8338  15.8561  15.9822
    16.0202  16.0563  16.0955  16.1799  16.2879  16.3715  16.6363  16.6487
    16.7072  16.7467  16.8107  16.8695  16.8835  16.8862  16.9416  17.1723
    17.3666  17.5430  17.5447  17.7242  17.7267  17.7582  17.8186  17.9058
    17.9650  18.0582  18.0862  18.2150  18.2822  18.2864  18.3065  18.5131

          k = 0.1695-0.0848 0.0000 ( 32469 PWs)   bands (ev):

   -70.0432 -70.0421 -70.0412 -70.0401 -70.0398 -70.0387 -70.0378 -70.0367
   -40.1010 -40.0910 -40.0889 -40.0736 -40.0511 -40.0342 -39.8868 -39.8604
   -36.1761 -36.1703 -36.1647 -36.1646 -36.1556 -36.1539 -36.1372 -36.1356
   -36.1200 -36.1195 -36.1194 -36.1167 -36.1163 -36.1148 -36.1050 -36.1022
   -36.1009 -36.1007 -36.1003 -36.0978 -36.0917 -36.0903 -36.0818 -36.0802
   -16.5480 -16.5166 -16.4939 -16.4560 -16.4514 -16.4344 -16.4329 -16.4325
   -16.4224 -16.3941 -16.3807 -16.3695 -16.2775 -16.2706 -16.2637 -16.2500
   -16.2235 -16.2110 -16.1946 -16.1831 -16.1285 -16.1115 -16.0757 -16.0607
     7.9260  10.6811  10.7694  11.9630  12.7877  12.8221  12.9469  13.0553
    13.3567  13.4709  13.4969  13.6654  13.7091  13.7361  13.9541  13.9650
    14.2091  14.2140  14.4497  14.5663  14.6374  14.7278  14.7508  14.7667
    14.7704  14.9269  15.0396  15.1144  15.1348  15.1558  15.2904  15.3059
    15.3461  15.4104  15.5309  15.5483  15.5735  15.7024  15.7441  15.7475
    15.8055  15.8494  15.9408  15.9724  16.0581  16.2681  16.3350  16.3408
    16.5485  16.6685  16.6944  16.7266  16.8429  17.0949  17.2217  17.2959
    17.3976  17.5980  17.7062  17.7202  17.7325  17.9131  17.9621  17.9625
    18.0589  18.0800  18.1030  18.3320  18.3958  18.4038  18.5317  18.6267

          k =-0.1695-0.0848-0.0000 ( 32469 PWs)   bands (ev):

   -70.0432 -70.0421 -70.0412 -70.0401 -70.0398 -70.0387 -70.0378 -70.0367
   -40.1010 -40.0910 -40.0889 -40.0736 -40.0511 -40.0342 -39.8868 -39.8604
   -36.1761 -36.1703 -36.1647 -36.1646 -36.1556 -36.1539 -36.1372 -36.1356
   -36.1200 -36.1195 -36.1194 -36.1167 -36.1163 -36.1148 -36.1050 -36.1022
   -36.1009 -36.1007 -36.1003 -36.0978 -36.0917 -36.0903 -36.0818 -36.0802
   -16.5480 -16.5166 -16.4939 -16.4560 -16.4514 -16.4344 -16.4329 -16.4325
   -16.4224 -16.3941 -16.3807 -16.3695 -16.2775 -16.2706 -16.2637 -16.2500
   -16.2235 -16.2110 -16.1946 -16.1831 -16.1285 -16.1115 -16.0757 -16.0607
     7.9260  10.6811  10.7694  11.9630  12.7877  12.8221  12.9469  13.0553
    13.3567  13.4709  13.4969  13.6654  13.7091  13.7361  13.9541  13.9650
    14.2091  14.2140  14.4497  14.5663  14.6373  14.7278  14.7508  14.7667
    14.7704  14.9269  15.0396  15.1144  15.1348  15.1558  15.2904  15.3059
    15.3461  15.4104  15.5309  15.5483  15.5735  15.7024  15.7441  15.7475
    15.8054  15.8494  15.9408  15.9724  16.0581  16.2681  16.3351  16.3408
    16.5486  16.6685  16.6944  16.7266  16.8429  17.0950  17.2217  17.2959
    17.3976  17.5980  17.7062  17.7202  17.7325  17.9131  17.9621  17.9625
    18.0590  18.0800  18.1031  18.3320  18.3958  18.4038  18.5317  18.6267

          k = 0.0000 0.1695 0.0776 ( 32469 PWs)   bands (ev):

   -70.0434 -70.0425 -70.0414 -70.0405 -70.0394 -70.0385 -70.0374 -70.0365
   -40.1023 -40.0922 -40.0903 -40.0751 -40.0479 -40.0330 -39.8844 -39.8615
   -36.1780 -36.1724 -36.1675 -36.1672 -36.1550 -36.1529 -36.1356 -36.1341
   -36.1216 -36.1185 -36.1181 -36.1164 -36.1154 -36.1152 -36.1063 -36.1036
   -36.1019 -36.1013 -36.1013 -36.0988 -36.0893 -36.0876 -36.0796 -36.0781
   -16.5392 -16.5290 -16.5189 -16.4709 -16.4568 -16.4544 -16.4357 -16.4248
   -16.4107 -16.3913 -16.3805 -16.3573 -16.2922 -16.2821 -16.2629 -16.2512
   -16.2406 -16.2218 -16.1687 -16.1594 -16.1268 -16.1121 -16.0527 -16.0403
     8.0390  10.4731  10.7039  12.0359  12.5124  13.0131  13.0711  13.1647
    13.2566  13.4342  13.4952  13.5771  13.6331  13.6867  13.9326  13.9543
    14.1495  14.1559  14.4087  14.5753  14.5947  14.6198  14.7369  14.7450
    14.7763  14.9150  15.0337  15.1417  15.1444  15.1643  15.3408  15.4432
    15.4701  15.4795  15.5044  15.6149  15.6275  15.6339  15.7084  15.7644
    15.8257  15.9231  15.9653  15.9825  16.0559  16.1119  16.1505  16.4705
    16.6546  16.8946  16.9162  17.0181  17.0579  17.0719  17.2089  17.2124
    17.2817  17.4355  17.5276  17.5373  17.6155  17.6840  17.8281  17.9155
    18.0050  18.2227  18.2722  18.2839  18.3589  18.3689  18.4417  18.6182

          k =-0.2543-0.0848-0.0000 ( 32438 PWs)   bands (ev):

   -70.0424 -70.0421 -70.0413 -70.0410 -70.0389 -70.0386 -70.0378 -70.0376
   -40.0984 -40.0910 -40.0843 -40.0757 -40.0531 -40.0362 -39.8874 -39.8610
   -36.1701 -36.1696 -36.1671 -36.1667 -36.1467 -36.1451 -36.1450 -36.1435
   -36.1183 -36.1180 -36.1178 -36.1177 -36.1120 -36.1101 -36.1093 -36.1073
   -36.1037 -36.1034 -36.0992 -36.0989 -36.0878 -36.0867 -36.0863 -36.0852
   -16.5463 -16.5131 -16.4928 -16.4549 -16.4340 -16.4339 -16.4227 -16.3793
   -16.3713 -16.3646 -16.3591 -16.3477 -16.3350 -16.3232 -16.2734 -16.2728
   -16.2201 -16.2164 -16.1944 -16.1826 -16.1653 -16.1469 -16.0762 -16.0613
     7.9791  10.7823  10.7898  11.6771  12.8368  12.8801  13.0328  13.4140
    13.4750  13.5014  13.6823  13.7490  13.7592  13.7950  13.9100  13.9222
    13.9781  14.1006  14.1049  14.6471  14.8028  14.8233  14.8237  14.8277
    14.8644  14.9905  15.0545  15.1154  15.1265  15.1997  15.2048  15.2932
    15.2947  15.4407  15.4452  15.4649  15.4654  15.5895  15.7441  15.7481
    15.7650  15.7930  15.7934  15.8386  15.8903  15.9415  16.0288  16.0341
    16.6971  16.6974  16.7413  16.7466  16.7524  17.3454  17.4078  17.5040
    17.5471  17.5575  17.5679  17.5827  17.7175  17.9000  17.9778  18.1362
    18.1402  18.1780  18.1878  18.2009  18.5741  18.6272  18.6571  18.6605

          k =-0.0000-0.2543 0.0776 ( 32438 PWs)   bands (ev):

   -70.0426 -70.0423 -70.0416 -70.0413 -70.0386 -70.0383 -70.0376 -70.0374
   -40.0998 -40.0905 -40.0878 -40.0773 -40.0496 -40.0347 -39.8851 -39.8622
   -36.1724 -36.1720 -36.1695 -36.1690 -36.1456 -36.1440 -36.1438 -36.1422
   -36.1172 -36.1171 -36.1170 -36.1167 -36.1128 -36.1109 -36.1107 -36.1088
   -36.1048 -36.1044 -36.1002 -36.0999 -36.0855 -36.0844 -36.0839 -36.0828
   -16.5357 -16.5271 -16.5176 -16.4743 -16.4557 -16.4254 -16.4109 -16.3809
   -16.3642 -16.3624 -16.3591 -16.3491 -16.3315 -16.3218 -16.2872 -16.2850
   -16.2386 -16.2256 -16.1683 -16.1637 -16.1588 -16.1477 -16.0532 -16.0410
     8.0998  10.5029  10.7569  11.7847  12.5028  13.1699  13.2168  13.2922
    13.4517  13.5310  13.5997  13.7315  13.7756  13.7906  13.8064  13.8444
    13.8795  14.0700  14.1427  14.6500  14.7928  14.8007  14.8057  14.8072
    14.8324  14.8576  14.8786  14.9798  15.1970  15.3063  15.3384  15.3794
    15.4812  15.5436  15.5524  15.5592  15.5882  15.5927  15.6083  15.6558
    15.6559  15.7683  15.7702  15.8004  15.8802  16.0452  16.1199  16.1201
    16.7286  16.8832  16.9029  16.9173  16.9240  17.2623  17.2714  17.4370
    17.4440  17.4494  17.4647  17.4922  17.6632  17.7672  17.9730  18.0656
    18.0884  18.1607  18.1891  18.2017  18.2238  18.3635  18.6631  18.7334

          k = 0.1695-0.1695 0.0000 ( 32476 PWs)   bands (ev):

   -70.0425 -70.0414 -70.0405 -70.0405 -70.0394 -70.0394 -70.0385 -70.0374
   -40.0961 -40.0901 -40.0828 -40.0734 -40.0558 -40.0394 -39.8879 -39.8616
   -36.1703 -36.1661 -36.1595 -36.1581 -36.1570 -36.1558 -36.1416 -36.1406
   -36.1189 -36.1188 -36.1173 -36.1169 -36.1150 -36.1114 -36.1040 -36.1013
   -36.1013 -36.0995 -36.0988 -36.0981 -36.0972 -36.0960 -36.0869 -36.0858
   -16.5453 -16.4531 -16.4478 -16.4308 -16.4300 -16.4297 -16.4246 -16.4058
   -16.3932 -16.3834 -16.3827 -16.3737 -16.2737 -16.2692 -16.2667 -16.2592
   -16.2495 -16.2492 -16.2241 -16.2157 -16.1301 -16.1291 -16.1126 -16.1125
     7.9974  10.8172  10.9214  11.8799  12.3721  12.9294  13.1212  13.1397
    13.6115  13.6563  13.7676  13.7964  13.8320  13.8814  13.9835  14.0048
    14.2485  14.4202  14.4498  14.4850  14.6001  14.6609  14.7553  14.8131
    14.9619  14.9721  15.0049  15.0353  15.0472  15.0913  15.1077  15.1149
    15.1621  15.3073  15.3612  15.3704  15.3916  15.5119  15.6017  15.6543
    15.7116  15.7611  15.7884  15.8012  15.9137  15.9498  15.9538  16.0210
    16.7067  16.7177  16.7287  16.8065  16.8384  17.4531  17.4742  17.4813
    17.5874  17.7411  17.8370  17.8623  17.8657  17.9275  17.9300  18.0112
    18.0336  18.0345  18.2008  18.2931  18.2968  18.3021  18.3428  18.4560

          k =-0.1695-0.1695-0.0000 ( 32476 PWs)   bands (ev):

   -70.0425 -70.0414 -70.0405 -70.0405 -70.0394 -70.0394 -70.0385 -70.0374
   -40.0961 -40.0901 -40.0828 -40.0734 -40.0558 -40.0394 -39.8879 -39.8616
   -36.1703 -36.1661 -36.1595 -36.1581 -36.1570 -36.1558 -36.1416 -36.1406
   -36.1189 -36.1188 -36.1173 -36.1169 -36.1150 -36.1114 -36.1040 -36.1013
   -36.1013 -36.0995 -36.0988 -36.0981 -36.0972 -36.0960 -36.0869 -36.0858
   -16.5453 -16.4531 -16.4478 -16.4308 -16.4300 -16.4297 -16.4246 -16.4058
   -16.3932 -16.3834 -16.3827 -16.3737 -16.2737 -16.2692 -16.2667 -16.2592
   -16.2495 -16.2491 -16.2241 -16.2157 -16.1301 -16.1291 -16.1126 -16.1125
     7.9974  10.8172  10.9214  11.8799  12.3721  12.9294  13.1212  13.1397
    13.6116  13.6564  13.7676  13.7964  13.8320  13.8814  13.9835  14.0048
    14.2485  14.4202  14.4498  14.4850  14.6001  14.6609  14.7553  14.8130
    14.9619  14.9722  15.0050  15.0353  15.0472  15.0912  15.1077  15.1149
    15.1621  15.3073  15.3612  15.3704  15.3916  15.5119  15.6017  15.6542
    15.7116  15.7611  15.7885  15.8012  15.9137  15.9498  15.9538  16.0210
    16.7067  16.7177  16.7287  16.8065  16.8384  17.4532  17.4742  17.4814
    17.5874  17.7411  17.8370  17.8623  17.8657  17.9275  17.9300  18.0112
    18.0336  18.0345  18.2007  18.2930  18.2968  18.3021  18.3428  18.4560

          k =-0.2543-0.1695-0.0000 ( 32466 PWs)   bands (ev):

   -70.0416 -70.0414 -70.0405 -70.0403 -70.0396 -70.0394 -70.0386 -70.0383
   -40.0929 -40.0899 -40.0781 -40.0745 -40.0586 -40.0424 -39.8885 -39.8623
   -36.1637 -36.1629 -36.1618 -36.1613 -36.1496 -36.1491 -36.1479 -36.1478
   -36.1182 -36.1180 -36.1179 -36.1177 -36.1078 -36.1065 -36.1061 -36.1043
   -36.1028 -36.1025 -36.1002 -36.0999 -36.0931 -36.0930 -36.0922 -36.0916
   -16.5439 -16.4474 -16.4292 -16.4284 -16.4252 -16.4040 -16.3843 -16.3761
   -16.3714 -16.3632 -16.3539 -16.3469 -16.3420 -16.3283 -16.2702 -16.2700
   -16.2625 -16.2490 -16.2233 -16.2192 -16.1666 -16.1477 -16.1302 -16.1131
     8.0345  10.8417  11.1403  11.6594  12.2842  12.9267  13.1806  13.4435
    13.7803  13.7968  13.8093  13.8339  13.8480  13.8492  14.1670  14.1721
    14.1723  14.1778  14.2528  14.6904  14.7801  14.8321  14.8599  14.8602
    14.8609  14.8665  14.8781  14.8871  14.9314  15.0434  15.0625  15.1181
    15.2091  15.2309  15.2313  15.2983  15.4007  15.4154  15.5641  15.5749
    15.5947  15.6206  15.6751  15.6979  15.7454  15.7477  15.9697  15.9750
    16.7180  16.7284  16.7620  16.7846  16.9473  17.5675  17.6133  17.7357
    17.7490  17.7807  17.8746  17.8774  17.8785  17.8947  17.8962  18.0392
    18.0823  18.0927  18.1401  18.1460  18.2927  18.3399  18.4067  18.4371

          k =-0.0000-0.2543 0.1551 ( 32466 PWs)   bands (ev):

   -70.0424 -70.0421 -70.0418 -70.0415 -70.0384 -70.0381 -70.0378 -70.0376
   -40.0972 -40.0903 -40.0877 -40.0801 -40.0465 -40.0379 -39.8803 -39.8670
   -36.1718 -36.1714 -36.1701 -36.1697 -36.1453 -36.1442 -36.1436 -36.1426
   -36.1157 -36.1152 -36.1135 -36.1131 -36.1119 -36.1112 -36.1104 -36.1097
   -36.1065 -36.1059 -36.1037 -36.1034 -36.0852 -36.0842 -36.0841 -36.0832
   -16.5319 -16.5214 -16.4714 -16.4704 -16.4596 -16.3965 -16.3818 -16.3778
   -16.3654 -16.3615 -16.3519 -16.3310 -16.3299 -16.3254 -16.3239 -16.3144
   -16.2876 -16.2541 -16.1663 -16.1608 -16.1602 -16.1510 -16.0506 -16.0436
     8.5220   9.8779  11.0449  12.0029  12.0730  12.9668  13.3569  13.4244
    13.5268  13.7086  13.7514  13.7966  13.8141  13.8302  13.8588  13.9871
    14.0690  14.0836  14.2289  14.6082  14.6867  14.7231  14.7283  14.7310
    14.7416  14.7492  14.7669  14.7959  15.2042  15.2255  15.2288  15.2917
    15.3448  15.3702  15.4241  15.4536  15.4841  15.4848  15.5517  15.5747
    15.5834  15.6231  15.7272  15.8237  15.8649  15.8715  16.1480  16.1599
    16.9213  17.1735  17.2123  17.2288  17.2396  17.3126  17.3276  17.3399
    17.4401  17.4598  17.4965  17.5406  17.6857  17.6912  17.7431  17.7458
    17.7961  17.8771  18.1376  18.1745  18.1880  18.2048  18.5399  18.5868

          k =-0.2543 0.2543-0.0000 ( 32544 PWs)   bands (ev):

   -70.0408 -70.0405 -70.0405 -70.0402 -70.0397 -70.0394 -70.0394 -70.0392
   -40.0894 -40.0894 -40.0739 -40.0739 -40.0622 -40.0466 -39.8891 -39.8629
   -36.1570 -36.1570 -36.1570 -36.1550 -36.1546 -36.1546 -36.1531 -36.1510
   -36.1181 -36.1180 -36.1180 -36.1177 -36.1036 -36.1016 -36.1013 -36.1013
   -36.1012 -36.1011 -36.1008 -36.1008 -36.1005 -36.0981 -36.0973 -36.0973
   -16.5426 -16.4265 -16.4265 -16.3788 -16.3754 -16.3715 -16.3577 -16.3536
   -16.3508 -16.3499 -16.3484 -16.3484 -16.3469 -16.3461 -16.3319 -16.3319
   -16.2685 -16.2685 -16.2250 -16.2207 -16.1673 -16.1673 -16.1481 -16.1481
     8.0631  10.8683  11.6481  11.6481  11.7007  12.8808  13.4764  13.4764
    13.7071  13.8749  13.8854  13.8854  14.0695  14.1170  14.1199  14.1199
    14.5127  14.5127  14.5429  14.5649  14.5755  14.6112  14.6113  14.6612
    14.7359  14.8741  14.8741  14.8882  14.9427  14.9816  14.9817  15.0151
    15.0447  15.1087  15.1181  15.1181  15.5435  15.5435  15.5517  15.5517
    15.5579  15.5624  15.6573  15.6695  15.6968  15.7232  15.7503  15.7503
    16.7325  16.7587  16.7587  16.7743  17.0451  17.7213  17.7213  17.7484
    17.8285  17.9565  17.9565  18.0122  18.0248  18.0656  18.0684  18.0684
    18.1325  18.1325  18.1469  18.1525  18.1861  18.1958  18.1958  18.2072

          k = 0.0848-0.0848 0.0776 ( 32444 PWs)   bands (ev):

   -70.0439 -70.0429 -70.0404 -70.0404 -70.0395 -70.0395 -70.0370 -70.0361
   -40.1045 -40.0958 -40.0902 -40.0735 -40.0464 -40.0316 -39.8838 -39.8609
   -36.1808 -36.1740 -36.1638 -36.1627 -36.1617 -36.1615 -36.1315 -36.1302
   -36.1254 -36.1192 -36.1192 -36.1192 -36.1146 -36.1144 -36.1067 -36.1025
   -36.1025 -36.0982 -36.0949 -36.0938 -36.0932 -36.0930 -36.0769 -36.0755
   -16.5310 -16.5214 -16.5202 -16.4979 -16.4978 -16.4463 -16.4424 -16.4320
   -16.4315 -16.4245 -16.4107 -16.3558 -16.2949 -16.2808 -16.2424 -16.2185
   -16.1960 -16.1934 -16.1852 -16.1849 -16.0740 -16.0734 -16.0605 -16.0604
     7.9737  10.4432  10.6731  12.5456  12.6164  12.7491  12.8098  12.9066
    13.0528  13.3803  13.4311  13.4634  13.5273  13.7435  13.8978  13.9638
    14.3872  14.4162  14.4771  14.5096  14.5281  14.6106  14.6349  14.7475
    14.8672  14.9346  15.0324  15.0848  15.0920  15.1776  15.2173  15.3581
    15.3720  15.5073  15.6151  15.6225  15.6480  15.7885  15.7965  15.9214
    15.9509  16.0496  16.1099  16.1195  16.1424  16.3126  16.3186  16.3218
    16.7175  16.7318  16.9016  16.9231  17.0946  17.1882  17.2252  17.2313
    17.3955  17.4552  17.4661  17.6732  17.7792  17.7933  17.7989  17.8191
    18.0202  18.0420  18.0682  18.0701  18.1470  18.4475  18.4506  18.4722

          k = 0.0848-0.0848 0.1551 ( 32476 PWs)   bands (ev):

   -70.0437 -70.0431 -70.0402 -70.0402 -70.0397 -70.0397 -70.0368 -70.0363
   -40.1027 -40.0976 -40.0867 -40.0771 -40.0433 -40.0347 -39.8789 -39.8658
   -36.1794 -36.1755 -36.1633 -36.1625 -36.1620 -36.1620 -36.1313 -36.1305
   -36.1242 -36.1206 -36.1157 -36.1156 -36.1130 -36.1110 -36.1085 -36.1060
   -36.1059 -36.1016 -36.0945 -36.0936 -36.0934 -36.0933 -36.0766 -36.0758
   -16.5164 -16.5153 -16.5029 -16.5024 -16.4755 -16.4434 -16.4402 -16.4351
   -16.4340 -16.3922 -16.3834 -16.3351 -16.3278 -16.3084 -16.2901 -16.2496
   -16.1937 -16.1916 -16.1874 -16.1867 -16.0711 -16.0707 -16.0633 -16.0632
     8.3967   9.7805  11.0180  12.1502  12.6618  12.7789  12.9226  13.0038
    13.1678  13.5531  13.5690  13.5747  13.6784  13.8246  13.8801  13.9471
    14.0585  14.2135  14.4163  14.4226  14.5144  14.5293  14.5356  14.6915
    14.8971  15.0398  15.0643  15.1288  15.2159  15.2741  15.2942  15.3625
    15.4852  15.4998  15.5170  15.5461  15.5756  15.5959  15.6197  15.7220
    15.7230  15.7527  15.7757  15.9348  16.1543  16.1816  16.1967  16.3112
    16.6724  16.9557  17.1687  17.1943  17.2064  17.2493  17.3278  17.3427
    17.3671  17.4034  17.5003  17.5813  17.6048  17.6643  17.8259  17.8884
    17.9579  17.9638  17.9974  18.0460  18.3743  18.4101  18.6580  18.7921

          k = 0.1695-0.0848 0.0776 ( 32476 PWs)   bands (ev):

   -70.0432 -70.0422 -70.0411 -70.0402 -70.0397 -70.0388 -70.0377 -70.0368
   -40.1002 -40.0898 -40.0897 -40.0747 -40.0500 -40.0353 -39.8850 -39.8622
   -36.1757 -36.1706 -36.1647 -36.1646 -36.1555 -36.1541 -36.1371 -36.1357
   -36.1201 -36.1182 -36.1178 -36.1156 -36.1154 -36.1152 -36.1059 -36.1033
   -36.1016 -36.1008 -36.1005 -36.0991 -36.0916 -36.0904 -36.0817 -36.0803
   -16.5276 -16.5151 -16.4954 -16.4545 -16.4502 -16.4343 -16.4341 -16.4232
   -16.4120 -16.3932 -16.3816 -16.3592 -16.2904 -16.2811 -16.2626 -16.2509
   -16.2417 -16.2235 -16.1938 -16.1839 -16.1273 -16.1126 -16.0747 -16.0617
     8.0738  10.5011  10.7916  12.0448  12.6228  12.8648  13.0239  13.0263
    13.3240  13.5453  13.5624  13.7088  13.7352  13.8087  13.9988  14.0278
    14.1824  14.1939  14.4514  14.5588  14.6005  14.6499  14.7289  14.7379
    14.8198  14.9524  15.0315  15.0643  15.0894  15.1328  15.2497  15.3087
    15.3384  15.3681  15.4823  15.5201  15.5808  15.6439  15.6488  15.7248
    15.7341  15.7985  15.8273  15.8804  15.8917  16.0152  16.0837  16.2232
    16.6345  16.9086  17.0097  17.0183  17.0461  17.1521  17.2993  17.3178
    17.3947  17.6113  17.6711  17.6886  17.7069  17.8169  17.8727  17.9617
    18.0119  18.1118  18.1191  18.2374  18.3347  18.4075  18.4815  18.5594

          k =-0.1695-0.0848-0.0776 ( 32476 PWs)   bands (ev):

   -70.0432 -70.0422 -70.0411 -70.0402 -70.0397 -70.0388 -70.0377 -70.0368
   -40.1002 -40.0898 -40.0897 -40.0747 -40.0500 -40.0353 -39.8850 -39.8622
   -36.1757 -36.1706 -36.1647 -36.1646 -36.1555 -36.1541 -36.1371 -36.1357
   -36.1201 -36.1182 -36.1178 -36.1156 -36.1154 -36.1152 -36.1059 -36.1033
   -36.1016 -36.1008 -36.1005 -36.0991 -36.0916 -36.0904 -36.0817 -36.0803
   -16.5276 -16.5151 -16.4954 -16.4545 -16.4502 -16.4343 -16.4341 -16.4232
   -16.4120 -16.3932 -16.3816 -16.3592 -16.2904 -16.2811 -16.2626 -16.2509
   -16.2417 -16.2235 -16.1938 -16.1839 -16.1273 -16.1126 -16.0747 -16.0617
     8.0738  10.5011  10.7916  12.0447  12.6228  12.8648  13.0239  13.0263
    13.3240  13.5453  13.5625  13.7088  13.7352  13.8087  13.9988  14.0278
    14.1824  14.1939  14.4514  14.5588  14.6005  14.6499  14.7289  14.7379
    14.8198  14.9524  15.0315  15.0643  15.0894  15.1328  15.2497  15.3087
    15.3384  15.3680  15.4823  15.5201  15.5808  15.6439  15.6488  15.7248
    15.7341  15.7984  15.8273  15.8804  15.8917  16.0152  16.0837  16.2232
    16.6345  16.9085  17.0097  17.0183  17.0461  17.1521  17.2994  17.3178
    17.3947  17.6113  17.6711  17.6886  17.7069  17.8169  17.8728  17.9617
    18.0119  18.1118  18.1191  18.2373  18.3347  18.4075  18.4815  18.5593

          k = 0.0848-0.0848-0.2327 ( 32474 PWs)   bands (ev):

   -70.0434 -70.0434 -70.0399 -70.0399 -70.0399 -70.0399 -70.0365 -70.0365
   -40.1002 -40.1002 -40.0819 -40.0819 -40.0390 -40.0390 -39.8724 -39.8724
   -36.1774 -36.1774 -36.1627 -36.1627 -36.1622 -36.1622 -36.1309 -36.1309
   -36.1224 -36.1224 -36.1109 -36.1109 -36.1107 -36.1107 -36.1107 -36.1107
   -36.1063 -36.1063 -36.0940 -36.0940 -36.0934 -36.0934 -36.0762 -36.0762
   -16.5096 -16.5096 -16.5088 -16.5088 -16.4394 -16.4394 -16.4372 -16.4372
   -16.4014 -16.4014 -16.3460 -16.3460 -16.3454 -16.3454 -16.2891 -16.2891
   -16.1905 -16.1905 -16.1891 -16.1891 -16.0672 -16.0672 -16.0670 -16.0670
     9.0355   9.0355  11.5437  11.5437  12.7593  12.7593  12.9965  12.9965
    13.5801  13.5801  13.7120  13.7120  13.7379  13.7379  13.8113  13.8113
    13.9162  13.9162  14.4463  14.4463  14.4497  14.4497  14.6789  14.6789
    14.9830  14.9830  15.1259  15.1259  15.1829  15.1829  15.3093  15.3093
    15.4969  15.4969  15.5290  15.5290  15.6107  15.6107  15.6346  15.6346
    15.6916  15.6916  15.8049  15.8049  15.8611  15.8611  16.2336  16.2336
    17.0218  17.0218  17.2399  17.2399  17.3190  17.3190  17.3212  17.3212
    17.3900  17.3900  17.4212  17.4212  17.5637  17.5637  17.8640  17.8640
    18.0044  18.0044  18.0181  18.0181  18.4333  18.4333  18.8104  18.8104

          k =-0.2543-0.0848 0.0776 ( 32474 PWs)   bands (ev):

   -70.0423 -70.0420 -70.0413 -70.0411 -70.0388 -70.0386 -70.0379 -70.0376
   -40.0975 -40.0900 -40.0852 -40.0767 -40.0520 -40.0373 -39.8856 -39.8628
   -36.1699 -36.1695 -36.1673 -36.1669 -36.1466 -36.1452 -36.1450 -36.1436
   -36.1171 -36.1170 -36.1170 -36.1167 -36.1115 -36.1097 -36.1097 -36.1078
   -36.1045 -36.1041 -36.1005 -36.1002 -36.0877 -36.0866 -36.0864 -36.0853
   -16.5259 -16.5118 -16.4941 -16.4535 -16.4354 -16.4234 -16.4121 -16.3781
   -16.3636 -16.3611 -16.3603 -16.3487 -16.3342 -16.3240 -16.2855 -16.2836
   -16.2404 -16.2269 -16.1936 -16.1833 -16.1641 -16.1481 -16.0752 -16.0623
     8.1272  10.5308  10.8827  11.7777  12.6210  12.9250  13.1120  13.2893
    13.5556  13.6429  13.7560  13.7615  13.8329  13.8473  13.9251  13.9385
    13.9420  14.1124  14.1798  14.6830  14.7827  14.8054  14.8263  14.8363
    14.8541  14.8744  14.9325  14.9628  15.2100  15.2139  15.2692  15.2723
    15.2808  15.4202  15.4352  15.4397  15.4628  15.4973  15.5173  15.5748
    15.5968  15.6235  15.6818  15.7236  15.7632  15.8553  16.0709  16.0738
    16.8165  16.9337  16.9416  16.9585  16.9588  17.3504  17.4327  17.5285
    17.5726  17.5739  17.5811  17.5972  17.7227  17.8198  17.9743  18.0521
    18.0711  18.1352  18.1833  18.1992  18.2618  18.2895  18.6150  18.6796

          k = 0.1695-0.0848 0.1551 ( 32434 PWs)   bands (ev):

   -70.0430 -70.0424 -70.0409 -70.0404 -70.0395 -70.0390 -70.0375 -70.0370
   -40.0980 -40.0919 -40.0866 -40.0779 -40.0469 -40.0384 -39.8802 -39.8670
   -36.1746 -36.1717 -36.1647 -36.1646 -36.1552 -36.1544 -36.1368 -36.1360
   -36.1193 -36.1164 -36.1148 -36.1144 -36.1137 -36.1120 -36.1082 -36.1063
   -36.1051 -36.1026 -36.1006 -36.1003 -36.0913 -36.0906 -36.0814 -36.0806
   -16.5109 -16.4995 -16.4720 -16.4502 -16.4468 -16.4384 -16.4375 -16.3927
   -16.3910 -16.3856 -16.3820 -16.3311 -16.3292 -16.3100 -16.2908 -16.2602
   -16.2533 -16.2532 -16.1917 -16.1860 -16.1242 -16.1157 -16.0720 -16.0645
     8.4969   9.8640  11.1097  12.1467  12.2699  12.8685  13.0492  13.2640
    13.2730  13.7103  13.7265  13.8361  13.8435  13.9747  13.9758  14.0377
    14.0708  14.2811  14.3187  14.4942  14.5281  14.5611  14.6532  14.6705
    14.8148  14.9530  14.9847  14.9993  15.0517  15.1593  15.2938  15.3569
    15.3728  15.3729  15.3866  15.4188  15.4434  15.4448  15.4920  15.5519
    15.5620  15.5779  15.5917  15.6590  15.8653  15.9217  15.9326  16.1460
    16.8522  17.1904  17.2518  17.2882  17.3035  17.3185  17.4108  17.4598
    17.4881  17.5694  17.5889  17.6176  17.6486  17.7288  17.7329  17.8847
    17.9723  17.9876  18.1351  18.1495  18.2771  18.2872  18.5706  18.6084

          k = 0.1695-0.1695 0.0776 ( 32434 PWs)   bands (ev):

   -70.0424 -70.0415 -70.0404 -70.0404 -70.0395 -70.0395 -70.0384 -70.0375
   -40.0952 -40.0890 -40.0837 -40.0745 -40.0547 -40.0405 -39.8862 -39.8634
   -36.1700 -36.1664 -36.1593 -36.1579 -36.1572 -36.1560 -36.1415 -36.1407
   -36.1179 -36.1176 -36.1161 -36.1160 -36.1145 -36.1117 -36.1050 -36.1024
   -36.1024 -36.1000 -36.0993 -36.0979 -36.0974 -36.0960 -36.0868 -36.0858
   -16.5247 -16.4516 -16.4465 -16.4315 -16.4311 -16.4199 -16.4142 -16.4044
   -16.3925 -16.3849 -16.3834 -16.3634 -16.2860 -16.2797 -16.2654 -16.2585
   -16.2506 -16.2498 -16.2436 -16.2275 -16.1290 -16.1280 -16.1138 -16.1137
     8.1460  10.5585  11.0289  11.9671  12.4659  12.8765  13.0173  13.0713
    13.6025  13.7261  13.8288  13.8536  13.9118  13.9184  14.0430  14.0670
    14.2613  14.4196  14.4534  14.4956  14.5329  14.6538  14.6833  14.8971
    14.9204  14.9840  14.9937  15.0178  15.0658  15.0746  15.0838  15.1297
    15.1333  15.1422  15.3195  15.3399  15.3527  15.4996  15.5336  15.5587
    15.5933  15.6226  15.6299  15.6690  15.7116  15.7119  15.7894  16.0414
    16.8673  16.9342  16.9931  17.0139  17.0671  17.4783  17.5152  17.5541
    17.5796  17.7630  17.8239  17.8420  17.8693  17.9102  17.9506  18.0301
    18.0716  18.0982  18.1209  18.2336  18.2430  18.2892  18.3848  18.5297

          k =-0.1695-0.1695-0.0776 ( 32434 PWs)   bands (ev):

   -70.0424 -70.0415 -70.0404 -70.0404 -70.0395 -70.0395 -70.0384 -70.0375
   -40.0952 -40.0890 -40.0837 -40.0745 -40.0547 -40.0405 -39.8862 -39.8634
   -36.1700 -36.1664 -36.1593 -36.1579 -36.1571 -36.1560 -36.1415 -36.1407
   -36.1179 -36.1176 -36.1161 -36.1160 -36.1145 -36.1117 -36.1050 -36.1024
   -36.1024 -36.1000 -36.0993 -36.0979 -36.0974 -36.0960 -36.0868 -36.0858
   -16.5247 -16.4516 -16.4465 -16.4315 -16.4311 -16.4199 -16.4142 -16.4044
   -16.3925 -16.3849 -16.3834 -16.3634 -16.2860 -16.2797 -16.2654 -16.2585
   -16.2506 -16.2498 -16.2436 -16.2275 -16.1290 -16.1280 -16.1138 -16.1137
     8.1460  10.5585  11.0289  11.9670  12.4659  12.8765  13.0174  13.0713
    13.6025  13.7261  13.8288  13.8536  13.9118  13.9184  14.0430  14.0670
    14.2613  14.4196  14.4534  14.4956  14.5328  14.6539  14.6833  14.8971
    14.9204  14.9840  14.9937  15.0178  15.0659  15.0746  15.0837  15.1297
    15.1333  15.1422  15.3195  15.3399  15.3528  15.4996  15.5336  15.5587
    15.5933  15.6226  15.6299  15.6690  15.7116  15.7119  15.7895  16.0414
    16.8673  16.9342  16.9931  17.0139  17.0671  17.4783  17.5152  17.5542
    17.5796  17.7630  17.8240  17.8420  17.8692  17.9102  17.9506  18.0301
    18.0716  18.0982  18.1208  18.2335  18.2430  18.2892  18.3848  18.5298

          k = 0.1695-0.0848-0.2327 ( 32462 PWs)   bands (ev):

   -70.0427 -70.0427 -70.0407 -70.0407 -70.0392 -70.0392 -70.0372 -70.0372
   -40.0950 -40.0950 -40.0823 -40.0823 -40.0427 -40.0427 -39.8736 -39.8736
   -36.1732 -36.1732 -36.1647 -36.1647 -36.1548 -36.1548 -36.1364 -36.1364
   -36.1179 -36.1179 -36.1110 -36.1110 -36.1104 -36.1104 -36.1098 -36.1098
   -36.1073 -36.1073 -36.1004 -36.1004 -36.0910 -36.0910 -36.0810 -36.0810
   -16.5052 -16.5052 -16.4445 -16.4445 -16.4423 -16.4423 -16.3971 -16.3971
   -16.3870 -16.3870 -16.3507 -16.3507 -16.3423 -16.3423 -16.2925 -16.2925
   -16.2567 -16.2566 -16.1888 -16.1888 -16.1200 -16.1200 -16.0682 -16.0682
     9.1321   9.1321  11.5914  11.5914  12.5774  12.5774  13.2118  13.2118
    13.6362  13.6362  13.8815  13.8815  13.9052  13.9053  14.0015  14.0015
    14.0741  14.0741  14.4229  14.4229  14.5525  14.5525  14.6675  14.6675
    14.7501  14.7501  14.9531  14.9531  15.2257  15.2257  15.2426  15.2426
    15.3011  15.3011  15.3352  15.3352  15.4489  15.4489  15.4849  15.4849
    15.5660  15.5660  15.6284  15.6284  15.6531  15.6531  16.0707  16.0707
    17.0901  17.0901  17.4214  17.4214  17.4398  17.4398  17.4548  17.4548
    17.4730  17.4730  17.5910  17.5910  17.7437  17.7437  17.7756  17.7756
    17.8435  17.8435  18.1026  18.1026  18.2723  18.2723  18.7109  18.7109

          k =-0.2543-0.1695 0.0776 ( 32462 PWs)   bands (ev):

   -70.0416 -70.0413 -70.0406 -70.0404 -70.0396 -70.0393 -70.0386 -70.0384
   -40.0919 -40.0889 -40.0791 -40.0755 -40.0575 -40.0435 -39.8868 -39.8641
   -36.1635 -36.1628 -36.1619 -36.1614 -36.1496 -36.1491 -36.1480 -36.1479
   -36.1170 -36.1170 -36.1170 -36.1166 -36.1076 -36.1068 -36.1059 -36.1049
   -36.1037 -36.1031 -36.1014 -36.1011 -36.0931 -36.0930 -36.0922 -36.0917
   -16.5232 -16.4461 -16.4297 -16.4187 -16.4148 -16.4026 -16.3856 -16.3703
   -16.3658 -16.3622 -16.3551 -16.3479 -16.3411 -16.3292 -16.2815 -16.2808
   -16.2615 -16.2498 -16.2444 -16.2298 -16.1654 -16.1490 -16.1291 -16.1143
     8.1835  10.5881  11.2413  11.7596  12.3825  12.9496  13.0154  13.3021
    13.7232  13.8450  13.9117  13.9233  13.9250  13.9478  14.1736  14.1897
    14.1951  14.2202  14.2933  14.7103  14.7799  14.7990  14.8132  14.8442
    14.8688  14.8717  14.8783  14.9082  14.9290  15.0475  15.0542  15.0607
    15.1939  15.1940  15.2150  15.2798  15.3276  15.3276  15.3337  15.3506
    15.4803  15.4896  15.4973  15.5393  15.6510  15.6550  15.8895  15.8977
    16.9501  16.9882  16.9919  17.0166  17.0475  17.5920  17.6562  17.7590
    17.7873  17.8053  17.8231  17.8555  17.8697  17.9387  17.9998  18.0361
    18.0975  18.1079  18.1317  18.1649  18.2928  18.3518  18.4016  18.4507

          k =-0.0848-0.2543 0.1551 ( 32462 PWs)   bands (ev):

   -70.0421 -70.0418 -70.0415 -70.0413 -70.0386 -70.0384 -70.0381 -70.0378
   -40.0949 -40.0878 -40.0872 -40.0795 -40.0489 -40.0404 -39.8808 -39.8676
   -36.1694 -36.1689 -36.1679 -36.1674 -36.1463 -36.1455 -36.1447 -36.1439
   -36.1152 -36.1149 -36.1135 -36.1132 -36.1109 -36.1104 -36.1094 -36.1087
   -36.1063 -36.1056 -36.1040 -36.1037 -36.0874 -36.0867 -36.0864 -36.0856
   -16.5080 -16.4979 -16.4699 -16.4496 -16.4392 -16.3945 -16.3831 -16.3750
   -16.3634 -16.3608 -16.3516 -16.3329 -16.3323 -16.3261 -16.3232 -16.3131
   -16.2902 -16.2556 -16.1914 -16.1855 -16.1607 -16.1515 -16.0725 -16.0651
     8.5505   9.9082  11.1714  12.0650  12.1279  12.9526  13.1678  13.3238
    13.6223  13.7042  13.8184  13.8995  13.9493  13.9558  13.9683  14.0535
    14.1153  14.1532  14.2629  14.6175  14.7224  14.7264  14.7339  14.7442
    14.7457  14.7790  14.7980  14.8337  15.0802  15.0840  15.2110  15.2611
    15.2674  15.2786  15.3370  15.3699  15.3731  15.3823  15.4375  15.4470
    15.5059  15.5374  15.5788  15.6305  15.6712  15.6810  16.0016  16.0172
    16.9726  17.2152  17.2711  17.3020  17.3029  17.3844  17.5139  17.5686
    17.5808  17.5906  17.5972  17.6430  17.7400  17.7604  17.8281  17.8368
    17.9268  17.9718  18.1657  18.1823  18.2139  18.2175  18.5127  18.6103

          k =-0.2543 0.2543 0.0776 ( 32460 PWs)   bands (ev):

   -70.0407 -70.0404 -70.0404 -70.0402 -70.0397 -70.0395 -70.0395 -70.0392
   -40.0884 -40.0884 -40.0749 -40.0749 -40.0611 -40.0477 -39.8874 -39.8647
   -36.1568 -36.1568 -36.1567 -36.1547 -36.1547 -36.1547 -36.1533 -36.1513
   -36.1170 -36.1169 -36.1169 -36.1166 -36.1035 -36.1027 -36.1026 -36.1026
   -36.1021 -36.1014 -36.1005 -36.1005 -36.1004 -36.0983 -36.0974 -36.0974
   -16.5219 -16.4161 -16.4161 -16.3738 -16.3699 -16.3685 -16.3572 -16.3531
   -16.3525 -16.3504 -16.3483 -16.3473 -16.3473 -16.3466 -16.3330 -16.3330
   -16.2792 -16.2792 -16.2468 -16.2314 -16.1660 -16.1660 -16.1494 -16.1494
     8.2126  10.6176  11.7482  11.7483  11.8032  12.9733  13.3213  13.3213
    13.4910  13.9528  13.9632  13.9632  14.0987  14.2189  14.2189  14.2710
    14.5204  14.5205  14.5536  14.5821  14.5878  14.6128  14.6129  14.6574
    14.7282  14.8752  14.8752  14.8926  14.9447  14.9694  14.9694  15.0038
    15.0341  15.0756  15.0808  15.0808  15.3375  15.3375  15.3378  15.3431
    15.4574  15.4574  15.5585  15.5702  15.5945  15.6035  15.6257  15.6257
    16.9587  17.0329  17.0329  17.0536  17.0806  17.7653  17.7653  17.7885
    17.8692  18.0025  18.0025  18.0391  18.0565  18.0721  18.0721  18.0772
    18.1383  18.1457  18.1457  18.2122  18.3173  18.3383  18.3521  18.3521

          k = 0.1695-0.1695 0.1551 ( 32390 PWs)   bands (ev):

   -70.0422 -70.0417 -70.0402 -70.0402 -70.0397 -70.0397 -70.0382 -70.0377
   -40.0928 -40.0862 -40.0859 -40.0775 -40.0517 -40.0435 -39.8814 -39.8682
   -36.1692 -36.1671 -36.1589 -36.1576 -36.1575 -36.1564 -36.1414 -36.1409
   -36.1158 -36.1144 -36.1139 -36.1127 -36.1126 -36.1125 -36.1075 -36.1056
   -36.1054 -36.1034 -36.0989 -36.0978 -36.0974 -36.0962 -36.0866 -36.0861
   -16.4686 -16.4474 -16.4432 -16.4356 -16.4343 -16.4004 -16.3907 -16.3898
   -16.3889 -16.3875 -16.3839 -16.3350 -16.3229 -16.3083 -16.2954 -16.2626
   -16.2567 -16.2564 -16.2537 -16.2516 -16.1257 -16.1250 -16.1170 -16.1167
     8.5709   9.9342  11.3393  12.2088  12.3686  12.7285  12.8628  13.2678
    13.4285  13.9125  13.9320  14.0010  14.0231  14.0326  14.1349  14.2808
    14.2962  14.3259  14.3633  14.3692  14.5265  14.6335  14.6375  14.8325
    14.8343  14.8829  14.9837  15.0178  15.0562  15.0599  15.0989  15.1031
    15.1311  15.1869  15.2043  15.2448  15.2509  15.2539  15.3189  15.3583
    15.3885  15.4255  15.4462  15.5211  15.5430  15.5667  15.5933  15.9410
    17.0121  17.2138  17.3232  17.3743  17.4112  17.5556  17.6378  17.6490
    17.6688  17.6862  17.7706  17.7932  17.9187  17.9475  17.9519  18.0110
    18.0154  18.0597  18.1278  18.2185  18.2585  18.3245  18.5428  18.5984

          k = 0.1695-0.1695-0.2327 ( 32458 PWs)   bands (ev):

   -70.0420 -70.0420 -70.0400 -70.0400 -70.0400 -70.0400 -70.0380 -70.0380
   -40.0895 -40.0895 -40.0817 -40.0817 -40.0476 -40.0476 -39.8748 -39.8748
   -36.1682 -36.1682 -36.1582 -36.1582 -36.1570 -36.1570 -36.1412 -36.1412
   -36.1139 -36.1139 -36.1108 -36.1108 -36.1100 -36.1100 -36.1093 -36.1093
   -36.1080 -36.1080 -36.0983 -36.0983 -36.0967 -36.0967 -36.0864 -36.0864
   -16.4417 -16.4417 -16.4387 -16.4387 -16.3970 -16.3970 -16.3892 -16.3892
   -16.3882 -16.3882 -16.3472 -16.3472 -16.3471 -16.3471 -16.2962 -16.2962
   -16.2578 -16.2578 -16.2541 -16.2541 -16.1213 -16.1213 -16.1209 -16.1209
     9.2069   9.2069  11.8121  11.8121  12.5425  12.5425  13.0932  13.0932
    13.6315  13.6315  14.1439  14.1439  14.1664  14.1664  14.1745  14.1745
    14.2032  14.2032  14.4232  14.4232  14.6234  14.6234  14.6623  14.6623
    14.7107  14.7107  14.9827  14.9827  15.0916  15.0916  15.1025  15.1025
    15.1250  15.1250  15.1948  15.1948  15.2412  15.2412  15.2677  15.2677
    15.3431  15.3431  15.3531  15.3531  15.4677  15.4677  15.7292  15.7292
    17.1716  17.1717  17.5518  17.5518  17.5997  17.5997  17.6350  17.6350
    17.6653  17.6653  17.8340  17.8340  17.8649  17.8649  17.9946  17.9946
    18.0136  18.0136  18.1086  18.1086  18.4116  18.4116  18.7514  18.7514

          k =-0.2543-0.1695 0.1551 ( 32458 PWs)   bands (ev):

   -70.0414 -70.0411 -70.0408 -70.0406 -70.0394 -70.0391 -70.0388 -70.0386
   -40.0892 -40.0861 -40.0818 -40.0784 -40.0546 -40.0465 -39.8820 -39.8689
   -36.1631 -36.1625 -36.1622 -36.1616 -36.1496 -36.1493 -36.1480 -36.1480
   -36.1144 -36.1143 -36.1137 -36.1134 -36.1080 -36.1071 -36.1071 -36.1056
   -36.1053 -36.1046 -36.1045 -36.1037 -36.0931 -36.0931 -36.0921 -36.0918
   -16.4667 -16.4426 -16.4332 -16.3990 -16.3900 -16.3893 -16.3856 -16.3675
   -16.3593 -16.3581 -16.3511 -16.3388 -16.3369 -16.3318 -16.3165 -16.3101
   -16.2973 -16.2601 -16.2577 -16.2523 -16.1619 -16.1525 -16.1260 -16.1174
     8.6095   9.9708  11.5315  12.0460  12.4810  12.6614  12.9375  13.2655
    13.4756  13.8534  14.0858  14.1122  14.1332  14.1478  14.2449  14.2486
    14.2555  14.3492  14.3631  14.6694  14.7001  14.7250  14.7767  14.7864
    14.8290  14.8294  14.8324  14.8406  14.9385  14.9470  15.0446  15.0469
    15.0778  15.1133  15.1477  15.1705  15.1820  15.1860  15.2266  15.2757
    15.2802  15.2839  15.2934  15.3516  15.4581  15.4761  15.6583  15.6748
    17.0974  17.2199  17.3762  17.4125  17.4682  17.6806  17.7746  17.7765
    17.7874  17.7964  17.8398  17.8829  17.9178  17.9439  17.9906  18.0124
    18.0722  18.1371  18.2389  18.2986  18.3488  18.3786  18.4652  18.5708

          k =-0.2543 0.2543 0.1551 ( 32460 PWs)   bands (ev):

   -70.0405 -70.0402 -70.0402 -70.0400 -70.0399 -70.0397 -70.0397 -70.0394
   -40.0855 -40.0855 -40.0778 -40.0778 -40.0583 -40.0505 -39.8826 -39.8695
   -36.1564 -36.1564 -36.1560 -36.1552 -36.1552 -36.1541 -36.1540 -36.1520
   -36.1140 -36.1140 -36.1139 -36.1135 -36.1058 -36.1058 -36.1057 -36.1052
   -36.1030 -36.1018 -36.0999 -36.0998 -36.0998 -36.0987 -36.0979 -36.0979
   -16.4650 -16.3876 -16.3876 -16.3695 -16.3655 -16.3568 -16.3558 -16.3539
   -16.3519 -16.3518 -16.3480 -16.3444 -16.3444 -16.3387 -16.3358 -16.3358
   -16.3082 -16.3082 -16.3058 -16.2605 -16.1626 -16.1626 -16.1530 -16.1530
     8.6399  10.0032  12.0346  12.0346  12.0972  12.9361  12.9361  13.0472
    13.2381  13.9945  14.1699  14.1783  14.1783  14.4143  14.4143  14.5214
    14.5386  14.5386  14.5815  14.6208  14.6277  14.6278  14.6430  14.6962
    14.7035  14.8829  14.8830  14.9089  14.9383  14.9383  14.9435  14.9543
    14.9582  14.9582  14.9744  15.0072  15.0971  15.0971  15.1117  15.1202
    15.2356  15.2356  15.2880  15.3140  15.3639  15.3639  15.3695  15.3769
    17.1611  17.2266  17.4785  17.4785  17.5031  17.8686  17.8687  17.8810
    17.9600  17.9601  17.9636  17.9849  18.0268  18.0341  18.0341  18.1097
    18.1274  18.1550  18.3881  18.3881  18.4550  18.4953  18.4953  18.5492

     the Fermi energy is    16.7958 ev

!    total energy              =   -3590.79943573 Ry
     estimated scf accuracy    <          1.1E-10 Ry
     smearing contrib. (-TS)   =       0.00021652 Ry
     internal energy E=F+TS    =   -3590.79965224 Ry

     The total energy is F=E-TS. E is the sum of the following terms:
     one-electron contribution =   -1257.57097704 Ry
     hartree contribution      =     750.79669936 Ry
     xc contribution           =    -424.35507676 Ry
     ewald contribution        =   -2050.45469582 Ry
     one-center paw contrib.   =    -609.21560199 Ry

     convergence has been achieved in  25 iterations

     negative rho (up, down):  7.616E-03 0.000E+00

     Forces acting on atoms (cartesian axes, Ry/au):

     atom    1 type  1   force =     0.00105475    0.00105475    0.00000000
     atom    2 type  1   force =    -0.00105223   -0.00105223   -0.00000000
     atom    3 type  1   force =    -0.00105338    0.00105285   -0.00000000
     atom    4 type  1   force =     0.00105262   -0.00105318    0.00000000
     atom    5 type  1   force =     0.00105288    0.00105288    0.00000000
     atom    6 type  1   force =    -0.00105145   -0.00105145   -0.00000000
     atom    7 type  1   force =    -0.00105318    0.00105262   -0.00000000
     atom    8 type  1   force =     0.00105285   -0.00105338    0.00000000
     atom    9 type  2   force =     0.00000000    0.00000000    0.00000061
     atom   10 type  2   force =    -0.00000074   -0.00000074    0.00000040
     atom   11 type  2   force =    -0.00000068    0.00000012    0.00000040
     atom   12 type  2   force =     0.00000012   -0.00000068   -0.00000040
     atom   13 type  2   force =     0.00000000    0.00000000   -0.00000061
     atom   14 type  2   force =    -0.00000074   -0.00000074   -0.00000040
     atom   15 type  2   force =    -0.00000068    0.00000012   -0.00000040
     atom   16 type  2   force =     0.00000012   -0.00000068    0.00000040
     atom   17 type  3   force =    -0.00000003   -0.00000003   -0.00000000
     atom   18 type  3   force =    -0.00000022   -0.00000022   -0.00000000

     Total force =     0.004212     Total SCF correction =     0.000035


     Computing stress (Cartesian axis) and pressure


     negative rho (up, down):  7.616E-03 0.000E+00
          total   stress  (Ry/bohr**3)                   (kbar)     P=        0.16
   0.00000928  -0.00000000   0.00000000            1.37       -0.00        0.00
  -0.00000000   0.00000928   0.00000000           -0.00        1.37        0.00
   0.00000000   0.00000000  -0.00001529            0.00        0.00       -2.25

     Energy error            =      1.8E-04 Ry
     Gradient error          =      1.1E-03 Ry/Bohr
     Cell gradient error     =      2.2E+00 kbar

     number of scf cycles    =   7
     number of bfgs steps    =   6

     enthalpy           old  =   -3590.7992541682 Ry
     enthalpy           new  =   -3590.7994357282 Ry

     CASE: enthalpy          _new < enthalpy          _old

     new trust radius        =       0.0045544591 bohr
     new conv_thr            =       0.0000000001 Ry

     new unit-cell volume =   1445.10358 a.u.^3 (   214.14226 Ang^3 )
     density =      6.44940 g/cm^3

CELL_PARAMETERS (alat=  5.58242261)
   1.966830408  -0.000008466  -0.000000000
  -0.000008466   1.966830408   0.000000000
  -0.000000000   0.000000000   2.147321228

ATOMIC_POSITIONS (crystal)
Fe              -0.0010589177       -0.0010589177        0.0000000000
Fe               0.5010587165        0.5010587165        0.0000000000
Fe               0.5010588607       -0.0010591258       -0.0000000000
Fe              -0.0010589715        0.5010590625        0.5000000000
Fe              -0.0010583802       -0.0010583802        0.5000000000
Fe               0.5010588463        0.5010588463        0.5000000000
Fe               0.5010590625       -0.0010589715        0.5000000000
Fe              -0.0010591258        0.5010588607        0.0000000000
Ti               0.2499999960        0.2499999960        0.2499999967
Ti               0.7499999299        0.7499999299        0.2500000359
Ti               0.7499999064        0.2500000400        0.2499999859
Ti               0.2500000400        0.7499999064        0.7500000141
Ti               0.2499999960        0.2499999960        0.7500000033
Ti               0.7499999299        0.7499999299        0.7499999641
Ti               0.7499999064        0.2500000400        0.7500000141
Ti               0.2500000400        0.7499999064        0.2499999859
H                0.2500001378        0.2500001378        0.0000000000
H                0.2500000269        0.2500000269        0.5000000000



     Writing config-only to output data dir ./TiFeH_supercell.save/ :
     XML data file     NEW-OLD atomic charge density approx. for the potential
     New effective cutoffs (rho, wfc): 1794.86  128.21

     Check: negative core charge=   -0.000001

     negative rho (up, down):  7.617E-03 0.000E+00

     total cpu time spent up to now is    11137.4 secs

     per-process dynamical memory:   458.4 Mb

     Self-consistent Calculation

     iteration #  1     ecut=   124.00 Ry     beta= 0.70
     Davidson diagonalization with overlap
     ethr =  1.00E-06,  avg # of iterations =  6.0

     negative rho (up, down):  7.620E-03 0.000E+00

     total cpu time spent up to now is    11212.4 secs

     total energy              =   -3590.79928084 Ry
     estimated scf accuracy    <       0.00025624 Ry

     iteration #  2     ecut=   124.00 Ry     beta= 0.70
     Davidson diagonalization with overlap
     ethr =  1.13E-07,  avg # of iterations =  7.6

     negative rho (up, down):  7.617E-03 0.000E+00

     total cpu time spent up to now is    11285.7 secs

     total energy              =   -3590.79858554 Ry
     estimated scf accuracy    <       0.01170284 Ry

     iteration #  3     ecut=   124.00 Ry     beta= 0.70
     Davidson diagonalization with overlap
     ethr =  1.13E-07,  avg # of iterations =  6.7

     negative rho (up, down):  7.620E-03 0.000E+00

     total cpu time spent up to now is    11354.3 secs

     total energy              =   -3590.79943972 Ry
     estimated scf accuracy    <       0.00027587 Ry

     iteration #  4     ecut=   124.00 Ry     beta= 0.70
     Davidson diagonalization with overlap
     ethr =  1.13E-07,  avg # of iterations =  4.0

     negative rho (up, down):  7.621E-03 0.000E+00

     total cpu time spent up to now is    11401.4 secs

     total energy              =   -3590.79942991 Ry
     estimated scf accuracy    <       0.00128710 Ry

     iteration #  5     ecut=   124.00 Ry     beta= 0.70
     Davidson diagonalization with overlap
     ethr =  1.13E-07,  avg # of iterations =  3.9

     negative rho (up, down):  7.618E-03 0.000E+00

     total cpu time spent up to now is    11446.9 secs

     total energy              =   -3590.79944317 Ry
     estimated scf accuracy    <       0.00089230 Ry

     iteration #  6     ecut=   124.00 Ry     beta= 0.70
     Davidson diagonalization with overlap
     ethr =  1.13E-07,  avg # of iterations =  2.0

     negative rho (up, down):  7.617E-03 0.000E+00

     total cpu time spent up to now is    11487.0 secs

     total energy              =   -3590.79947716 Ry
     estimated scf accuracy    <       0.00001155 Ry

     iteration #  7     ecut=   124.00 Ry     beta= 0.70
     Davidson diagonalization with overlap
     ethr =  5.11E-09,  avg # of iterations =  5.0

     negative rho (up, down):  7.617E-03 0.000E+00

     total cpu time spent up to now is    11544.2 secs

     total energy              =   -3590.79946950 Ry
     estimated scf accuracy    <       0.00037712 Ry

     iteration #  8     ecut=   124.00 Ry     beta= 0.70
     Davidson diagonalization with overlap
     ethr =  5.11E-09,  avg # of iterations =  5.0

     negative rho (up, down):  7.617E-03 0.000E+00

     total cpu time spent up to now is    11598.2 secs

     total energy              =   -3590.79948178 Ry
     estimated scf accuracy    <       0.00001699 Ry

     iteration #  9     ecut=   124.00 Ry     beta= 0.70
     Davidson diagonalization with overlap
     ethr =  5.11E-09,  avg # of iterations =  2.1

     negative rho (up, down):  7.618E-03 0.000E+00

     total cpu time spent up to now is    11639.3 secs

     total energy              =   -3590.79948193 Ry
     estimated scf accuracy    <       0.00001560 Ry

     iteration # 10     ecut=   124.00 Ry     beta= 0.70
     Davidson diagonalization with overlap
     ethr =  5.11E-09,  avg # of iterations =  1.4

     negative rho (up, down):  7.619E-03 0.000E+00

     total cpu time spent up to now is    11676.6 secs

     total energy              =   -3590.79948223 Ry
     estimated scf accuracy    <       0.00000426 Ry

     iteration # 11     ecut=   124.00 Ry     beta= 0.70
     Davidson diagonalization with overlap
     ethr =  1.88E-09,  avg # of iterations =  2.0

     negative rho (up, down):  7.619E-03 0.000E+00

     total cpu time spent up to now is    11716.6 secs

     total energy              =   -3590.79948221 Ry
     estimated scf accuracy    <       0.00000283 Ry

     iteration # 12     ecut=   124.00 Ry     beta= 0.70
     Davidson diagonalization with overlap
     ethr =  1.25E-09,  avg # of iterations =  2.4

     negative rho (up, down):  7.618E-03 0.000E+00

     total cpu time spent up to now is    11758.1 secs

     total energy              =   -3590.79948236 Ry
     estimated scf accuracy    <       0.00000239 Ry

     iteration # 13     ecut=   124.00 Ry     beta= 0.70
     Davidson diagonalization with overlap
     ethr =  1.06E-09,  avg # of iterations =  1.0

     negative rho (up, down):  7.618E-03 0.000E+00

     total cpu time spent up to now is    11794.7 secs

     total energy              =   -3590.79948245 Ry
     estimated scf accuracy    <       0.00000051 Ry

     iteration # 14     ecut=   124.00 Ry     beta= 0.70
     Davidson diagonalization with overlap
     ethr =  2.26E-10,  avg # of iterations =  2.2

     negative rho (up, down):  7.618E-03 0.000E+00

     total cpu time spent up to now is    11836.3 secs

     total energy              =   -3590.79948245 Ry
     estimated scf accuracy    <       0.00000081 Ry

     iteration # 15     ecut=   124.00 Ry     beta= 0.70
     Davidson diagonalization with overlap
     ethr =  2.26E-10,  avg # of iterations =  2.5

     negative rho (up, down):  7.618E-03 0.000E+00

     total cpu time spent up to now is    11878.4 secs

     total energy              =   -3590.79948245 Ry
     estimated scf accuracy    <       0.00000192 Ry

     iteration # 16     ecut=   124.00 Ry     beta= 0.70
     Davidson diagonalization with overlap
     ethr =  2.26E-10,  avg # of iterations =  1.4

     negative rho (up, down):  7.618E-03 0.000E+00

     total cpu time spent up to now is    11916.1 secs

     total energy              =   -3590.79948251 Ry
     estimated scf accuracy    <       0.00000001 Ry

     iteration # 17     ecut=   124.00 Ry     beta= 0.70
     Davidson diagonalization with overlap
     ethr =  5.46E-12,  avg # of iterations =  5.0

     negative rho (up, down):  7.618E-03 0.000E+00

     total cpu time spent up to now is    11972.8 secs

     total energy              =   -3590.79948251 Ry
     estimated scf accuracy    <       0.00000003 Ry

     iteration # 18     ecut=   124.00 Ry     beta= 0.70
     Davidson diagonalization with overlap
     ethr =  5.46E-12,  avg # of iterations =  4.0

     negative rho (up, down):  7.618E-03 0.000E+00

     total cpu time spent up to now is    12020.8 secs

     total energy              =   -3590.79948251 Ry
     estimated scf accuracy    <       0.00000002 Ry

     iteration # 19     ecut=   124.00 Ry     beta= 0.70
     Davidson diagonalization with overlap
     ethr =  5.46E-12,  avg # of iterations =  4.1

     negative rho (up, down):  7.618E-03 0.000E+00

     total cpu time spent up to now is    12067.2 secs

     total energy              =   -3590.79948251 Ry
     estimated scf accuracy    <       0.00000005 Ry

     iteration # 20     ecut=   124.00 Ry     beta= 0.70
     Davidson diagonalization with overlap
     ethr =  5.46E-12,  avg # of iterations =  4.2

     negative rho (up, down):  7.618E-03 0.000E+00

     total cpu time spent up to now is    12115.8 secs

     total energy              =   -3590.79948251 Ry
     estimated scf accuracy    <       0.00000003 Ry

     iteration # 21     ecut=   124.00 Ry     beta= 0.70
     Davidson diagonalization with overlap
     ethr =  5.46E-12,  avg # of iterations =  4.2

     negative rho (up, down):  7.618E-03 0.000E+00

     total cpu time spent up to now is    12163.9 secs

     total energy              =   -3590.79948251 Ry
     estimated scf accuracy    <       0.00000009 Ry

     iteration # 22     ecut=   124.00 Ry     beta= 0.70
     Davidson diagonalization with overlap
     ethr =  5.46E-12,  avg # of iterations =  3.9

     negative rho (up, down):  7.618E-03 0.000E+00

     total cpu time spent up to now is    12209.6 secs

     total energy              =   -3590.79948251 Ry
     estimated scf accuracy    <          2.0E-09 Ry

     iteration # 23     ecut=   124.00 Ry     beta= 0.70
     Davidson diagonalization with overlap
     ethr =  8.88E-13,  avg # of iterations =  4.1

     negative rho (up, down):  7.618E-03 0.000E+00

     total cpu time spent up to now is    12256.0 secs

     total energy              =   -3590.79948251 Ry
     estimated scf accuracy    <          2.9E-09 Ry

     iteration # 24     ecut=   124.00 Ry     beta= 0.70
     Davidson diagonalization with overlap
     ethr =  8.88E-13,  avg # of iterations =  2.4

     negative rho (up, down):  7.618E-03 0.000E+00

     total cpu time spent up to now is    12298.0 secs

     total energy              =   -3590.79948251 Ry
     estimated scf accuracy    <          5.2E-09 Ry

     iteration # 25     ecut=   124.00 Ry     beta= 0.70
     Davidson diagonalization with overlap
     ethr =  8.88E-13,  avg # of iterations =  3.4

     negative rho (up, down):  7.618E-03 0.000E+00

     total cpu time spent up to now is    12342.7 secs

     total energy              =   -3590.79948251 Ry
     estimated scf accuracy    <       0.00000001 Ry

     iteration # 26     ecut=   124.00 Ry     beta= 0.70
     Davidson diagonalization with overlap
     ethr =  8.88E-13,  avg # of iterations =  2.2

     negative rho (up, down):  7.618E-03 0.000E+00

     total cpu time spent up to now is    12382.2 secs

     total energy              =   -3590.79948251 Ry
     estimated scf accuracy    <          1.8E-10 Ry

     iteration # 27     ecut=   124.00 Ry     beta= 0.70
     Davidson diagonalization with overlap
     ethr =  1.00E-13,  avg # of iterations =  4.3

     negative rho (up, down):  7.618E-03 0.000E+00

     total cpu time spent up to now is    12430.1 secs

     total energy              =   -3590.79948251 Ry
     estimated scf accuracy    <          1.6E-10 Ry

     iteration # 28     ecut=   124.00 Ry     beta= 0.70
     Davidson diagonalization with overlap
     ethr =  1.00E-13,  avg # of iterations =  1.4

     negative rho (up, down):  7.618E-03 0.000E+00

     total cpu time spent up to now is    12467.8 secs

     End of self-consistent calculation

          k = 0.0000 0.0000 0.0000 ( 32423 PWs)   bands (ev):

   -70.0502 -70.0491 -70.0462 -70.0462 -70.0451 -70.0451 -70.0423 -70.0412
   -40.1153 -40.1064 -40.0976 -40.0770 -40.0531 -40.0357 -39.8863 -39.8597
   -36.1916 -36.1822 -36.1722 -36.1722 -36.1694 -36.1694 -36.1355 -36.1342
   -36.1327 -36.1270 -36.1264 -36.1264 -36.1199 -36.1192 -36.1115 -36.1060
   -36.1060 -36.1012 -36.0990 -36.0990 -36.0969 -36.0969 -36.0792 -36.0777
   -16.5598 -16.5557 -16.5557 -16.5265 -16.5265 -16.4673 -16.4673 -16.4539
   -16.4539 -16.4443 -16.4246 -16.3720 -16.2896 -16.2762 -16.2319 -16.2068
   -16.1784 -16.1784 -16.1682 -16.1682 -16.0555 -16.0555 -16.0405 -16.0405
     7.7149  10.4659  10.6845  12.5725  12.5725  12.6976  12.9658  13.1210
    13.1210  13.1784  13.2480  13.2839  13.3189  13.3341  13.4374  13.8306
    14.3282  14.3282  14.6835  14.7122  14.7907  14.7907  14.8177  14.8177
    14.8368  14.8368  14.9849  15.0041  15.0554  15.0554  15.4880  15.5296
    15.5387  15.5571  15.7155  15.7155  15.7861  15.7861  15.9203  15.9203
    16.0046  16.1076  16.3006  16.3021  16.3420  16.4560  16.5850  16.5850
    16.7608  17.0043  17.0232  17.0757  17.0891  17.0891  17.2463  17.2463
    17.3966  17.5484  17.5484  17.6013  17.6890  17.8176  17.8176  17.8565
    17.9087  17.9471  17.9471  18.0006  18.0481  18.0484  18.0485  18.1453

          k = 0.0000-0.0000 0.0776 ( 32427 PWs)   bands (ev):

   -70.0501 -70.0492 -70.0461 -70.0461 -70.0452 -70.0452 -70.0422 -70.0413
   -40.1147 -40.1070 -40.0962 -40.0784 -40.0519 -40.0369 -39.8845 -39.8615
   -36.1909 -36.1828 -36.1720 -36.1720 -36.1696 -36.1696 -36.1350 -36.1341
   -36.1328 -36.1276 -36.1250 -36.1250 -36.1187 -36.1186 -36.1121 -36.1073
   -36.1073 -36.1024 -36.0989 -36.0989 -36.0970 -36.0970 -36.0791 -36.0778
   -16.5537 -16.5537 -16.5394 -16.5284 -16.5284 -16.4665 -16.4665 -16.4549
   -16.4549 -16.4323 -16.4148 -16.3618 -16.3034 -16.2862 -16.2479 -16.2212
   -16.1777 -16.1777 -16.1689 -16.1689 -16.0545 -16.0545 -16.0415 -16.0415
     7.8626  10.3806  10.5910  12.6229  12.6229  12.7391  12.7924  13.1180
    13.1180  13.2378  13.2790  13.3149  13.3747  13.3963  13.4737  13.8727
    14.3311  14.3311  14.4915  14.5053  14.6152  14.6153  14.8305  14.8305
    14.9268  14.9268  15.0416  15.0614  15.0774  15.2746  15.2746  15.4031
    15.4654  15.7111  15.7111  15.7232  15.7233  15.8947  15.8947  16.0194
    16.1282  16.1382  16.1726  16.2051  16.2377  16.2377  16.4304  16.5119
    16.8985  17.0058  17.0220  17.0669  17.1086  17.1086  17.2328  17.2328
    17.2556  17.5815  17.6070  17.6071  17.6101  17.8059  17.8059  17.8947
    17.9352  17.9352  18.0521  18.0545  18.0574  18.0640  18.0641  18.1030

          k = 0.0000-0.0000 0.1552 ( 32412 PWs)   bands (ev):

   -70.0499 -70.0494 -70.0459 -70.0459 -70.0454 -70.0454 -70.0420 -70.0415
   -40.1131 -40.1086 -40.0925 -40.0822 -40.0488 -40.0401 -39.8797 -39.8664
   -36.1892 -36.1845 -36.1715 -36.1715 -36.1701 -36.1701 -36.1338 -36.1334
   -36.1331 -36.1291 -36.1213 -36.1213 -36.1173 -36.1152 -36.1135 -36.1111
   -36.1111 -36.1059 -36.0985 -36.0985 -36.0974 -36.0974 -36.0788 -36.0780
   -16.5481 -16.5481 -16.5335 -16.5335 -16.4841 -16.4642 -16.4642 -16.4575
   -16.4575 -16.3990 -16.3878 -16.3444 -16.3336 -16.3136 -16.2941 -16.2542
   -16.1758 -16.1758 -16.1707 -16.1707 -16.0518 -16.0518 -16.0443 -16.0443
     8.2873   9.6917  10.9533  12.1621  12.7594  12.7594  13.0679  13.0696
    13.0696  13.3847  13.3952  13.4014  13.4972  13.5405  13.5672  13.8408
    14.0086  14.1585  14.3457  14.3457  14.4708  14.4708  14.8032  14.9014
    14.9014  15.0761  15.0761  15.0784  15.2089  15.2297  15.4897  15.5244
    15.5244  15.6624  15.6624  15.7153  15.7154  15.7437  15.7438  15.8060
    15.8329  15.8407  15.8407  16.1871  16.3610  16.4120  16.5618  16.6143
    16.9295  16.9296  16.9340  17.0094  17.0186  17.1530  17.1530  17.1583
    17.2139  17.2139  17.3828  17.5123  17.5191  17.7032  17.7854  18.0430
    18.0739  18.0739  18.0953  18.0953  18.3818  18.3818  18.4851  18.5256

          k =-0.0000 0.0000-0.2328 ( 32504 PWs)   bands (ev):

   -70.0496 -70.0496 -70.0457 -70.0457 -70.0457 -70.0457 -70.0418 -70.0418
   -40.1108 -40.1108 -40.0873 -40.0873 -40.0444 -40.0444 -39.8731 -39.8731
   -36.1868 -36.1868 -36.1708 -36.1708 -36.1708 -36.1708 -36.1334 -36.1334
   -36.1312 -36.1312 -36.1162 -36.1162 -36.1162 -36.1162 -36.1154 -36.1154
   -36.1105 -36.1105 -36.0979 -36.0979 -36.0979 -36.0979 -36.0784 -36.0784
   -16.5407 -16.5407 -16.5407 -16.5407 -16.4610 -16.4610 -16.4610 -16.4610
   -16.4105 -16.4105 -16.3508 -16.3508 -16.3504 -16.3504 -16.2945 -16.2945
   -16.1733 -16.1733 -16.1733 -16.1733 -16.0480 -16.0480 -16.0480 -16.0480
     8.9319   8.9319  11.5083  11.5083  12.9340  12.9340  12.9340  12.9340
    13.4815  13.4815  13.4820  13.4820  13.4937  13.4937  13.6942  13.6942
    13.8213  13.8213  14.3863  14.3863  14.3863  14.3864  14.8091  14.8091
    15.1709  15.1709  15.1709  15.1709  15.3007  15.3007  15.3007  15.3007
    15.4734  15.4734  15.4962  15.4962  15.7834  15.7834  15.7835  15.7835
    15.8193  15.8193  16.2713  16.2713  16.2749  16.2749  16.2750  16.2750
    17.0141  17.0141  17.0345  17.0345  17.0917  17.0917  17.1865  17.1865
    17.1865  17.1865  17.3755  17.3755  17.3881  17.3881  17.9491  17.9491
    18.1742  18.1742  18.1742  18.1742  18.8263  18.8263  18.8263  18.8263

          k = 0.0000 0.0847 0.0776 ( 32442 PWs)   bands (ev):

   -70.0499 -70.0489 -70.0464 -70.0459 -70.0454 -70.0449 -70.0425 -70.0416
   -40.1129 -40.1046 -40.0960 -40.0787 -40.0535 -40.0385 -39.8852 -39.8621
   -36.1890 -36.1815 -36.1723 -36.1706 -36.1690 -36.1667 -36.1361 -36.1347
   -36.1330 -36.1262 -36.1246 -36.1245 -36.1192 -36.1190 -36.1118 -36.1076
   -36.1070 -36.1027 -36.1012 -36.1000 -36.0980 -36.0962 -36.0810 -36.0796
   -16.5510 -16.5377 -16.5293 -16.5273 -16.5051 -16.4690 -16.4559 -16.4461
   -16.4347 -16.4318 -16.4155 -16.3633 -16.3016 -16.2861 -16.2475 -16.2235
   -16.2028 -16.1932 -16.1773 -16.1683 -16.0762 -16.0627 -16.0550 -16.0421
     7.9147  10.4086  10.6215  12.5523  12.6044  12.7381  12.8523  12.9029
    13.1714  13.3093  13.3301  13.4080  13.4447  13.4781  13.7851  13.9097
    14.3930  14.3993  14.4237  14.5050  14.5507  14.5849  14.7212  14.7862
    14.8559  14.9654  15.0099  15.0938  15.1432  15.1549  15.2276  15.4309
    15.4374  15.6526  15.6636  15.6959  15.7148  15.7357  15.8144  15.8848
    16.1160  16.1567  16.1643  16.1648  16.1904  16.2796  16.5284  16.5290
    16.5814  16.7431  16.8955  17.0948  17.1335  17.2096  17.2334  17.2932
    17.3433  17.3771  17.4404  17.5043  17.6340  17.6612  17.6806  17.9702
    18.0116  18.0516  18.1023  18.1093  18.1415  18.1514  18.2350  18.4584

          k = 0.0000 0.0847 0.1552 ( 32469 PWs)   bands (ev):

   -70.0497 -70.0491 -70.0462 -70.0457 -70.0457 -70.0451 -70.0423 -70.0418
   -40.1111 -40.1063 -40.0923 -40.0824 -40.0503 -40.0416 -39.8803 -39.8670
   -36.1874 -36.1831 -36.1719 -36.1710 -36.1685 -36.1672 -36.1358 -36.1350
   -36.1316 -36.1277 -36.1209 -36.1209 -36.1177 -36.1156 -36.1134 -36.1112
   -36.1107 -36.1062 -36.1009 -36.1002 -36.0976 -36.0965 -36.0807 -36.0799
   -16.5459 -16.5321 -16.5241 -16.5102 -16.4821 -16.4664 -16.4589 -16.4439
   -16.4373 -16.3990 -16.3882 -16.3421 -16.3351 -16.3138 -16.2943 -16.2560
   -16.2008 -16.1952 -16.1754 -16.1702 -16.0734 -16.0656 -16.0523 -16.0448
     8.3389   9.7333  10.9739  12.1280  12.7006  12.7953  12.8703  13.1188
    13.1546  13.4622  13.4679  13.5033  13.5904  13.6209  13.7681  13.8865
    14.0279  14.1877  14.3910  14.4025  14.4706  14.5220  14.5776  14.8206
    14.9029  14.9802  15.0849  15.1349  15.1858  15.3104  15.3516  15.4856
    15.5101  15.6022  15.6106  15.6283  15.6551  15.6921  15.7007  15.7110
    15.7158  15.7566  15.8898  16.1555  16.1900  16.3011  16.3153  16.5960
    16.7426  16.8025  17.0783  17.1134  17.1741  17.2074  17.2302  17.2516
    17.2646  17.3256  17.4396  17.4563  17.6080  17.6376  17.7974  17.8040
    17.8430  17.9995  18.1048  18.1768  18.3113  18.4317  18.4846  18.8161

          k = 0.0000 0.0847-0.2328 ( 32438 PWs)   bands (ev):

   -70.0494 -70.0494 -70.0459 -70.0459 -70.0454 -70.0454 -70.0420 -70.0420
   -40.1087 -40.1087 -40.0874 -40.0874 -40.0460 -40.0460 -39.8737 -39.8737
   -36.1852 -36.1852 -36.1715 -36.1715 -36.1679 -36.1679 -36.1354 -36.1354
   -36.1296 -36.1296 -36.1160 -36.1160 -36.1158 -36.1158 -36.1156 -36.1156
   -36.1109 -36.1109 -36.1005 -36.1005 -36.0971 -36.0971 -36.0803 -36.0803
   -16.5389 -16.5389 -16.5170 -16.5170 -16.4628 -16.4628 -16.4407 -16.4407
   -16.4082 -16.4082 -16.3528 -16.3528 -16.3490 -16.3490 -16.2961 -16.2961
   -16.1980 -16.1980 -16.1728 -16.1728 -16.0695 -16.0695 -16.0486 -16.0486
     8.9809   8.9809  11.5110  11.5110  12.7741  12.7741  13.0346  13.0346
    13.5414  13.5414  13.5765  13.5765  13.6247  13.6247  13.7443  13.7443
    13.8689  13.8689  14.4094  14.4094  14.4320  14.4320  14.7205  14.7206
    15.0411  15.0411  15.1348  15.1348  15.2804  15.2804  15.2847  15.2847
    15.4705  15.4705  15.5848  15.5848  15.7092  15.7092  15.7173  15.7173
    15.7327  15.7327  15.9191  15.9191  16.1553  16.1553  16.2695  16.2695
    17.0326  17.0326  17.1436  17.1436  17.1841  17.1841  17.2348  17.2348
    17.2661  17.2661  17.4074  17.4074  17.4775  17.4775  17.8775  17.8775
    17.9032  17.9032  18.2026  18.2026  18.5648  18.5648  18.7557  18.7557

          k = 0.0000 0.1695 0.1552 ( 32476 PWs)   bands (ev):

   -70.0489 -70.0484 -70.0469 -70.0464 -70.0450 -70.0444 -70.0430 -70.0425
   -40.1065 -40.1006 -40.0925 -40.0837 -40.0536 -40.0449 -39.8815 -39.8682
   -36.1829 -36.1797 -36.1736 -36.1734 -36.1607 -36.1595 -36.1417 -36.1408
   -36.1264 -36.1233 -36.1198 -36.1198 -36.1186 -36.1167 -36.1135 -36.1114
   -36.1098 -36.1074 -36.1072 -36.1069 -36.0949 -36.0939 -36.0853 -36.0844
   -16.5409 -16.5292 -16.4785 -16.4714 -16.4618 -16.4585 -16.4460 -16.4003
   -16.3941 -16.3896 -16.3856 -16.3383 -16.3362 -16.3165 -16.2934 -16.2679
   -16.2611 -16.2602 -16.1746 -16.1692 -16.1260 -16.1174 -16.0532 -16.0460
     8.4498   9.8219  11.0180  12.0464  12.2528  12.8968  13.1800  13.2551
    13.3331  13.6003  13.6406  13.7372  13.7565  13.7791  13.9248  13.9389
    13.9843  14.2847  14.2891  14.4733  14.5438  14.5574  14.6385  14.6925
    14.7783  14.8573  14.9494  15.0585  15.1157  15.1974  15.3820  15.4174
    15.4667  15.4832  15.5017  15.5218  15.5481  15.5658  15.5669  15.5973
    15.6102  15.6279  15.6589  15.7769  16.0348  16.1134  16.1959  16.2535
    16.7852  17.1546  17.1680  17.2182  17.2655  17.2714  17.3079  17.3558
    17.3867  17.4356  17.4510  17.4652  17.5146  17.5460  17.5648  17.8007
    17.9136  17.9803  18.1400  18.2186  18.2563  18.3646  18.4870  18.5880

          k = 0.0000 0.1695-0.2328 ( 32466 PWs)   bands (ev):

   -70.0487 -70.0487 -70.0467 -70.0467 -70.0447 -70.0447 -70.0427 -70.0427
   -40.1036 -40.1036 -40.0881 -40.0881 -40.0493 -40.0493 -39.8749 -39.8749
   -36.1813 -36.1813 -36.1735 -36.1735 -36.1601 -36.1601 -36.1412 -36.1412
   -36.1249 -36.1249 -36.1161 -36.1161 -36.1155 -36.1155 -36.1148 -36.1148
   -36.1119 -36.1119 -36.1071 -36.1071 -36.0944 -36.0944 -36.0849 -36.0849
   -16.5350 -16.5350 -16.4666 -16.4666 -16.4526 -16.4526 -16.4035 -16.4035
   -16.3903 -16.3903 -16.3580 -16.3580 -16.3456 -16.3456 -16.2997 -16.2997
   -16.2644 -16.2644 -16.1719 -16.1719 -16.1217 -16.1217 -16.0496 -16.0496
     9.0863   9.0863  11.4986  11.4986  12.5668  12.5668  13.2977  13.2977
    13.6406  13.6406  13.7589  13.7589  13.7915  13.7915  13.8736  13.8736
    14.0301  14.0301  14.4208  14.4208  14.5335  14.5335  14.6513  14.6513
    14.7980  14.7980  14.8773  14.8773  15.2962  15.2962  15.3395  15.3395
    15.3461  15.3461  15.3997  15.3997  15.5589  15.5589  15.5739  15.5739
    15.6040  15.6040  15.8095  15.8095  15.8644  15.8644  16.2062  16.2062
    17.0701  17.0701  17.3038  17.3038  17.3217  17.3217  17.3501  17.3501
    17.3852  17.3852  17.4808  17.4808  17.5655  17.5655  17.7049  17.7049
    17.7781  17.7781  18.1105  18.1105  18.2296  18.2296  18.6529  18.6529

          k =-0.0000-0.2542-0.2328 ( 32544 PWs)   bands (ev):

   -70.0478 -70.0477 -70.0476 -70.0476 -70.0438 -70.0438 -70.0436 -70.0436
   -40.1001 -40.1001 -40.0892 -40.0892 -40.0510 -40.0510 -39.8755 -39.8755
   -36.1770 -36.1770 -36.1768 -36.1768 -36.1508 -36.1508 -36.1496 -36.1496
   -36.1191 -36.1191 -36.1181 -36.1181 -36.1141 -36.1141 -36.1135 -36.1135
   -36.1134 -36.1134 -36.1132 -36.1132 -36.0906 -36.0906 -36.0897 -36.0897
   -16.5329 -16.5329 -16.4687 -16.4687 -16.4022 -16.4022 -16.3759 -16.3759
   -16.3673 -16.3673 -16.3557 -16.3557 -16.3436 -16.3436 -16.3344 -16.3344
   -16.3016 -16.3016 -16.1714 -16.1714 -16.1572 -16.1572 -16.0501 -16.0501
     9.1434   9.1434  11.4801  11.4801  12.4926  12.4926  13.5196  13.5196
    13.6561  13.6561  13.7930  13.7930  13.8619  13.8619  13.9934  13.9934
    14.1996  14.1996  14.3879  14.3879  14.5603  14.5603  14.6143  14.6143
    14.6806  14.6806  14.7403  14.7403  15.1765  15.1765  15.2089  15.2089
    15.4139  15.4140  15.4210  15.4210  15.4323  15.4323  15.4370  15.4370
    15.5832  15.5832  15.6535  15.6535  16.0236  16.0236  16.0534  16.0534
    17.1413  17.1413  17.3748  17.3748  17.4009  17.4009  17.4320  17.4320
    17.4631  17.4631  17.4727  17.4727  17.4899  17.4899  17.5897  17.5897
    17.7603  17.7603  18.1391  18.1391  18.2979  18.2979  18.3760  18.3760

          k = 0.0847 0.0847 0.0776 ( 32444 PWs)   bands (ev):

   -70.0496 -70.0486 -70.0461 -70.0461 -70.0452 -70.0452 -70.0427 -70.0418
   -40.1110 -40.1021 -40.0956 -40.0788 -40.0551 -40.0403 -39.8858 -39.8627
   -36.1870 -36.1801 -36.1700 -36.1688 -36.1679 -36.1676 -36.1379 -36.1366
   -36.1311 -36.1249 -36.1242 -36.1242 -36.1195 -36.1194 -36.1115 -36.1073
   -36.1073 -36.1031 -36.1009 -36.0997 -36.0992 -36.0990 -36.0829 -36.0815
   -16.5361 -16.5274 -16.5262 -16.5040 -16.5039 -16.4506 -16.4467 -16.4360
   -16.4356 -16.4308 -16.4165 -16.3649 -16.2998 -16.2857 -16.2475 -16.2257
   -16.2037 -16.2011 -16.1928 -16.1925 -16.0770 -16.0764 -16.0633 -16.0633
     7.9615  10.4365  10.6667  12.5397  12.6128  12.7441  12.8044  12.9028
    13.0491  13.3771  13.4263  13.4591  13.5214  13.7400  13.8917  13.9605
    14.3838  14.4154  14.4743  14.5049  14.5266  14.6058  14.6304  14.7451
    14.8630  14.9274  15.0238  15.0782  15.0840  15.1690  15.2146  15.3550
    15.3701  15.5024  15.6087  15.6190  15.6421  15.7834  15.7900  15.9171
    15.9468  16.0460  16.1018  16.1147  16.1367  16.3089  16.3133  16.3166
    16.7083  16.7284  16.8983  16.9179  17.0939  17.1806  17.2232  17.2294
    17.3884  17.4531  17.4645  17.6721  17.7683  17.7882  17.7935  17.8122
    18.0181  18.0317  18.0571  18.0595  18.1454  18.4407  18.4437  18.4656

          k = 0.0847 0.0847 0.1552 ( 32476 PWs)   bands (ev):

   -70.0494 -70.0488 -70.0459 -70.0459 -70.0454 -70.0454 -70.0425 -70.0420
   -40.1091 -40.1040 -40.0921 -40.0824 -40.0520 -40.0434 -39.8809 -39.8676
   -36.1855 -36.1816 -36.1695 -36.1687 -36.1681 -36.1681 -36.1377 -36.1369
   -36.1299 -36.1263 -36.1206 -36.1205 -36.1179 -36.1160 -36.1133 -36.1109
   -36.1108 -36.1065 -36.1005 -36.0995 -36.0994 -36.0992 -36.0826 -36.0818
   -16.5224 -16.5213 -16.5090 -16.5085 -16.4803 -16.4476 -16.4445 -16.4392
   -16.4381 -16.3983 -16.3890 -16.3398 -16.3367 -16.3135 -16.2952 -16.2579
   -16.2014 -16.1993 -16.1951 -16.1943 -16.0741 -16.0737 -16.0662 -16.0661
     8.3857   9.7726  11.0121  12.1462  12.6564  12.7741  12.9171  12.9986
    13.1646  13.5501  13.5641  13.5702  13.6728  13.8203  13.8747  13.9444
    14.0564  14.2086  14.4147  14.4212  14.5110  14.5267  14.5340  14.6869
    14.8953  15.0325  15.0609  15.1224  15.2098  15.2692  15.2890  15.3530
    15.4785  15.4932  15.5115  15.5415  15.5717  15.5890  15.6152  15.7149
    15.7174  15.7468  15.7704  15.9304  16.1456  16.1737  16.1892  16.3018
    16.6713  16.9533  17.1648  17.1889  17.2027  17.2412  17.3248  17.3395
    17.3642  17.4030  17.4987  17.5777  17.5976  17.6559  17.8224  17.8817
    17.9509  17.9603  17.9946  18.0382  18.3644  18.4032  18.6519  18.7850

          k = 0.0847 0.0847-0.2328 ( 32474 PWs)   bands (ev):

   -70.0491 -70.0491 -70.0457 -70.0457 -70.0457 -70.0457 -70.0423 -70.0423
   -40.1065 -40.1065 -40.0872 -40.0872 -40.0477 -40.0477 -39.8743 -39.8743
   -36.1836 -36.1835 -36.1688 -36.1688 -36.1684 -36.1684 -36.1373 -36.1373
   -36.1281 -36.1281 -36.1158 -36.1158 -36.1156 -36.1156 -36.1156 -36.1156
   -36.1112 -36.1112 -36.0999 -36.0999 -36.0993 -36.0993 -36.0822 -36.0822
   -16.5156 -16.5156 -16.5148 -16.5148 -16.4436 -16.4436 -16.4414 -16.4414
   -16.4060 -16.4060 -16.3514 -16.3514 -16.3511 -16.3511 -16.2977 -16.2977
   -16.1982 -16.1982 -16.1968 -16.1968 -16.0701 -16.0701 -16.0699 -16.0699
     9.0260   9.0260  11.5386  11.5386  12.7544  12.7544  12.9912  12.9912
    13.5776  13.5776  13.7078  13.7078  13.7329  13.7329  13.8079  13.8079
    13.9110  13.9110  14.4448  14.4448  14.4474  14.4474  14.6781  14.6781
    14.9787  14.9787  15.1215  15.1215  15.1762  15.1762  15.3027  15.3027
    15.4914  15.4914  15.5227  15.5227  15.6041  15.6041  15.6310  15.6310
    15.6852  15.6852  15.7953  15.7953  15.8521  15.8521  16.2260  16.2260
    17.0192  17.0192  17.2383  17.2383  17.3152  17.3152  17.3187  17.3187
    17.3817  17.3817  17.4153  17.4153  17.5607  17.5607  17.8596  17.8596
    17.9991  17.9991  18.0132  18.0132  18.4264  18.4264  18.8015  18.8015

          k = 0.0847 0.1695 0.1552 ( 32434 PWs)   bands (ev):

   -70.0487 -70.0481 -70.0467 -70.0461 -70.0452 -70.0447 -70.0433 -70.0427
   -40.1043 -40.0982 -40.0920 -40.0833 -40.0557 -40.0472 -39.8821 -39.8688
   -36.1808 -36.1779 -36.1709 -36.1708 -36.1614 -36.1606 -36.1432 -36.1424
   -36.1250 -36.1221 -36.1197 -36.1194 -36.1186 -36.1169 -36.1131 -36.1111
   -36.1099 -36.1075 -36.1065 -36.1062 -36.0973 -36.0966 -36.0874 -36.0866
   -16.5171 -16.5057 -16.4768 -16.4564 -16.4509 -16.4446 -16.4415 -16.3987
   -16.3958 -16.3907 -16.3872 -16.3402 -16.3338 -16.3152 -16.2955 -16.2677
   -16.2618 -16.2608 -16.1995 -16.1937 -16.1265 -16.1180 -16.0749 -16.0673
     8.4851   9.8554  11.1052  12.1435  12.2636  12.8632  13.0442  13.2597
    13.2675  13.7058  13.7232  13.8316  13.8380  13.9718  13.9727  14.0318
    14.0668  14.2783  14.3139  14.4910  14.5241  14.5589  14.6503  14.6687
    14.8130  14.9498  14.9779  14.9937  15.0471  15.1510  15.2900  15.3505
    15.3674  15.3682  15.3831  15.4116  15.4373  15.4376  15.4878  15.5455
    15.5567  15.5712  15.5851  15.6525  15.8593  15.9122  15.9258  16.1393
    16.8507  17.1866  17.2486  17.2851  17.3025  17.3168  17.4032  17.4560
    17.4839  17.5654  17.5828  17.6140  17.6460  17.7231  17.7264  17.8767
    17.9675  17.9796  18.1326  18.1431  18.2706  18.2825  18.5631  18.6006

          k = 0.0847 0.1695-0.2328 ( 32462 PWs)   bands (ev):

   -70.0484 -70.0484 -70.0464 -70.0464 -70.0450 -70.0450 -70.0430 -70.0430
   -40.1012 -40.1012 -40.0876 -40.0876 -40.0515 -40.0515 -39.8755 -39.8755
   -36.1793 -36.1793 -36.1708 -36.1708 -36.1610 -36.1610 -36.1428 -36.1428
   -36.1236 -36.1236 -36.1160 -36.1160 -36.1153 -36.1153 -36.1147 -36.1147
   -36.1122 -36.1122 -36.1063 -36.1063 -36.0969 -36.0969 -36.0870 -36.0870
   -16.5114 -16.5114 -16.4507 -16.4507 -16.4463 -16.4463 -16.4016 -16.4016
   -16.3917 -16.3917 -16.3563 -16.3563 -16.3477 -16.3477 -16.3014 -16.3014
   -16.2641 -16.2641 -16.1966 -16.1966 -16.1222 -16.1222 -16.0711 -16.0711
     9.1219   9.1219  11.5876  11.5876  12.5716  12.5716  13.2066  13.2066
    13.6327  13.6327  13.8787  13.8787  13.8996  13.8996  13.9969  13.9969
    14.0691  14.0691  14.4217  14.4217  14.5500  14.5500  14.6655  14.6655
    14.7459  14.7459  14.9486  14.9486  15.2200  15.2200  15.2367  15.2367
    15.2945  15.2945  15.3287  15.3287  15.4433  15.4433  15.4805  15.4805
    15.5594  15.5594  15.6188  15.6188  15.6461  15.6461  16.0640  16.0640
    17.0875  17.0875  17.4200  17.4200  17.4378  17.4378  17.4478  17.4478
    17.4698  17.4698  17.5833  17.5833  17.7380  17.7380  17.7727  17.7727
    17.8400  17.8400  18.0959  18.0959  18.2664  18.2664  18.7023  18.7023

          k = 0.0847-0.2542-0.2328 ( 32460 PWs)   bands (ev):

   -70.0475 -70.0475 -70.0473 -70.0473 -70.0441 -70.0441 -70.0439 -70.0439
   -40.0976 -40.0976 -40.0887 -40.0887 -40.0535 -40.0535 -39.8761 -39.8761
   -36.1747 -36.1747 -36.1744 -36.1744 -36.1519 -36.1519 -36.1509 -36.1509
   -36.1181 -36.1181 -36.1173 -36.1173 -36.1140 -36.1139 -36.1135 -36.1135
   -36.1134 -36.1134 -36.1128 -36.1128 -36.0929 -36.0929 -36.0921 -36.0921
   -16.5092 -16.5092 -16.4484 -16.4484 -16.3997 -16.3997 -16.3738 -16.3738
   -16.3656 -16.3656 -16.3552 -16.3552 -16.3456 -16.3456 -16.3371 -16.3371
   -16.3034 -16.3034 -16.1962 -16.1962 -16.1577 -16.1577 -16.0716 -16.0716
     9.1732   9.1732  11.6068  11.6068  12.4832  12.4832  13.4804  13.4804
    13.5498  13.5498  13.8949  13.8949  13.9734  13.9734  14.1559  14.1559
    14.2630  14.2630  14.4078  14.4078  14.5155  14.5155  14.6450  14.6450
    14.6799  14.6799  14.7843  14.7843  15.1148  15.1148  15.1176  15.1176
    15.3145  15.3145  15.3152  15.3152  15.3725  15.3725  15.3842  15.3842
    15.4429  15.4429  15.4970  15.4970  15.8119  15.8119  15.8446  15.8446
    17.1447  17.1447  17.4988  17.4988  17.5135  17.5135  17.5330  17.5330
    17.5844  17.5844  17.6257  17.6257  17.6776  17.6776  17.7534  17.7534
    17.8211  17.8211  18.1575  18.1575  18.3267  18.3267  18.4064  18.4064

          k = 0.1695 0.1695 0.1552 ( 32390 PWs)   bands (ev):

   -70.0479 -70.0474 -70.0460 -70.0459 -70.0454 -70.0454 -70.0440 -70.0434
   -40.0989 -40.0922 -40.0913 -40.0829 -40.0608 -40.0526 -39.8833 -39.8700
   -36.1754 -36.1733 -36.1651 -36.1638 -36.1637 -36.1626 -36.1477 -36.1472
   -36.1211 -36.1193 -36.1188 -36.1182 -36.1180 -36.1176 -36.1124 -36.1105
   -36.1103 -36.1083 -36.1048 -36.1037 -36.1033 -36.1021 -36.0926 -36.0920
   -16.4734 -16.4537 -16.4497 -16.4420 -16.4407 -16.4051 -16.3957 -16.3954
   -16.3935 -16.3927 -16.3888 -16.3443 -16.3275 -16.3134 -16.3000 -16.2702
   -16.2652 -16.2642 -16.2611 -16.2591 -16.1280 -16.1273 -16.1192 -16.1189
     8.5584   9.9252  11.3351  12.2037  12.3653  12.7235  12.8581  13.2618
    13.4237  13.9093  13.9270  13.9960  14.0171  14.0281  14.1347  14.2764
    14.2912  14.3202  14.3580  14.3635  14.5231  14.6298  14.6356  14.8274
    14.8319  14.8817  14.9774  15.0143  15.0520  15.0523  15.0927  15.1006
    15.1258  15.1808  15.2021  15.2391  15.2449  15.2460  15.3148  15.3533
    15.3805  15.4182  15.4391  15.5161  15.5368  15.5612  15.5858  15.9355
    17.0092  17.2093  17.3232  17.3732  17.4077  17.5522  17.6296  17.6446
    17.6646  17.6824  17.7684  17.7863  17.9163  17.9431  17.9459  18.0051
    18.0122  18.0515  18.1193  18.2152  18.2519  18.3153  18.5324  18.5940

          k = 0.1695 0.1695-0.2328 ( 32458 PWs)   bands (ev):

   -70.0477 -70.0477 -70.0457 -70.0457 -70.0457 -70.0457 -70.0437 -70.0437
   -40.0955 -40.0955 -40.0871 -40.0871 -40.0567 -40.0567 -39.8767 -39.8767
   -36.1743 -36.1743 -36.1644 -36.1644 -36.1632 -36.1632 -36.1475 -36.1475
   -36.1195 -36.1195 -36.1157 -36.1157 -36.1149 -36.1149 -36.1143 -36.1143
   -36.1129 -36.1129 -36.1043 -36.1042 -36.1026 -36.1026 -36.0923 -36.0923
   -16.4481 -16.4481 -16.4452 -16.4452 -16.4016 -16.4016 -16.3937 -16.3937
   -16.3929 -16.3929 -16.3527 -16.3527 -16.3525 -16.3525 -16.3052 -16.3052
   -16.2653 -16.2653 -16.2616 -16.2616 -16.1236 -16.1236 -16.1231 -16.1231
     9.1960   9.1960  11.8085  11.8085  12.5377  12.5377  13.0885  13.0885
    13.6261  13.6261  14.1410  14.1410  14.1625  14.1625  14.1690  14.1690
    14.1956  14.1956  14.4227  14.4227  14.6208  14.6208  14.6585  14.6585
    14.7076  14.7076  14.9783  14.9783  15.0874  15.0874  15.0975  15.0975
    15.1194  15.1194  15.1872  15.1872  15.2343  15.2343  15.2627  15.2627
    15.3367  15.3367  15.3460  15.3460  15.4607  15.4607  15.7236  15.7236
    17.1678  17.1678  17.5504  17.5504  17.5975  17.5975  17.6294  17.6294
    17.6625  17.6625  17.8256  17.8256  17.8610  17.8610  17.9905  17.9905
    18.0097  18.0097  18.1021  18.1021  18.4050  18.4050  18.7431  18.7431

          k = 0.1695-0.2542-0.2328 ( 32460 PWs)   bands (ev):

   -70.0468 -70.0468 -70.0466 -70.0466 -70.0448 -70.0448 -70.0446 -70.0446
   -40.0914 -40.0914 -40.0876 -40.0876 -40.0598 -40.0598 -39.8773 -39.8773
   -36.1687 -36.1687 -36.1683 -36.1683 -36.1555 -36.1555 -36.1546 -36.1546
   -36.1160 -36.1160 -36.1157 -36.1157 -36.1142 -36.1142 -36.1139 -36.1139
   -36.1118 -36.1118 -36.1105 -36.1105 -36.0989 -36.0989 -36.0980 -36.0980
   -16.4444 -16.4444 -16.3998 -16.3998 -16.3927 -16.3927 -16.3681 -16.3681
   -16.3618 -16.3618 -16.3540 -16.3540 -16.3504 -16.3504 -16.3433 -16.3433
   -16.3073 -16.3073 -16.2631 -16.2631 -16.1587 -16.1587 -16.1239 -16.1239
     9.2348   9.2348  11.9668  11.9668  12.4650  12.4650  13.0628  13.0628
    13.6015  13.6015  14.1670  14.1670  14.2580  14.2580  14.4485  14.4485
    14.4503  14.4503  14.4648  14.4648  14.4792  14.4792  14.6136  14.6136
    14.7777  14.7777  14.8033  14.8033  15.0230  15.0230  15.0400  15.0400
    15.0848  15.0848  15.1066  15.1066  15.1148  15.1148  15.1675  15.1675
    15.2930  15.2930  15.3179  15.3179  15.3760  15.3760  15.4156  15.4156
    17.2083  17.2083  17.6492  17.6492  17.6738  17.6738  17.7224  17.7224
    17.8341  17.8341  17.9137  17.9137  17.9423  17.9423  17.9587  17.9587
    18.0163  18.0163  18.3695  18.3695  18.4622  18.4622  18.5087  18.5087

          k =-0.2542-0.2542-0.2328 ( 32344 PWs)   bands (ev):

   -70.0459 -70.0459 -70.0457 -70.0457 -70.0457 -70.0457 -70.0455 -70.0455
   -40.0870 -40.0870 -40.0870 -40.0870 -40.0642 -40.0642 -39.8779 -39.8779
   -36.1620 -36.1620 -36.1620 -36.1620 -36.1610 -36.1610 -36.1597 -36.1596
   -36.1149 -36.1149 -36.1149 -36.1149 -36.1146 -36.1146 -36.1142 -36.1142
   -36.1079 -36.1079 -36.1055 -36.1055 -36.1046 -36.1046 -36.1046 -36.1046
   -16.3913 -16.3913 -16.3673 -16.3673 -16.3645 -16.3645 -16.3591 -16.3591
   -16.3549 -16.3549 -16.3549 -16.3549 -16.3549 -16.3549 -16.3475 -16.3475
   -16.3475 -16.3475 -16.3093 -16.3093 -16.1593 -16.1593 -16.1593 -16.1593
     9.2666   9.2666  12.4562  12.4562  12.4563  12.4563  12.5379  12.5379
    13.6178  13.6178  14.4420  14.4420  14.4420  14.4420  14.4658  14.4658
    14.5615  14.5615  14.5615  14.5615  14.6063  14.6063  14.6612  14.6612
    14.8942  14.8942  14.8942  14.8942  14.9399  14.9399  14.9507  14.9507
    14.9507  14.9507  14.9571  14.9571  14.9676  14.9676  14.9838  14.9838
    15.1538  15.1538  15.1571  15.1572  15.1572  15.1572  15.1927  15.1927
    17.2406  17.2406  17.8008  17.8008  17.8009  17.8009  17.8256  17.8256
    17.9612  17.9612  17.9612  17.9612  17.9667  17.9667  18.0445  18.0445
    18.1420  18.1420  18.6616  18.6616  18.6616  18.6616  18.7150  18.7150

          k = 0.0847 0.0000 0.0000 ( 32427 PWs)   bands (ev):

   -70.0500 -70.0488 -70.0465 -70.0459 -70.0454 -70.0449 -70.0425 -70.0415
   -40.1135 -40.1039 -40.0973 -40.0774 -40.0546 -40.0373 -39.8869 -39.8603
   -36.1896 -36.1809 -36.1724 -36.1705 -36.1692 -36.1666 -36.1362 -36.1346
   -36.1335 -36.1259 -36.1259 -36.1257 -36.1203 -36.1197 -36.1112 -36.1063
   -36.1056 -36.1015 -36.1013 -36.0999 -36.0981 -36.0960 -36.0811 -36.0795
   -16.5581 -16.5530 -16.5312 -16.5255 -16.5033 -16.4700 -16.4548 -16.4470
   -16.4436 -16.4337 -16.4255 -16.3735 -16.2880 -16.2759 -16.2314 -16.2091
   -16.2036 -16.1924 -16.1780 -16.1676 -16.0773 -16.0617 -16.0559 -16.0411
     7.7669  10.4997  10.7027  12.5611  12.6118  12.6889  12.7586  13.0546
    13.1630  13.2469  13.2892  13.3787  13.3879  13.4210  13.7646  13.8624
    14.3952  14.4009  14.5663  14.6629  14.6641  14.6956  14.6991  14.7762
    14.8084  14.9595  14.9744  15.0055  15.0519  15.0857  15.4105  15.5213
    15.5230  15.5382  15.6052  15.6947  15.7491  15.8015  15.8502  15.9466
    15.9512  16.0817  16.2541  16.2727  16.4364  16.5296  16.5870  16.5979
    16.6071  16.7500  16.7846  16.9725  17.0874  17.1326  17.1808  17.2282
    17.2520  17.4703  17.5007  17.5524  17.6257  17.6997  17.7638  17.9300
    17.9910  18.0442  18.0694  18.0846  18.1730  18.1901  18.1955  18.4144

          k = 0.1695 0.0000 0.0000 ( 32412 PWs)   bands (ev):

   -70.0492 -70.0481 -70.0472 -70.0461 -70.0452 -70.0441 -70.0433 -70.0422
   -40.1095 -40.0977 -40.0969 -40.0792 -40.0579 -40.0406 -39.8882 -39.8615
   -36.1845 -36.1781 -36.1736 -36.1733 -36.1614 -36.1589 -36.1421 -36.1403
   -36.1275 -36.1248 -36.1246 -36.1216 -36.1215 -36.1210 -36.1102 -36.1079
   -36.1074 -36.1074 -36.1048 -36.1024 -36.0954 -36.0934 -36.0857 -36.0840
   -16.5546 -16.5469 -16.5234 -16.4760 -16.4646 -16.4569 -16.4426 -16.4400
   -16.4269 -16.3970 -16.3844 -16.3767 -16.2840 -16.2764 -16.2715 -16.2578
   -16.2288 -16.2153 -16.1773 -16.1665 -16.1303 -16.1132 -16.0568 -16.0424
     7.8784  10.5881  10.7394  11.9476  12.7071  12.9204  13.0209  13.2079
    13.2455  13.3516  13.4252  13.5088  13.5801  13.6714  13.8850  13.9087
    14.1449  14.1868  14.4392  14.5850  14.6157  14.6157  14.6871  14.7755
    14.8480  14.8777  15.1192  15.1660  15.1677  15.2044  15.3418  15.4214
    15.4863  15.5075  15.5344  15.5771  15.6421  15.6664  15.7879  15.8464
    15.8597  15.8995  16.0240  16.1192  16.1451  16.3761  16.3910  16.5077
    16.6324  16.6808  16.7207  16.7678  16.8098  16.9536  17.1272  17.1883
    17.2573  17.4368  17.4990  17.6189  17.6209  17.8634  17.8886  17.9948
    18.1491  18.1939  18.2968  18.3412  18.3940  18.4129  18.5241  18.6365

          k =-0.2542-0.0000-0.0000 ( 32504 PWs)   bands (ev):

   -70.0483 -70.0481 -70.0472 -70.0470 -70.0443 -70.0441 -70.0433 -70.0431
   -40.1071 -40.0969 -40.0932 -40.0816 -40.0597 -40.0423 -39.8888 -39.8621
   -36.1786 -36.1785 -36.1754 -36.1750 -36.1518 -36.1507 -36.1497 -36.1486
   -36.1233 -36.1230 -36.1228 -36.1227 -36.1189 -36.1175 -36.1158 -36.1143
   -36.1089 -36.1086 -36.1037 -36.1035 -36.0915 -36.0907 -36.0896 -36.0888
   -16.5528 -16.5434 -16.5224 -16.4795 -16.4580 -16.4424 -16.4273 -16.3886
   -16.3784 -16.3703 -16.3674 -16.3530 -16.3402 -16.3290 -16.2794 -16.2793
   -16.2237 -16.2221 -16.1769 -16.1666 -16.1659 -16.1479 -16.0572 -16.0430
     7.9384  10.6536  10.7579  11.6748  12.7670  13.0919  13.1340  13.3517
    13.3806  13.4081  13.5172  13.6983  13.7107  13.7653  13.8170  13.8211
    13.8585  14.0615  14.0665  14.6051  14.7641  14.7806  14.8627  14.8630
    14.8662  14.9541  14.9706  15.0607  15.1043  15.2783  15.4181  15.4309
    15.4374  15.5099  15.5146  15.5695  15.5899  15.7255  15.7870  15.8408
    15.8869  15.8877  15.9312  15.9372  15.9419  15.9854  15.9911  16.0962
    16.6494  16.6732  16.6825  16.7130  16.7181  17.2386  17.2489  17.3963
    17.4375  17.4490  17.4538  17.4631  17.6295  17.8870  17.9093  18.1972
    18.2027  18.2033  18.2178  18.4768  18.6756  18.7447  18.7598  18.7686

          k = 0.0847-0.0847 0.0000 ( 32442 PWs)   bands (ev):

   -70.0497 -70.0485 -70.0462 -70.0462 -70.0451 -70.0451 -70.0428 -70.0417
   -40.1117 -40.1014 -40.0969 -40.0775 -40.0563 -40.0391 -39.8875 -39.8609
   -36.1875 -36.1796 -36.1702 -36.1689 -36.1678 -36.1675 -36.1380 -36.1365
   -36.1315 -36.1255 -36.1255 -36.1244 -36.1207 -36.1201 -36.1108 -36.1060
   -36.1060 -36.1018 -36.1010 -36.0998 -36.0991 -36.0988 -36.0830 -36.0814
   -16.5565 -16.5293 -16.5280 -16.5023 -16.5022 -16.4516 -16.4475 -16.4425
   -16.4348 -16.4346 -16.4265 -16.3752 -16.2865 -16.2755 -16.2312 -16.2114
   -16.2046 -16.2018 -16.1920 -16.1918 -16.0780 -16.0774 -16.0623 -16.0623
     7.8137  10.5472  10.7226  12.4894  12.7256  12.7269  12.7450  12.8217
    13.1487  13.3121  13.3867  13.4208  13.4697  13.6864  13.8651  13.9062
    14.4160  14.5178  14.5381  14.5883  14.5914  14.6182  14.6505  14.7909
    14.8160  14.9846  14.9859  15.0112  15.0122  15.0240  15.3809  15.4304
    15.4369  15.4627  15.6192  15.6283  15.6337  15.8295  15.8498  15.9788
    16.0169  16.0476  16.0878  16.1765  16.2837  16.3632  16.6361  16.6450
    16.7069  16.7438  16.8048  16.8600  16.8799  16.8825  16.9414  17.1643
    17.3581  17.5424  17.5440  17.7148  17.7253  17.7509  17.8147  17.8978
    17.9531  18.0463  18.0845  18.2135  18.2706  18.2786  18.2989  18.5064

          k =-0.0847-0.0847-0.0000 ( 32442 PWs)   bands (ev):

   -70.0497 -70.0485 -70.0462 -70.0462 -70.0451 -70.0451 -70.0428 -70.0417
   -40.1117 -40.1014 -40.0969 -40.0775 -40.0563 -40.0391 -39.8875 -39.8609
   -36.1875 -36.1796 -36.1702 -36.1689 -36.1678 -36.1675 -36.1380 -36.1365
   -36.1315 -36.1255 -36.1255 -36.1244 -36.1207 -36.1201 -36.1108 -36.1060
   -36.1060 -36.1018 -36.1010 -36.0998 -36.0991 -36.0988 -36.0830 -36.0814
   -16.5565 -16.5293 -16.5280 -16.5023 -16.5022 -16.4516 -16.4475 -16.4425
   -16.4348 -16.4346 -16.4265 -16.3752 -16.2865 -16.2755 -16.2312 -16.2114
   -16.2046 -16.2018 -16.1920 -16.1918 -16.0780 -16.0774 -16.0623 -16.0623
     7.8137  10.5472  10.7226  12.4894  12.7256  12.7269  12.7450  12.8217
    13.1487  13.3121  13.3867  13.4208  13.4697  13.6864  13.8651  13.9062
    14.4160  14.5177  14.5382  14.5883  14.5914  14.6182  14.6505  14.7908
    14.8160  14.9846  14.9859  15.0112  15.0121  15.0240  15.3809  15.4304
    15.4369  15.4627  15.6193  15.6283  15.6336  15.8295  15.8498  15.9788
    16.0169  16.0476  16.0878  16.1765  16.2837  16.3632  16.6361  16.6450
    16.7069  16.7438  16.8048  16.8601  16.8799  16.8825  16.9414  17.1643
    17.3581  17.5425  17.5440  17.7148  17.7253  17.7509  17.8147  17.8979
    17.9531  18.0463  18.0845  18.2135  18.2706  18.2786  18.2988  18.5064

          k = 0.1695-0.0847 0.0000 ( 32469 PWs)   bands (ev):

   -70.0490 -70.0478 -70.0469 -70.0458 -70.0455 -70.0444 -70.0435 -70.0425
   -40.1074 -40.0964 -40.0952 -40.0789 -40.0600 -40.0430 -39.8888 -39.8621
   -36.1822 -36.1764 -36.1709 -36.1708 -36.1618 -36.1601 -36.1436 -36.1420
   -36.1258 -36.1245 -36.1243 -36.1217 -36.1212 -36.1205 -36.1098 -36.1070
   -36.1068 -36.1066 -36.1051 -36.1027 -36.0976 -36.0962 -36.0878 -36.0862
   -16.5533 -16.5228 -16.5001 -16.4622 -16.4555 -16.4407 -16.4388 -16.4368
   -16.4281 -16.3990 -16.3854 -16.3787 -16.2825 -16.2755 -16.2713 -16.2574
   -16.2294 -16.2172 -16.2024 -16.1908 -16.1308 -16.1137 -16.0786 -16.0635
     7.9126  10.6761  10.7627  11.9561  12.7827  12.8179  12.9417  13.0498
    13.3540  13.4670  13.4932  13.6594  13.7043  13.7343  13.9492  13.9594
    14.2043  14.2085  14.4440  14.5654  14.6324  14.7220  14.7459  14.7659
    14.7662  14.9197  15.0323  15.1059  15.1330  15.1491  15.2867  15.3020
    15.3429  15.4083  15.5265  15.5466  15.5678  15.6974  15.7383  15.7409
    15.7961  15.8443  15.9364  15.9641  16.0540  16.2643  16.3257  16.3377
    16.5464  16.6678  16.6945  16.7244  16.8427  17.0912  17.2157  17.2876
    17.3903  17.5882  17.7016  17.7135  17.7322  17.9021  17.9527  17.9596
    18.0541  18.0724  18.1008  18.3235  18.3939  18.3956  18.5215  18.6172

          k =-0.1695-0.0847-0.0000 ( 32469 PWs)   bands (ev):

   -70.0490 -70.0478 -70.0469 -70.0458 -70.0455 -70.0444 -70.0435 -70.0425
   -40.1074 -40.0964 -40.0952 -40.0789 -40.0600 -40.0430 -39.8888 -39.8621
   -36.1822 -36.1764 -36.1709 -36.1708 -36.1618 -36.1601 -36.1436 -36.1420
   -36.1258 -36.1245 -36.1243 -36.1217 -36.1212 -36.1205 -36.1098 -36.1070
   -36.1068 -36.1066 -36.1051 -36.1027 -36.0976 -36.0962 -36.0878 -36.0862
   -16.5533 -16.5228 -16.5001 -16.4622 -16.4555 -16.4407 -16.4388 -16.4368
   -16.4281 -16.3990 -16.3854 -16.3787 -16.2825 -16.2755 -16.2713 -16.2574
   -16.2294 -16.2172 -16.2024 -16.1908 -16.1308 -16.1137 -16.0786 -16.0635
     7.9126  10.6761  10.7627  11.9561  12.7827  12.8179  12.9417  13.0498
    13.3540  13.4670  13.4932  13.6594  13.7043  13.7342  13.9492  13.9594
    14.2043  14.2085  14.4440  14.5655  14.6324  14.7220  14.7459  14.7659
    14.7662  14.9197  15.0323  15.1060  15.1329  15.1491  15.2867  15.3019
    15.3429  15.4082  15.5265  15.5466  15.5677  15.6974  15.7383  15.7409
    15.7961  15.8443  15.9364  15.9641  16.0540  16.2643  16.3257  16.3377
    16.5465  16.6678  16.6945  16.7244  16.8427  17.0912  17.2157  17.2876
    17.3903  17.5882  17.7016  17.7135  17.7322  17.9021  17.9527  17.9595
    18.0541  18.0724  18.1008  18.3235  18.3939  18.3956  18.5215  18.6172

          k = 0.0000 0.1695 0.0776 ( 32469 PWs)   bands (ev):

   -70.0491 -70.0482 -70.0471 -70.0462 -70.0452 -70.0442 -70.0432 -70.0423
   -40.1087 -40.0985 -40.0957 -40.0804 -40.0567 -40.0418 -39.8864 -39.8633
   -36.1841 -36.1785 -36.1736 -36.1733 -36.1612 -36.1591 -36.1420 -36.1405
   -36.1273 -36.1234 -36.1232 -36.1221 -36.1204 -36.1202 -36.1112 -36.1084
   -36.1078 -36.1071 -36.1061 -36.1036 -36.0953 -36.0936 -36.0856 -36.0841
   -16.5453 -16.5341 -16.5250 -16.4748 -16.4630 -16.4582 -16.4419 -16.4311
   -16.4165 -16.3962 -16.3852 -16.3664 -16.2971 -16.2871 -16.2704 -16.2587
   -16.2454 -16.2294 -16.1765 -16.1672 -16.1291 -16.1143 -16.0558 -16.0433
     8.0263  10.4661  10.6990  12.0285  12.5092  13.0093  13.0654  13.1603
    13.2508  13.4303  13.4916  13.5749  13.6271  13.6823  13.9281  13.9482
    14.1454  14.1526  14.4039  14.5744  14.5933  14.6153  14.7324  14.7415
    14.7715  14.9082  15.0313  15.1359  15.1362  15.1607  15.3323  15.4403
    15.4649  15.4766  15.5003  15.6080  15.6209  15.6309  15.7023  15.7597
    15.8166  15.9193  15.9591  15.9777  16.0517  16.1042  16.1447  16.4675
    16.6469  16.8916  16.9150  17.0180  17.0554  17.0711  17.2034  17.2042
    17.2739  17.4271  17.5201  17.5367  17.6114  17.6781  17.8233  17.9098
    17.9950  18.2173  18.2648  18.2817  18.3504  18.3659  18.4312  18.6095

          k =-0.2542-0.0847-0.0000 ( 32438 PWs)   bands (ev):

   -70.0480 -70.0479 -70.0469 -70.0467 -70.0446 -70.0444 -70.0435 -70.0433
   -40.1047 -40.0964 -40.0905 -40.0810 -40.0621 -40.0450 -39.8894 -39.8627
   -36.1761 -36.1760 -36.1732 -36.1729 -36.1527 -36.1516 -36.1511 -36.1500
   -36.1232 -36.1230 -36.1228 -36.1227 -36.1175 -36.1161 -36.1149 -36.1133
   -36.1085 -36.1083 -36.1040 -36.1038 -36.0936 -36.0928 -36.0922 -36.0913
   -16.5516 -16.5195 -16.4990 -16.4588 -16.4402 -16.4379 -16.4285 -16.3857
   -16.3806 -16.3696 -16.3652 -16.3526 -16.3430 -16.3312 -16.2780 -16.2779
   -16.2251 -16.2235 -16.2022 -16.1903 -16.1670 -16.1483 -16.0791 -16.0641
     7.9651  10.7790  10.7830  11.6689  12.8320  12.8764  13.0270  13.4065
    13.4698  13.4995  13.6797  13.7466  13.7542  13.7942  13.9056  13.9140
    13.9711  14.0961  14.0988  14.6431  14.8001  14.8182  14.8218  14.8225
    14.8576  14.9878  15.0460  15.1122  15.1272  15.1956  15.1959  15.2872
    15.2883  15.4405  15.4415  15.4557  15.4595  15.5852  15.7436  15.7458
    15.7606  15.7849  15.7902  15.8286  15.8855  15.9291  16.0261  16.0281
    16.6947  16.6968  16.7413  16.7468  16.7518  17.3362  17.4019  17.4968
    17.5386  17.5491  17.5682  17.5757  17.7125  17.8878  17.9670  18.1361
    18.1389  18.1749  18.1773  18.1958  18.5662  18.6225  18.6485  18.6549

          k =-0.0000-0.2542 0.0776 ( 32438 PWs)   bands (ev):

   -70.0482 -70.0480 -70.0473 -70.0471 -70.0443 -70.0441 -70.0433 -70.0431
   -40.1062 -40.0959 -40.0941 -40.0826 -40.0585 -40.0434 -39.8870 -39.8639
   -36.1784 -36.1783 -36.1756 -36.1753 -36.1517 -36.1505 -36.1499 -36.1487
   -36.1223 -36.1221 -36.1219 -36.1217 -36.1183 -36.1169 -36.1162 -36.1148
   -36.1096 -36.1093 -36.1050 -36.1048 -36.0914 -36.0905 -36.0897 -36.0889
   -16.5420 -16.5323 -16.5238 -16.4781 -16.4594 -16.4317 -16.4166 -16.3874
   -16.3692 -16.3686 -16.3682 -16.3540 -16.3394 -16.3298 -16.2918 -16.2903
   -16.2423 -16.2342 -16.1762 -16.1666 -16.1653 -16.1492 -16.0563 -16.0440
     8.0865  10.4957  10.7538  11.7760  12.5000  13.1651  13.2121  13.2866
    13.4433  13.5289  13.5973  13.7295  13.7703  13.7896  13.8009  13.8364
    13.8757  14.0658  14.1367  14.6467  14.7896  14.7923  14.7993  14.8075
    14.8291  14.8514  14.8804  14.9777  15.1892  15.3033  15.3297  15.3726
    15.4743  15.5427  15.5494  15.5532  15.5855  15.5937  15.5987  15.6469
    15.6491  15.7586  15.7658  15.7958  15.8767  16.0327  16.1120  16.1155
    16.7292  16.8835  16.9024  16.9170  16.9204  17.2529  17.2651  17.4293
    17.4403  17.4447  17.4575  17.4858  17.6597  17.7583  17.9613  18.0651
    18.0856  18.1525  18.1846  18.1937  18.2186  18.3616  18.6546  18.7267

          k = 0.1695-0.1695 0.0000 ( 32476 PWs)   bands (ev):

   -70.0482 -70.0471 -70.0462 -70.0462 -70.0451 -70.0451 -70.0442 -70.0432
   -40.1022 -40.0955 -40.0889 -40.0787 -40.0650 -40.0484 -39.8899 -39.8634
   -36.1764 -36.1723 -36.1657 -36.1642 -36.1632 -36.1620 -36.1480 -36.1469
   -36.1238 -36.1238 -36.1223 -36.1219 -36.1207 -36.1171 -36.1088 -36.1061
   -36.1061 -36.1054 -36.1040 -36.1036 -36.1031 -36.1019 -36.0928 -36.0917
   -16.5505 -16.4595 -16.4542 -16.4369 -16.4363 -16.4361 -16.4304 -16.4106
   -16.3979 -16.3879 -16.3873 -16.3831 -16.2787 -16.2743 -16.2741 -16.2667
   -16.2569 -16.2566 -16.2298 -16.2221 -16.1325 -16.1315 -16.1148 -16.1147
     7.9834  10.8103  10.9167  11.8742  12.3667  12.9229  13.1170  13.1342
    13.6081  13.6525  13.7631  13.7919  13.8318  13.8753  13.9786  14.0015
    14.2401  14.4141  14.4437  14.4786  14.5943  14.6597  14.7500  14.8079
    14.9548  14.9651  14.9985  15.0282  15.0459  15.0861  15.1048  15.1127
    15.1605  15.3050  15.3575  15.3646  15.3875  15.5060  15.5931  15.6490
    15.7065  15.7583  15.7798  15.7986  15.9053  15.9463  15.9502  16.0168
    16.7056  16.7175  16.7277  16.8041  16.8380  17.4491  17.4665  17.4755
    17.5791  17.7299  17.8342  17.8565  17.8647  17.9169  17.9180  17.9999
    18.0316  18.0328  18.1979  18.2852  18.2885  18.2990  18.3413  18.4461

          k =-0.1695-0.1695-0.0000 ( 32476 PWs)   bands (ev):

   -70.0482 -70.0471 -70.0462 -70.0462 -70.0451 -70.0451 -70.0442 -70.0432
   -40.1022 -40.0955 -40.0889 -40.0787 -40.0650 -40.0484 -39.8899 -39.8634
   -36.1764 -36.1723 -36.1657 -36.1643 -36.1632 -36.1620 -36.1480 -36.1469
   -36.1238 -36.1238 -36.1223 -36.1219 -36.1207 -36.1171 -36.1088 -36.1061
   -36.1061 -36.1054 -36.1040 -36.1036 -36.1031 -36.1019 -36.0928 -36.0917
   -16.5505 -16.4595 -16.4542 -16.4369 -16.4363 -16.4361 -16.4304 -16.4106
   -16.3979 -16.3879 -16.3873 -16.3831 -16.2787 -16.2743 -16.2741 -16.2667
   -16.2569 -16.2566 -16.2298 -16.2221 -16.1325 -16.1315 -16.1148 -16.1147
     7.9834  10.8103  10.9167  11.8742  12.3667  12.9229  13.1170  13.1342
    13.6081  13.6525  13.7631  13.7919  13.8318  13.8753  13.9786  14.0015
    14.2401  14.4141  14.4437  14.4786  14.5943  14.6597  14.7499  14.8079
    14.9548  14.9651  14.9986  15.0282  15.0459  15.0861  15.1048  15.1127
    15.1605  15.3051  15.3576  15.3646  15.3875  15.5060  15.5930  15.6489
    15.7065  15.7583  15.7798  15.7986  15.9053  15.9463  15.9502  16.0168
    16.7056  16.7175  16.7277  16.8041  16.8380  17.4491  17.4665  17.4755
    17.5791  17.7299  17.8342  17.8565  17.8647  17.9169  17.9180  17.9999
    18.0317  18.0328  18.1978  18.2852  18.2885  18.2990  18.3412  18.4461

          k =-0.2542-0.1695-0.0000 ( 32466 PWs)   bands (ev):

   -70.0473 -70.0471 -70.0462 -70.0460 -70.0453 -70.0451 -70.0442 -70.0441
   -40.0988 -40.0953 -40.0839 -40.0798 -40.0680 -40.0517 -39.8905 -39.8640
   -36.1697 -36.1693 -36.1679 -36.1676 -36.1556 -36.1551 -36.1545 -36.1543
   -36.1231 -36.1230 -36.1229 -36.1227 -36.1134 -36.1121 -36.1121 -36.1104
   -36.1076 -36.1074 -36.1050 -36.1048 -36.0989 -36.0987 -36.0982 -36.0977
   -16.5491 -16.4539 -16.4352 -16.4349 -16.4310 -16.4086 -16.3889 -16.3856
   -16.3775 -16.3683 -16.3597 -16.3518 -16.3502 -16.3367 -16.2750 -16.2750
   -16.2700 -16.2564 -16.2280 -16.2266 -16.1683 -16.1492 -16.1325 -16.1152
     8.0201  10.8346  11.1366  11.6529  12.2796  12.9190  13.1762  13.4370
    13.7748  13.7946  13.8064  13.8331  13.8437  13.8464  14.1610  14.1674
    14.1678  14.1693  14.2438  14.6851  14.7712  14.8285  14.8509  14.8587
    14.8600  14.8635  14.8715  14.8777  14.9272  15.0394  15.0551  15.1157
    15.2092  15.2234  15.2257  15.2952  15.3980  15.4148  15.5614  15.5693
    15.5914  15.6117  15.6731  15.6908  15.7359  15.7420  15.9653  15.9721
    16.7158  16.7283  16.7617  16.7843  16.9448  17.5585  17.6080  17.7306
    17.7409  17.7713  17.8641  17.8693  17.8745  17.8874  17.8955  18.0318
    18.0824  18.0899  18.1282  18.1397  18.2857  18.3344  18.3978  18.4266

          k =-0.0000-0.2542 0.1552 ( 32466 PWs)   bands (ev):

   -70.0480 -70.0478 -70.0475 -70.0473 -70.0441 -70.0439 -70.0435 -70.0433
   -40.1036 -40.0967 -40.0931 -40.0854 -40.0553 -40.0466 -39.8822 -39.8688
   -36.1779 -36.1777 -36.1762 -36.1759 -36.1513 -36.1502 -36.1502 -36.1491
   -36.1208 -36.1203 -36.1184 -36.1181 -36.1174 -36.1166 -36.1161 -36.1155
   -36.1115 -36.1111 -36.1086 -36.1084 -36.0910 -36.0902 -36.0901 -36.0893
   -16.5381 -16.5276 -16.4762 -16.4741 -16.4633 -16.4025 -16.3873 -16.3842
   -16.3716 -16.3665 -16.3568 -16.3401 -16.3376 -16.3318 -16.3301 -16.3199
   -16.2921 -16.2628 -16.1741 -16.1686 -16.1618 -16.1525 -16.0537 -16.0466
     8.5098   9.8692  11.0421  12.0004  12.0647  12.9602  13.3517  13.4209
    13.5188  13.7062  13.7502  13.7952  13.8110  13.8248  13.8523  13.9812
    14.0650  14.0810  14.2235  14.6024  14.6854  14.7194  14.7279  14.7302
    14.7367  14.7440  14.7638  14.7918  15.1978  15.2209  15.2221  15.2888
    15.3348  15.3644  15.4166  15.4527  15.4783  15.4826  15.5423  15.5649
    15.5787  15.6181  15.7230  15.8152  15.8583  15.8598  16.1402  16.1545
    16.9216  17.1734  17.2109  17.2291  17.2343  17.3035  17.3205  17.3394
    17.4318  17.4529  17.4908  17.5346  17.6817  17.6862  17.7342  17.7430
    17.7947  17.8772  18.1287  18.1683  18.1783  18.2020  18.5349  18.5779

          k =-0.2542 0.2542-0.0000 ( 32544 PWs)   bands (ev):

   -70.0464 -70.0462 -70.0462 -70.0460 -70.0453 -70.0451 -70.0451 -70.0449
   -40.0948 -40.0948 -40.0792 -40.0792 -40.0721 -40.0564 -39.8910 -39.8646
   -36.1632 -36.1632 -36.1628 -36.1616 -36.1608 -36.1608 -36.1590 -36.1576
   -36.1230 -36.1230 -36.1230 -36.1227 -36.1091 -36.1068 -36.1067 -36.1067
   -36.1067 -36.1064 -36.1062 -36.1062 -36.1060 -36.1043 -36.1032 -36.1032
   -16.5479 -16.4323 -16.4323 -16.3885 -16.3807 -16.3765 -16.3631 -16.3587
   -16.3574 -16.3574 -16.3560 -16.3551 -16.3518 -16.3511 -16.3409 -16.3409
   -16.2734 -16.2734 -16.2297 -16.2282 -16.1689 -16.1689 -16.1496 -16.1496
     8.0485  10.8611  11.6425  11.6426  11.6979  12.8721  13.4702  13.4702
    13.7064  13.8754  13.8812  13.8813  14.0628  14.1132  14.1149  14.1149
    14.5061  14.5061  14.5314  14.5498  14.5735  14.6064  14.6064  14.6547
    14.7314  14.8689  14.8690  14.8889  14.9311  14.9793  14.9793  15.0176
    15.0382  15.1095  15.1128  15.1128  15.5358  15.5358  15.5475  15.5475
    15.5525  15.5605  15.6559  15.6572  15.6930  15.7216  15.7478  15.7479
    16.7307  16.7582  16.7582  16.7742  17.0415  17.7131  17.7131  17.7490
    17.8128  17.9520  17.9521  17.9982  18.0243  18.0604  18.0618  18.0619
    18.1224  18.1225  18.1356  18.1423  18.1868  18.1933  18.1933  18.2021

          k = 0.0847-0.0847 0.0776 ( 32444 PWs)   bands (ev):

   -70.0496 -70.0486 -70.0461 -70.0461 -70.0452 -70.0452 -70.0427 -70.0418
   -40.1110 -40.1021 -40.0956 -40.0788 -40.0551 -40.0403 -39.8858 -39.8627
   -36.1870 -36.1801 -36.1700 -36.1688 -36.1679 -36.1676 -36.1379 -36.1366
   -36.1311 -36.1249 -36.1242 -36.1242 -36.1195 -36.1194 -36.1115 -36.1073
   -36.1073 -36.1031 -36.1009 -36.0997 -36.0992 -36.0990 -36.0829 -36.0815
   -16.5361 -16.5274 -16.5262 -16.5040 -16.5039 -16.4506 -16.4467 -16.4360
   -16.4356 -16.4308 -16.4165 -16.3649 -16.2998 -16.2857 -16.2475 -16.2257
   -16.2037 -16.2011 -16.1928 -16.1925 -16.0769 -16.0764 -16.0633 -16.0633
     7.9615  10.4365  10.6667  12.5397  12.6128  12.7441  12.8044  12.9028
    13.0490  13.3771  13.4263  13.4591  13.5214  13.7400  13.8917  13.9605
    14.3838  14.4154  14.4743  14.5049  14.5266  14.6058  14.6304  14.7451
    14.8630  14.9274  15.0238  15.0782  15.0840  15.1690  15.2146  15.3550
    15.3701  15.5024  15.6087  15.6190  15.6421  15.7835  15.7901  15.9171
    15.9468  16.0460  16.1017  16.1147  16.1367  16.3089  16.3134  16.3166
    16.7082  16.7284  16.8983  16.9179  17.0939  17.1806  17.2232  17.2294
    17.3884  17.4531  17.4645  17.6721  17.7683  17.7883  17.7935  17.8122
    18.0181  18.0317  18.0572  18.0595  18.1454  18.4407  18.4437  18.4656

          k = 0.0847-0.0847 0.1552 ( 32476 PWs)   bands (ev):

   -70.0494 -70.0488 -70.0459 -70.0459 -70.0454 -70.0454 -70.0425 -70.0420
   -40.1091 -40.1040 -40.0921 -40.0824 -40.0520 -40.0434 -39.8809 -39.8676
   -36.1855 -36.1816 -36.1695 -36.1686 -36.1681 -36.1681 -36.1377 -36.1369
   -36.1299 -36.1263 -36.1206 -36.1205 -36.1179 -36.1160 -36.1133 -36.1109
   -36.1108 -36.1065 -36.1005 -36.0995 -36.0994 -36.0992 -36.0826 -36.0818
   -16.5224 -16.5213 -16.5090 -16.5085 -16.4803 -16.4476 -16.4445 -16.4392
   -16.4381 -16.3983 -16.3890 -16.3398 -16.3367 -16.3135 -16.2952 -16.2579
   -16.2014 -16.1993 -16.1951 -16.1943 -16.0741 -16.0737 -16.0662 -16.0661
     8.3857   9.7726  11.0121  12.1462  12.6564  12.7741  12.9171  12.9986
    13.1646  13.5501  13.5641  13.5702  13.6728  13.8203  13.8746  13.9444
    14.0564  14.2086  14.4147  14.4212  14.5110  14.5267  14.5340  14.6869
    14.8953  15.0325  15.0609  15.1224  15.2098  15.2692  15.2890  15.3529
    15.4786  15.4932  15.5115  15.5415  15.5717  15.5890  15.6152  15.7149
    15.7174  15.7468  15.7704  15.9304  16.1456  16.1737  16.1892  16.3017
    16.6713  16.9533  17.1648  17.1889  17.2027  17.2412  17.3248  17.3395
    17.3642  17.4030  17.4987  17.5777  17.5976  17.6559  17.8224  17.8818
    17.9509  17.9603  17.9946  18.0383  18.3644  18.4032  18.6519  18.7850

          k = 0.1695-0.0847 0.0776 ( 32476 PWs)   bands (ev):

   -70.0489 -70.0479 -70.0469 -70.0459 -70.0454 -70.0445 -70.0435 -70.0425
   -40.1065 -40.0960 -40.0952 -40.0801 -40.0589 -40.0441 -39.8870 -39.8639
   -36.1818 -36.1768 -36.1709 -36.1708 -36.1617 -36.1603 -36.1435 -36.1421
   -36.1257 -36.1232 -36.1229 -36.1210 -36.1206 -36.1204 -36.1108 -36.1081
   -36.1067 -36.1064 -36.1064 -36.1040 -36.0975 -36.0963 -36.0877 -36.0863
   -16.5328 -16.5213 -16.5016 -16.4607 -16.4543 -16.4405 -16.4381 -16.4294
   -16.4177 -16.3981 -16.3863 -16.3684 -16.2953 -16.2861 -16.2702 -16.2583
   -16.2463 -16.2313 -16.2016 -16.1916 -16.1297 -16.1148 -16.0776 -16.0645
     8.0608  10.4939  10.7867  12.0380  12.6195  12.8599  13.0187  13.0213
    13.3193  13.5411  13.5589  13.7029  13.7306  13.8067  13.9947  14.0220
    14.1778  14.1896  14.4463  14.5575  14.5956  14.6447  14.7249  14.7368
    14.8149  14.9458  15.0273  15.0620  15.0819  15.1262  15.2425  15.3041
    15.3338  15.3654  15.4780  15.5157  15.5767  15.6376  15.6434  15.7205
    15.7255  15.7922  15.8209  15.8763  15.8880  16.0103  16.0771  16.2138
    16.6329  16.9059  17.0089  17.0178  17.0456  17.1487  17.2939  17.3093
    17.3876  17.6033  17.6642  17.6859  17.7040  17.8097  17.8681  17.9573
    18.0025  18.1054  18.1135  18.2283  18.3322  18.4010  18.4732  18.5532

          k =-0.1695-0.0847-0.0776 ( 32476 PWs)   bands (ev):

   -70.0489 -70.0479 -70.0469 -70.0459 -70.0454 -70.0445 -70.0435 -70.0425
   -40.1065 -40.0960 -40.0952 -40.0801 -40.0589 -40.0441 -39.8870 -39.8639
   -36.1818 -36.1768 -36.1709 -36.1708 -36.1617 -36.1603 -36.1435 -36.1421
   -36.1257 -36.1232 -36.1229 -36.1210 -36.1206 -36.1204 -36.1108 -36.1081
   -36.1067 -36.1064 -36.1064 -36.1040 -36.0975 -36.0963 -36.0877 -36.0863
   -16.5328 -16.5213 -16.5016 -16.4607 -16.4543 -16.4405 -16.4381 -16.4294
   -16.4177 -16.3981 -16.3863 -16.3684 -16.2953 -16.2861 -16.2702 -16.2583
   -16.2463 -16.2313 -16.2016 -16.1916 -16.1297 -16.1148 -16.0776 -16.0645
     8.0608  10.4939  10.7867  12.0380  12.6195  12.8599  13.0187  13.0214
    13.3193  13.5411  13.5589  13.7029  13.7306  13.8067  13.9947  14.0220
    14.1778  14.1896  14.4463  14.5575  14.5956  14.6447  14.7249  14.7368
    14.8149  14.9458  15.0274  15.0620  15.0819  15.1262  15.2425  15.3041
    15.3337  15.3654  15.4780  15.5157  15.5767  15.6376  15.6433  15.7206
    15.7254  15.7922  15.8209  15.8763  15.8880  16.0103  16.0771  16.2138
    16.6329  16.9059  17.0089  17.0178  17.0456  17.1487  17.2939  17.3093
    17.3876  17.6033  17.6642  17.6859  17.7040  17.8097  17.8681  17.9573
    18.0025  18.1054  18.1135  18.2282  18.3322  18.4010  18.4732  18.5532

          k = 0.0847-0.0847-0.2328 ( 32474 PWs)   bands (ev):

   -70.0491 -70.0491 -70.0457 -70.0457 -70.0457 -70.0457 -70.0423 -70.0423
   -40.1065 -40.1065 -40.0872 -40.0872 -40.0477 -40.0477 -39.8743 -39.8743
   -36.1835 -36.1835 -36.1688 -36.1688 -36.1684 -36.1684 -36.1373 -36.1373
   -36.1281 -36.1281 -36.1158 -36.1158 -36.1156 -36.1156 -36.1156 -36.1156
   -36.1112 -36.1112 -36.0999 -36.0999 -36.0993 -36.0993 -36.0822 -36.0822
   -16.5156 -16.5156 -16.5148 -16.5148 -16.4436 -16.4436 -16.4414 -16.4414
   -16.4060 -16.4060 -16.3514 -16.3514 -16.3511 -16.3511 -16.2977 -16.2977
   -16.1982 -16.1982 -16.1968 -16.1968 -16.0701 -16.0701 -16.0699 -16.0699
     9.0260   9.0260  11.5386  11.5386  12.7544  12.7544  12.9912  12.9912
    13.5776  13.5776  13.7078  13.7078  13.7329  13.7329  13.8079  13.8079
    13.9110  13.9110  14.4448  14.4448  14.4474  14.4474  14.6781  14.6781
    14.9787  14.9787  15.1215  15.1215  15.1762  15.1762  15.3027  15.3027
    15.4914  15.4914  15.5227  15.5227  15.6041  15.6041  15.6310  15.6310
    15.6852  15.6852  15.7953  15.7953  15.8521  15.8521  16.2260  16.2260
    17.0192  17.0192  17.2383  17.2383  17.3152  17.3152  17.3187  17.3187
    17.3817  17.3817  17.4153  17.4153  17.5607  17.5607  17.8596  17.8596
    17.9991  17.9991  18.0132  18.0132  18.4264  18.4264  18.8016  18.8016

          k =-0.2542-0.0847 0.0776 ( 32474 PWs)   bands (ev):

   -70.0480 -70.0478 -70.0470 -70.0468 -70.0445 -70.0443 -70.0436 -70.0434
   -40.1038 -40.0953 -40.0915 -40.0820 -40.0609 -40.0461 -39.8876 -39.8645
   -36.1759 -36.1758 -36.1734 -36.1731 -36.1526 -36.1515 -36.1512 -36.1501
   -36.1221 -36.1220 -36.1219 -36.1217 -36.1171 -36.1157 -36.1152 -36.1138
   -36.1093 -36.1090 -36.1053 -36.1051 -36.0935 -36.0927 -36.0923 -36.0914
   -16.5310 -16.5181 -16.5004 -16.4574 -16.4393 -16.4295 -16.4179 -16.3845
   -16.3704 -16.3686 -16.3665 -16.3536 -16.3422 -16.3320 -16.2902 -16.2889
   -16.2440 -16.2356 -16.2013 -16.1910 -16.1657 -16.1496 -16.0781 -16.0651
     8.1136  10.5234  10.8795  11.7697  12.6180  12.9205  13.1062  13.2834
    13.5483  13.6404  13.7541  13.7591  13.8280  13.8468  13.9186  13.9304
    13.9373  14.1081  14.1737  14.6793  14.7791  14.8045  14.8234  14.8275
    14.8476  14.8702  14.9300  14.9612  15.2035  15.2049  15.2642  15.2671
    15.2783  15.4197  15.4308  15.4335  15.4555  15.4946  15.5108  15.5705
    15.5945  15.6156  15.6770  15.7143  15.7595  15.8434  16.0640  16.0699
    16.8158  16.9303  16.9415  16.9582  16.9588  17.3417  17.4265  17.5218
    17.5642  17.5737  17.5741  17.5906  17.7187  17.8091  17.9659  18.0514
    18.0671  18.1274  18.1805  18.1936  18.2537  18.2822  18.6070  18.6733

          k = 0.1695-0.0847 0.1552 ( 32434 PWs)   bands (ev):

   -70.0487 -70.0481 -70.0467 -70.0461 -70.0452 -70.0447 -70.0433 -70.0427
   -40.1043 -40.0982 -40.0920 -40.0833 -40.0557 -40.0472 -39.8821 -39.8688
   -36.1808 -36.1779 -36.1709 -36.1708 -36.1614 -36.1606 -36.1432 -36.1424
   -36.1250 -36.1221 -36.1197 -36.1194 -36.1186 -36.1169 -36.1131 -36.1111
   -36.1099 -36.1075 -36.1065 -36.1062 -36.0973 -36.0966 -36.0874 -36.0866
   -16.5171 -16.5057 -16.4768 -16.4564 -16.4509 -16.4446 -16.4415 -16.3987
   -16.3958 -16.3907 -16.3872 -16.3402 -16.3338 -16.3152 -16.2955 -16.2677
   -16.2618 -16.2608 -16.1995 -16.1937 -16.1265 -16.1180 -16.0749 -16.0673
     8.4850   9.8554  11.1052  12.1435  12.2636  12.8632  13.0442  13.2597
    13.2675  13.7058  13.7232  13.8316  13.8380  13.9718  13.9727  14.0318
    14.0668  14.2784  14.3139  14.4910  14.5241  14.5589  14.6503  14.6687
    14.8130  14.9498  14.9779  14.9937  15.0471  15.1510  15.2900  15.3505
    15.3675  15.3682  15.3831  15.4115  15.4373  15.4376  15.4878  15.5455
    15.5567  15.5712  15.5851  15.6525  15.8593  15.9122  15.9258  16.1393
    16.8507  17.1866  17.2486  17.2851  17.3025  17.3168  17.4032  17.4560
    17.4839  17.5654  17.5828  17.6140  17.6460  17.7231  17.7264  17.8767
    17.9675  17.9796  18.1327  18.1431  18.2706  18.2825  18.5631  18.6006

          k = 0.1695-0.1695 0.0776 ( 32434 PWs)   bands (ev):

   -70.0482 -70.0472 -70.0462 -70.0462 -70.0452 -70.0452 -70.0442 -70.0432
   -40.1013 -40.0944 -40.0898 -40.0798 -40.0638 -40.0495 -39.8881 -39.8652
   -36.1761 -36.1725 -36.1656 -36.1641 -36.1634 -36.1622 -36.1479 -36.1470
   -36.1230 -36.1226 -36.1211 -36.1210 -36.1201 -36.1174 -36.1098 -36.1073
   -36.1072 -36.1052 -36.1049 -36.1038 -36.1033 -36.1019 -36.0928 -36.0918
   -16.5299 -16.4580 -16.4530 -16.4379 -16.4375 -16.4259 -16.4199 -16.4091
   -16.3973 -16.3894 -16.3880 -16.3727 -16.2910 -16.2846 -16.2729 -16.2660
   -16.2581 -16.2573 -16.2477 -16.2358 -16.1313 -16.1304 -16.1159 -16.1158
     8.1324  10.5510  11.0244  11.9615  12.4606  12.8731  13.0109  13.0662
    13.5978  13.7224  13.8240  13.8489  13.9117  13.9123  14.0395  14.0623
    14.2547  14.4136  14.4471  14.4892  14.5273  14.6524  14.6787  14.8911
    14.9169  14.9825  14.9868  15.0113  15.0599  15.0673  15.0811  15.1271
    15.1287  15.1404  15.3154  15.3343  15.3489  15.4933  15.5249  15.5535
    15.5906  15.6188  15.6240  15.6634  15.7060  15.7083  15.7813  16.0363
    16.8649  16.9316  16.9928  17.0133  17.0664  17.4743  17.5075  17.5487
    17.5719  17.7540  17.8172  17.8406  17.8643  17.9050  17.9462  18.0192
    18.0640  18.0921  18.1182  18.2255  18.2392  18.2862  18.3754  18.5229

          k =-0.1695-0.1695-0.0776 ( 32434 PWs)   bands (ev):

   -70.0482 -70.0472 -70.0462 -70.0461 -70.0452 -70.0452 -70.0442 -70.0432
   -40.1013 -40.0944 -40.0898 -40.0798 -40.0638 -40.0495 -39.8881 -39.8652
   -36.1761 -36.1725 -36.1655 -36.1641 -36.1634 -36.1622 -36.1479 -36.1470
   -36.1230 -36.1226 -36.1211 -36.1210 -36.1201 -36.1174 -36.1098 -36.1073
   -36.1072 -36.1052 -36.1049 -36.1038 -36.1033 -36.1019 -36.0928 -36.0918
   -16.5299 -16.4580 -16.4530 -16.4379 -16.4375 -16.4259 -16.4199 -16.4091
   -16.3973 -16.3894 -16.3881 -16.3727 -16.2910 -16.2846 -16.2729 -16.2660
   -16.2581 -16.2573 -16.2477 -16.2358 -16.1313 -16.1303 -16.1159 -16.1158
     8.1324  10.5510  11.0244  11.9615  12.4606  12.8731  13.0109  13.0662
    13.5978  13.7225  13.8240  13.8489  13.9116  13.9123  14.0396  14.0622
    14.2547  14.4136  14.4471  14.4892  14.5272  14.6525  14.6787  14.8911
    14.9169  14.9825  14.9868  15.0113  15.0599  15.0673  15.0811  15.1271
    15.1287  15.1403  15.3154  15.3343  15.3489  15.4933  15.5249  15.5534
    15.5906  15.6188  15.6240  15.6634  15.7060  15.7083  15.7813  16.0363
    16.8649  16.9316  16.9928  17.0133  17.0664  17.4744  17.5075  17.5487
    17.5719  17.7540  17.8172  17.8406  17.8643  17.9050  17.9462  18.0192
    18.0640  18.0921  18.1181  18.2254  18.2392  18.2861  18.3754  18.5230

          k = 0.1695-0.0847-0.2328 ( 32462 PWs)   bands (ev):

   -70.0484 -70.0484 -70.0464 -70.0464 -70.0450 -70.0450 -70.0430 -70.0430
   -40.1012 -40.1012 -40.0876 -40.0876 -40.0515 -40.0515 -39.8755 -39.8755
   -36.1793 -36.1793 -36.1708 -36.1708 -36.1610 -36.1610 -36.1428 -36.1428
   -36.1236 -36.1236 -36.1160 -36.1160 -36.1153 -36.1153 -36.1147 -36.1147
   -36.1122 -36.1122 -36.1063 -36.1063 -36.0969 -36.0969 -36.0870 -36.0870
   -16.5114 -16.5114 -16.4507 -16.4507 -16.4463 -16.4463 -16.4016 -16.4016
   -16.3917 -16.3917 -16.3563 -16.3563 -16.3477 -16.3477 -16.3014 -16.3014
   -16.2641 -16.2641 -16.1966 -16.1966 -16.1222 -16.1222 -16.0711 -16.0711
     9.1219   9.1219  11.5876  11.5876  12.5716  12.5716  13.2067  13.2067
    13.6327  13.6327  13.8787  13.8787  13.8996  13.8996  13.9968  13.9968
    14.0691  14.0691  14.4217  14.4217  14.5500  14.5500  14.6655  14.6655
    14.7459  14.7459  14.9486  14.9486  15.2200  15.2200  15.2367  15.2367
    15.2945  15.2945  15.3287  15.3287  15.4432  15.4433  15.4805  15.4805
    15.5594  15.5594  15.6188  15.6188  15.6461  15.6461  16.0639  16.0639
    17.0875  17.0875  17.4200  17.4200  17.4378  17.4378  17.4478  17.4478
    17.4698  17.4698  17.5833  17.5833  17.7379  17.7379  17.7727  17.7727
    17.8400  17.8400  18.0959  18.0959  18.2664  18.2664  18.7023  18.7023

          k =-0.2542-0.1695 0.0776 ( 32462 PWs)   bands (ev):

   -70.0472 -70.0471 -70.0463 -70.0461 -70.0453 -70.0451 -70.0443 -70.0441
   -40.0978 -40.0943 -40.0849 -40.0808 -40.0669 -40.0528 -39.8887 -39.8658
   -36.1696 -36.1692 -36.1680 -36.1677 -36.1556 -36.1552 -36.1545 -36.1544
   -36.1219 -36.1219 -36.1219 -36.1216 -36.1132 -36.1123 -36.1119 -36.1108
   -36.1085 -36.1082 -36.1062 -36.1060 -36.0989 -36.0988 -36.0982 -36.0977
   -16.5284 -16.4526 -16.4362 -16.4246 -16.4205 -16.4073 -16.3901 -16.3764
   -16.3752 -16.3672 -16.3609 -16.3528 -16.3494 -16.3376 -16.2863 -16.2859
   -16.2691 -16.2573 -16.2479 -16.2387 -16.1670 -16.1504 -16.1314 -16.1164
     8.1696  10.5804  11.2377  11.7533  12.3781  12.9461  13.0078  13.2965
    13.7207  13.8382  13.9123  13.9194  13.9208  13.9447  14.1667  14.1852
    14.1867  14.2156  14.2860  14.7053  14.7716  14.7914  14.8096  14.8436
    14.8612  14.8676  14.8764  14.9042  14.9205  15.0446  15.0508  15.0540
    15.1862  15.1937  15.2092  15.2771  15.3237  15.3238  15.3326  15.3468
    15.4776  15.4841  15.4905  15.5305  15.6398  15.6514  15.8844  15.8945
    16.9471  16.9882  16.9890  17.0159  17.0470  17.5835  17.6506  17.7542
    17.7799  17.7981  17.8186  17.8475  17.8654  17.9326  17.9940  18.0306
    18.0879  18.1067  18.1278  18.1585  18.2856  18.3439  18.3936  18.4426

          k =-0.0847-0.2542 0.1552 ( 32462 PWs)   bands (ev):

   -70.0478 -70.0476 -70.0472 -70.0470 -70.0443 -70.0441 -70.0438 -70.0436
   -40.1012 -40.0941 -40.0925 -40.0848 -40.0578 -40.0493 -39.8827 -39.8694
   -36.1754 -36.1752 -36.1740 -36.1737 -36.1523 -36.1515 -36.1512 -36.1505
   -36.1203 -36.1199 -36.1184 -36.1182 -36.1163 -36.1158 -36.1151 -36.1146
   -36.1113 -36.1108 -36.1088 -36.1086 -36.0933 -36.0925 -36.0924 -36.0917
   -16.5144 -16.5041 -16.4747 -16.4536 -16.4431 -16.4004 -16.3886 -16.3813
   -16.3695 -16.3658 -16.3565 -16.3420 -16.3402 -16.3342 -16.3277 -16.3185
   -16.2947 -16.2644 -16.1991 -16.1932 -16.1623 -16.1530 -16.0754 -16.0679
     8.5382   9.8993  11.1685  12.0575  12.1253  12.9466  13.1641  13.3178
    13.6143  13.7025  13.8158  13.8979  13.9434  13.9493  13.9658  14.0477
    14.1123  14.1493  14.2573  14.6112  14.7195  14.7248  14.7289  14.7429
    14.7444  14.7763  14.7929  14.8295  15.0737  15.0805  15.2033  15.2515
    15.2644  15.2754  15.3290  15.3679  15.3686  15.3754  15.4346  15.4381
    15.5009  15.5284  15.5750  15.6225  15.6658  15.6698  15.9945  16.0125
    16.9712  17.2107  17.2719  17.3007  17.3014  17.3782  17.5067  17.5638
    17.5780  17.5835  17.5924  17.6369  17.7360  17.7535  17.8236  17.8281
    17.9248  17.9712  18.1601  18.1793  18.2040  18.2074  18.5076  18.6017

          k =-0.2542 0.2542 0.0776 ( 32460 PWs)   bands (ev):

   -70.0464 -70.0462 -70.0462 -70.0460 -70.0454 -70.0452 -70.0452 -70.0450
   -40.0938 -40.0938 -40.0803 -40.0803 -40.0710 -40.0575 -39.8893 -39.8664
   -36.1631 -36.1631 -36.1626 -36.1614 -36.1610 -36.1610 -36.1593 -36.1578
   -36.1219 -36.1219 -36.1219 -36.1215 -36.1089 -36.1075 -36.1075 -36.1075
   -36.1071 -36.1068 -36.1066 -36.1064 -36.1064 -36.1045 -36.1032 -36.1032
   -16.5270 -16.4218 -16.4218 -16.3791 -16.3782 -16.3749 -16.3625 -16.3582
   -16.3576 -16.3563 -16.3563 -16.3557 -16.3533 -16.3516 -16.3419 -16.3419
   -16.2841 -16.2841 -16.2502 -16.2404 -16.1676 -16.1676 -16.1509 -16.1509
     8.1984  10.6097  11.7428  11.7429  11.8004  12.9647  13.3159  13.3160
    13.4897  13.9534  13.9592  13.9592  14.0917  14.2132  14.2133  14.2678
    14.5138  14.5139  14.5423  14.5679  14.5856  14.6080  14.6080  14.6505
    14.7240  14.8703  14.8704  14.8934  14.9334  14.9667  14.9667  15.0061
    15.0273  15.0753  15.0753  15.0765  15.3319  15.3331  15.3331  15.3408
    15.4500  15.4500  15.5508  15.5686  15.5855  15.6018  15.6226  15.6226
    16.9560  17.0321  17.0322  17.0536  17.0765  17.7573  17.7574  17.7887
    17.8543  18.0014  18.0014  18.0373  18.0516  18.0626  18.0626  18.0668
    18.1334  18.1385  18.1385  18.2005  18.3100  18.3357  18.3471  18.3471

          k = 0.1695-0.1695 0.1552 ( 32390 PWs)   bands (ev):

   -70.0479 -70.0474 -70.0460 -70.0459 -70.0454 -70.0454 -70.0440 -70.0434
   -40.0989 -40.0922 -40.0913 -40.0829 -40.0608 -40.0526 -39.8833 -39.8700
   -36.1754 -36.1733 -36.1651 -36.1638 -36.1637 -36.1626 -36.1477 -36.1472
   -36.1211 -36.1193 -36.1188 -36.1182 -36.1180 -36.1176 -36.1124 -36.1105
   -36.1103 -36.1083 -36.1048 -36.1037 -36.1033 -36.1021 -36.0926 -36.0920
   -16.4734 -16.4537 -16.4497 -16.4420 -16.4407 -16.4051 -16.3957 -16.3954
   -16.3935 -16.3927 -16.3888 -16.3443 -16.3275 -16.3134 -16.3000 -16.2702
   -16.2652 -16.2642 -16.2611 -16.2591 -16.1280 -16.1273 -16.1192 -16.1189
     8.5584   9.9252  11.3351  12.2037  12.3653  12.7235  12.8581  13.2618
    13.4237  13.9093  13.9269  13.9960  14.0172  14.0281  14.1347  14.2764
    14.2912  14.3202  14.3580  14.3635  14.5231  14.6298  14.6355  14.8274
    14.8319  14.8817  14.9774  15.0143  15.0520  15.0523  15.0928  15.1006
    15.1258  15.1808  15.2021  15.2391  15.2449  15.2460  15.3147  15.3533
    15.3805  15.4182  15.4391  15.5161  15.5368  15.5612  15.5858  15.9355
    17.0092  17.2093  17.3232  17.3732  17.4078  17.5522  17.6296  17.6446
    17.6646  17.6824  17.7684  17.7863  17.9163  17.9432  17.9459  18.0051
    18.0122  18.0515  18.1192  18.2152  18.2519  18.3153  18.5325  18.5941

          k = 0.1695-0.1695-0.2328 ( 32458 PWs)   bands (ev):

   -70.0477 -70.0477 -70.0457 -70.0457 -70.0457 -70.0457 -70.0437 -70.0437
   -40.0955 -40.0955 -40.0871 -40.0871 -40.0567 -40.0567 -39.8767 -39.8767
   -36.1743 -36.1743 -36.1645 -36.1645 -36.1632 -36.1632 -36.1475 -36.1475
   -36.1195 -36.1195 -36.1157 -36.1157 -36.1149 -36.1149 -36.1143 -36.1143
   -36.1129 -36.1129 -36.1043 -36.1043 -36.1026 -36.1026 -36.0923 -36.0923
   -16.4481 -16.4481 -16.4452 -16.4452 -16.4016 -16.4016 -16.3937 -16.3937
   -16.3929 -16.3929 -16.3527 -16.3527 -16.3525 -16.3525 -16.3052 -16.3052
   -16.2653 -16.2653 -16.2616 -16.2616 -16.1236 -16.1236 -16.1232 -16.1232
     9.1960   9.1960  11.8085  11.8085  12.5377  12.5377  13.0885  13.0885
    13.6260  13.6260  14.1409  14.1409  14.1625  14.1625  14.1690  14.1690
    14.1956  14.1956  14.4227  14.4227  14.6208  14.6208  14.6585  14.6585
    14.7075  14.7075  14.9783  14.9783  15.0874  15.0874  15.0975  15.0975
    15.1194  15.1194  15.1872  15.1872  15.2344  15.2344  15.2627  15.2627
    15.3367  15.3367  15.3460  15.3460  15.4607  15.4607  15.7235  15.7235
    17.1678  17.1678  17.5504  17.5504  17.5975  17.5975  17.6294  17.6294
    17.6625  17.6625  17.8256  17.8256  17.8610  17.8610  17.9905  17.9905
    18.0097  18.0097  18.1021  18.1021  18.4051  18.4051  18.7431  18.7431

          k =-0.2542-0.1695 0.1552 ( 32458 PWs)   bands (ev):

   -70.0470 -70.0469 -70.0465 -70.0463 -70.0451 -70.0449 -70.0445 -70.0443
   -40.0951 -40.0914 -40.0876 -40.0837 -40.0639 -40.0558 -39.8839 -39.8706
   -36.1692 -36.1688 -36.1683 -36.1679 -36.1556 -36.1554 -36.1546 -36.1545
   -36.1194 -36.1192 -36.1186 -36.1183 -36.1132 -36.1126 -36.1124 -36.1113
   -36.1106 -36.1098 -36.1094 -36.1090 -36.0989 -36.0988 -36.0981 -36.0979
   -16.4715 -16.4491 -16.4396 -16.4036 -16.3957 -16.3940 -16.3911 -16.3735
   -16.3644 -16.3639 -16.3562 -16.3470 -16.3461 -16.3402 -16.3211 -16.3154
   -16.3017 -16.2685 -16.2659 -16.2598 -16.1635 -16.1540 -16.1283 -16.1196
     8.5967   9.9616  11.5282  12.0400  12.4780  12.6575  12.9325  13.2580
    13.4731  13.8452  14.0850  14.1087  14.1291  14.1457  14.2370  14.2418
    14.2510  14.3430  14.3591  14.6615  14.6967  14.7193  14.7732  14.7841
    14.8262  14.8265  14.8294  14.8391  14.9296  14.9427  15.0365  15.0442
    15.0758  15.1040  15.1456  15.1644  15.1789  15.1811  15.2197  15.2706
    15.2725  15.2789  15.2901  15.3427  15.4479  15.4718  15.6522  15.6713
    17.0938  17.2154  17.3766  17.4104  17.4668  17.6739  17.7703  17.7708
    17.7831  17.7933  17.8357  17.8777  17.9126  17.9377  17.9846  18.0045
    18.0693  18.1336  18.2335  18.2931  18.3407  18.3689  18.4605  18.5627

          k =-0.2542 0.2542 0.1552 ( 32460 PWs)   bands (ev):

   -70.0462 -70.0460 -70.0460 -70.0458 -70.0456 -70.0454 -70.0454 -70.0452
   -40.0909 -40.0909 -40.0831 -40.0831 -40.0681 -40.0603 -39.8844 -39.8712
   -36.1626 -36.1626 -36.1619 -36.1614 -36.1614 -36.1607 -36.1600 -36.1586
   -36.1190 -36.1189 -36.1188 -36.1185 -36.1107 -36.1107 -36.1105 -36.1101
   -36.1085 -36.1073 -36.1061 -36.1056 -36.1056 -36.1049 -36.1037 -36.1037
   -16.4698 -16.3931 -16.3931 -16.3748 -16.3705 -16.3620 -16.3611 -16.3593
   -16.3571 -16.3568 -16.3534 -16.3534 -16.3530 -16.3479 -16.3448 -16.3448
   -16.3133 -16.3133 -16.3096 -16.2696 -16.1641 -16.1641 -16.1545 -16.1545
     8.6269   9.9938  12.0295  12.0296  12.0948  12.9315  12.9315  13.0457
    13.2298  13.9867  14.1706  14.1746  14.1747  14.4078  14.4078  14.5192
    14.5320  14.5321  14.5710  14.6184  14.6231  14.6231  14.6351  14.6856
    14.7000  14.8792  14.8793  14.9099  14.9345  14.9346  14.9441  14.9445
    14.9540  14.9540  14.9763  14.9996  15.0901  15.0901  15.1033  15.1172
    15.2301  15.2301  15.2829  15.3121  15.3570  15.3585  15.3586  15.3749
    17.1563  17.2220  17.4773  17.4773  17.5030  17.8615  17.8615  17.8800
    17.9514  17.9584  17.9585  17.9825  18.0227  18.0264  18.0264  18.1036
    18.1262  18.1497  18.3823  18.3823  18.4448  18.4896  18.4896  18.5396

     the Fermi energy is    16.7933 ev

!    total energy              =   -3590.79948251 Ry
     estimated scf accuracy    <          6.1E-11 Ry
     smearing contrib. (-TS)   =       0.00023190 Ry
     internal energy E=F+TS    =   -3590.79971441 Ry

     The total energy is F=E-TS. E is the sum of the following terms:
     one-electron contribution =   -1257.87723259 Ry
     hartree contribution      =     750.90311897 Ry
     xc contribution           =    -424.35199972 Ry
     ewald contribution        =   -2050.25800381 Ry
     one-center paw contrib.   =    -609.21559725 Ry

     convergence has been achieved in  28 iterations

     negative rho (up, down):  7.618E-03 0.000E+00

     Forces acting on atoms (cartesian axes, Ry/au):

     atom    1 type  1   force =     0.00016283    0.00016283    0.00000000
     atom    2 type  1   force =    -0.00016230   -0.00016230   -0.00000000
     atom    3 type  1   force =    -0.00016221    0.00016252   -0.00000000
     atom    4 type  1   force =     0.00016254   -0.00016234    0.00000000
     atom    5 type  1   force =     0.00016212    0.00016212    0.00000000
     atom    6 type  1   force =    -0.00016403   -0.00016403   -0.00000000
     atom    7 type  1   force =    -0.00016234    0.00016254   -0.00000000
     atom    8 type  1   force =     0.00016252   -0.00016221    0.00000000
     atom    9 type  2   force =    -0.00000022   -0.00000022   -0.00000032
     atom   10 type  2   force =     0.00000045    0.00000045   -0.00000026
     atom   11 type  2   force =     0.00000039   -0.00000025   -0.00000018
     atom   12 type  2   force =    -0.00000025    0.00000039    0.00000018
     atom   13 type  2   force =    -0.00000022   -0.00000022    0.00000032
     atom   14 type  2   force =     0.00000045    0.00000045    0.00000026
     atom   15 type  2   force =     0.00000039   -0.00000025    0.00000018
     atom   16 type  2   force =    -0.00000025    0.00000039   -0.00000018
     atom   17 type  3   force =     0.00000017    0.00000017    0.00000000
     atom   18 type  3   force =    -0.00000005   -0.00000005   -0.00000000

     Total force =     0.000650     Total SCF correction =     0.000024


     Computing stress (Cartesian axis) and pressure


     negative rho (up, down):  7.618E-03 0.000E+00
          total   stress  (Ry/bohr**3)                   (kbar)     P=       -0.14
   0.00000157  -0.00000000  -0.00000000            0.23       -0.00       -0.00
  -0.00000000   0.00000157   0.00000000           -0.00        0.23        0.00
  -0.00000000   0.00000000  -0.00000604           -0.00        0.00       -0.89

     Energy error            =      4.7E-05 Ry
     Gradient error          =      1.6E-04 Ry/Bohr
     Cell gradient error     =      8.9E-01 kbar

     number of scf cycles    =   8
     number of bfgs steps    =   7

     enthalpy           old  =   -3590.7994357282 Ry
     enthalpy           new  =   -3590.7994825117 Ry

     CASE: enthalpy          _new < enthalpy          _old

     new trust radius        =       0.0030974285 bohr
     new conv_thr            =            1.0E-10 Ry

     new unit-cell volume =   1445.07985 a.u.^3 (   214.13874 Ang^3 )
     density =      6.44951 g/cm^3

CELL_PARAMETERS (alat=  5.58242261)
   1.967215023  -0.000008468  -0.000000000
  -0.000008468   1.967215023   0.000000000
  -0.000000000   0.000000000   2.146446407

ATOMIC_POSITIONS (crystal)
Fe              -0.0010228666       -0.0010228666        0.0000000000
Fe               0.5010227331        0.5010227331        0.0000000000
Fe               0.5010228837       -0.0010231170        0.0000000000
Fe              -0.0010229600        0.5010230690        0.5000000000
Fe              -0.0010224092       -0.0010224092        0.5000000000
Fe               0.5010226775        0.5010226775        0.5000000000
Fe               0.5010230690       -0.0010229600        0.5000000000
Fe              -0.0010231170        0.5010228837        0.0000000000
Ti               0.2499999728        0.2499999728        0.2499999580
Ti               0.7499999746        0.7499999746        0.2500000038
Ti               0.7499999451        0.2500000143        0.2499999643
Ti               0.2500000143        0.7499999451        0.7500000357
Ti               0.2499999728        0.2499999728        0.7500000420
Ti               0.7499999746        0.7499999746        0.7499999962
Ti               0.7499999451        0.2500000143        0.7500000357
Ti               0.2500000143        0.7499999451        0.2499999643
H                0.2500001558        0.2500001558        0.0000000000
H                0.2500000203        0.2500000203        0.5000000000



     Writing config-only to output data dir ./TiFeH_supercell.save/ :
     XML data file     NEW-OLD atomic charge density approx. for the potential
     New effective cutoffs (rho, wfc): 1794.16  128.16

     Check: negative core charge=   -0.000001

     negative rho (up, down):  7.618E-03 0.000E+00

     total cpu time spent up to now is    12507.7 secs

     per-process dynamical memory:   458.4 Mb

     Self-consistent Calculation

     iteration #  1     ecut=   124.00 Ry     beta= 0.70
     Davidson diagonalization with overlap
     ethr =  1.00E-06,  avg # of iterations =  3.0

     Threshold (ethr) on eigenvalues was too large:
     Diagonalizing with lowered threshold

     Davidson diagonalization with overlap
     ethr =  2.36E-09,  avg # of iterations =  5.9

     negative rho (up, down):  7.620E-03 0.000E+00

     total cpu time spent up to now is    12642.1 secs

     total energy              =   -3590.79947713 Ry
     estimated scf accuracy    <       0.00001017 Ry

     iteration #  2     ecut=   124.00 Ry     beta= 0.70
     Davidson diagonalization with overlap
     ethr =  4.50E-09,  avg # of iterations =  7.0

     negative rho (up, down):  7.620E-03 0.000E+00

     total cpu time spent up to now is    12711.8 secs

     total energy              =   -3590.79944835 Ry
     estimated scf accuracy    <       0.00049999 Ry

     iteration #  3     ecut=   124.00 Ry     beta= 0.70
     Davidson diagonalization with overlap
     ethr =  4.50E-09,  avg # of iterations =  6.7

     negative rho (up, down):  7.620E-03 0.000E+00

     total cpu time spent up to now is    12779.9 secs

     total energy              =   -3590.79948352 Ry
     estimated scf accuracy    <       0.00001332 Ry

     iteration #  4     ecut=   124.00 Ry     beta= 0.70
     Davidson diagonalization with overlap
     ethr =  4.50E-09,  avg # of iterations =  3.4

     negative rho (up, down):  7.619E-03 0.000E+00

     total cpu time spent up to now is    12824.1 secs

     total energy              =   -3590.79948399 Ry
     estimated scf accuracy    <       0.00003155 Ry

     iteration #  5     ecut=   124.00 Ry     beta= 0.70
     Davidson diagonalization with overlap
     ethr =  4.50E-09,  avg # of iterations =  2.5

     negative rho (up, down):  7.619E-03 0.000E+00

     total cpu time spent up to now is    12865.1 secs

     total energy              =   -3590.79948423 Ry
     estimated scf accuracy    <       0.00001978 Ry

     iteration #  6     ecut=   124.00 Ry     beta= 0.70
     Davidson diagonalization with overlap
     ethr =  4.50E-09,  avg # of iterations =  1.4

     negative rho (up, down):  7.620E-03 0.000E+00

     total cpu time spent up to now is    12902.8 secs

     total energy              =   -3590.79948493 Ry
     estimated scf accuracy    <       0.00000459 Ry

     iteration #  7     ecut=   124.00 Ry     beta= 0.70
     Davidson diagonalization with overlap
     ethr =  2.03E-09,  avg # of iterations =  1.7

     negative rho (up, down):  7.619E-03 0.000E+00

     total cpu time spent up to now is    12941.6 secs

     total energy              =   -3590.79948509 Ry
     estimated scf accuracy    <       0.00000225 Ry

     iteration #  8     ecut=   124.00 Ry     beta= 0.70
     Davidson diagonalization with overlap
     ethr =  9.95E-10,  avg # of iterations =  1.3

     negative rho (up, down):  7.619E-03 0.000E+00

     total cpu time spent up to now is    12978.6 secs

     total energy              =   -3590.79948521 Ry
     estimated scf accuracy    <       0.00000039 Ry

     iteration #  9     ecut=   124.00 Ry     beta= 0.70
     Davidson diagonalization with overlap
     ethr =  1.75E-10,  avg # of iterations =  4.1

     negative rho (up, down):  7.620E-03 0.000E+00

     total cpu time spent up to now is    13027.5 secs

     total energy              =   -3590.79948517 Ry
     estimated scf accuracy    <       0.00000201 Ry

     iteration # 10     ecut=   124.00 Ry     beta= 0.70
     Davidson diagonalization with overlap
     ethr =  1.75E-10,  avg # of iterations =  3.8

     negative rho (up, down):  7.620E-03 0.000E+00

     total cpu time spent up to now is    13072.0 secs

     total energy              =   -3590.79948524 Ry
     estimated scf accuracy    <       0.00000026 Ry

     iteration # 11     ecut=   124.00 Ry     beta= 0.70
     Davidson diagonalization with overlap
     ethr =  1.17E-10,  avg # of iterations =  1.9

     negative rho (up, down):  7.620E-03 0.000E+00

     total cpu time spent up to now is    13112.1 secs

     total energy              =   -3590.79948525 Ry
     estimated scf accuracy    <       0.00000006 Ry

     iteration # 12     ecut=   124.00 Ry     beta= 0.70
     Davidson diagonalization with overlap
     ethr =  2.61E-11,  avg # of iterations =  5.0

     negative rho (up, down):  7.620E-03 0.000E+00

     total cpu time spent up to now is    13167.0 secs

     total energy              =   -3590.79948522 Ry
     estimated scf accuracy    <       0.00000091 Ry

     iteration # 13     ecut=   124.00 Ry     beta= 0.70
     Davidson diagonalization with overlap
     ethr =  2.61E-11,  avg # of iterations =  4.6

     negative rho (up, down):  7.620E-03 0.000E+00

     total cpu time spent up to now is    13218.4 secs

     total energy              =   -3590.79948526 Ry
     estimated scf accuracy    <       0.00000008 Ry

     iteration # 14     ecut=   124.00 Ry     beta= 0.70
     Davidson diagonalization with overlap
     ethr =  2.61E-11,  avg # of iterations =  2.0

     negative rho (up, down):  7.620E-03 0.000E+00

     total cpu time spent up to now is    13257.8 secs

     total energy              =   -3590.79948526 Ry
     estimated scf accuracy    <          3.2E-09 Ry

     iteration # 15     ecut=   124.00 Ry     beta= 0.70
     Davidson diagonalization with overlap
     ethr =  1.43E-12,  avg # of iterations =  5.0

     negative rho (up, down):  7.620E-03 0.000E+00

     total cpu time spent up to now is    13313.3 secs

     total energy              =   -3590.79948526 Ry
     estimated scf accuracy    <          4.3E-09 Ry

     iteration # 16     ecut=   124.00 Ry     beta= 0.70
     Davidson diagonalization with overlap
     ethr =  1.43E-12,  avg # of iterations =  4.0

     negative rho (up, down):  7.620E-03 0.000E+00

     total cpu time spent up to now is    13359.0 secs

     total energy              =   -3590.79948526 Ry
     estimated scf accuracy    <       0.00000003 Ry

     iteration # 17     ecut=   124.00 Ry     beta= 0.70
     Davidson diagonalization with overlap
     ethr =  1.43E-12,  avg # of iterations =  4.0

     negative rho (up, down):  7.620E-03 0.000E+00

     total cpu time spent up to now is    13403.2 secs

     total energy              =   -3590.79948526 Ry
     estimated scf accuracy    <          3.6E-09 Ry

     iteration # 18     ecut=   124.00 Ry     beta= 0.70
     Davidson diagonalization with overlap
     ethr =  1.43E-12,  avg # of iterations =  1.0

     negative rho (up, down):  7.620E-03 0.000E+00

     total cpu time spent up to now is    13438.9 secs

     total energy              =   -3590.79948526 Ry
     estimated scf accuracy    <          5.6E-10 Ry

     iteration # 19     ecut=   124.00 Ry     beta= 0.70
     Davidson diagonalization with overlap
     ethr =  2.49E-13,  avg # of iterations =  3.1

     negative rho (up, down):  7.620E-03 0.000E+00

     total cpu time spent up to now is    13483.0 secs

     total energy              =   -3590.79948526 Ry
     estimated scf accuracy    <          1.6E-10 Ry

     iteration # 20     ecut=   124.00 Ry     beta= 0.70
     Davidson diagonalization with overlap
     ethr =  1.00E-13,  avg # of iterations =  2.0

     negative rho (up, down):  7.620E-03 0.000E+00

     total cpu time spent up to now is    13523.5 secs

     End of self-consistent calculation

          k = 0.0000 0.0000 0.0000 ( 32423 PWs)   bands (ev):

   -70.0506 -70.0495 -70.0466 -70.0466 -70.0455 -70.0455 -70.0427 -70.0417
   -40.1153 -40.1064 -40.0975 -40.0768 -40.0535 -40.0361 -39.8848 -39.8581
   -36.1920 -36.1826 -36.1727 -36.1727 -36.1699 -36.1699 -36.1361 -36.1348
   -36.1332 -36.1276 -36.1265 -36.1265 -36.1200 -36.1194 -36.1115 -36.1060
   -36.1060 -36.1012 -36.0997 -36.0997 -36.0976 -36.0976 -36.0799 -36.0784
   -16.5594 -16.5554 -16.5554 -16.5262 -16.5262 -16.4666 -16.4666 -16.4531
   -16.4531 -16.4446 -16.4249 -16.3729 -16.2891 -16.2758 -16.2313 -16.2061
   -16.1788 -16.1788 -16.1686 -16.1686 -16.0547 -16.0547 -16.0395 -16.0395
     7.7143  10.4648  10.6882  12.5723  12.5723  12.6979  12.9681  13.1200
    13.1200  13.1788  13.2479  13.2838  13.3179  13.3337  13.4363  13.8319
    14.3306  14.3307  14.6837  14.7143  14.7901  14.7901  14.8164  14.8164
    14.8363  14.8363  14.9830  15.0021  15.0538  15.0538  15.4895  15.5294
    15.5401  15.5586  15.7158  15.7159  15.7851  15.7851  15.9191  15.9191
    16.0064  16.1052  16.3005  16.3019  16.3418  16.4545  16.5876  16.5876
    16.7617  17.0027  17.0216  17.0791  17.0932  17.0932  17.2450  17.2450
    17.3981  17.5495  17.5495  17.5993  17.6917  17.8154  17.8155  17.8554
    17.9077  17.9448  17.9449  18.0038  18.0451  18.0453  18.0462  18.1482

          k = 0.0000-0.0000 0.0776 ( 32427 PWs)   bands (ev):

   -70.0506 -70.0496 -70.0466 -70.0466 -70.0456 -70.0456 -70.0427 -70.0417
   -40.1147 -40.1070 -40.0962 -40.0782 -40.0523 -40.0372 -39.8830 -39.8599
   -36.1914 -36.1832 -36.1725 -36.1725 -36.1701 -36.1701 -36.1355 -36.1347
   -36.1333 -36.1281 -36.1251 -36.1251 -36.1189 -36.1188 -36.1121 -36.1074
   -36.1074 -36.1025 -36.0995 -36.0995 -36.0977 -36.0977 -36.0798 -36.0785
   -16.5533 -16.5533 -16.5390 -16.5280 -16.5280 -16.4658 -16.4658 -16.4541
   -16.4541 -16.4326 -16.4150 -16.3626 -16.3029 -16.2859 -16.2471 -16.2210
   -16.1781 -16.1781 -16.1693 -16.1693 -16.0537 -16.0536 -16.0406 -16.0406
     7.8623  10.3838  10.5901  12.6228  12.6228  12.7409  12.7929  13.1172
    13.1172  13.2383  13.2792  13.3147  13.3737  13.3961  13.4728  13.8740
    14.3334  14.3334  14.4934  14.5053  14.6152  14.6152  14.8300  14.8300
    14.9251  14.9251  15.0399  15.0595  15.0779  15.2730  15.2731  15.4044
    15.4662  15.7101  15.7101  15.7234  15.7235  15.8937  15.8937  16.0203
    16.1259  16.1378  16.1721  16.2070  16.2392  16.2392  16.4288  16.5123
    16.8992  17.0042  17.0204  17.0680  17.1118  17.1118  17.2320  17.2320
    17.2589  17.5796  17.6045  17.6047  17.6128  17.8074  17.8074  17.8976
    17.9336  17.9336  18.0505  18.0567  18.0573  18.0618  18.0618  18.1024

          k = 0.0000-0.0000 0.1553 ( 32412 PWs)   bands (ev):

   -70.0504 -70.0498 -70.0464 -70.0464 -70.0458 -70.0458 -70.0425 -70.0419
   -40.1131 -40.1086 -40.0924 -40.0820 -40.0492 -40.0404 -39.8782 -39.8648
   -36.1896 -36.1849 -36.1720 -36.1720 -36.1706 -36.1706 -36.1344 -36.1340
   -36.1336 -36.1297 -36.1214 -36.1214 -36.1174 -36.1153 -36.1136 -36.1111
   -36.1111 -36.1059 -36.0992 -36.0992 -36.0981 -36.0981 -36.0795 -36.0788
   -16.5478 -16.5478 -16.5332 -16.5332 -16.4835 -16.4635 -16.4635 -16.4568
   -16.4568 -16.3991 -16.3880 -16.3438 -16.3342 -16.3134 -16.2934 -16.2544
   -16.1762 -16.1762 -16.1711 -16.1711 -16.0509 -16.0509 -16.0434 -16.0434
     8.2876   9.6939  10.9527  12.1631  12.7593  12.7593  13.0685  13.0691
    13.0691  13.3854  13.3951  13.4017  13.4966  13.5404  13.5666  13.8418
    14.0102  14.1583  14.3476  14.3476  14.4715  14.4715  14.8037  14.9010
    14.9010  15.0744  15.0744  15.0793  15.2073  15.2280  15.4899  15.5231
    15.5231  15.6628  15.6629  15.7136  15.7136  15.7437  15.7438  15.8051
    15.8318  15.8399  15.8399  16.1848  16.3592  16.4125  16.5631  16.6164
    16.9273  16.9274  16.9352  17.0078  17.0170  17.1544  17.1544  17.1583
    17.2135  17.2135  17.3854  17.5107  17.5213  17.7058  17.7879  18.0423
    18.0741  18.0741  18.0971  18.0971  18.3798  18.3798  18.4850  18.5256

          k =-0.0000 0.0000-0.2329 ( 32504 PWs)   bands (ev):

   -70.0501 -70.0501 -70.0461 -70.0461 -70.0461 -70.0461 -70.0422 -70.0422
   -40.1108 -40.1108 -40.0872 -40.0872 -40.0448 -40.0448 -39.8715 -39.8715
   -36.1873 -36.1873 -36.1713 -36.1713 -36.1713 -36.1713 -36.1340 -36.1340
   -36.1318 -36.1318 -36.1163 -36.1163 -36.1163 -36.1163 -36.1155 -36.1155
   -36.1106 -36.1106 -36.0986 -36.0986 -36.0986 -36.0986 -36.0792 -36.0792
   -16.5404 -16.5404 -16.5404 -16.5404 -16.4602 -16.4602 -16.4602 -16.4602
   -16.4098 -16.4098 -16.3508 -16.3508 -16.3502 -16.3502 -16.2950 -16.2950
   -16.1737 -16.1737 -16.1737 -16.1737 -16.0471 -16.0471 -16.0471 -16.0471
     8.9331   8.9331  11.5084  11.5084  12.9339  12.9339  12.9339  12.9339
    13.4818  13.4818  13.4821  13.4821  13.4948  13.4948  13.6947  13.6947
    13.8208  13.8208  14.3877  14.3877  14.3877  14.3877  14.8097  14.8097
    15.1707  15.1707  15.1707  15.1707  15.2993  15.2993  15.2993  15.2993
    15.4721  15.4721  15.4947  15.4947  15.7830  15.7830  15.7831  15.7831
    15.8194  15.8194  16.2693  16.2693  16.2728  16.2728  16.2729  16.2729
    17.0124  17.0124  17.0369  17.0369  17.0933  17.0933  17.1868  17.1868
    17.1868  17.1868  17.3747  17.3747  17.3900  17.3900  17.9501  17.9501
    18.1756  18.1756  18.1756  18.1756  18.8248  18.8248  18.8248  18.8248

          k = 0.0000 0.0847 0.0776 ( 32442 PWs)   bands (ev):

   -70.0503 -70.0493 -70.0468 -70.0463 -70.0459 -70.0454 -70.0429 -70.0420
   -40.1129 -40.1045 -40.0959 -40.0786 -40.0539 -40.0388 -39.8837 -39.8605
   -36.1894 -36.1820 -36.1728 -36.1711 -36.1695 -36.1672 -36.1366 -36.1353
   -36.1336 -36.1268 -36.1247 -36.1247 -36.1193 -36.1192 -36.1118 -36.1077
   -36.1070 -36.1028 -36.1019 -36.1006 -36.0987 -36.0968 -36.0817 -36.0803
   -16.5507 -16.5373 -16.5290 -16.5269 -16.5048 -16.4683 -16.4551 -16.4455
   -16.4340 -16.4321 -16.4158 -16.3641 -16.3011 -16.2858 -16.2467 -16.2233
   -16.2032 -16.1935 -16.1777 -16.1687 -16.0753 -16.0617 -16.0541 -16.0412
     7.9142  10.4118  10.6207  12.5528  12.6036  12.7380  12.8526  12.9041
    13.1706  13.3097  13.3302  13.4079  13.4438  13.4776  13.7842  13.9109
    14.3952  14.4015  14.4245  14.5050  14.5505  14.5848  14.7221  14.7858
    14.8547  14.9639  15.0082  15.0922  15.1437  15.1530  15.2262  15.4316
    15.4381  15.6522  15.6634  15.6962  15.7136  15.7358  15.8132  15.8853
    16.1138  16.1563  16.1645  16.1661  16.1917  16.2779  16.5272  16.5295
    16.5820  16.7431  16.8963  17.0933  17.1364  17.2125  17.2330  17.2910
    17.3452  17.3790  17.4384  17.5056  17.6365  17.6614  17.6792  17.9688
    18.0133  18.0495  18.1009  18.1116  18.1408  18.1506  18.2330  18.4578

          k = 0.0000 0.0847 0.1553 ( 32469 PWs)   bands (ev):

   -70.0501 -70.0495 -70.0466 -70.0461 -70.0461 -70.0456 -70.0427 -70.0422
   -40.1111 -40.1063 -40.0922 -40.0822 -40.0507 -40.0420 -39.8788 -39.8654
   -36.1878 -36.1835 -36.1724 -36.1715 -36.1690 -36.1677 -36.1364 -36.1356
   -36.1322 -36.1283 -36.1210 -36.1210 -36.1178 -36.1157 -36.1135 -36.1112
   -36.1108 -36.1063 -36.1015 -36.1009 -36.0983 -36.0972 -36.0814 -36.0806
   -16.5455 -16.5318 -16.5238 -16.5099 -16.4815 -16.4657 -16.4581 -16.4433
   -16.4366 -16.3991 -16.3884 -16.3415 -16.3357 -16.3137 -16.2936 -16.2563
   -16.2011 -16.1955 -16.1758 -16.1706 -16.0724 -16.0646 -16.0514 -16.0439
     8.3391   9.7356  10.9735  12.1289  12.7002  12.7954  12.8702  13.1192
    13.1544  13.4621  13.4685  13.5033  13.5900  13.6204  13.7676  13.8874
    14.0293  14.1875  14.3928  14.4044  14.4712  14.5228  14.5779  14.8202
    14.9028  14.9803  15.0832  15.1336  15.1852  15.3089  15.3515  15.4837
    15.5087  15.6028  15.6101  15.6286  15.6535  15.6917  15.7008  15.7106
    15.7154  15.7555  15.8889  16.1557  16.1881  16.2995  16.3134  16.5966
    16.7407  16.8043  17.0792  17.1119  17.1743  17.2092  17.2299  17.2519
    17.2655  17.3238  17.4420  17.4587  17.6101  17.6365  17.7988  17.8035
    17.8452  17.9990  18.1057  18.1767  18.3102  18.4298  18.4844  18.8140

          k = 0.0000 0.0847-0.2329 ( 32438 PWs)   bands (ev):

   -70.0498 -70.0498 -70.0464 -70.0464 -70.0458 -70.0458 -70.0425 -70.0425
   -40.1087 -40.1087 -40.0872 -40.0872 -40.0464 -40.0464 -39.8721 -39.8721
   -36.1857 -36.1857 -36.1719 -36.1719 -36.1684 -36.1684 -36.1360 -36.1360
   -36.1302 -36.1302 -36.1161 -36.1161 -36.1159 -36.1159 -36.1157 -36.1157
   -36.1110 -36.1110 -36.1012 -36.1012 -36.0977 -36.0977 -36.0810 -36.0810
   -16.5386 -16.5386 -16.5167 -16.5167 -16.4620 -16.4620 -16.4401 -16.4401
   -16.4075 -16.4075 -16.3528 -16.3528 -16.3489 -16.3489 -16.2966 -16.2966
   -16.1983 -16.1983 -16.1732 -16.1732 -16.0685 -16.0685 -16.0477 -16.0477
     8.9821   8.9821  11.5113  11.5113  12.7740  12.7740  13.0344  13.0344
    13.5424  13.5424  13.5769  13.5769  13.6245  13.6245  13.7447  13.7447
    13.8684  13.8684  14.4106  14.4106  14.4333  14.4333  14.7212  14.7212
    15.0409  15.0409  15.1345  15.1345  15.2789  15.2789  15.2839  15.2839
    15.4695  15.4695  15.5835  15.5835  15.7090  15.7090  15.7165  15.7165
    15.7326  15.7326  15.9171  15.9171  16.1533  16.1533  16.2678  16.2678
    17.0334  17.0334  17.1458  17.1458  17.1824  17.1824  17.2350  17.2350
    17.2677  17.2677  17.4069  17.4069  17.4791  17.4791  17.8783  17.8783
    17.9043  17.9043  18.2033  18.2033  18.5640  18.5640  18.7542  18.7542

          k = 0.0000 0.1694 0.1553 ( 32476 PWs)   bands (ev):

   -70.0494 -70.0488 -70.0474 -70.0468 -70.0454 -70.0448 -70.0434 -70.0429
   -40.1066 -40.1006 -40.0924 -40.0835 -40.0540 -40.0453 -39.8800 -39.8666
   -36.1834 -36.1802 -36.1740 -36.1739 -36.1613 -36.1600 -36.1422 -36.1413
   -36.1270 -36.1239 -36.1199 -36.1199 -36.1187 -36.1168 -36.1136 -36.1115
   -36.1098 -36.1081 -36.1075 -36.1072 -36.0956 -36.0946 -36.0860 -36.0851
   -16.5406 -16.5289 -16.4778 -16.4706 -16.4610 -16.4584 -16.4458 -16.4005
   -16.3937 -16.3894 -16.3854 -16.3390 -16.3356 -16.3163 -16.2927 -16.2681
   -16.2613 -16.2605 -16.1750 -16.1696 -16.1248 -16.1162 -16.0523 -16.0451
     8.4498   9.8240  11.0179  12.0472  12.2521  12.8970  13.1798  13.2553
    13.3329  13.6003  13.6409  13.7372  13.7567  13.7784  13.9242  13.9391
    13.9850  14.2848  14.2891  14.4736  14.5452  14.5590  14.6392  14.6925
    14.7783  14.8577  14.9486  15.0583  15.1147  15.1956  15.3823  15.4175
    15.4668  15.4829  15.5005  15.5220  15.5463  15.5645  15.5660  15.5976
    15.6096  15.6267  15.6577  15.7768  16.0339  16.1119  16.1947  16.2515
    16.7852  17.1563  17.1681  17.2201  17.2654  17.2712  17.3105  17.3575
    17.3849  17.4359  17.4518  17.4661  17.5140  17.5480  17.5649  17.7999
    17.9145  17.9800  18.1408  18.2186  18.2565  18.3654  18.4864  18.5863

          k = 0.0000 0.1694-0.2329 ( 32466 PWs)   bands (ev):

   -70.0491 -70.0491 -70.0471 -70.0471 -70.0451 -70.0451 -70.0432 -70.0432
   -40.1036 -40.1036 -40.0880 -40.0880 -40.0497 -40.0497 -39.8733 -39.8733
   -36.1818 -36.1818 -36.1740 -36.1740 -36.1606 -36.1606 -36.1418 -36.1418
   -36.1255 -36.1255 -36.1162 -36.1162 -36.1156 -36.1156 -36.1149 -36.1149
   -36.1120 -36.1120 -36.1077 -36.1077 -36.0951 -36.0951 -36.0856 -36.0856
   -16.5347 -16.5347 -16.4658 -16.4658 -16.4524 -16.4524 -16.4028 -16.4028
   -16.3899 -16.3899 -16.3580 -16.3580 -16.3454 -16.3454 -16.3002 -16.3002
   -16.2646 -16.2646 -16.1723 -16.1723 -16.1204 -16.1204 -16.0487 -16.0487
     9.0873   9.0873  11.4990  11.4990  12.5666  12.5666  13.2975  13.2975
    13.6413  13.6413  13.7593  13.7593  13.7913  13.7913  13.8735  13.8735
    14.0299  14.0299  14.4215  14.4215  14.5345  14.5345  14.6521  14.6521
    14.7979  14.7979  14.8772  14.8772  15.2949  15.2949  15.3389  15.3389
    15.3460  15.3460  15.3982  15.3982  15.5590  15.5590  15.5727  15.5727
    15.6035  15.6035  15.8082  15.8082  15.8625  15.8625  16.2049  16.2049
    17.0705  17.0705  17.3023  17.3023  17.3240  17.3240  17.3499  17.3499
    17.3869  17.3869  17.4810  17.4810  17.5656  17.5656  17.7066  17.7066
    17.7796  17.7796  18.1102  18.1102  18.2295  18.2295  18.6515  18.6515

          k =-0.0000-0.2542-0.2329 ( 32544 PWs)   bands (ev):

   -70.0482 -70.0482 -70.0480 -70.0480 -70.0442 -70.0442 -70.0441 -70.0441
   -40.1002 -40.1002 -40.0891 -40.0891 -40.0514 -40.0514 -39.8739 -39.8739
   -36.1775 -36.1775 -36.1773 -36.1773 -36.1513 -36.1513 -36.1502 -36.1502
   -36.1195 -36.1195 -36.1186 -36.1186 -36.1143 -36.1143 -36.1137 -36.1137
   -36.1136 -36.1136 -36.1133 -36.1133 -36.0912 -36.0912 -36.0905 -36.0905
   -16.5326 -16.5326 -16.4679 -16.4679 -16.4014 -16.4014 -16.3757 -16.3757
   -16.3672 -16.3672 -16.3556 -16.3556 -16.3435 -16.3435 -16.3346 -16.3346
   -16.3022 -16.3022 -16.1718 -16.1718 -16.1556 -16.1556 -16.0492 -16.0492
     9.1444   9.1444  11.4807  11.4807  12.4922  12.4922  13.5196  13.5196
    13.6566  13.6566  13.7933  13.7933  13.8616  13.8616  13.9936  13.9936
    14.1995  14.1995  14.3881  14.3881  14.5605  14.5605  14.6148  14.6148
    14.6808  14.6808  14.7408  14.7408  15.1758  15.1758  15.2085  15.2085
    15.4122  15.4122  15.4207  15.4207  15.4328  15.4328  15.4357  15.4357
    15.5826  15.5826  15.6517  15.6517  16.0224  16.0224  16.0524  16.0524
    17.1415  17.1415  17.3731  17.3731  17.3997  17.3997  17.4344  17.4344
    17.4642  17.4642  17.4732  17.4732  17.4918  17.4918  17.5910  17.5910
    17.7618  17.7618  18.1388  18.1388  18.2975  18.2975  18.3758  18.3758

          k = 0.0847 0.0847 0.0776 ( 32444 PWs)   bands (ev):

   -70.0500 -70.0490 -70.0466 -70.0466 -70.0456 -70.0456 -70.0432 -70.0423
   -40.1110 -40.1020 -40.0955 -40.0787 -40.0556 -40.0407 -39.8843 -39.8611
   -36.1874 -36.1806 -36.1705 -36.1693 -36.1684 -36.1681 -36.1385 -36.1371
   -36.1317 -36.1255 -36.1243 -36.1243 -36.1196 -36.1196 -36.1115 -36.1074
   -36.1073 -36.1031 -36.1015 -36.1004 -36.0998 -36.0996 -36.0836 -36.0822
   -16.5357 -16.5272 -16.5259 -16.5037 -16.5036 -16.4499 -16.4461 -16.4353
   -16.4349 -16.4312 -16.4167 -16.3657 -16.2994 -16.2854 -16.2467 -16.2255
   -16.2041 -16.2015 -16.1931 -16.1928 -16.0760 -16.0755 -16.0623 -16.0623
     7.9610  10.4397  10.6659  12.5390  12.6134  12.7440  12.8039  12.9029
    13.0500  13.3773  13.4264  13.4590  13.5204  13.7396  13.8907  13.9615
    14.3841  14.4176  14.4749  14.5048  14.5280  14.6055  14.6303  14.7458
    14.8628  14.9258  15.0220  15.0766  15.0824  15.1674  15.2153  15.3557
    15.3706  15.5022  15.6080  15.6194  15.6414  15.7833  15.7890  15.9175
    15.9471  16.0467  16.1000  16.1142  16.1371  16.3097  16.3116  16.3162
    16.7060  16.7294  16.8994  16.9178  17.0962  17.1792  17.2253  17.2316
    17.3879  17.4552  17.4669  17.6745  17.7667  17.7876  17.7923  17.8108
    18.0203  18.0301  18.0548  18.0574  18.1478  18.4401  18.4430  18.4646

          k = 0.0847 0.0847 0.1553 ( 32476 PWs)   bands (ev):

   -70.0498 -70.0492 -70.0464 -70.0464 -70.0458 -70.0458 -70.0430 -70.0425
   -40.1091 -40.1039 -40.0920 -40.0823 -40.0524 -40.0438 -39.8794 -39.8660
   -36.1860 -36.1820 -36.1700 -36.1692 -36.1686 -36.1686 -36.1382 -36.1374
   -36.1305 -36.1269 -36.1207 -36.1206 -36.1180 -36.1161 -36.1134 -36.1109
   -36.1109 -36.1066 -36.1011 -36.1002 -36.1000 -36.0999 -36.0833 -36.0825
   -16.5221 -16.5211 -16.5087 -16.5082 -16.4797 -16.4470 -16.4439 -16.4385
   -16.4374 -16.3985 -16.3892 -16.3392 -16.3374 -16.3134 -16.2944 -16.2582
   -16.2017 -16.1997 -16.1954 -16.1947 -16.0731 -16.0727 -16.0652 -16.0651
     8.3858   9.7748  11.0117  12.1470  12.6560  12.7741  12.9167  12.9987
    13.1652  13.5507  13.5641  13.5700  13.6719  13.8200  13.8741  13.9454
    14.0576  14.2083  14.4155  14.4230  14.5115  14.5275  14.5352  14.6866
    14.8955  15.0309  15.0611  15.1212  15.2088  15.2690  15.2882  15.3510
    15.4773  15.4922  15.5110  15.5413  15.5721  15.5885  15.6154  15.7138
    15.7168  15.7463  15.7699  15.9306  16.1438  16.1722  16.1878  16.2996
    16.6716  16.9549  17.1648  17.1890  17.2035  17.2396  17.3261  17.3408
    17.3656  17.4055  17.5009  17.5798  17.5966  17.6541  17.8233  17.8816
    17.9502  17.9614  17.9960  18.0377  18.3625  18.4023  18.6516  18.7843

          k = 0.0847 0.0847-0.2329 ( 32474 PWs)   bands (ev):

   -70.0495 -70.0495 -70.0461 -70.0461 -70.0461 -70.0461 -70.0427 -70.0427
   -40.1065 -40.1065 -40.0871 -40.0871 -40.0481 -40.0481 -39.8727 -39.8727
   -36.1840 -36.1840 -36.1693 -36.1693 -36.1689 -36.1689 -36.1378 -36.1378
   -36.1287 -36.1287 -36.1159 -36.1159 -36.1157 -36.1157 -36.1157 -36.1157
   -36.1113 -36.1113 -36.1006 -36.1006 -36.1000 -36.1000 -36.0829 -36.0829
   -16.5153 -16.5153 -16.5146 -16.5146 -16.4429 -16.4429 -16.4407 -16.4407
   -16.4052 -16.4052 -16.3514 -16.3514 -16.3510 -16.3510 -16.2983 -16.2983
   -16.1986 -16.1986 -16.1972 -16.1972 -16.0691 -16.0691 -16.0689 -16.0689
     9.0271   9.0271  11.5388  11.5388  12.7543  12.7543  12.9911  12.9911
    13.5785  13.5785  13.7081  13.7081  13.7326  13.7326  13.8083  13.8083
    13.9104  13.9104  14.4459  14.4459  14.4486  14.4486  14.6788  14.6788
    14.9787  14.9787  15.1213  15.1213  15.1749  15.1749  15.3017  15.3017
    15.4908  15.4908  15.5216  15.5216  15.6038  15.6038  15.6308  15.6308
    15.6842  15.6842  15.7933  15.7933  15.8502  15.8502  16.2246  16.2246
    17.0193  17.0193  17.2404  17.2404  17.3163  17.3163  17.3202  17.3202
    17.3800  17.3800  17.4151  17.4151  17.5620  17.5620  17.8610  17.8610
    17.9997  17.9997  18.0135  18.0135  18.4256  18.4256  18.8001  18.8001

          k = 0.0847 0.1694 0.1553 ( 32434 PWs)   bands (ev):

   -70.0491 -70.0485 -70.0471 -70.0465 -70.0457 -70.0451 -70.0437 -70.0432
   -40.1043 -40.0982 -40.0919 -40.0831 -40.0562 -40.0476 -39.8806 -39.8672
   -36.1812 -36.1783 -36.1713 -36.1713 -36.1619 -36.1611 -36.1437 -36.1429
   -36.1255 -36.1227 -36.1198 -36.1196 -36.1187 -36.1171 -36.1132 -36.1112
   -36.1100 -36.1075 -36.1071 -36.1068 -36.0979 -36.0973 -36.0881 -36.0873
   -16.5168 -16.5055 -16.4762 -16.4563 -16.4502 -16.4444 -16.4408 -16.3989
   -16.3954 -16.3906 -16.3870 -16.3409 -16.3332 -16.3150 -16.2947 -16.2680
   -16.2622 -16.2610 -16.1998 -16.1940 -16.1253 -16.1167 -16.0739 -16.0663
     8.4850   9.8576  11.1051  12.1442  12.2631  12.8633  13.0439  13.2599
    13.2675  13.7057  13.7235  13.8315  13.8373  13.9718  13.9733  14.0312
    14.0671  14.2784  14.3138  14.4914  14.5246  14.5600  14.6510  14.6701
    14.8131  14.9503  14.9769  14.9928  15.0468  15.1493  15.2904  15.3494
    15.3672  15.3685  15.3830  15.4110  15.4363  15.4365  15.4881  15.5447
    15.5557  15.5700  15.5847  15.6515  15.8588  15.9103  15.9248  16.1383
    16.8503  17.1869  17.2495  17.2864  17.3048  17.3189  17.4021  17.4570
    17.4850  17.5651  17.5832  17.6157  17.6474  17.7231  17.7255  17.8755
    17.9682  17.9794  18.1336  18.1430  18.2703  18.2827  18.5621  18.5995

          k = 0.0847 0.1694-0.2329 ( 32462 PWs)   bands (ev):

   -70.0488 -70.0488 -70.0468 -70.0468 -70.0454 -70.0454 -70.0434 -70.0434
   -40.1012 -40.1012 -40.0875 -40.0875 -40.0519 -40.0519 -39.8739 -39.8739
   -36.1798 -36.1798 -36.1713 -36.1713 -36.1615 -36.1615 -36.1433 -36.1433
   -36.1241 -36.1241 -36.1161 -36.1161 -36.1154 -36.1154 -36.1148 -36.1148
   -36.1123 -36.1123 -36.1069 -36.1069 -36.0976 -36.0976 -36.0877 -36.0877
   -16.5111 -16.5111 -16.4506 -16.4506 -16.4456 -16.4456 -16.4008 -16.4008
   -16.3912 -16.3912 -16.3563 -16.3563 -16.3476 -16.3476 -16.3019 -16.3019
   -16.2644 -16.2644 -16.1969 -16.1969 -16.1210 -16.1210 -16.0701 -16.0701
     9.1229   9.1229  11.5879  11.5879  12.5714  12.5714  13.2065  13.2066
    13.6333  13.6333  13.8788  13.8788  13.8994  13.8994  13.9967  13.9967
    14.0688  14.0688  14.4224  14.4224  14.5510  14.5510  14.6663  14.6663
    14.7460  14.7460  14.9485  14.9485  15.2196  15.2196  15.2355  15.2355
    15.2938  15.2938  15.3279  15.3279  15.4431  15.4432  15.4799  15.4799
    15.5582  15.5582  15.6170  15.6170  15.6451  15.6451  16.0630  16.0630
    17.0871  17.0871  17.4220  17.4220  17.4388  17.4388  17.4480  17.4480
    17.4714  17.4714  17.5821  17.5821  17.7378  17.7378  17.7743  17.7743
    17.8414  17.8414  18.0958  18.0958  18.2660  18.2660  18.7010  18.7010

          k = 0.0847-0.2542-0.2329 ( 32460 PWs)   bands (ev):

   -70.0479 -70.0479 -70.0477 -70.0477 -70.0445 -70.0445 -70.0443 -70.0443
   -40.0976 -40.0976 -40.0885 -40.0885 -40.0540 -40.0540 -39.8745 -39.8745
   -36.1752 -36.1752 -36.1749 -36.1749 -36.1524 -36.1524 -36.1514 -36.1514
   -36.1185 -36.1185 -36.1177 -36.1177 -36.1142 -36.1142 -36.1136 -36.1136
   -36.1136 -36.1136 -36.1132 -36.1132 -36.0936 -36.0936 -36.0928 -36.0928
   -16.5090 -16.5090 -16.4476 -16.4476 -16.3989 -16.3989 -16.3736 -16.3736
   -16.3654 -16.3654 -16.3551 -16.3551 -16.3454 -16.3454 -16.3373 -16.3373
   -16.3039 -16.3039 -16.1965 -16.1965 -16.1561 -16.1561 -16.0706 -16.0706
     9.1741   9.1741  11.6073  11.6073  12.4829  12.4829  13.4807  13.4807
    13.5497  13.5497  13.8950  13.8950  13.9730  13.9730  14.1562  14.1562
    14.2628  14.2628  14.4080  14.4080  14.5157  14.5157  14.6453  14.6453
    14.6804  14.6804  14.7849  14.7849  15.1139  15.1139  15.1170  15.1170
    15.3140  15.3140  15.3156  15.3156  15.3715  15.3715  15.3828  15.3828
    15.4422  15.4422  15.4954  15.4954  15.8109  15.8109  15.8439  15.8439
    17.1441  17.1441  17.5005  17.5005  17.5145  17.5145  17.5350  17.5350
    17.5841  17.5841  17.6242  17.6242  17.6779  17.6779  17.7550  17.7550
    17.8227  17.8227  18.1571  18.1571  18.3262  18.3262  18.4062  18.4062

          k = 0.1694 0.1694 0.1553 ( 32390 PWs)   bands (ev):

   -70.0484 -70.0478 -70.0464 -70.0464 -70.0458 -70.0458 -70.0444 -70.0439
   -40.0989 -40.0922 -40.0912 -40.0827 -40.0613 -40.0530 -39.8817 -39.8684
   -36.1758 -36.1738 -36.1656 -36.1643 -36.1642 -36.1631 -36.1483 -36.1478
   -36.1215 -36.1194 -36.1189 -36.1189 -36.1184 -36.1177 -36.1125 -36.1105
   -36.1103 -36.1083 -36.1055 -36.1043 -36.1039 -36.1027 -36.0933 -36.0927
   -16.4727 -16.4536 -16.4495 -16.4418 -16.4406 -16.4046 -16.3958 -16.3950
   -16.3930 -16.3927 -16.3885 -16.3450 -16.3269 -16.3132 -16.2991 -16.2705
   -16.2656 -16.2644 -16.2614 -16.2594 -16.1268 -16.1261 -16.1179 -16.1177
     8.5583   9.9273  11.3350  12.2033  12.3660  12.7231  12.8582  13.2615
    13.4238  13.9097  13.9270  13.9957  14.0162  14.0282  14.1352  14.2766
    14.2907  14.3196  14.3576  14.3629  14.5233  14.6301  14.6370  14.8265
    14.8331  14.8826  14.9763  15.0152  15.0510  15.0521  15.0915  15.1014
    15.1256  15.1802  15.2024  15.2385  15.2439  15.2454  15.3152  15.3524
    15.3790  15.4171  15.4378  15.5161  15.5362  15.5606  15.5844  15.9351
    17.0079  17.2096  17.3253  17.3755  17.4094  17.5533  17.6283  17.6452
    17.6654  17.6826  17.7700  17.7867  17.9180  17.9443  17.9452  18.0054
    18.0133  18.0503  18.1175  18.2166  18.2513  18.3137  18.5305  18.5941

          k = 0.1694 0.1694-0.2329 ( 32458 PWs)   bands (ev):

   -70.0481 -70.0481 -70.0461 -70.0461 -70.0461 -70.0461 -70.0441 -70.0441
   -40.0955 -40.0955 -40.0870 -40.0870 -40.0571 -40.0571 -39.8751 -39.8751
   -36.1748 -36.1748 -36.1650 -36.1649 -36.1637 -36.1637 -36.1480 -36.1480
   -36.1201 -36.1201 -36.1158 -36.1158 -36.1150 -36.1150 -36.1145 -36.1145
   -36.1130 -36.1130 -36.1049 -36.1049 -36.1032 -36.1032 -36.0930 -36.0930
   -16.4479 -16.4479 -16.4450 -16.4450 -16.4010 -16.4010 -16.3929 -16.3929
   -16.3924 -16.3924 -16.3526 -16.3526 -16.3525 -16.3525 -16.3058 -16.3058
   -16.2656 -16.2656 -16.2619 -16.2619 -16.1223 -16.1223 -16.1219 -16.1219
     9.1970   9.1970  11.8088  11.8088  12.5377  12.5377  13.0884  13.0884
    13.6262  13.6262  14.1415  14.1415  14.1621  14.1621  14.1686  14.1686
    14.1948  14.1948  14.4234  14.4234  14.6217  14.6217  14.6587  14.6587
    14.7082  14.7082  14.9786  14.9786  15.0870  15.0870  15.0965  15.0965
    15.1191  15.1191  15.1859  15.1859  15.2330  15.2330  15.2628  15.2628
    15.3359  15.3359  15.3449  15.3449  15.4593  15.4593  15.7230  15.7230
    17.1668  17.1668  17.5516  17.5516  17.5992  17.5992  17.6304  17.6304
    17.6639  17.6639  17.8243  17.8243  17.8624  17.8624  17.9914  17.9914
    18.0107  18.0107  18.1015  18.1015  18.4045  18.4045  18.7419  18.7419

          k = 0.1694-0.2542-0.2329 ( 32460 PWs)   bands (ev):

   -70.0472 -70.0472 -70.0470 -70.0470 -70.0452 -70.0452 -70.0450 -70.0450
   -40.0913 -40.0913 -40.0874 -40.0874 -40.0603 -40.0603 -39.8757 -39.8757
   -36.1692 -36.1692 -36.1688 -36.1688 -36.1560 -36.1560 -36.1551 -36.1551
   -36.1161 -36.1161 -36.1158 -36.1158 -36.1143 -36.1143 -36.1140 -36.1140
   -36.1123 -36.1123 -36.1111 -36.1111 -36.0995 -36.0995 -36.0987 -36.0987
   -16.4443 -16.4443 -16.3993 -16.3993 -16.3919 -16.3919 -16.3680 -16.3680
   -16.3616 -16.3616 -16.3540 -16.3540 -16.3504 -16.3504 -16.3436 -16.3436
   -16.3078 -16.3078 -16.2634 -16.2634 -16.1572 -16.1572 -16.1227 -16.1227
     9.2357   9.2357  11.9671  11.9671  12.4650  12.4650  13.0630  13.0630
    13.6012  13.6012  14.1671  14.1671  14.2574  14.2574  14.4485  14.4485
    14.4508  14.4508  14.4648  14.4648  14.4789  14.4789  14.6135  14.6135
    14.7784  14.7784  14.8041  14.8041  15.0222  15.0222  15.0390  15.0390
    15.0844  15.0844  15.1062  15.1062  15.1154  15.1154  15.1661  15.1661
    15.2913  15.2913  15.3168  15.3168  15.3755  15.3755  15.4153  15.4153
    17.2072  17.2072  17.6510  17.6510  17.6753  17.6753  17.7239  17.7239
    17.8341  17.8341  17.9129  17.9129  17.9437  17.9437  17.9584  17.9584
    18.0181  18.0181  18.3692  18.3692  18.4620  18.4620  18.5085  18.5085

          k =-0.2542-0.2542-0.2329 ( 32344 PWs)   bands (ev):

   -70.0463 -70.0463 -70.0461 -70.0461 -70.0461 -70.0461 -70.0459 -70.0459
   -40.0869 -40.0869 -40.0869 -40.0869 -40.0648 -40.0648 -39.8763 -39.8763
   -36.1625 -36.1625 -36.1625 -36.1625 -36.1614 -36.1614 -36.1602 -36.1602
   -36.1150 -36.1150 -36.1150 -36.1150 -36.1147 -36.1147 -36.1143 -36.1143
   -36.1085 -36.1085 -36.1062 -36.1062 -36.1053 -36.1053 -36.1053 -36.1053
   -16.3904 -16.3904 -16.3670 -16.3670 -16.3643 -16.3643 -16.3589 -16.3589
   -16.3550 -16.3550 -16.3550 -16.3550 -16.3547 -16.3547 -16.3478 -16.3478
   -16.3478 -16.3478 -16.3099 -16.3099 -16.1578 -16.1578 -16.1578 -16.1578
     9.2675   9.2675  12.4563  12.4563  12.4563  12.4563  12.5382  12.5382
    13.6174  13.6174  14.4423  14.4423  14.4423  14.4423  14.4667  14.4667
    14.5608  14.5608  14.5609  14.5609  14.6051  14.6051  14.6605  14.6605
    14.8941  14.8941  14.8941  14.8941  14.9410  14.9410  14.9511  14.9511
    14.9511  14.9511  14.9568  14.9569  14.9674  14.9674  14.9841  14.9841
    15.1517  15.1517  15.1559  15.1559  15.1559  15.1559  15.1919  15.1919
    17.2393  17.2393  17.8026  17.8026  17.8026  17.8026  17.8275  17.8275
    17.9610  17.9610  17.9611  17.9611  17.9669  17.9669  18.0443  18.0443
    18.1438  18.1438  18.6621  18.6621  18.6621  18.6621  18.7151  18.7151

          k = 0.0847 0.0000 0.0000 ( 32427 PWs)   bands (ev):

   -70.0504 -70.0492 -70.0469 -70.0464 -70.0458 -70.0453 -70.0430 -70.0419
   -40.1136 -40.1039 -40.0972 -40.0772 -40.0550 -40.0377 -39.8854 -39.8587
   -36.1900 -36.1814 -36.1729 -36.1710 -36.1697 -36.1670 -36.1368 -36.1352
   -36.1341 -36.1263 -36.1261 -36.1260 -36.1204 -36.1198 -36.1112 -36.1064
   -36.1057 -36.1020 -36.1015 -36.1006 -36.0988 -36.0967 -36.0818 -36.0802
   -16.5577 -16.5527 -16.5310 -16.5252 -16.5030 -16.4693 -16.4540 -16.4464
   -16.4439 -16.4330 -16.4258 -16.3744 -16.2876 -16.2756 -16.2308 -16.2085
   -16.2040 -16.1927 -16.1784 -16.1680 -16.0763 -16.0606 -16.0551 -16.0402
     7.7662  10.4987  10.7064  12.5602  12.6119  12.6887  12.7588  13.0567
    13.1620  13.2471  13.2892  13.3786  13.3870  13.4204  13.7635  13.8636
    14.3976  14.4033  14.5660  14.6629  14.6646  14.6948  14.6986  14.7752
    14.8080  14.9580  14.9750  15.0034  15.0500  15.0842  15.4121  15.5225
    15.5227  15.5393  15.6052  15.6951  15.7494  15.8004  15.8489  15.9460
    15.9523  16.0793  16.2525  16.2726  16.4371  16.5312  16.5852  16.6004
    16.6066  16.7511  16.7863  16.9755  17.0859  17.1337  17.1820  17.2322
    17.2507  17.4682  17.5035  17.5498  17.6241  17.7022  17.7631  17.9280
    17.9900  18.0470  18.0680  18.0828  18.1711  18.1884  18.1983  18.4117

          k = 0.1694 0.0000 0.0000 ( 32412 PWs)   bands (ev):

   -70.0496 -70.0485 -70.0476 -70.0465 -70.0457 -70.0446 -70.0437 -70.0426
   -40.1096 -40.0977 -40.0968 -40.0791 -40.0583 -40.0410 -39.8867 -39.8599
   -36.1850 -36.1785 -36.1741 -36.1738 -36.1619 -36.1594 -36.1427 -36.1409
   -36.1281 -36.1249 -36.1247 -36.1223 -36.1216 -36.1211 -36.1102 -36.1085
   -36.1081 -36.1074 -36.1048 -36.1024 -36.0961 -36.0941 -36.0864 -36.0847
   -16.5542 -16.5466 -16.5231 -16.4753 -16.4645 -16.4560 -16.4429 -16.4398
   -16.4273 -16.3966 -16.3839 -16.3776 -16.2836 -16.2761 -16.2718 -16.2580
   -16.2283 -16.2145 -16.1777 -16.1669 -16.1291 -16.1119 -16.0559 -16.0414
     7.8775  10.5875  10.7429  11.9465  12.7076  12.9204  13.0205  13.2071
    13.2470  13.3518  13.4251  13.5087  13.5791  13.6711  13.8855  13.9077
    14.1447  14.1861  14.4387  14.5873  14.6152  14.6179  14.6868  14.7752
    14.8475  14.8762  15.1182  15.1639  15.1695  15.2027  15.3431  15.4231
    15.4867  15.5079  15.5356  15.5763  15.6427  15.6649  15.7868  15.8467
    15.8578  15.8977  16.0219  16.1196  16.1450  16.3752  16.3921  16.5091
    16.6346  16.6840  16.7221  16.7657  16.8128  16.9547  17.1265  17.1869
    17.2559  17.4347  17.4972  17.6217  17.6226  17.8654  17.8869  17.9938
    18.1511  18.1928  18.2960  18.3410  18.3914  18.4155  18.5221  18.6350

          k =-0.2542-0.0000-0.0000 ( 32504 PWs)   bands (ev):

   -70.0487 -70.0486 -70.0476 -70.0474 -70.0448 -70.0446 -70.0437 -70.0435
   -40.1072 -40.0968 -40.0932 -40.0814 -40.0601 -40.0427 -39.8873 -39.8605
   -36.1791 -36.1790 -36.1758 -36.1755 -36.1523 -36.1512 -36.1502 -36.1492
   -36.1234 -36.1231 -36.1229 -36.1228 -36.1195 -36.1181 -36.1164 -36.1150
   -36.1089 -36.1087 -36.1037 -36.1035 -36.0922 -36.0914 -36.0903 -36.0895
   -16.5524 -16.5432 -16.5221 -16.4787 -16.4571 -16.4427 -16.4276 -16.3886
   -16.3793 -16.3701 -16.3673 -16.3527 -16.3404 -16.3292 -16.2790 -16.2789
   -16.2239 -16.2206 -16.1774 -16.1663 -16.1651 -16.1464 -16.0563 -16.0421
     7.9373  10.6534  10.7613  11.6734  12.7677  13.0915  13.1336  13.3523
    13.3814  13.4074  13.5169  13.6978  13.7104  13.7658  13.8160  13.8200
    13.8586  14.0612  14.0660  14.6044  14.7635  14.7792  14.8648  14.8649
    14.8654  14.9558  14.9732  15.0612  15.1033  15.2776  15.4167  15.4284
    15.4355  15.5083  15.5140  15.5708  15.5905  15.7270  15.7871  15.8423
    15.8882  15.8884  15.9291  15.9363  15.9403  15.9857  15.9910  16.0941
    16.6485  16.6752  16.6842  16.7162  16.7212  17.2371  17.2477  17.3963
    17.4354  17.4511  17.4519  17.4639  17.6294  17.8852  17.9070  18.1961
    18.2061  18.2063  18.2174  18.4767  18.6740  18.7438  18.7580  18.7705

          k = 0.0847-0.0847 0.0000 ( 32442 PWs)   bands (ev):

   -70.0501 -70.0490 -70.0466 -70.0466 -70.0455 -70.0455 -70.0433 -70.0422
   -40.1117 -40.1013 -40.0968 -40.0774 -40.0567 -40.0395 -39.8860 -39.8593
   -36.1879 -36.1800 -36.1707 -36.1694 -36.1683 -36.1680 -36.1386 -36.1370
   -36.1321 -36.1257 -36.1256 -36.1250 -36.1208 -36.1202 -36.1108 -36.1061
   -36.1061 -36.1019 -36.1017 -36.1005 -36.0998 -36.0995 -36.0837 -36.0821
   -16.5562 -16.5290 -16.5277 -16.5020 -16.5020 -16.4510 -16.4469 -16.4429
   -16.4341 -16.4339 -16.4269 -16.3760 -16.2860 -16.2751 -16.2306 -16.2107
   -16.2050 -16.2022 -16.1923 -16.1922 -16.0771 -16.0765 -16.0613 -16.0612
     7.8129  10.5463  10.7262  12.4885  12.7254  12.7270  12.7445  12.8216
    13.1505  13.3123  13.3867  13.4207  13.4686  13.6859  13.8639  13.9072
    14.4183  14.5201  14.5379  14.5880  14.5906  14.6178  14.6504  14.7903
    14.8151  14.9827  14.9867  15.0103  15.0104  15.0222  15.3825  15.4318
    15.4367  15.4635  15.6197  15.6275  15.6328  15.8298  15.8489  15.9797
    16.0178  16.0454  16.0863  16.1756  16.2841  16.3615  16.6388  16.6458
    16.7097  16.7450  16.8043  16.8577  16.8811  16.8837  16.9443  17.1628
    17.3567  17.5453  17.5469  17.7131  17.7263  17.7507  17.8142  17.8961
    17.9509  18.0442  18.0873  18.2160  18.2684  18.2774  18.2970  18.5052

          k =-0.0847-0.0847-0.0000 ( 32442 PWs)   bands (ev):

   -70.0501 -70.0490 -70.0466 -70.0466 -70.0455 -70.0455 -70.0433 -70.0422
   -40.1117 -40.1013 -40.0968 -40.0774 -40.0567 -40.0395 -39.8860 -39.8593
   -36.1879 -36.1800 -36.1707 -36.1694 -36.1683 -36.1680 -36.1386 -36.1370
   -36.1321 -36.1257 -36.1256 -36.1250 -36.1208 -36.1202 -36.1108 -36.1061
   -36.1061 -36.1019 -36.1017 -36.1005 -36.0998 -36.0995 -36.0837 -36.0821
   -16.5562 -16.5290 -16.5277 -16.5020 -16.5020 -16.4510 -16.4469 -16.4429
   -16.4341 -16.4339 -16.4269 -16.3760 -16.2860 -16.2751 -16.2306 -16.2107
   -16.2050 -16.2022 -16.1923 -16.1922 -16.0771 -16.0765 -16.0613 -16.0612
     7.8129  10.5463  10.7262  12.4885  12.7254  12.7270  12.7445  12.8216
    13.1505  13.3123  13.3867  13.4207  13.4686  13.6859  13.8639  13.9072
    14.4183  14.5201  14.5379  14.5880  14.5907  14.6178  14.6504  14.7903
    14.8150  14.9827  14.9868  15.0104  15.0104  15.0222  15.3825  15.4318
    15.4367  15.4635  15.6198  15.6274  15.6328  15.8298  15.8489  15.9797
    16.0178  16.0454  16.0863  16.1756  16.2841  16.3615  16.6388  16.6458
    16.7097  16.7450  16.8043  16.8578  16.8811  16.8836  16.9443  17.1628
    17.3567  17.5453  17.5470  17.7130  17.7263  17.7507  17.8142  17.8961
    17.9509  18.0442  18.0873  18.2160  18.2683  18.2774  18.2970  18.5052

          k = 0.1694-0.0847 0.0000 ( 32469 PWs)   bands (ev):

   -70.0494 -70.0482 -70.0474 -70.0463 -70.0459 -70.0448 -70.0440 -70.0429
   -40.1074 -40.0963 -40.0951 -40.0787 -40.0604 -40.0433 -39.8873 -39.8605
   -36.1827 -36.1769 -36.1714 -36.1713 -36.1623 -36.1606 -36.1441 -36.1425
   -36.1264 -36.1246 -36.1245 -36.1218 -36.1213 -36.1212 -36.1098 -36.1075
   -36.1073 -36.1071 -36.1052 -36.1027 -36.0983 -36.0969 -36.0885 -36.0869
   -16.5529 -16.5226 -16.4999 -16.4621 -16.4549 -16.4411 -16.4386 -16.4361
   -16.4284 -16.3986 -16.3849 -16.3796 -16.2820 -16.2751 -16.2715 -16.2576
   -16.2289 -16.2165 -16.2028 -16.1911 -16.1296 -16.1124 -16.0777 -16.0624
     7.9116  10.6756  10.7662  11.9552  12.7821  12.8183  12.9413  13.0496
    13.3553  13.4672  13.4932  13.6583  13.7040  13.7341  13.9496  13.9585
    14.2039  14.2077  14.4433  14.5676  14.6320  14.7214  14.7455  14.7658
    14.7681  14.9182  15.0309  15.1040  15.1347  15.1475  15.2874  15.3025
    15.3435  15.4096  15.5271  15.5482  15.5669  15.6963  15.7376  15.7396
    15.7945  15.8444  15.9367  15.9621  16.0545  16.2654  16.3237  16.3390
    16.5453  16.6703  16.6975  16.7260  16.8456  17.0921  17.2152  17.2862
    17.3889  17.5865  17.7012  17.7129  17.7354  17.9004  17.9516  17.9615
    18.0531  18.0712  18.1028  18.3216  18.3944  18.3963  18.5197  18.6149

          k =-0.1694-0.0847-0.0000 ( 32469 PWs)   bands (ev):

   -70.0494 -70.0482 -70.0474 -70.0463 -70.0459 -70.0448 -70.0440 -70.0429
   -40.1074 -40.0963 -40.0951 -40.0787 -40.0604 -40.0433 -39.8873 -39.8605
   -36.1827 -36.1769 -36.1714 -36.1713 -36.1623 -36.1606 -36.1441 -36.1425
   -36.1264 -36.1246 -36.1245 -36.1218 -36.1213 -36.1212 -36.1098 -36.1075
   -36.1073 -36.1071 -36.1052 -36.1027 -36.0983 -36.0969 -36.0885 -36.0869
   -16.5529 -16.5226 -16.4999 -16.4621 -16.4549 -16.4411 -16.4386 -16.4361
   -16.4285 -16.3986 -16.3849 -16.3796 -16.2820 -16.2751 -16.2715 -16.2576
   -16.2289 -16.2165 -16.2028 -16.1911 -16.1296 -16.1124 -16.0777 -16.0624
     7.9116  10.6756  10.7662  11.9552  12.7821  12.8183  12.9413  13.0496
    13.3553  13.4672  13.4932  13.6583  13.7040  13.7341  13.9496  13.9585
    14.2039  14.2077  14.4433  14.5676  14.6320  14.7214  14.7455  14.7658
    14.7681  14.9182  15.0309  15.1040  15.1346  15.1475  15.2874  15.3025
    15.3435  15.4095  15.5272  15.5482  15.5669  15.6963  15.7376  15.7396
    15.7944  15.8444  15.9367  15.9622  16.0545  16.2654  16.3237  16.3390
    16.5453  16.6703  16.6975  16.7260  16.8456  17.0921  17.2152  17.2862
    17.3889  17.5865  17.7012  17.7129  17.7354  17.9003  17.9516  17.9615
    18.0532  18.0712  18.1028  18.3216  18.3944  18.3963  18.5197  18.6149

          k = 0.0000 0.1694 0.0776 ( 32469 PWs)   bands (ev):

   -70.0496 -70.0486 -70.0476 -70.0466 -70.0456 -70.0446 -70.0436 -70.0427
   -40.1087 -40.0984 -40.0956 -40.0803 -40.0572 -40.0421 -39.8849 -39.8617
   -36.1845 -36.1790 -36.1741 -36.1738 -36.1617 -36.1596 -36.1425 -36.1410
   -36.1279 -36.1235 -36.1233 -36.1227 -36.1205 -36.1204 -36.1113 -36.1085
   -36.1084 -36.1077 -36.1062 -36.1037 -36.0960 -36.0942 -36.0863 -36.0848
   -16.5450 -16.5337 -16.5247 -16.4740 -16.4628 -16.4574 -16.4417 -16.4314
   -16.4167 -16.3958 -16.3848 -16.3673 -16.2967 -16.2868 -16.2707 -16.2589
   -16.2444 -16.2293 -16.1770 -16.1676 -16.1280 -16.1130 -16.0549 -16.0424
     8.0256  10.4692  10.6986  12.0276  12.5100  13.0094  13.0651  13.1613
    13.2501  13.4304  13.4917  13.5748  13.6261  13.6823  13.9285  13.9472
    14.1452  14.1526  14.4037  14.5764  14.5953  14.6152  14.7322  14.7409
    14.7713  14.9069  15.0324  15.1342  15.1351  15.1614  15.3305  15.4415
    15.4647  15.4775  15.5006  15.6065  15.6204  15.6313  15.7012  15.7593
    15.8150  15.9200  15.9577  15.9784  16.0522  16.1027  16.1444  16.4666
    16.6452  16.8928  16.9173  17.0208  17.0572  17.0736  17.2028  17.2032
    17.2723  17.4252  17.5186  17.5395  17.6128  17.6782  17.8239  17.9103
    17.9941  18.2167  18.2636  18.2818  18.3495  18.3678  18.4289  18.6080

          k =-0.2542-0.0847-0.0000 ( 32438 PWs)   bands (ev):

   -70.0485 -70.0483 -70.0473 -70.0472 -70.0450 -70.0449 -70.0440 -70.0438
   -40.1048 -40.0963 -40.0905 -40.0808 -40.0625 -40.0454 -39.8879 -39.8611
   -36.1766 -36.1764 -36.1737 -36.1734 -36.1532 -36.1522 -36.1516 -36.1506
   -36.1234 -36.1231 -36.1229 -36.1228 -36.1181 -36.1168 -36.1155 -36.1140
   -36.1085 -36.1083 -36.1041 -36.1039 -36.0943 -36.0935 -36.0928 -36.0920
   -16.5512 -16.5193 -16.4988 -16.4581 -16.4405 -16.4371 -16.4288 -16.3857
   -16.3815 -16.3694 -16.3651 -16.3524 -16.3432 -16.3314 -16.2777 -16.2776
   -16.2253 -16.2220 -16.2026 -16.1906 -16.1655 -16.1468 -16.0782 -16.0631
     7.9640  10.7788  10.7865  11.6676  12.8314  12.8771  13.0264  13.4060
    13.4704  13.5002  13.6796  13.7463  13.7538  13.7945  13.9047  13.9128
    13.9709  14.0957  14.0982  14.6424  14.7996  14.8168  14.8237  14.8245
    14.8568  14.9880  15.0449  15.1140  15.1294  15.1944  15.1947  15.2860
    15.2872  15.4405  15.4418  15.4545  15.4601  15.5855  15.7444  15.7473
    15.7597  15.7849  15.7916  15.8268  15.8842  15.9269  16.0265  16.0282
    16.6965  16.6991  16.7443  16.7498  16.7505  17.3346  17.4008  17.4967
    17.5371  17.5477  17.5702  17.5764  17.7122  17.8858  17.9648  18.1393
    18.1418  18.1744  18.1760  18.1952  18.5650  18.6216  18.6466  18.6566

          k =-0.0000-0.2542 0.0776 ( 32438 PWs)   bands (ev):

   -70.0487 -70.0485 -70.0477 -70.0475 -70.0447 -70.0445 -70.0438 -70.0436
   -40.1062 -40.0958 -40.0941 -40.0824 -40.0589 -40.0438 -39.8855 -39.8623
   -36.1789 -36.1788 -36.1760 -36.1757 -36.1522 -36.1511 -36.1504 -36.1493
   -36.1224 -36.1222 -36.1221 -36.1218 -36.1188 -36.1176 -36.1168 -36.1154
   -36.1096 -36.1094 -36.1050 -36.1048 -36.0920 -36.0913 -36.0904 -36.0896
   -16.5418 -16.5318 -16.5235 -16.4773 -16.4586 -16.4320 -16.4169 -16.3873
   -16.3690 -16.3690 -16.3685 -16.3538 -16.3397 -16.3300 -16.2913 -16.2900
   -16.2409 -16.2345 -16.1766 -16.1670 -16.1638 -16.1476 -16.0554 -16.0430
     8.0857  10.4987  10.7538  11.7747  12.5009  13.1647  13.2118  13.2872
    13.4428  13.5295  13.5971  13.7294  13.7700  13.7898  13.8010  13.8353
    13.8751  14.0655  14.1363  14.6462  14.7892  14.7912  14.8000  14.8094
    14.8306  14.8508  14.8822  14.9782  15.1889  15.3030  15.3278  15.3709
    15.4734  15.5438  15.5503  15.5536  15.5866  15.5949  15.5969  15.6469
    15.6475  15.7572  15.7650  15.7961  15.8759  16.0307  16.1111  16.1150
    16.7285  16.8865  16.9053  16.9191  16.9220  17.2514  17.2638  17.4295
    17.4384  17.4468  17.4558  17.4868  17.6600  17.7570  17.9594  18.0676
    18.0876  18.1519  18.1845  18.1934  18.2187  18.3618  18.6536  18.7262

          k = 0.1694-0.1694 0.0000 ( 32476 PWs)   bands (ev):

   -70.0487 -70.0475 -70.0467 -70.0467 -70.0456 -70.0456 -70.0447 -70.0436
   -40.1022 -40.0954 -40.0888 -40.0785 -40.0654 -40.0488 -39.8884 -39.8617
   -36.1769 -36.1727 -36.1662 -36.1647 -36.1637 -36.1625 -36.1485 -36.1475
   -36.1240 -36.1239 -36.1224 -36.1220 -36.1213 -36.1177 -36.1089 -36.1062
   -36.1062 -36.1061 -36.1047 -36.1038 -36.1037 -36.1026 -36.0935 -36.0924
   -16.5502 -16.4594 -16.4541 -16.4372 -16.4362 -16.4360 -16.4307 -16.4101
   -16.3975 -16.3874 -16.3869 -16.3840 -16.2783 -16.2746 -16.2738 -16.2670
   -16.2571 -16.2568 -16.2294 -16.2212 -16.1313 -16.1302 -16.1134 -16.1134
     7.9823  10.8138  10.9162  11.8735  12.3659  12.9221  13.1174  13.1341
    13.6089  13.6525  13.7630  13.7917  13.8320  13.8742  13.9780  14.0015
    14.2391  14.4132  14.4428  14.4777  14.5939  14.6617  14.7493  14.8074
    14.9533  14.9636  14.9974  15.0268  15.0480  15.0857  15.1053  15.1143
    15.1619  15.3066  15.3584  15.3634  15.3878  15.5050  15.5917  15.6478
    15.7062  15.7596  15.7782  15.7998  15.9035  15.9473  15.9513  16.0172
    16.7080  16.7204  16.7298  16.8026  16.8409  17.4498  17.4652  17.4751
    17.5777  17.7284  17.8335  17.8552  17.8662  17.9148  17.9163  17.9979
    18.0341  18.0349  18.1996  18.2841  18.2865  18.3006  18.3439  18.4445

          k =-0.1694-0.1694-0.0000 ( 32476 PWs)   bands (ev):

   -70.0487 -70.0475 -70.0467 -70.0467 -70.0456 -70.0456 -70.0447 -70.0436
   -40.1022 -40.0954 -40.0888 -40.0785 -40.0654 -40.0488 -39.8884 -39.8617
   -36.1769 -36.1727 -36.1662 -36.1647 -36.1637 -36.1625 -36.1485 -36.1475
   -36.1240 -36.1239 -36.1224 -36.1220 -36.1213 -36.1177 -36.1089 -36.1062
   -36.1062 -36.1061 -36.1047 -36.1038 -36.1037 -36.1026 -36.0935 -36.0924
   -16.5502 -16.4594 -16.4541 -16.4372 -16.4362 -16.4360 -16.4307 -16.4101
   -16.3975 -16.3874 -16.3869 -16.3840 -16.2783 -16.2746 -16.2738 -16.2670
   -16.2571 -16.2568 -16.2294 -16.2212 -16.1313 -16.1302 -16.1134 -16.1134
     7.9823  10.8138  10.9162  11.8735  12.3659  12.9222  13.1174  13.1341
    13.6090  13.6525  13.7630  13.7917  13.8320  13.8742  13.9780  14.0015
    14.2391  14.4133  14.4428  14.4777  14.5939  14.6617  14.7493  14.8073
    14.9534  14.9636  14.9974  15.0268  15.0480  15.0856  15.1053  15.1143
    15.1619  15.3066  15.3585  15.3634  15.3878  15.5050  15.5917  15.6478
    15.7062  15.7596  15.7783  15.7998  15.9035  15.9473  15.9513  16.0172
    16.7080  16.7204  16.7298  16.8026  16.8409  17.4499  17.4652  17.4751
    17.5777  17.7284  17.8335  17.8552  17.8662  17.9148  17.9163  17.9978
    18.0341  18.0350  18.1996  18.2841  18.2865  18.3006  18.3439  18.4445

          k =-0.2542-0.1694-0.0000 ( 32466 PWs)   bands (ev):

   -70.0477 -70.0476 -70.0466 -70.0464 -70.0458 -70.0456 -70.0447 -70.0445
   -40.0988 -40.0952 -40.0838 -40.0796 -40.0685 -40.0521 -39.8890 -39.8623
   -36.1702 -36.1698 -36.1684 -36.1681 -36.1561 -36.1556 -36.1550 -36.1549
   -36.1233 -36.1231 -36.1230 -36.1228 -36.1140 -36.1128 -36.1127 -36.1111
   -36.1076 -36.1074 -36.1050 -36.1048 -36.0996 -36.0994 -36.0989 -36.0984
   -16.5487 -16.4539 -16.4356 -16.4347 -16.4313 -16.4082 -16.3883 -16.3865
   -16.3775 -16.3681 -16.3596 -16.3516 -16.3505 -16.3369 -16.2747 -16.2747
   -16.2703 -16.2567 -16.2283 -16.2249 -16.1668 -16.1476 -16.1313 -16.1139
     8.0190  10.8381  11.1362  11.6520  12.2790  12.9179  13.1766  13.4368
    13.7750  13.7944  13.8067  13.8333  13.8434  13.8465  14.1605  14.1668
    14.1669  14.1679  14.2429  14.6844  14.7702  14.8281  14.8495  14.8583
    14.8619  14.8651  14.8704  14.8764  14.9262  15.0388  15.0541  15.1163
    15.2107  15.2226  15.2265  15.2948  15.3997  15.4167  15.5626  15.5683
    15.5926  15.6103  15.6738  15.6908  15.7338  15.7410  15.9660  15.9729
    16.7179  16.7308  16.7645  16.7872  16.9429  17.5570  17.6070  17.7301
    17.7396  17.7706  17.8618  17.8692  17.8738  17.8878  17.8970  18.0302
    18.0852  18.0922  18.1265  18.1385  18.2848  18.3339  18.3968  18.4251

          k =-0.0000-0.2542 0.1553 ( 32466 PWs)   bands (ev):

   -70.0485 -70.0483 -70.0479 -70.0477 -70.0445 -70.0443 -70.0440 -70.0438
   -40.1037 -40.0967 -40.0929 -40.0852 -40.0558 -40.0470 -39.8806 -39.8672
   -36.1783 -36.1782 -36.1766 -36.1764 -36.1518 -36.1507 -36.1507 -36.1497
   -36.1211 -36.1206 -36.1185 -36.1182 -36.1179 -36.1170 -36.1167 -36.1160
   -36.1116 -36.1113 -36.1086 -36.1084 -36.0917 -36.0909 -36.0908 -36.0900
   -16.5379 -16.5274 -16.4756 -16.4733 -16.4625 -16.4027 -16.3874 -16.3841
   -16.3716 -16.3663 -16.3566 -16.3408 -16.3378 -16.3320 -16.3294 -16.3198
   -16.2913 -16.2632 -16.1746 -16.1690 -16.1603 -16.1510 -16.0528 -16.0456
     8.5097   9.8713  11.0423  12.0012  12.0638  12.9604  13.3516  13.4210
    13.5185  13.7066  13.7505  13.7954  13.8109  13.8248  13.8518  13.9807
    14.0650  14.0809  14.2233  14.6027  14.6866  14.7194  14.7283  14.7311
    14.7366  14.7439  14.7649  14.7917  15.1975  15.2204  15.2222  15.2886
    15.3329  15.3629  15.4159  15.4534  15.4784  15.4834  15.5413  15.5633
    15.5777  15.6180  15.7222  15.8137  15.8569  15.8578  16.1392  16.1538
    16.9213  17.1761  17.2134  17.2310  17.2352  17.3022  17.3191  17.3404
    17.4301  17.4515  17.4919  17.5357  17.6827  17.6863  17.7340  17.7432
    17.7970  17.8796  18.1276  18.1679  18.1772  18.2022  18.5357  18.5768

          k =-0.2542 0.2542-0.0000 ( 32544 PWs)   bands (ev):

   -70.0469 -70.0467 -70.0467 -70.0465 -70.0457 -70.0456 -70.0456 -70.0454
   -40.0947 -40.0947 -40.0790 -40.0790 -40.0726 -40.0569 -39.8895 -39.8630
   -36.1638 -36.1638 -36.1633 -36.1622 -36.1613 -36.1613 -36.1595 -36.1581
   -36.1232 -36.1231 -36.1231 -36.1228 -36.1097 -36.1075 -36.1073 -36.1073
   -36.1073 -36.1064 -36.1062 -36.1062 -36.1060 -36.1051 -36.1039 -36.1039
   -16.5475 -16.4326 -16.4326 -16.3894 -16.3805 -16.3763 -16.3629 -16.3586
   -16.3578 -16.3578 -16.3557 -16.3549 -16.3515 -16.3509 -16.3412 -16.3412
   -16.2731 -16.2731 -16.2300 -16.2266 -16.1674 -16.1674 -16.1480 -16.1480
     8.0472  10.8646  11.6419  11.6419  11.6975  12.8709  13.4701  13.4701
    13.7068  13.8759  13.8810  13.8811  14.0626  14.1129  14.1145  14.1145
    14.5049  14.5049  14.5297  14.5473  14.5726  14.6059  14.6060  14.6540
    14.7309  14.8684  14.8685  14.8890  14.9297  14.9808  14.9809  15.0195
    15.0391  15.1098  15.1124  15.1124  15.5346  15.5346  15.5479  15.5480
    15.5528  15.5615  15.6550  15.6552  15.6944  15.7230  15.7491  15.7491
    16.7329  16.7609  16.7609  16.7769  17.0392  17.7118  17.7118  17.7487
    17.8104  17.9512  17.9512  17.9962  18.0242  18.0607  18.0619  18.0619
    18.1202  18.1203  18.1326  18.1430  18.1891  18.1955  18.1955  18.2037

          k = 0.0847-0.0847 0.0776 ( 32444 PWs)   bands (ev):

   -70.0500 -70.0490 -70.0466 -70.0466 -70.0456 -70.0456 -70.0432 -70.0423
   -40.1110 -40.1020 -40.0955 -40.0787 -40.0556 -40.0407 -39.8843 -39.8611
   -36.1874 -36.1806 -36.1705 -36.1693 -36.1684 -36.1681 -36.1385 -36.1371
   -36.1317 -36.1255 -36.1243 -36.1243 -36.1196 -36.1196 -36.1115 -36.1074
   -36.1073 -36.1031 -36.1015 -36.1004 -36.0998 -36.0996 -36.0836 -36.0822
   -16.5357 -16.5272 -16.5259 -16.5037 -16.5036 -16.4499 -16.4461 -16.4353
   -16.4349 -16.4312 -16.4167 -16.3657 -16.2994 -16.2854 -16.2467 -16.2255
   -16.2041 -16.2015 -16.1931 -16.1928 -16.0760 -16.0755 -16.0623 -16.0623
     7.9610  10.4397  10.6659  12.5390  12.6134  12.7441  12.8039  12.9029
    13.0500  13.3773  13.4264  13.4590  13.5204  13.7396  13.8907  13.9615
    14.3840  14.4175  14.4749  14.5048  14.5280  14.6055  14.6303  14.7457
    14.8628  14.9258  15.0219  15.0766  15.0824  15.1675  15.2153  15.3557
    15.3706  15.5022  15.6080  15.6194  15.6414  15.7833  15.7890  15.9175
    15.9471  16.0467  16.1000  16.1142  16.1371  16.3097  16.3116  16.3162
    16.7060  16.7294  16.8994  16.9178  17.0962  17.1791  17.2253  17.2317
    17.3879  17.4552  17.4669  17.6745  17.7667  17.7877  17.7923  17.8108
    18.0203  18.0301  18.0549  18.0574  18.1478  18.4401  18.4430  18.4646

          k = 0.0847-0.0847 0.1553 ( 32476 PWs)   bands (ev):

   -70.0498 -70.0492 -70.0464 -70.0464 -70.0458 -70.0458 -70.0430 -70.0425
   -40.1091 -40.1039 -40.0920 -40.0823 -40.0524 -40.0438 -39.8794 -39.8660
   -36.1860 -36.1820 -36.1700 -36.1691 -36.1686 -36.1686 -36.1382 -36.1374
   -36.1305 -36.1269 -36.1207 -36.1206 -36.1180 -36.1161 -36.1134 -36.1109
   -36.1109 -36.1066 -36.1011 -36.1002 -36.1000 -36.0999 -36.0833 -36.0825
   -16.5221 -16.5211 -16.5087 -16.5082 -16.4797 -16.4470 -16.4439 -16.4385
   -16.4374 -16.3985 -16.3892 -16.3392 -16.3374 -16.3134 -16.2944 -16.2582
   -16.2017 -16.1997 -16.1954 -16.1947 -16.0731 -16.0727 -16.0652 -16.0651
     8.3858   9.7748  11.0117  12.1470  12.6560  12.7741  12.9167  12.9987
    13.1651  13.5506  13.5641  13.5700  13.6719  13.8200  13.8741  13.9454
    14.0576  14.2083  14.4155  14.4230  14.5115  14.5274  14.5352  14.6866
    14.8955  15.0309  15.0611  15.1212  15.2088  15.2690  15.2882  15.3510
    15.4773  15.4922  15.5110  15.5413  15.5720  15.5885  15.6154  15.7138
    15.7168  15.7463  15.7698  15.9306  16.1438  16.1722  16.1878  16.2995
    16.6716  16.9549  17.1648  17.1890  17.2035  17.2396  17.3261  17.3408
    17.3656  17.4055  17.5009  17.5798  17.5966  17.6542  17.8233  17.8816
    17.9502  17.9614  17.9960  18.0377  18.3625  18.4024  18.6516  18.7843

          k = 0.1694-0.0847 0.0776 ( 32476 PWs)   bands (ev):

   -70.0493 -70.0483 -70.0473 -70.0463 -70.0459 -70.0449 -70.0439 -70.0430
   -40.1066 -40.0959 -40.0951 -40.0799 -40.0593 -40.0445 -39.8855 -39.8623
   -36.1823 -36.1772 -36.1714 -36.1713 -36.1622 -36.1608 -36.1440 -36.1426
   -36.1263 -36.1233 -36.1230 -36.1216 -36.1207 -36.1206 -36.1109 -36.1082
   -36.1074 -36.1070 -36.1065 -36.1040 -36.0982 -36.0970 -36.0884 -36.0870
   -16.5323 -16.5211 -16.5014 -16.4605 -16.4536 -16.4404 -16.4373 -16.4297
   -16.4180 -16.3977 -16.3859 -16.3692 -16.2949 -16.2858 -16.2704 -16.2585
   -16.2453 -16.2312 -16.2020 -16.1919 -16.1285 -16.1135 -16.0767 -16.0635
     8.0601  10.4970  10.7863  12.0372  12.6202  12.8593  13.0187  13.0211
    13.3200  13.5411  13.5590  13.7019  13.7304  13.8066  13.9952  14.0211
    14.1774  14.1894  14.4460  14.5594  14.5954  14.6445  14.7243  14.7387
    14.8143  14.9446  15.0276  15.0632  15.0803  15.1254  15.2410  15.3042
    15.3335  15.3665  15.4782  15.5162  15.5765  15.6366  15.6425  15.7207
    15.7239  15.7913  15.8200  15.8772  15.8890  16.0104  16.0762  16.2118
    16.6321  16.9074  17.0114  17.0206  17.0482  17.1499  17.2937  17.3078
    17.3863  17.6026  17.6629  17.6869  17.7060  17.8093  17.8688  17.9582
    18.0017  18.1045  18.1125  18.2268  18.3342  18.4000  18.4721  18.5537

          k =-0.1694-0.0847-0.0776 ( 32476 PWs)   bands (ev):

   -70.0493 -70.0483 -70.0473 -70.0463 -70.0459 -70.0449 -70.0439 -70.0430
   -40.1066 -40.0959 -40.0951 -40.0799 -40.0593 -40.0445 -39.8855 -39.8623
   -36.1823 -36.1772 -36.1714 -36.1713 -36.1622 -36.1608 -36.1440 -36.1426
   -36.1263 -36.1233 -36.1230 -36.1216 -36.1207 -36.1206 -36.1109 -36.1082
   -36.1074 -36.1070 -36.1065 -36.1040 -36.0982 -36.0970 -36.0884 -36.0870
   -16.5323 -16.5211 -16.5014 -16.4605 -16.4536 -16.4404 -16.4373 -16.4297
   -16.4180 -16.3977 -16.3859 -16.3692 -16.2949 -16.2858 -16.2704 -16.2585
   -16.2453 -16.2312 -16.2020 -16.1919 -16.1285 -16.1135 -16.0767 -16.0635
     8.0601  10.4970  10.7863  12.0372  12.6202  12.8593  13.0187  13.0211
    13.3200  13.5411  13.5591  13.7019  13.7304  13.8066  13.9952  14.0211
    14.1774  14.1894  14.4460  14.5594  14.5954  14.6445  14.7243  14.7387
    14.8143  14.9446  15.0276  15.0632  15.0803  15.1254  15.2410  15.3042
    15.3335  15.3665  15.4782  15.5162  15.5765  15.6366  15.6425  15.7207
    15.7239  15.7913  15.8200  15.8772  15.8890  16.0104  16.0762  16.2118
    16.6321  16.9074  17.0114  17.0206  17.0482  17.1499  17.2937  17.3079
    17.3863  17.6026  17.6629  17.6869  17.7061  17.8092  17.8688  17.9582
    18.0017  18.1045  18.1126  18.2267  18.3342  18.4000  18.4721  18.5537

          k = 0.0847-0.0847-0.2329 ( 32474 PWs)   bands (ev):

   -70.0495 -70.0495 -70.0461 -70.0461 -70.0461 -70.0461 -70.0427 -70.0427
   -40.1065 -40.1065 -40.0871 -40.0871 -40.0481 -40.0481 -39.8727 -39.8727
   -36.1840 -36.1840 -36.1693 -36.1693 -36.1689 -36.1689 -36.1378 -36.1378
   -36.1287 -36.1287 -36.1159 -36.1159 -36.1157 -36.1157 -36.1157 -36.1157
   -36.1113 -36.1113 -36.1006 -36.1006 -36.1000 -36.1000 -36.0829 -36.0829
   -16.5153 -16.5153 -16.5146 -16.5146 -16.4429 -16.4429 -16.4407 -16.4407
   -16.4052 -16.4052 -16.3514 -16.3514 -16.3510 -16.3510 -16.2983 -16.2983
   -16.1986 -16.1986 -16.1972 -16.1972 -16.0691 -16.0691 -16.0689 -16.0689
     9.0271   9.0271  11.5388  11.5388  12.7543  12.7543  12.9911  12.9911
    13.5785  13.5785  13.7081  13.7081  13.7326  13.7326  13.8083  13.8083
    13.9104  13.9104  14.4459  14.4459  14.4486  14.4486  14.6788  14.6788
    14.9787  14.9787  15.1213  15.1213  15.1749  15.1749  15.3017  15.3017
    15.4908  15.4908  15.5216  15.5216  15.6038  15.6038  15.6308  15.6308
    15.6843  15.6843  15.7932  15.7932  15.8503  15.8503  16.2246  16.2246
    17.0193  17.0193  17.2404  17.2404  17.3163  17.3163  17.3202  17.3202
    17.3800  17.3800  17.4151  17.4151  17.5620  17.5620  17.8610  17.8610
    17.9997  17.9997  18.0135  18.0135  18.4257  18.4257  18.8001  18.8001

          k =-0.2542-0.0847 0.0776 ( 32474 PWs)   bands (ev):

   -70.0484 -70.0482 -70.0474 -70.0472 -70.0450 -70.0448 -70.0440 -70.0438
   -40.1038 -40.0952 -40.0914 -40.0818 -40.0614 -40.0465 -39.8861 -39.8629
   -36.1764 -36.1762 -36.1739 -36.1736 -36.1531 -36.1521 -36.1517 -36.1507
   -36.1223 -36.1221 -36.1221 -36.1218 -36.1177 -36.1164 -36.1158 -36.1144
   -36.1093 -36.1091 -36.1053 -36.1051 -36.0942 -36.0934 -36.0929 -36.0921
   -16.5305 -16.5179 -16.5001 -16.4567 -16.4385 -16.4298 -16.4181 -16.3844
   -16.3712 -16.3684 -16.3663 -16.3534 -16.3425 -16.3322 -16.2897 -16.2886
   -16.2426 -16.2359 -16.2017 -16.1914 -16.1643 -16.1480 -16.0772 -16.0641
     8.1128  10.5265  10.8794  11.7686  12.6188  12.9200  13.1057  13.2837
    13.5482  13.6408  13.7540  13.7591  13.8278  13.8472  13.9183  13.9293
    13.9364  14.1077  14.1733  14.6786  14.7804  14.8063  14.8230  14.8262
    14.8470  14.8707  14.9303  14.9622  15.2033  15.2038  15.2636  15.2661
    15.2784  15.4209  15.4314  15.4340  15.4553  15.4942  15.5104  15.5707
    15.5949  15.6154  15.6760  15.7127  15.7586  15.8415  16.0636  16.0699
    16.8146  16.9320  16.9440  16.9611  16.9616  17.3402  17.4252  17.5221
    17.5628  17.5726  17.5760  17.5914  17.7190  17.8075  17.9646  18.0537
    18.0686  18.1275  18.1803  18.1934  18.2528  18.2812  18.6063  18.6730

          k = 0.1694-0.0847 0.1553 ( 32434 PWs)   bands (ev):

   -70.0491 -70.0485 -70.0471 -70.0465 -70.0457 -70.0451 -70.0437 -70.0432
   -40.1043 -40.0982 -40.0919 -40.0831 -40.0562 -40.0476 -39.8806 -39.8672
   -36.1812 -36.1783 -36.1713 -36.1713 -36.1619 -36.1611 -36.1437 -36.1429
   -36.1255 -36.1227 -36.1198 -36.1196 -36.1187 -36.1171 -36.1132 -36.1112
   -36.1100 -36.1075 -36.1071 -36.1068 -36.0979 -36.0973 -36.0881 -36.0873
   -16.5168 -16.5055 -16.4762 -16.4563 -16.4502 -16.4444 -16.4408 -16.3989
   -16.3954 -16.3906 -16.3870 -16.3409 -16.3332 -16.3150 -16.2947 -16.2680
   -16.2622 -16.2610 -16.1998 -16.1940 -16.1253 -16.1167 -16.0739 -16.0663
     8.4850   9.8576  11.1051  12.1442  12.2631  12.8633  13.0439  13.2599
    13.2675  13.7057  13.7235  13.8315  13.8373  13.9718  13.9733  14.0312
    14.0671  14.2784  14.3138  14.4914  14.5246  14.5600  14.6510  14.6701
    14.8131  14.9503  14.9769  14.9927  15.0468  15.1493  15.2904  15.3494
    15.3672  15.3685  15.3830  15.4110  15.4363  15.4364  15.4881  15.5447
    15.5557  15.5700  15.5847  15.6515  15.8588  15.9103  15.9247  16.1383
    16.8503  17.1869  17.2495  17.2864  17.3048  17.3189  17.4021  17.4570
    17.4850  17.5651  17.5832  17.6157  17.6474  17.7231  17.7255  17.8755
    17.9682  17.9794  18.1337  18.1430  18.2703  18.2827  18.5621  18.5995

          k = 0.1694-0.1694 0.0776 ( 32434 PWs)   bands (ev):

   -70.0486 -70.0476 -70.0466 -70.0466 -70.0456 -70.0456 -70.0446 -70.0437
   -40.1013 -40.0943 -40.0897 -40.0796 -40.0643 -40.0499 -39.8866 -39.8635
   -36.1766 -36.1730 -36.1661 -36.1646 -36.1639 -36.1627 -36.1484 -36.1475
   -36.1231 -36.1227 -36.1212 -36.1211 -36.1207 -36.1180 -36.1099 -36.1073
   -36.1073 -36.1059 -36.1049 -36.1045 -36.1039 -36.1026 -36.0935 -36.0925
   -16.5294 -16.4579 -16.4529 -16.4378 -16.4373 -16.4262 -16.4202 -16.4087
   -16.3968 -16.3889 -16.3876 -16.3735 -16.2906 -16.2844 -16.2732 -16.2663
   -16.2583 -16.2575 -16.2465 -16.2359 -16.1300 -16.1291 -16.1146 -16.1145
     8.1315  10.5541  11.0240  11.9609  12.4599  12.8738  13.0103  13.0662
    13.5982  13.7225  13.8239  13.8486  13.9112  13.9120  14.0397  14.0618
    14.2541  14.4127  14.4463  14.4883  14.5269  14.6543  14.6785  14.8901
    14.9167  14.9843  14.9854  15.0104  15.0589  15.0659  15.0825  15.1281
    15.1285  15.1416  15.3157  15.3335  15.3493  15.4920  15.5235  15.5526
    15.5907  15.6196  15.6245  15.6629  15.7056  15.7091  15.7798  16.0362
    16.8634  16.9333  16.9953  17.0161  17.0691  17.4752  17.5062  17.5486
    17.5707  17.7529  17.8164  17.8423  17.8634  17.9054  17.9472  18.0174
    18.0635  18.0920  18.1197  18.2243  18.2402  18.2878  18.3736  18.5225

          k =-0.1694-0.1694-0.0776 ( 32434 PWs)   bands (ev):

   -70.0486 -70.0476 -70.0466 -70.0466 -70.0456 -70.0456 -70.0446 -70.0437
   -40.1013 -40.0943 -40.0897 -40.0796 -40.0643 -40.0499 -39.8866 -39.8635
   -36.1766 -36.1730 -36.1660 -36.1646 -36.1638 -36.1627 -36.1484 -36.1475
   -36.1231 -36.1227 -36.1212 -36.1211 -36.1207 -36.1180 -36.1099 -36.1073
   -36.1073 -36.1059 -36.1049 -36.1045 -36.1039 -36.1026 -36.0935 -36.0925
   -16.5294 -16.4579 -16.4529 -16.4378 -16.4373 -16.4262 -16.4202 -16.4087
   -16.3968 -16.3889 -16.3876 -16.3735 -16.2906 -16.2844 -16.2732 -16.2663
   -16.2583 -16.2575 -16.2465 -16.2359 -16.1300 -16.1291 -16.1146 -16.1145
     8.1315  10.5541  11.0240  11.9609  12.4599  12.8738  13.0103  13.0662
    13.5983  13.7225  13.8239  13.8486  13.9112  13.9120  14.0397  14.0618
    14.2541  14.4128  14.4463  14.4884  14.5268  14.6543  14.6784  14.8901
    14.9167  14.9843  14.9854  15.0104  15.0590  15.0659  15.0824  15.1282
    15.1285  15.1416  15.3157  15.3335  15.3493  15.4920  15.5235  15.5525
    15.5907  15.6196  15.6244  15.6629  15.7056  15.7091  15.7798  16.0362
    16.8634  16.9333  16.9953  17.0161  17.0691  17.4752  17.5062  17.5486
    17.5706  17.7529  17.8164  17.8422  17.8634  17.9054  17.9472  18.0174
    18.0635  18.0920  18.1197  18.2243  18.2402  18.2877  18.3736  18.5225

          k = 0.1694-0.0847-0.2329 ( 32462 PWs)   bands (ev):

   -70.0488 -70.0488 -70.0468 -70.0468 -70.0454 -70.0454 -70.0434 -70.0434
   -40.1012 -40.1012 -40.0875 -40.0875 -40.0519 -40.0519 -39.8739 -39.8739
   -36.1798 -36.1798 -36.1713 -36.1713 -36.1615 -36.1615 -36.1433 -36.1433
   -36.1241 -36.1241 -36.1161 -36.1161 -36.1154 -36.1154 -36.1148 -36.1148
   -36.1123 -36.1123 -36.1069 -36.1069 -36.0976 -36.0976 -36.0877 -36.0877
   -16.5111 -16.5111 -16.4506 -16.4506 -16.4456 -16.4456 -16.4008 -16.4008
   -16.3912 -16.3912 -16.3563 -16.3563 -16.3476 -16.3476 -16.3019 -16.3019
   -16.2644 -16.2644 -16.1969 -16.1969 -16.1210 -16.1210 -16.0701 -16.0701
     9.1229   9.1229  11.5879  11.5879  12.5715  12.5715  13.2066  13.2066
    13.6333  13.6333  13.8788  13.8788  13.8994  13.8994  13.9967  13.9967
    14.0688  14.0688  14.4224  14.4224  14.5510  14.5510  14.6663  14.6663
    14.7460  14.7460  14.9485  14.9485  15.2196  15.2196  15.2355  15.2355
    15.2938  15.2938  15.3279  15.3279  15.4431  15.4431  15.4799  15.4799
    15.5582  15.5582  15.6170  15.6170  15.6451  15.6451  16.0629  16.0629
    17.0871  17.0871  17.4220  17.4220  17.4388  17.4388  17.4480  17.4480
    17.4714  17.4714  17.5821  17.5821  17.7378  17.7378  17.7743  17.7743
    17.8414  17.8414  18.0958  18.0958  18.2660  18.2660  18.7010  18.7010

          k =-0.2542-0.1694 0.0776 ( 32462 PWs)   bands (ev):

   -70.0477 -70.0475 -70.0467 -70.0465 -70.0457 -70.0455 -70.0447 -70.0446
   -40.0978 -40.0942 -40.0848 -40.0807 -40.0674 -40.0532 -39.8872 -39.8641
   -36.1700 -36.1697 -36.1685 -36.1682 -36.1561 -36.1557 -36.1551 -36.1549
   -36.1221 -36.1220 -36.1220 -36.1217 -36.1138 -36.1129 -36.1126 -36.1114
   -36.1086 -36.1083 -36.1062 -36.1060 -36.0996 -36.0994 -36.0989 -36.0984
   -16.5279 -16.4526 -16.4360 -16.4249 -16.4208 -16.4068 -16.3896 -16.3763
   -16.3761 -16.3670 -16.3607 -16.3526 -16.3496 -16.3379 -16.2860 -16.2856
   -16.2693 -16.2576 -16.2464 -16.2390 -16.1655 -16.1489 -16.1302 -16.1151
     8.1687  10.5835  11.2374  11.7525  12.3775  12.9466  13.0068  13.2966
    13.7207  13.8381  13.9128  13.9193  13.9207  13.9448  14.1661  14.1843
    14.1854  14.2152  14.2853  14.7046  14.7707  14.7909  14.8092  14.8452
    14.8601  14.8684  14.8761  14.9035  14.9192  15.0449  15.0505  15.0532
    15.1855  15.1951  15.2099  15.2768  15.3244  15.3249  15.3340  15.3476
    15.4780  15.4831  15.4903  15.5290  15.6378  15.6504  15.8848  15.8951
    16.9489  16.9872  16.9908  17.0186  17.0498  17.5821  17.6496  17.7544
    17.7791  17.7976  17.8188  17.8470  17.8659  17.9326  17.9935  18.0303
    18.0872  18.1088  18.1296  18.1575  18.2846  18.3425  18.3930  18.4421

          k =-0.0847-0.2542 0.1553 ( 32462 PWs)   bands (ev):

   -70.0482 -70.0480 -70.0476 -70.0474 -70.0448 -70.0446 -70.0442 -70.0440
   -40.1012 -40.0941 -40.0924 -40.0847 -40.0583 -40.0497 -39.8812 -39.8678
   -36.1759 -36.1757 -36.1744 -36.1741 -36.1528 -36.1520 -36.1518 -36.1510
   -36.1205 -36.1201 -36.1185 -36.1183 -36.1168 -36.1163 -36.1156 -36.1152
   -36.1114 -36.1110 -36.1089 -36.1087 -36.0939 -36.0932 -36.0932 -36.0924
   -16.5142 -16.5039 -16.4741 -16.4529 -16.4423 -16.4007 -16.3887 -16.3813
   -16.3694 -16.3656 -16.3563 -16.3427 -16.3404 -16.3344 -16.3270 -16.3184
   -16.2939 -16.2648 -16.1995 -16.1936 -16.1608 -16.1515 -16.0744 -16.0669
     8.5380   9.9014  11.1686  12.0568  12.1260  12.9468  13.1640  13.3176
    13.6140  13.7028  13.8161  13.8981  13.9431  13.9488  13.9660  14.0472
    14.1121  14.1492  14.2570  14.6113  14.7198  14.7259  14.7290  14.7430
    14.7450  14.7775  14.7927  14.8291  15.0734  15.0807  15.2029  15.2500
    15.2642  15.2750  15.3279  15.3675  15.3695  15.3755  15.4344  15.4372
    15.4999  15.5268  15.5741  15.6213  15.6649  15.6679  15.9938  16.0121
    16.9704  17.2111  17.2742  17.3029  17.3039  17.3781  17.5053  17.5648
    17.5787  17.5828  17.5921  17.6378  17.7369  17.7532  17.8234  17.8276
    17.9270  17.9735  18.1595  18.1793  18.2026  18.2060  18.5082  18.6008

          k =-0.2542 0.2542 0.0776 ( 32460 PWs)   bands (ev):

   -70.0468 -70.0466 -70.0466 -70.0464 -70.0458 -70.0456 -70.0456 -70.0455
   -40.0937 -40.0937 -40.0801 -40.0801 -40.0716 -40.0580 -39.8877 -39.8647
   -36.1636 -36.1636 -36.1630 -36.1619 -36.1615 -36.1615 -36.1597 -36.1584
   -36.1220 -36.1220 -36.1220 -36.1217 -36.1095 -36.1076 -36.1075 -36.1075
   -36.1074 -36.1073 -36.1071 -36.1070 -36.1070 -36.1052 -36.1039 -36.1039
   -16.5266 -16.4221 -16.4221 -16.3790 -16.3789 -16.3747 -16.3623 -16.3580
   -16.3574 -16.3567 -16.3567 -16.3554 -16.3530 -16.3514 -16.3423 -16.3423
   -16.2839 -16.2839 -16.2486 -16.2408 -16.1661 -16.1661 -16.1493 -16.1493
     8.1975  10.6128  11.7422  11.7423  11.8001  12.9636  13.3160  13.3161
    13.4902  13.9540  13.9591  13.9591  14.0915  14.2128  14.2129  14.2677
    14.5127  14.5127  14.5407  14.5657  14.5849  14.6075  14.6076  14.6497
    14.7234  14.8700  14.8700  14.8936  14.9322  14.9681  14.9681  15.0079
    15.0280  15.0747  15.0747  15.0768  15.3319  15.3334  15.3334  15.3416
    15.4488  15.4488  15.5500  15.5679  15.5852  15.6030  15.6235  15.6235
    16.9578  17.0348  17.0348  17.0563  17.0743  17.7562  17.7562  17.7885
    17.8522  18.0018  18.0018  18.0376  18.0519  18.0624  18.0624  18.0661
    18.1340  18.1373  18.1373  18.1991  18.3106  18.3365  18.3477  18.3478

          k = 0.1694-0.1694 0.1553 ( 32390 PWs)   bands (ev):

   -70.0484 -70.0478 -70.0464 -70.0464 -70.0458 -70.0458 -70.0444 -70.0439
   -40.0989 -40.0922 -40.0912 -40.0827 -40.0613 -40.0530 -39.8817 -39.8684
   -36.1758 -36.1738 -36.1656 -36.1643 -36.1642 -36.1631 -36.1483 -36.1478
   -36.1215 -36.1194 -36.1189 -36.1189 -36.1184 -36.1177 -36.1125 -36.1106
   -36.1103 -36.1083 -36.1055 -36.1043 -36.1039 -36.1027 -36.0933 -36.0927
   -16.4727 -16.4536 -16.4495 -16.4418 -16.4406 -16.4046 -16.3958 -16.3950
   -16.3930 -16.3927 -16.3885 -16.3450 -16.3269 -16.3132 -16.2991 -16.2705
   -16.2656 -16.2644 -16.2614 -16.2594 -16.1268 -16.1261 -16.1179 -16.1177
     8.5583   9.9273  11.3350  12.2033  12.3660  12.7231  12.8583  13.2615
    13.4238  13.9096  13.9270  13.9957  14.0162  14.0281  14.1353  14.2766
    14.2908  14.3196  14.3576  14.3629  14.5233  14.6302  14.6370  14.8265
    14.8331  14.8826  14.9763  15.0152  15.0510  15.0521  15.0916  15.1015
    15.1256  15.1802  15.2024  15.2384  15.2439  15.2454  15.3151  15.3524
    15.3790  15.4171  15.4378  15.5161  15.5362  15.5606  15.5844  15.9351
    17.0079  17.2097  17.3253  17.3755  17.4094  17.5533  17.6283  17.6452
    17.6654  17.6826  17.7700  17.7867  17.9180  17.9444  17.9452  18.0054
    18.0134  18.0503  18.1175  18.2166  18.2513  18.3137  18.5305  18.5941

          k = 0.1694-0.1694-0.2329 ( 32458 PWs)   bands (ev):

   -70.0481 -70.0481 -70.0461 -70.0461 -70.0461 -70.0461 -70.0441 -70.0441
   -40.0955 -40.0955 -40.0870 -40.0870 -40.0571 -40.0571 -39.8751 -39.8751
   -36.1748 -36.1748 -36.1650 -36.1650 -36.1637 -36.1637 -36.1480 -36.1480
   -36.1201 -36.1201 -36.1158 -36.1158 -36.1150 -36.1150 -36.1145 -36.1145
   -36.1130 -36.1130 -36.1049 -36.1049 -36.1032 -36.1032 -36.0930 -36.0930
   -16.4479 -16.4479 -16.4450 -16.4450 -16.4010 -16.4010 -16.3929 -16.3929
   -16.3924 -16.3924 -16.3526 -16.3526 -16.3525 -16.3525 -16.3058 -16.3058
   -16.2656 -16.2656 -16.2619 -16.2619 -16.1223 -16.1223 -16.1219 -16.1219
     9.1970   9.1970  11.8088  11.8088  12.5377  12.5377  13.0884  13.0884
    13.6262  13.6262  14.1415  14.1415  14.1621  14.1621  14.1686  14.1686
    14.1948  14.1948  14.4234  14.4234  14.6217  14.6217  14.6588  14.6588
    14.7082  14.7082  14.9786  14.9786  15.0870  15.0870  15.0965  15.0965
    15.1191  15.1191  15.1860  15.1860  15.2330  15.2330  15.2627  15.2627
    15.3359  15.3359  15.3449  15.3449  15.4594  15.4594  15.7230  15.7230
    17.1668  17.1668  17.5516  17.5516  17.5992  17.5992  17.6304  17.6304
    17.6639  17.6639  17.8243  17.8243  17.8625  17.8625  17.9914  17.9914
    18.0107  18.0107  18.1015  18.1015  18.4046  18.4046  18.7419  18.7419

          k =-0.2542-0.1694 0.1553 ( 32458 PWs)   bands (ev):

   -70.0475 -70.0473 -70.0469 -70.0467 -70.0455 -70.0453 -70.0449 -70.0448
   -40.0951 -40.0913 -40.0876 -40.0835 -40.0644 -40.0562 -39.8823 -39.8690
   -36.1696 -36.1693 -36.1688 -36.1684 -36.1561 -36.1559 -36.1551 -36.1550
   -36.1195 -36.1194 -36.1187 -36.1184 -36.1137 -36.1132 -36.1127 -36.1119
   -36.1108 -36.1101 -36.1095 -36.1092 -36.0996 -36.0995 -36.0988 -36.0986
   -16.4708 -16.4490 -16.4395 -16.4031 -16.3959 -16.3936 -16.3911 -16.3734
   -16.3642 -16.3638 -16.3560 -16.3473 -16.3468 -16.3404 -16.3204 -16.3152
   -16.3008 -16.2689 -16.2662 -16.2600 -16.1620 -16.1524 -16.1270 -16.1183
     8.5965   9.9637  11.5282  12.0396  12.4786  12.6573  12.9327  13.2574
    13.4734  13.8450  14.0856  14.1088  14.1292  14.1460  14.2359  14.2412
    14.2503  14.3426  14.3588  14.6610  14.6968  14.7192  14.7731  14.7841
    14.8269  14.8272  14.8304  14.8397  14.9283  14.9422  15.0354  15.0441
    15.0760  15.1031  15.1463  15.1648  15.1789  15.1817  15.2189  15.2701
    15.2715  15.2780  15.2894  15.3411  15.4460  15.4708  15.6521  15.6714
    17.0922  17.2158  17.3789  17.4126  17.4693  17.6732  17.7693  17.7717
    17.7836  17.7941  17.8364  17.8782  17.9133  17.9377  17.9842  18.0041
    18.0706  18.1352  18.2331  18.2929  18.3397  18.3674  18.4608  18.5621

          k =-0.2542 0.2542 0.1553 ( 32460 PWs)   bands (ev):

   -70.0466 -70.0464 -70.0464 -70.0462 -70.0460 -70.0458 -70.0458 -70.0457
   -40.0908 -40.0908 -40.0830 -40.0830 -40.0687 -40.0609 -39.8829 -39.8696
   -36.1631 -36.1631 -36.1624 -36.1619 -36.1619 -36.1612 -36.1605 -36.1592
   -36.1191 -36.1191 -36.1189 -36.1186 -36.1108 -36.1108 -36.1106 -36.1102
   -36.1091 -36.1079 -36.1069 -36.1063 -36.1063 -36.1056 -36.1044 -36.1044
   -16.4691 -16.3933 -16.3933 -16.3746 -16.3703 -16.3618 -16.3609 -16.3591
   -16.3569 -16.3566 -16.3538 -16.3538 -16.3528 -16.3485 -16.3452 -16.3452
   -16.3132 -16.3132 -16.3082 -16.2701 -16.1626 -16.1626 -16.1529 -16.1529
     8.6266   9.9958  12.0292  12.0293  12.0948  12.9317  12.9317  13.0462
    13.2289  13.9865  14.1713  14.1748  14.1748  14.4075  14.4075  14.5194
    14.5310  14.5310  14.5695  14.6177  14.6226  14.6226  14.6341  14.6844
    14.6994  14.8793  14.8793  14.9104  14.9355  14.9355  14.9433  14.9455
    14.9542  14.9543  14.9778  15.0000  15.0890  15.0890  15.1021  15.1165
    15.2296  15.2297  15.2833  15.3128  15.3547  15.3582  15.3582  15.3741
    17.1543  17.2223  17.4797  17.4797  17.5055  17.8608  17.8608  17.8800
    17.9502  17.9595  17.9595  17.9835  18.0230  18.0264  18.0264  18.1040
    18.1274  18.1508  18.3820  18.3820  18.4442  18.4897  18.4897  18.5390

     the Fermi energy is    16.7941 ev

!    total energy              =   -3590.79948526 Ry
     estimated scf accuracy    <          7.8E-11 Ry
     smearing contrib. (-TS)   =       0.00022587 Ry
     internal energy E=F+TS    =   -3590.79971113 Ry

     The total energy is F=E-TS. E is the sum of the following terms:
     one-electron contribution =   -1257.86174697 Ry
     hartree contribution      =     750.89490301 Ry
     xc contribution           =    -424.35231969 Ry
     ewald contribution        =   -2050.26493764 Ry
     one-center paw contrib.   =    -609.21560983 Ry

     convergence has been achieved in  20 iterations

     negative rho (up, down):  7.620E-03 0.000E+00

     Forces acting on atoms (cartesian axes, Ry/au):

     atom    1 type  1   force =    -0.00000313   -0.00000313   -0.00000000
     atom    2 type  1   force =     0.00000316    0.00000316    0.00000000
     atom    3 type  1   force =     0.00000278   -0.00000236    0.00000000
     atom    4 type  1   force =    -0.00000201    0.00000192   -0.00000000
     atom    5 type  1   force =    -0.00000373   -0.00000373   -0.00000000
     atom    6 type  1   force =     0.00000223    0.00000223    0.00000000
     atom    7 type  1   force =     0.00000192   -0.00000201    0.00000000
     atom    8 type  1   force =    -0.00000236    0.00000278   -0.00000000
     atom    9 type  2   force =    -0.00000014   -0.00000014   -0.00000017
     atom   10 type  2   force =     0.00000036    0.00000036   -0.00000030
     atom   11 type  2   force =     0.00000033   -0.00000014   -0.00000025
     atom   12 type  2   force =    -0.00000014    0.00000033    0.00000025
     atom   13 type  2   force =    -0.00000014   -0.00000014    0.00000017
     atom   14 type  2   force =     0.00000036    0.00000036    0.00000030
     atom   15 type  2   force =     0.00000033   -0.00000014    0.00000025
     atom   16 type  2   force =    -0.00000014    0.00000033   -0.00000025
     atom   17 type  3   force =     0.00000027    0.00000027    0.00000000
     atom   18 type  3   force =     0.00000005    0.00000005    0.00000000

     Total force =     0.000011     Total SCF correction =     0.000017
     SCF correction compared to forces is large: reduce conv_thr to get better values


     Computing stress (Cartesian axis) and pressure


     negative rho (up, down):  7.620E-03 0.000E+00
          total   stress  (Ry/bohr**3)                   (kbar)     P=       -0.06
  -0.00000037   0.00000000   0.00000000           -0.05        0.00        0.00
   0.00000000  -0.00000037  -0.00000000            0.00       -0.05       -0.00
  -0.00000000   0.00000000  -0.00000043           -0.00        0.00       -0.06

     Energy error            =      2.8E-06 Ry
     Gradient error          =      3.7E-06 Ry/Bohr
     Cell gradient error     =      6.4E-02 kbar

     bfgs converged in   9 scf cycles and   8 bfgs steps
     (criteria: energy <  1.0E-04 Ry, force <  1.0E-03 Ry/Bohr, cell <  1.0E-01 kbar)

     End of BFGS Geometry Optimization

     Final enthalpy           =   -3590.7994852627 Ry

     File ./TiFeH_supercell.bfgs deleted, as requested
Begin final coordinates
     new unit-cell volume =   1445.07985 a.u.^3 (   214.13874 Ang^3 )
     density =      6.44951 g/cm^3

CELL_PARAMETERS (alat=  5.58242261)
   1.967215023  -0.000008468  -0.000000000
  -0.000008468   1.967215023   0.000000000
  -0.000000000   0.000000000   2.146446407

ATOMIC_POSITIONS (crystal)
Fe              -0.0010228666       -0.0010228666        0.0000000000
Fe               0.5010227331        0.5010227331        0.0000000000
Fe               0.5010228837       -0.0010231170        0.0000000000
Fe              -0.0010229600        0.5010230690        0.5000000000
Fe              -0.0010224092       -0.0010224092        0.5000000000
Fe               0.5010226775        0.5010226775        0.5000000000
Fe               0.5010230690       -0.0010229600        0.5000000000
Fe              -0.0010231170        0.5010228837        0.0000000000
Ti               0.2499999728        0.2499999728        0.2499999580
Ti               0.7499999746        0.7499999746        0.2500000038
Ti               0.7499999451        0.2500000143        0.2499999643
Ti               0.2500000143        0.7499999451        0.7500000357
Ti               0.2499999728        0.2499999728        0.7500000420
Ti               0.7499999746        0.7499999746        0.7499999962
Ti               0.7499999451        0.2500000143        0.7500000357
Ti               0.2500000143        0.7499999451        0.2499999643
H                0.2500001558        0.2500001558        0.0000000000
H                0.2500000203        0.2500000203        0.5000000000
End final coordinates



     Writing config-only to output data dir ./TiFeH_supercell.save/ :
     XML data file
     Final scf calculation at the relaxed structure.
     The G-vectors are recalculated for the final unit cell
     Results may differ from those at the preceding step.

     Parallelization info
     --------------------
     sticks:   dense  smooth     PW     G-vecs:    dense   smooth      PW
     Min        1040     296     81               110312    16849    2393
     Max        1041     298     82               110315    16852    2396
     Sum       16645    4749   1305              1765007   269609   38309

     Using Slab Decomposition



     bravais-lattice index     =            0
     lattice parameter (alat)  =       5.5824  a.u.
     unit-cell volume          =    1445.0799 (a.u.)^3
     number of atoms/cell      =           18
     number of atomic types    =            3
     number of electrons       =       226.00
     number of Kohn-Sham states=          136
     kinetic-energy cutoff     =     124.0000  Ry
     charge density cutoff     =    1736.0000  Ry
     scf convergence threshold =      1.0E-10
     mixing beta               =       0.7000
     number of iterations used =            8  plain     mixing
     press convergence thresh. =      1.0E-01
     Exchange-correlation= PBE
                           (   1   4   3   4   0   0   0)

     celldm(1)=   5.582423  celldm(2)=   0.000000  celldm(3)=   0.000000
     celldm(4)=   0.000000  celldm(5)=   0.000000  celldm(6)=   0.000000

     crystal axes: (cart. coord. in units of alat)
               a(1) = (   1.967215  -0.000008  -0.000000 )  
               a(2) = (  -0.000008   1.967215   0.000000 )  
               a(3) = (  -0.000000   0.000000   2.146446 )  

     reciprocal axes: (cart. coord. in units 2 pi/alat)
               b(1) = (  0.508333  0.000002  0.000000 )  
               b(2) = (  0.000002  0.508333 -0.000000 )  
               b(3) = (  0.000000 -0.000000  0.465886 )  


     PseudoPot. # 1 for Fe read from file:
     ../../../../pseudos/Fe.pbe-spn-kjpaw_psl.0.2.1.UPF
     MD5 check sum: e86618425769142926afa95317d90200
     Pseudo is Projector augmented-wave + core cor, Zval = 16.0
     Generated using "atomic" code by A. Dal Corso  v.5.0.99 svn rev. 10869
     Shape of augmentation charge: PSQ
     Using radial grid of 1191 points,  6 beta functions with: 
                l(1) =   0
                l(2) =   0
                l(3) =   1
                l(4) =   1
                l(5) =   2
                l(6) =   2
     Q(r) pseudized with 0 coefficients 


     PseudoPot. # 2 for Ti read from file:
     ../../../../pseudos/ti_pbe_v1.4.uspp.F.UPF
     MD5 check sum: 88a00a6731bd790ddea75d31a80cb452
     Pseudo is Ultrasoft + core correction, Zval = 12.0
     Generated by new atomic code, or converted to UPF format
     Using radial grid of  851 points,  6 beta functions with: 
                l(1) =   0
                l(2) =   0
                l(3) =   1
                l(4) =   1
                l(5) =   2
                l(6) =   2
     Q(r) pseudized with  6 coefficients,  rinner =    1.000   1.000   1.000
                                                       1.000   1.000

     PseudoPot. # 3 for H  read from file:
     ../../../../pseudos/H.pbe-rrkjus_psl.1.0.0.UPF
     MD5 check sum: f52b6d4d1c606e5624b1dc7b2218f220
     Pseudo is Ultrasoft, Zval =  1.0
     Generated using "atomic" code by A. Dal Corso  v.5.1
     Using radial grid of  929 points,  2 beta functions with: 
                l(1) =   0
                l(2) =   0
     Q(r) pseudized with 0 coefficients 


     atomic species   valence    mass     pseudopotential
     Fe               16.00    55.84500     Fe( 1.00)
     Ti               12.00    47.86700     Ti( 1.00)
     H                 1.00     1.00784     H ( 1.00)

      4 Sym. Ops. (no inversion) found



   Cartesian axes

     site n.     atom                  positions (alat units)
         1        Fe     tau(   1) = (  -0.0020122  -0.0020122  -0.0000000  )
         2        Fe     tau(   2) = (   0.9856152   0.9856152   0.0000000  )
         3        Fe     tau(   3) = (   0.9856198  -0.0020169  -0.0000000  )
         4        Fe     tau(   4) = (  -0.0020166   0.9856201   1.0732232  )
         5        Fe     tau(   5) = (  -0.0020113  -0.0020113   1.0732232  )
         6        Fe     tau(   6) = (   0.9856151   0.9856151   1.0732232  )
         7        Fe     tau(   7) = (   0.9856201  -0.0020166   1.0732232  )
         8        Fe     tau(   8) = (  -0.0020169   0.9856198   0.0000000  )
         9        Ti     tau(   9) = (   0.4918016   0.4918016   0.5366115  )
        10        Ti     tau(  10) = (   1.4754049   1.4754049   0.5366116  )
        11        Ti     tau(  11) = (   1.4754090   0.4917974   0.5366115  )
        12        Ti     tau(  12) = (   0.4917974   1.4754090   1.6098349  )
        13        Ti     tau(  13) = (   0.4918016   0.4918016   1.6098349  )
        14        Ti     tau(  14) = (   1.4754049   1.4754049   1.6098348  )
        15        Ti     tau(  15) = (   1.4754090   0.4917974   1.6098349  )
        16        Ti     tau(  16) = (   0.4917974   1.4754090   0.5366115  )
        17        H      tau(  17) = (   0.4918019   0.4918019   0.0000000  )
        18        H      tau(  18) = (   0.4918017   0.4918017   1.0732232  )

     number of k points=    52  Marzari-Vanderbilt smearing, width (Ry)=  0.0050
                       cart. coord. in units 2pi/alat
        k(    1) = (   0.0000000   0.0000000   0.0000000), wk =   0.0092593
        k(    2) = (   0.0000000  -0.0000000   0.0776477), wk =   0.0185185
        k(    3) = (   0.0000000  -0.0000000   0.1552954), wk =   0.0185185
        k(    4) = (  -0.0000000   0.0000000  -0.2329432), wk =   0.0092593
        k(    5) = (   0.0000004   0.0847221   0.0776477), wk =   0.0740741
        k(    6) = (   0.0000004   0.0847221   0.1552954), wk =   0.0740741
        k(    7) = (   0.0000004   0.0847221  -0.2329432), wk =   0.0370370
        k(    8) = (   0.0000007   0.1694443   0.1552954), wk =   0.0740741
        k(    9) = (   0.0000007   0.1694443  -0.2329432), wk =   0.0370370
        k(   10) = (  -0.0000011  -0.2541664  -0.2329432), wk =   0.0185185
        k(   11) = (   0.0847225   0.0847225   0.0776477), wk =   0.0370370
        k(   12) = (   0.0847225   0.0847225   0.1552954), wk =   0.0370370
        k(   13) = (   0.0847225   0.0847225  -0.2329432), wk =   0.0185185
        k(   14) = (   0.0847229   0.1694446   0.1552954), wk =   0.0740741
        k(   15) = (   0.0847229   0.1694446  -0.2329432), wk =   0.0370370
        k(   16) = (   0.0847210  -0.2541661  -0.2329432), wk =   0.0370370
        k(   17) = (   0.1694450   0.1694450   0.1552954), wk =   0.0370370
        k(   18) = (   0.1694450   0.1694450  -0.2329432), wk =   0.0185185
        k(   19) = (   0.1694432  -0.2541657  -0.2329432), wk =   0.0370370
        k(   20) = (  -0.2541675  -0.2541675  -0.2329432), wk =   0.0092593
        k(   21) = (   0.0847221   0.0000004   0.0000000), wk =   0.0370370
        k(   22) = (   0.1694443   0.0000007   0.0000000), wk =   0.0370370
        k(   23) = (  -0.2541664  -0.0000011  -0.0000000), wk =   0.0185185
        k(   24) = (   0.0847218  -0.0847218   0.0000000), wk =   0.0185185
        k(   25) = (  -0.0847225  -0.0847225  -0.0000000), wk =   0.0185185
        k(   26) = (   0.1694439  -0.0847214   0.0000000), wk =   0.0370370
        k(   27) = (  -0.1694446  -0.0847229  -0.0000000), wk =   0.0370370
        k(   28) = (   0.0000007   0.1694443   0.0776477), wk =   0.0740741
        k(   29) = (  -0.2541668  -0.0847232  -0.0000000), wk =   0.0370370
        k(   30) = (  -0.0000011  -0.2541664   0.0776477), wk =   0.0370370
        k(   31) = (   0.1694436  -0.1694436   0.0000000), wk =   0.0185185
        k(   32) = (  -0.1694450  -0.1694450  -0.0000000), wk =   0.0185185
        k(   33) = (  -0.2541671  -0.1694454  -0.0000000), wk =   0.0370370
        k(   34) = (  -0.0000011  -0.2541664   0.1552954), wk =   0.0370370
        k(   35) = (  -0.2541653   0.2541653  -0.0000000), wk =   0.0092593
        k(   36) = (   0.0847218  -0.0847218   0.0776477), wk =   0.0370370
        k(   37) = (   0.0847218  -0.0847218   0.1552954), wk =   0.0370370
        k(   38) = (   0.1694439  -0.0847214   0.0776477), wk =   0.0740741
        k(   39) = (  -0.1694446  -0.0847229  -0.0776477), wk =   0.0740741
        k(   40) = (   0.0847218  -0.0847218  -0.2329432), wk =   0.0185185
        k(   41) = (  -0.2541668  -0.0847232   0.0776477), wk =   0.0740741
        k(   42) = (   0.1694439  -0.0847214   0.1552954), wk =   0.0740741
        k(   43) = (   0.1694436  -0.1694436   0.0776477), wk =   0.0370370
        k(   44) = (  -0.1694450  -0.1694450  -0.0776477), wk =   0.0370370
        k(   45) = (   0.1694439  -0.0847214  -0.2329432), wk =   0.0370370
        k(   46) = (  -0.2541671  -0.1694454   0.0776477), wk =   0.0740741
        k(   47) = (  -0.0847232  -0.2541668   0.1552954), wk =   0.0740741
        k(   48) = (  -0.2541653   0.2541653   0.0776477), wk =   0.0185185
        k(   49) = (   0.1694436  -0.1694436   0.1552954), wk =   0.0370370
        k(   50) = (   0.1694436  -0.1694436  -0.2329432), wk =   0.0185185
        k(   51) = (  -0.2541671  -0.1694454   0.1552954), wk =   0.0740741
        k(   52) = (  -0.2541653   0.2541653   0.1552954), wk =   0.0185185

     Dense  grid:  1765007 G-vectors     FFT dimensions: ( 150, 150, 160)

     Smooth grid:   269609 G-vectors     FFT dimensions: (  80,  80,  90)

     Estimated max dynamical RAM per process >     681.82 MB

     Estimated total dynamical RAM >      10.65 GB

     Check: negative core charge=   -0.000001

     Initial potential from superposition of free atoms

     starting charge     217.9961, renormalised to     226.0000

     negative rho (up, down):  1.098E-02 0.000E+00
     Starting wfcs are  186 randomized atomic wfcs
     Checking if some PAW data can be deallocated... 

     total cpu time spent up to now is    13582.8 secs

     per-process dynamical memory:   438.0 Mb

     Self-consistent Calculation

     iteration #  1     ecut=   124.00 Ry     beta= 0.70
     Davidson diagonalization with overlap
     c_bands:  4 eigenvalues not converged
     c_bands:  1 eigenvalues not converged
     c_bands:  1 eigenvalues not converged
     c_bands:  2 eigenvalues not converged
     c_bands:  3 eigenvalues not converged
     c_bands:  3 eigenvalues not converged
     c_bands:  5 eigenvalues not converged
     c_bands:  2 eigenvalues not converged
     c_bands:  4 eigenvalues not converged
     c_bands:  1 eigenvalues not converged
     c_bands:  5 eigenvalues not converged
     c_bands:  2 eigenvalues not converged
     c_bands:  2 eigenvalues not converged
     c_bands:  5 eigenvalues not converged
     c_bands:  5 eigenvalues not converged
     c_bands:  5 eigenvalues not converged
     c_bands:  1 eigenvalues not converged
     c_bands:  3 eigenvalues not converged
     c_bands:  4 eigenvalues not converged
     c_bands:  3 eigenvalues not converged
     c_bands:  1 eigenvalues not converged
     c_bands:  2 eigenvalues not converged
     c_bands:  4 eigenvalues not converged
     c_bands:  2 eigenvalues not converged
     c_bands:  2 eigenvalues not converged
     c_bands:  2 eigenvalues not converged
     c_bands:  4 eigenvalues not converged
     c_bands:  2 eigenvalues not converged
     c_bands:  2 eigenvalues not converged
     ethr =  1.00E-06,  avg # of iterations = 23.5

     negative rho (up, down):  8.218E-04 0.000E+00

     total cpu time spent up to now is    13885.2 secs

     total energy              =   -3470.42497951 Ry
     estimated scf accuracy    <     153.09446762 Ry

     iteration #  2     ecut=   124.00 Ry     beta= 0.70
     Davidson diagonalization with overlap
     ethr =  1.00E-02,  avg # of iterations =  7.2

     negative rho (up, down):  3.155E-04 0.000E+00

     total cpu time spent up to now is    13990.2 secs

     total energy              =   -3587.11961514 Ry
     estimated scf accuracy    <     586.46722563 Ry

     iteration #  3     ecut=   124.00 Ry     beta= 0.70
     Davidson diagonalization with overlap
     ethr =  1.00E-02,  avg # of iterations =  3.1

     negative rho (up, down):  1.333E-03 0.000E+00

     total cpu time spent up to now is    14052.8 secs

     total energy              =   -3598.98653006 Ry
     estimated scf accuracy    <     147.57921995 Ry

     iteration #  4     ecut=   124.00 Ry     beta= 0.70
     Davidson diagonalization with overlap
     ethr =  1.00E-02,  avg # of iterations =  2.1

     negative rho (up, down):  2.404E-03 0.000E+00

     total cpu time spent up to now is    14100.4 secs

     total energy              =   -3593.85988118 Ry
     estimated scf accuracy    <      75.70987601 Ry

     iteration #  5     ecut=   124.00 Ry     beta= 0.70
     Davidson diagonalization with overlap
     ethr =  1.00E-02,  avg # of iterations =  1.5

     negative rho (up, down):  2.354E-03 0.000E+00

     total cpu time spent up to now is    14140.3 secs

     total energy              =   -3594.86968303 Ry
     estimated scf accuracy    <      39.30860215 Ry

     iteration #  6     ecut=   124.00 Ry     beta= 0.70
     Davidson diagonalization with overlap
     ethr =  1.00E-02,  avg # of iterations =  1.0

     negative rho (up, down):  2.309E-03 0.000E+00

     total cpu time spent up to now is    14177.9 secs

     total energy              =   -3595.26746179 Ry
     estimated scf accuracy    <      38.28477429 Ry

     iteration #  7     ecut=   124.00 Ry     beta= 0.70
     Davidson diagonalization with overlap
     ethr =  1.00E-02,  avg # of iterations =  1.0

     negative rho (up, down):  2.280E-03 0.000E+00

     total cpu time spent up to now is    14215.7 secs

     total energy              =   -3595.56311867 Ry
     estimated scf accuracy    <      38.43149646 Ry

     iteration #  8     ecut=   124.00 Ry     beta= 0.70
     Davidson diagonalization with overlap
     ethr =  1.00E-02,  avg # of iterations =  1.0

     negative rho (up, down):  3.649E-03 0.000E+00

     total cpu time spent up to now is    14253.0 secs

     total energy              =   -3591.60633257 Ry
     estimated scf accuracy    <      39.90397869 Ry

     iteration #  9     ecut=   124.00 Ry     beta= 0.70
     Davidson diagonalization with overlap
     ethr =  1.00E-02,  avg # of iterations =  1.9

     negative rho (up, down):  4.616E-03 0.000E+00

     total cpu time spent up to now is    14294.2 secs

     total energy              =   -3590.63984689 Ry
     estimated scf accuracy    <      16.51844124 Ry

     iteration # 10     ecut=   124.00 Ry     beta= 0.70
     Davidson diagonalization with overlap
     ethr =  7.31E-03,  avg # of iterations =  1.4

     negative rho (up, down):  1.332E-02 0.000E+00

     total cpu time spent up to now is    14333.9 secs

     total energy              =   -3590.08798997 Ry
     estimated scf accuracy    <       5.49800566 Ry

     iteration # 11     ecut=   124.00 Ry     beta= 0.70
     Davidson diagonalization with overlap
     ethr =  2.43E-03,  avg # of iterations =  7.4

     negative rho (up, down):  8.608E-03 0.000E+00

     total cpu time spent up to now is    14418.9 secs

     total energy              =   -3594.57993826 Ry
     estimated scf accuracy    <     260.67165448 Ry

     iteration # 12     ecut=   124.00 Ry     beta= 0.70
     Davidson diagonalization with overlap
     ethr =  2.43E-03,  avg # of iterations =  4.4

     negative rho (up, down):  4.602E-03 0.000E+00

     total cpu time spent up to now is    14471.2 secs

     total energy              =   -3581.76438070 Ry
     estimated scf accuracy    <     123.73829214 Ry

     iteration # 13     ecut=   124.00 Ry     beta= 0.70
     Davidson diagonalization with overlap
     ethr =  2.43E-03,  avg # of iterations =  6.1

     negative rho (up, down):  4.135E-03 0.000E+00

     total cpu time spent up to now is    14543.2 secs

     total energy              =   -3591.42340826 Ry
     estimated scf accuracy    <       7.46737232 Ry

     iteration # 14     ecut=   124.00 Ry     beta= 0.70
     Davidson diagonalization with overlap
     ethr =  2.43E-03,  avg # of iterations =  1.2

     negative rho (up, down):  3.886E-03 0.000E+00

     total cpu time spent up to now is    14581.3 secs

     total energy              =   -3591.36030294 Ry
     estimated scf accuracy    <       9.05445847 Ry

     iteration # 15     ecut=   124.00 Ry     beta= 0.70
     Davidson diagonalization with overlap
     ethr =  2.43E-03,  avg # of iterations =  1.0

     negative rho (up, down):  3.791E-03 0.000E+00

     total cpu time spent up to now is    14618.6 secs

     total energy              =   -3591.33503961 Ry
     estimated scf accuracy    <       6.62728520 Ry

     iteration # 16     ecut=   124.00 Ry     beta= 0.70
     Davidson diagonalization with overlap
     ethr =  2.43E-03,  avg # of iterations =  1.0

     negative rho (up, down):  3.627E-03 0.000E+00

     total cpu time spent up to now is    14655.8 secs

     total energy              =   -3591.53353516 Ry
     estimated scf accuracy    <       5.26857464 Ry

     iteration # 17     ecut=   124.00 Ry     beta= 0.70
     Davidson diagonalization with overlap
     ethr =  2.33E-03,  avg # of iterations =  1.1

     negative rho (up, down):  4.465E-03 0.000E+00

     total cpu time spent up to now is    14693.5 secs

     total energy              =   -3590.85201223 Ry
     estimated scf accuracy    <       7.11881913 Ry

     iteration # 18     ecut=   124.00 Ry     beta= 0.70
     Davidson diagonalization with overlap
     ethr =  2.33E-03,  avg # of iterations =  1.1

     negative rho (up, down):  4.319E-03 0.000E+00

     total cpu time spent up to now is    14731.4 secs

     total energy              =   -3590.91014714 Ry
     estimated scf accuracy    <       3.67379864 Ry

     iteration # 19     ecut=   124.00 Ry     beta= 0.70
     Davidson diagonalization with overlap
     ethr =  1.63E-03,  avg # of iterations =  1.0

     negative rho (up, down):  4.465E-03 0.000E+00

     total cpu time spent up to now is    14769.2 secs

     total energy              =   -3590.82481344 Ry
     estimated scf accuracy    <       2.47105570 Ry

     iteration # 20     ecut=   124.00 Ry     beta= 0.70
     Davidson diagonalization with overlap
     ethr =  1.09E-03,  avg # of iterations =  2.1

     negative rho (up, down):  5.292E-03 0.000E+00

     total cpu time spent up to now is    14811.6 secs

     total energy              =   -3590.67158333 Ry
     estimated scf accuracy    <       5.42355287 Ry

     iteration # 21     ecut=   124.00 Ry     beta= 0.70
     Davidson diagonalization with overlap
     ethr =  1.09E-03,  avg # of iterations =  1.1

     negative rho (up, down):  7.830E-03 0.000E+00

     total cpu time spent up to now is    14849.6 secs

     total energy              =   -3590.48774181 Ry
     estimated scf accuracy    <       1.44051474 Ry

     iteration # 22     ecut=   124.00 Ry     beta= 0.70
     Davidson diagonalization with overlap
     ethr =  6.37E-04,  avg # of iterations =  6.0

     negative rho (up, down):  7.485E-03 0.000E+00

     total cpu time spent up to now is    14907.9 secs

     total energy              =   -3590.19213680 Ry
     estimated scf accuracy    <      14.59237721 Ry

     iteration # 23     ecut=   124.00 Ry     beta= 0.70
     Davidson diagonalization with overlap
     ethr =  6.37E-04,  avg # of iterations =  4.6

     negative rho (up, down):  7.383E-03 0.000E+00

     total cpu time spent up to now is    14960.4 secs

     total energy              =   -3590.65768397 Ry
     estimated scf accuracy    <       3.30010199 Ry

     iteration # 24     ecut=   124.00 Ry     beta= 0.70
     Davidson diagonalization with overlap
     ethr =  6.37E-04,  avg # of iterations =  2.0

     negative rho (up, down):  7.208E-03 0.000E+00

     total cpu time spent up to now is    15002.2 secs

     total energy              =   -3590.76557095 Ry
     estimated scf accuracy    <       0.33155416 Ry

     iteration # 25     ecut=   124.00 Ry     beta= 0.70
     Davidson diagonalization with overlap
     ethr =  1.47E-04,  avg # of iterations =  3.5

     negative rho (up, down):  7.125E-03 0.000E+00

     total cpu time spent up to now is    15049.8 secs

     total energy              =   -3590.76799062 Ry
     estimated scf accuracy    <       0.54732236 Ry

     iteration # 26     ecut=   124.00 Ry     beta= 0.70
     Davidson diagonalization with overlap
     ethr =  1.47E-04,  avg # of iterations =  4.7

     negative rho (up, down):  7.024E-03 0.000E+00

     total cpu time spent up to now is    15099.9 secs

     total energy              =   -3590.76185912 Ry
     estimated scf accuracy    <       0.81024482 Ry

     iteration # 27     ecut=   124.00 Ry     beta= 0.70
     Davidson diagonalization with overlap
     ethr =  1.47E-04,  avg # of iterations =  1.6

     negative rho (up, down):  7.050E-03 0.000E+00

     total cpu time spent up to now is    15139.8 secs

     total energy              =   -3590.79401792 Ry
     estimated scf accuracy    <       0.06719133 Ry

     iteration # 28     ecut=   124.00 Ry     beta= 0.70
     Davidson diagonalization with overlap
     c_bands:  1 eigenvalues not converged
     ethr =  2.97E-05,  avg # of iterations =  5.7

     negative rho (up, down):  7.091E-03 0.000E+00

     total cpu time spent up to now is    15190.7 secs

     total energy              =   -3590.79774097 Ry
     estimated scf accuracy    <       0.03242037 Ry

     iteration # 29     ecut=   124.00 Ry     beta= 0.70
     Davidson diagonalization with overlap
     ethr =  1.43E-05,  avg # of iterations =  4.8

     negative rho (up, down):  7.187E-03 0.000E+00

     total cpu time spent up to now is    15238.1 secs

     total energy              =   -3590.79912135 Ry
     estimated scf accuracy    <       0.02216114 Ry

     iteration # 30     ecut=   124.00 Ry     beta= 0.70
     Davidson diagonalization with overlap
     ethr =  9.81E-06,  avg # of iterations =  2.0

     negative rho (up, down):  7.233E-03 0.000E+00

     total cpu time spent up to now is    15279.3 secs

     total energy              =   -3590.79993980 Ry
     estimated scf accuracy    <       0.00141181 Ry

     iteration # 31     ecut=   124.00 Ry     beta= 0.70
     Davidson diagonalization with overlap
     c_bands:  1 eigenvalues not converged
     ethr =  6.25E-07,  avg # of iterations = 10.1

     negative rho (up, down):  7.292E-03 0.000E+00

     total cpu time spent up to now is    15348.6 secs

     total energy              =   -3590.79984603 Ry
     estimated scf accuracy    <       0.00230489 Ry

     iteration # 32     ecut=   124.00 Ry     beta= 0.70
     Davidson diagonalization with overlap
     ethr =  6.25E-07,  avg # of iterations =  5.1

     negative rho (up, down):  7.269E-03 0.000E+00

     total cpu time spent up to now is    15405.8 secs

     total energy              =   -3590.79933685 Ry
     estimated scf accuracy    <       0.02230622 Ry

     iteration # 33     ecut=   124.00 Ry     beta= 0.70
     Davidson diagonalization with overlap
     ethr =  6.25E-07,  avg # of iterations =  4.5

     negative rho (up, down):  7.283E-03 0.000E+00

     total cpu time spent up to now is    15459.5 secs

     total energy              =   -3590.79999654 Ry
     estimated scf accuracy    <       0.00233879 Ry

     iteration # 34     ecut=   124.00 Ry     beta= 0.70
     Davidson diagonalization with overlap
     ethr =  6.25E-07,  avg # of iterations =  2.4

     negative rho (up, down):  7.275E-03 0.000E+00

     total cpu time spent up to now is    15503.3 secs

     total energy              =   -3590.80009024 Ry
     estimated scf accuracy    <       0.00190763 Ry

     iteration # 35     ecut=   124.00 Ry     beta= 0.70
     Davidson diagonalization with overlap
     ethr =  6.25E-07,  avg # of iterations =  2.2

     negative rho (up, down):  7.273E-03 0.000E+00

     total cpu time spent up to now is    15545.7 secs

     total energy              =   -3590.80007818 Ry
     estimated scf accuracy    <       0.00183645 Ry

     iteration # 36     ecut=   124.00 Ry     beta= 0.70
     Davidson diagonalization with overlap
     ethr =  6.25E-07,  avg # of iterations =  3.7

     negative rho (up, down):  7.273E-03 0.000E+00

     total cpu time spent up to now is    15593.4 secs

     total energy              =   -3590.79985263 Ry
     estimated scf accuracy    <       0.00949234 Ry

     iteration # 37     ecut=   124.00 Ry     beta= 0.70
     Davidson diagonalization with overlap
     ethr =  6.25E-07,  avg # of iterations =  2.6

     negative rho (up, down):  7.275E-03 0.000E+00

     total cpu time spent up to now is    15637.2 secs

     total energy              =   -3590.80014581 Ry
     estimated scf accuracy    <       0.00053825 Ry

     iteration # 38     ecut=   124.00 Ry     beta= 0.70
     Davidson diagonalization with overlap
     ethr =  2.38E-07,  avg # of iterations =  2.0

     negative rho (up, down):  7.276E-03 0.000E+00

     total cpu time spent up to now is    15679.2 secs

     total energy              =   -3590.80018517 Ry
     estimated scf accuracy    <       0.00005104 Ry

     iteration # 39     ecut=   124.00 Ry     beta= 0.70
     Davidson diagonalization with overlap
     ethr =  2.26E-08,  avg # of iterations =  4.9

     negative rho (up, down):  7.280E-03 0.000E+00

     total cpu time spent up to now is    15734.5 secs

     total energy              =   -3590.80018605 Ry
     estimated scf accuracy    <       0.00024939 Ry

     iteration # 40     ecut=   124.00 Ry     beta= 0.70
     Davidson diagonalization with overlap
     ethr =  2.26E-08,  avg # of iterations =  3.5

     negative rho (up, down):  7.280E-03 0.000E+00

     total cpu time spent up to now is    15782.8 secs

     total energy              =   -3590.80019274 Ry
     estimated scf accuracy    <       0.00004842 Ry

     iteration # 41     ecut=   124.00 Ry     beta= 0.70
     Davidson diagonalization with overlap
     ethr =  2.14E-08,  avg # of iterations =  1.2

     negative rho (up, down):  7.279E-03 0.000E+00

     total cpu time spent up to now is    15820.9 secs

     total energy              =   -3590.80019453 Ry
     estimated scf accuracy    <       0.00001146 Ry

     iteration # 42     ecut=   124.00 Ry     beta= 0.70
     Davidson diagonalization with overlap
     ethr =  5.07E-09,  avg # of iterations =  4.3

     negative rho (up, down):  7.280E-03 0.000E+00

     total cpu time spent up to now is    15872.8 secs

     total energy              =   -3590.80019082 Ry
     estimated scf accuracy    <       0.00013906 Ry

     iteration # 43     ecut=   124.00 Ry     beta= 0.70
     Davidson diagonalization with overlap
     ethr =  5.07E-09,  avg # of iterations =  5.0

     negative rho (up, down):  7.279E-03 0.000E+00

     total cpu time spent up to now is    15931.2 secs

     total energy              =   -3590.80018887 Ry
     estimated scf accuracy    <       0.00020021 Ry

     iteration # 44     ecut=   124.00 Ry     beta= 0.70
     Davidson diagonalization with overlap
     ethr =  5.07E-09,  avg # of iterations =  4.4

     negative rho (up, down):  7.280E-03 0.000E+00

     total cpu time spent up to now is    15984.9 secs

     total energy              =   -3590.80019586 Ry
     estimated scf accuracy    <       0.00000264 Ry

     iteration # 45     ecut=   124.00 Ry     beta= 0.70
     Davidson diagonalization with overlap
     ethr =  1.17E-09,  avg # of iterations =  2.3

     negative rho (up, down):  7.280E-03 0.000E+00

     total cpu time spent up to now is    16027.8 secs

     total energy              =   -3590.80019587 Ry
     estimated scf accuracy    <       0.00000152 Ry

     iteration # 46     ecut=   124.00 Ry     beta= 0.70
     Davidson diagonalization with overlap
     ethr =  6.73E-10,  avg # of iterations =  2.3

     negative rho (up, down):  7.280E-03 0.000E+00

     total cpu time spent up to now is    16071.9 secs

     total energy              =   -3590.80019596 Ry
     estimated scf accuracy    <       0.00000302 Ry

     iteration # 47     ecut=   124.00 Ry     beta= 0.70
     Davidson diagonalization with overlap
     ethr =  6.73E-10,  avg # of iterations =  2.1

     negative rho (up, down):  7.280E-03 0.000E+00

     total cpu time spent up to now is    16115.3 secs

     total energy              =   -3590.80019592 Ry
     estimated scf accuracy    <       0.00000248 Ry

     iteration # 48     ecut=   124.00 Ry     beta= 0.70
     Davidson diagonalization with overlap
     ethr =  6.73E-10,  avg # of iterations =  1.1

     negative rho (up, down):  7.280E-03 0.000E+00

     total cpu time spent up to now is    16153.5 secs

     total energy              =   -3590.80019606 Ry
     estimated scf accuracy    <       0.00000011 Ry

     iteration # 49     ecut=   124.00 Ry     beta= 0.70
     Davidson diagonalization with overlap
     ethr =  4.70E-11,  avg # of iterations =  4.0

     negative rho (up, down):  7.280E-03 0.000E+00

     total cpu time spent up to now is    16203.2 secs

     total energy              =   -3590.80019606 Ry
     estimated scf accuracy    <       0.00000023 Ry

     iteration # 50     ecut=   124.00 Ry     beta= 0.70
     Davidson diagonalization with overlap
     ethr =  4.70E-11,  avg # of iterations =  4.3

     negative rho (up, down):  7.280E-03 0.000E+00

     total cpu time spent up to now is    16255.1 secs

     total energy              =   -3590.80019605 Ry
     estimated scf accuracy    <       0.00000045 Ry

     iteration # 51     ecut=   124.00 Ry     beta= 0.70
     Davidson diagonalization with overlap
     ethr =  4.70E-11,  avg # of iterations =  3.7

     negative rho (up, down):  7.280E-03 0.000E+00

     total cpu time spent up to now is    16301.4 secs

     total energy              =   -3590.80019607 Ry
     estimated scf accuracy    <       0.00000002 Ry

     iteration # 52     ecut=   124.00 Ry     beta= 0.70
     Davidson diagonalization with overlap
     ethr =  7.84E-12,  avg # of iterations =  4.8

     negative rho (up, down):  7.280E-03 0.000E+00

     total cpu time spent up to now is    16354.9 secs

     total energy              =   -3590.80019607 Ry
     estimated scf accuracy    <       0.00000004 Ry

     iteration # 53     ecut=   124.00 Ry     beta= 0.70
     Davidson diagonalization with overlap
     ethr =  7.84E-12,  avg # of iterations =  4.4

     negative rho (up, down):  7.280E-03 0.000E+00

     total cpu time spent up to now is    16406.4 secs

     total energy              =   -3590.80019607 Ry
     estimated scf accuracy    <       0.00000017 Ry

     iteration # 54     ecut=   124.00 Ry     beta= 0.70
     Davidson diagonalization with overlap
     ethr =  7.84E-12,  avg # of iterations =  4.2

     negative rho (up, down):  7.280E-03 0.000E+00

     total cpu time spent up to now is    16455.0 secs

     total energy              =   -3590.80019607 Ry
     estimated scf accuracy    <       0.00000001 Ry

     iteration # 55     ecut=   124.00 Ry     beta= 0.70
     Davidson diagonalization with overlap
     ethr =  4.83E-12,  avg # of iterations =  2.0

     negative rho (up, down):  7.280E-03 0.000E+00

     total cpu time spent up to now is    16497.0 secs

     total energy              =   -3590.80019607 Ry
     estimated scf accuracy    <          7.2E-09 Ry

     iteration # 56     ecut=   124.00 Ry     beta= 0.70
     Davidson diagonalization with overlap
     ethr =  3.19E-12,  avg # of iterations =  2.0

     negative rho (up, down):  7.280E-03 0.000E+00

     total cpu time spent up to now is    16539.3 secs

     total energy              =   -3590.80019607 Ry
     estimated scf accuracy    <          7.2E-09 Ry

     iteration # 57     ecut=   124.00 Ry     beta= 0.70
     Davidson diagonalization with overlap
     ethr =  3.18E-12,  avg # of iterations =  2.0

     negative rho (up, down):  7.280E-03 0.000E+00

     total cpu time spent up to now is    16581.7 secs

     total energy              =   -3590.80019607 Ry
     estimated scf accuracy    <          7.0E-09 Ry

     iteration # 58     ecut=   124.00 Ry     beta= 0.70
     Davidson diagonalization with overlap
     ethr =  3.08E-12,  avg # of iterations =  1.0

     negative rho (up, down):  7.280E-03 0.000E+00

     total cpu time spent up to now is    16619.2 secs

     total energy              =   -3590.80019607 Ry
     estimated scf accuracy    <          1.8E-10 Ry

     iteration # 59     ecut=   124.00 Ry     beta= 0.70
     Davidson diagonalization with overlap
     ethr =  1.00E-13,  avg # of iterations =  4.2

     negative rho (up, down):  7.280E-03 0.000E+00

     total cpu time spent up to now is    16670.3 secs

     total energy              =   -3590.80019607 Ry
     estimated scf accuracy    <          1.1E-09 Ry

     iteration # 60     ecut=   124.00 Ry     beta= 0.70
     Davidson diagonalization with overlap
     ethr =  1.00E-13,  avg # of iterations =  5.0

     negative rho (up, down):  7.280E-03 0.000E+00

     total cpu time spent up to now is    16730.4 secs

     total energy              =   -3590.80019607 Ry
     estimated scf accuracy    <          5.7E-09 Ry

     iteration # 61     ecut=   124.00 Ry     beta= 0.70
     Davidson diagonalization with overlap
     ethr =  1.00E-13,  avg # of iterations =  4.9

     negative rho (up, down):  7.280E-03 0.000E+00

     total cpu time spent up to now is    16787.5 secs

     End of self-consistent calculation

          k = 0.0000 0.0000 0.0000 ( 33803 PWs)   bands (ev):

   -70.0507 -70.0496 -70.0467 -70.0467 -70.0456 -70.0456 -70.0428 -70.0417
   -40.1153 -40.1064 -40.0975 -40.0768 -40.0535 -40.0361 -39.8848 -39.8581
   -36.1921 -36.1826 -36.1727 -36.1727 -36.1700 -36.1699 -36.1362 -36.1348
   -36.1333 -36.1276 -36.1269 -36.1269 -36.1205 -36.1198 -36.1121 -36.1065
   -36.1065 -36.1017 -36.0998 -36.0998 -36.0976 -36.0976 -36.0800 -36.0785
   -16.5595 -16.5554 -16.5554 -16.5262 -16.5262 -16.4666 -16.4666 -16.4531
   -16.4531 -16.4446 -16.4249 -16.3729 -16.2892 -16.2759 -16.2313 -16.2062
   -16.1788 -16.1788 -16.1686 -16.1686 -16.0547 -16.0547 -16.0396 -16.0395
     7.7142  10.4648  10.6882  12.5723  12.5723  12.6979  12.9678  13.1200
    13.1200  13.1787  13.2479  13.2838  13.3179  13.3337  13.4363  13.8319
    14.3306  14.3306  14.6837  14.7141  14.7901  14.7901  14.8164  14.8164
    14.8363  14.8363  14.9830  15.0021  15.0537  15.0538  15.4895  15.5294
    15.5401  15.5585  15.7158  15.7158  15.7851  15.7851  15.9190  15.9190
    16.0064  16.1052  16.3004  16.3019  16.3417  16.4545  16.5876  16.5876
    16.7617  17.0027  17.0216  17.0790  17.0931  17.0931  17.2451  17.2451
    17.3980  17.5491  17.5491  17.5992  17.6917  17.8154  17.8154  17.8554
    17.9077  17.9448  17.9448  18.0038  18.0451  18.0452  18.0462  18.1482

          k = 0.0000-0.0000 0.0776 ( 33747 PWs)   bands (ev):

   -70.0506 -70.0496 -70.0466 -70.0466 -70.0457 -70.0457 -70.0427 -70.0418
   -40.1147 -40.1070 -40.0961 -40.0782 -40.0523 -40.0372 -39.8831 -39.8599
   -36.1915 -36.1832 -36.1725 -36.1725 -36.1701 -36.1701 -36.1356 -36.1347
   -36.1334 -36.1282 -36.1256 -36.1256 -36.1193 -36.1192 -36.1126 -36.1078
   -36.1078 -36.1029 -36.0996 -36.0996 -36.0978 -36.0977 -36.0799 -36.0785
   -16.5533 -16.5533 -16.5391 -16.5280 -16.5280 -16.4658 -16.4658 -16.4541
   -16.4541 -16.4326 -16.4151 -16.3626 -16.3029 -16.2860 -16.2471 -16.2210
   -16.1781 -16.1781 -16.1693 -16.1692 -16.0537 -16.0537 -16.0406 -16.0406
     7.8622  10.3838  10.5900  12.6228  12.6228  12.7407  12.7928  13.1172
    13.1172  13.2382  13.2791  13.3147  13.3737  13.3961  13.4728  13.8739
    14.3334  14.3334  14.4933  14.5053  14.6152  14.6152  14.8300  14.8300
    14.9251  14.9251  15.0398  15.0595  15.0779  15.2730  15.2731  15.4044
    15.4661  15.7101  15.7101  15.7234  15.7234  15.8936  15.8936  16.0203
    16.1259  16.1378  16.1720  16.2070  16.2391  16.2391  16.4288  16.5123
    16.8991  17.0042  17.0204  17.0679  17.1116  17.1116  17.2320  17.2320
    17.2588  17.5795  17.6045  17.6046  17.6128  17.8070  17.8070  17.8976
    17.9336  17.9336  18.0505  18.0567  18.0573  18.0618  18.0618  18.1024

          k = 0.0000-0.0000 0.1553 ( 33778 PWs)   bands (ev):

   -70.0504 -70.0498 -70.0464 -70.0464 -70.0459 -70.0459 -70.0425 -70.0420
   -40.1131 -40.1086 -40.0924 -40.0820 -40.0491 -40.0404 -39.8782 -39.8648
   -36.1897 -36.1849 -36.1720 -36.1720 -36.1706 -36.1706 -36.1344 -36.1340
   -36.1337 -36.1297 -36.1218 -36.1218 -36.1179 -36.1158 -36.1140 -36.1116
   -36.1116 -36.1064 -36.0992 -36.0992 -36.0981 -36.0981 -36.0796 -36.0788
   -16.5478 -16.5478 -16.5332 -16.5332 -16.4835 -16.4635 -16.4635 -16.4568
   -16.4568 -16.3991 -16.3880 -16.3439 -16.3343 -16.3135 -16.2934 -16.2545
   -16.1762 -16.1762 -16.1711 -16.1711 -16.0509 -16.0509 -16.0434 -16.0434
     8.2876   9.6939  10.9527  12.1630  12.7592  12.7592  13.0685  13.0691
    13.0691  13.3854  13.3950  13.4017  13.4966  13.5404  13.5666  13.8418
    14.0100  14.1583  14.3476  14.3476  14.4714  14.4715  14.8037  14.9009
    14.9009  15.0744  15.0744  15.0793  15.2073  15.2280  15.4898  15.5231
    15.5231  15.6628  15.6628  15.7135  15.7136  15.7437  15.7437  15.8051
    15.8318  15.8398  15.8398  16.1849  16.3592  16.4124  16.5630  16.6164
    16.9272  16.9273  16.9351  17.0078  17.0171  17.1543  17.1543  17.1583
    17.2135  17.2135  17.3854  17.5107  17.5212  17.7057  17.7879  18.0423
    18.0740  18.0740  18.0969  18.0969  18.3797  18.3797  18.4850  18.5256

          k =-0.0000 0.0000-0.2329 ( 33722 PWs)   bands (ev):

   -70.0501 -70.0501 -70.0462 -70.0462 -70.0462 -70.0462 -70.0423 -70.0423
   -40.1108 -40.1108 -40.0872 -40.0872 -40.0448 -40.0448 -39.8715 -39.8715
   -36.1873 -36.1873 -36.1713 -36.1713 -36.1713 -36.1713 -36.1341 -36.1341
   -36.1319 -36.1319 -36.1167 -36.1167 -36.1167 -36.1167 -36.1160 -36.1160
   -36.1111 -36.1111 -36.0987 -36.0987 -36.0987 -36.0987 -36.0792 -36.0792
   -16.5404 -16.5404 -16.5404 -16.5404 -16.4602 -16.4602 -16.4602 -16.4602
   -16.4099 -16.4099 -16.3509 -16.3509 -16.3502 -16.3502 -16.2951 -16.2951
   -16.1737 -16.1737 -16.1737 -16.1737 -16.0472 -16.0472 -16.0471 -16.0471
     8.9331   8.9331  11.5084  11.5084  12.9338  12.9338  12.9338  12.9338
    13.4818  13.4818  13.4820  13.4820  13.4947  13.4947  13.6947  13.6947
    13.8208  13.8208  14.3877  14.3877  14.3877  14.3877  14.8097  14.8097
    15.1706  15.1706  15.1706  15.1706  15.2993  15.2993  15.2993  15.2993
    15.4720  15.4720  15.4947  15.4947  15.7830  15.7830  15.7830  15.7830
    15.8194  15.8194  16.2693  16.2693  16.2728  16.2728  16.2729  16.2729
    17.0125  17.0125  17.0369  17.0369  17.0933  17.0933  17.1867  17.1868
    17.1868  17.1868  17.3746  17.3746  17.3900  17.3900  17.9500  17.9500
    18.1754  18.1754  18.1754  18.1754  18.8248  18.8248  18.8248  18.8248

          k = 0.0000 0.0847 0.0776 ( 33707 PWs)   bands (ev):

   -70.0504 -70.0494 -70.0469 -70.0464 -70.0459 -70.0454 -70.0430 -70.0421
   -40.1129 -40.1045 -40.0959 -40.0786 -40.0539 -40.0388 -39.8837 -39.8605
   -36.1895 -36.1820 -36.1728 -36.1711 -36.1696 -36.1673 -36.1367 -36.1353
   -36.1336 -36.1268 -36.1251 -36.1251 -36.1197 -36.1196 -36.1123 -36.1081
   -36.1075 -36.1033 -36.1019 -36.1007 -36.0987 -36.0969 -36.0817 -36.0804
   -16.5507 -16.5374 -16.5290 -16.5269 -16.5048 -16.4683 -16.4551 -16.4455
   -16.4340 -16.4321 -16.4158 -16.3641 -16.3012 -16.2858 -16.2468 -16.2233
   -16.2032 -16.1935 -16.1777 -16.1687 -16.0753 -16.0617 -16.0541 -16.0412
     7.9142  10.4117  10.6207  12.5528  12.6036  12.7379  12.8526  12.9040
    13.1705  13.3097  13.3301  13.4079  13.4438  13.4776  13.7842  13.9108
    14.3951  14.4015  14.4244  14.5050  14.5505  14.5848  14.7219  14.7857
    14.8547  14.9639  15.0082  15.0922  15.1437  15.1529  15.2261  15.4316
    15.4381  15.6522  15.6634  15.6962  15.7136  15.7358  15.8132  15.8853
    16.1138  16.1562  16.1645  16.1660  16.1916  16.2780  16.5272  16.5295
    16.5819  16.7431  16.8962  17.0933  17.1364  17.2124  17.2330  17.2909
    17.3451  17.3789  17.4384  17.5054  17.6365  17.6613  17.6792  17.9687
    18.0132  18.0495  18.1009  18.1115  18.1408  18.1506  18.2330  18.4578

          k = 0.0000 0.0847 0.1553 ( 33719 PWs)   bands (ev):

   -70.0502 -70.0496 -70.0467 -70.0462 -70.0462 -70.0456 -70.0428 -70.0423
   -40.1111 -40.1063 -40.0922 -40.0822 -40.0507 -40.0420 -39.8788 -39.8654
   -36.1879 -36.1836 -36.1725 -36.1715 -36.1691 -36.1678 -36.1364 -36.1356
   -36.1322 -36.1283 -36.1215 -36.1214 -36.1182 -36.1162 -36.1139 -36.1117
   -36.1112 -36.1067 -36.1016 -36.1009 -36.0983 -36.0973 -36.0815 -36.0807
   -16.5455 -16.5318 -16.5238 -16.5099 -16.4816 -16.4657 -16.4581 -16.4433
   -16.4366 -16.3991 -16.3884 -16.3416 -16.3358 -16.3137 -16.2937 -16.2564
   -16.2011 -16.1955 -16.1758 -16.1706 -16.0724 -16.0646 -16.0514 -16.0439
     8.3391   9.7355  10.9735  12.1288  12.7002  12.7953  12.8702  13.1191
    13.1543  13.4621  13.4685  13.5033  13.5899  13.6204  13.7676  13.8873
    14.0292  14.1875  14.3928  14.4043  14.4711  14.5227  14.5778  14.8202
    14.9028  14.9802  15.0832  15.1336  15.1852  15.3089  15.3515  15.4837
    15.5087  15.6027  15.6100  15.6285  15.6534  15.6917  15.7007  15.7106
    15.7154  15.7555  15.8889  16.1557  16.1881  16.2995  16.3133  16.5966
    16.7406  16.8043  17.0792  17.1119  17.1742  17.2091  17.2299  17.2519
    17.2655  17.3238  17.4420  17.4587  17.6101  17.6365  17.7986  17.8034
    17.8452  17.9990  18.1056  18.1767  18.3102  18.4297  18.4844  18.8140

          k = 0.0000 0.0847-0.2329 ( 33742 PWs)   bands (ev):

   -70.0499 -70.0499 -70.0464 -70.0464 -70.0459 -70.0459 -70.0425 -70.0425
   -40.1087 -40.1087 -40.0872 -40.0872 -40.0464 -40.0464 -39.8721 -39.8721
   -36.1857 -36.1857 -36.1720 -36.1720 -36.1684 -36.1684 -36.1360 -36.1360
   -36.1303 -36.1303 -36.1166 -36.1166 -36.1163 -36.1163 -36.1161 -36.1161
   -36.1115 -36.1115 -36.1012 -36.1012 -36.0978 -36.0978 -36.0811 -36.0811
   -16.5386 -16.5386 -16.5167 -16.5167 -16.4620 -16.4620 -16.4401 -16.4401
   -16.4075 -16.4075 -16.3528 -16.3528 -16.3490 -16.3490 -16.2967 -16.2967
   -16.1983 -16.1983 -16.1732 -16.1732 -16.0685 -16.0685 -16.0477 -16.0477
     8.9820   8.9820  11.5112  11.5112  12.7740  12.7740  13.0344  13.0344
    13.5424  13.5424  13.5768  13.5768  13.6245  13.6245  13.7446  13.7446
    13.8684  13.8684  14.4106  14.4106  14.4332  14.4332  14.7211  14.7211
    15.0408  15.0408  15.1344  15.1344  15.2789  15.2789  15.2838  15.2838
    15.4694  15.4694  15.5835  15.5835  15.7090  15.7090  15.7165  15.7165
    15.7326  15.7326  15.9171  15.9171  16.1532  16.1532  16.2678  16.2678
    17.0334  17.0334  17.1458  17.1458  17.1824  17.1824  17.2349  17.2349
    17.2677  17.2677  17.4069  17.4069  17.4791  17.4791  17.8782  17.8782
    17.9043  17.9043  18.2032  18.2032  18.5639  18.5639  18.7542  18.7542

          k = 0.0000 0.1694 0.1553 ( 33694 PWs)   bands (ev):

   -70.0494 -70.0489 -70.0474 -70.0469 -70.0455 -70.0449 -70.0435 -70.0430
   -40.1065 -40.1006 -40.0924 -40.0835 -40.0540 -40.0453 -39.8800 -39.8666
   -36.1834 -36.1802 -36.1741 -36.1739 -36.1613 -36.1601 -36.1423 -36.1414
   -36.1271 -36.1240 -36.1203 -36.1203 -36.1191 -36.1173 -36.1140 -36.1119
   -36.1103 -36.1082 -36.1077 -36.1076 -36.0957 -36.0947 -36.0861 -36.0852
   -16.5406 -16.5289 -16.4779 -16.4706 -16.4610 -16.4584 -16.4458 -16.4005
   -16.3937 -16.3894 -16.3854 -16.3391 -16.3356 -16.3163 -16.2928 -16.2681
   -16.2613 -16.2606 -16.1750 -16.1696 -16.1248 -16.1162 -16.0523 -16.0451
     8.4498   9.8240  11.0179  12.0471  12.2521  12.8970  13.1798  13.2552
    13.3329  13.6002  13.6409  13.7371  13.7567  13.7784  13.9242  13.9390
    13.9849  14.2848  14.2891  14.4736  14.5451  14.5589  14.6391  14.6924
    14.7783  14.8577  14.9486  15.0582  15.1147  15.1956  15.3823  15.4175
    15.4667  15.4828  15.5005  15.5219  15.5463  15.5645  15.5660  15.5976
    15.6096  15.6267  15.6577  15.7768  16.0339  16.1119  16.1947  16.2515
    16.7852  17.1563  17.1680  17.2200  17.2654  17.2711  17.3104  17.3574
    17.3849  17.4358  17.4518  17.4660  17.5140  17.5480  17.5648  17.7999
    17.9145  17.9800  18.1407  18.2186  18.2565  18.3653  18.4864  18.5863

          k = 0.0000 0.1694-0.2329 ( 33712 PWs)   bands (ev):

   -70.0491 -70.0491 -70.0472 -70.0472 -70.0452 -70.0452 -70.0432 -70.0432
   -40.1036 -40.1036 -40.0879 -40.0879 -40.0497 -40.0497 -39.8733 -39.8733
   -36.1818 -36.1818 -36.1740 -36.1740 -36.1607 -36.1607 -36.1418 -36.1418
   -36.1256 -36.1256 -36.1167 -36.1167 -36.1161 -36.1161 -36.1153 -36.1153
   -36.1125 -36.1125 -36.1078 -36.1078 -36.0952 -36.0952 -36.0856 -36.0856
   -16.5347 -16.5347 -16.4658 -16.4658 -16.4524 -16.4524 -16.4028 -16.4028
   -16.3899 -16.3899 -16.3580 -16.3580 -16.3455 -16.3455 -16.3002 -16.3002
   -16.2646 -16.2646 -16.1723 -16.1723 -16.1205 -16.1205 -16.0487 -16.0487
     9.0873   9.0873  11.4990  11.4990  12.5665  12.5665  13.2975  13.2975
    13.6413  13.6413  13.7593  13.7593  13.7913  13.7913  13.8735  13.8735
    14.0299  14.0299  14.4215  14.4215  14.5345  14.5345  14.6520  14.6520
    14.7978  14.7978  14.8772  14.8772  15.2949  15.2949  15.3388  15.3388
    15.3460  15.3460  15.3982  15.3982  15.5590  15.5590  15.5727  15.5727
    15.6035  15.6035  15.8082  15.8082  15.8625  15.8625  16.2049  16.2049
    17.0704  17.0704  17.3022  17.3022  17.3239  17.3239  17.3499  17.3499
    17.3869  17.3869  17.4809  17.4809  17.5655  17.5655  17.7066  17.7066
    17.7795  17.7795  18.1102  18.1102  18.2294  18.2294  18.6515  18.6515

          k =-0.0000-0.2542-0.2329 ( 33692 PWs)   bands (ev):

   -70.0482 -70.0482 -70.0481 -70.0481 -70.0443 -70.0443 -70.0441 -70.0441
   -40.1001 -40.1001 -40.0891 -40.0891 -40.0514 -40.0514 -39.8739 -39.8739
   -36.1775 -36.1775 -36.1773 -36.1773 -36.1513 -36.1513 -36.1503 -36.1503
   -36.1197 -36.1197 -36.1188 -36.1188 -36.1146 -36.1146 -36.1140 -36.1140
   -36.1140 -36.1140 -36.1138 -36.1138 -36.0913 -36.0913 -36.0905 -36.0905
   -16.5326 -16.5326 -16.4679 -16.4679 -16.4015 -16.4015 -16.3757 -16.3757
   -16.3672 -16.3672 -16.3556 -16.3556 -16.3435 -16.3435 -16.3346 -16.3346
   -16.3022 -16.3022 -16.1718 -16.1718 -16.1557 -16.1557 -16.0492 -16.0492
     9.1443   9.1443  11.4806  11.4806  12.4921  12.4921  13.5195  13.5195
    13.6566  13.6566  13.7932  13.7932  13.8616  13.8616  13.9935  13.9935
    14.1995  14.1995  14.3881  14.3881  14.5604  14.5604  14.6147  14.6147
    14.6807  14.6807  14.7407  14.7407  15.1757  15.1757  15.2085  15.2085
    15.4121  15.4121  15.4207  15.4207  15.4328  15.4328  15.4357  15.4357
    15.5826  15.5826  15.6517  15.6517  16.0224  16.0224  16.0524  16.0524
    17.1415  17.1415  17.3731  17.3731  17.3996  17.3996  17.4343  17.4343
    17.4641  17.4641  17.4731  17.4731  17.4917  17.4917  17.5910  17.5910
    17.7618  17.7618  18.1388  18.1388  18.2975  18.2975  18.3758  18.3758

          k = 0.0847 0.0847 0.0776 ( 33729 PWs)   bands (ev):

   -70.0501 -70.0491 -70.0466 -70.0466 -70.0457 -70.0457 -70.0433 -70.0423
   -40.1110 -40.1020 -40.0955 -40.0787 -40.0556 -40.0407 -39.8843 -39.8611
   -36.1875 -36.1806 -36.1705 -36.1694 -36.1684 -36.1682 -36.1386 -36.1372
   -36.1318 -36.1256 -36.1247 -36.1247 -36.1201 -36.1200 -36.1120 -36.1078
   -36.1078 -36.1036 -36.1016 -36.1005 -36.0999 -36.0997 -36.0837 -36.0823
   -16.5357 -16.5272 -16.5259 -16.5037 -16.5036 -16.4499 -16.4461 -16.4353
   -16.4349 -16.4312 -16.4168 -16.3657 -16.2994 -16.2854 -16.2467 -16.2256
   -16.2041 -16.2015 -16.1931 -16.1928 -16.0760 -16.0755 -16.0623 -16.0623
     7.9610  10.4396  10.6659  12.5389  12.6134  12.7440  12.8038  12.9029
    13.0499  13.3773  13.4263  13.4589  13.5204  13.7396  13.8907  13.9614
    14.3840  14.4175  14.4749  14.5048  14.5280  14.6055  14.6303  14.7457
    14.8627  14.9258  15.0219  15.0765  15.0824  15.1674  15.2153  15.3557
    15.3706  15.5022  15.6080  15.6194  15.6414  15.7832  15.7890  15.9174
    15.9471  16.0466  16.1000  16.1142  16.1370  16.3097  16.3116  16.3162
    16.7060  16.7294  16.8993  16.9178  17.0962  17.1792  17.2252  17.2315
    17.3879  17.4551  17.4668  17.6745  17.7666  17.7876  17.7923  17.8108
    18.0202  18.0300  18.0548  18.0574  18.1478  18.4401  18.4430  18.4646

          k = 0.0847 0.0847 0.1553 ( 33703 PWs)   bands (ev):

   -70.0499 -70.0493 -70.0464 -70.0464 -70.0459 -70.0459 -70.0431 -70.0425
   -40.1091 -40.1039 -40.0920 -40.0822 -40.0524 -40.0438 -39.8794 -39.8660
   -36.1860 -36.1820 -36.1700 -36.1692 -36.1687 -36.1686 -36.1383 -36.1375
   -36.1305 -36.1269 -36.1212 -36.1211 -36.1184 -36.1165 -36.1138 -36.1114
   -36.1113 -36.1071 -36.1012 -36.1002 -36.1001 -36.0999 -36.0834 -36.0826
   -16.5221 -16.5211 -16.5087 -16.5082 -16.4797 -16.4470 -16.4438 -16.4385
   -16.4374 -16.3985 -16.3892 -16.3393 -16.3374 -16.3134 -16.2945 -16.2582
   -16.2017 -16.1997 -16.1954 -16.1947 -16.0731 -16.0727 -16.0652 -16.0651
     8.3858   9.7748  11.0117  12.1469  12.6559  12.7740  12.9167  12.9987
    13.1651  13.5506  13.5641  13.5700  13.6719  13.8200  13.8741  13.9453
    14.0575  14.2083  14.4155  14.4230  14.5115  14.5274  14.5352  14.6865
    14.8955  15.0309  15.0611  15.1212  15.2087  15.2690  15.2882  15.3510
    15.4772  15.4922  15.5110  15.5413  15.5719  15.5885  15.6154  15.7138
    15.7168  15.7462  15.7698  15.9306  16.1438  16.1722  16.1878  16.2995
    16.6716  16.9549  17.1648  17.1890  17.2035  17.2397  17.3261  17.3408
    17.3656  17.4054  17.5009  17.5797  17.5966  17.6541  17.8232  17.8816
    17.9501  17.9613  17.9959  18.0377  18.3625  18.4023  18.6516  18.7867

          k = 0.0847 0.0847-0.2329 ( 33732 PWs)   bands (ev):

   -70.0496 -70.0496 -70.0462 -70.0462 -70.0462 -70.0462 -70.0428 -70.0428
   -40.1065 -40.1065 -40.0871 -40.0871 -40.0481 -40.0481 -39.8727 -39.8727
   -36.1840 -36.1840 -36.1694 -36.1694 -36.1689 -36.1689 -36.1379 -36.1379
   -36.1287 -36.1287 -36.1163 -36.1163 -36.1162 -36.1162 -36.1161 -36.1161
   -36.1118 -36.1118 -36.1007 -36.1007 -36.1000 -36.1000 -36.0830 -36.0830
   -16.5153 -16.5153 -16.5146 -16.5146 -16.4429 -16.4429 -16.4407 -16.4407
   -16.4053 -16.4053 -16.3514 -16.3514 -16.3510 -16.3510 -16.2983 -16.2983
   -16.1986 -16.1986 -16.1972 -16.1972 -16.0691 -16.0691 -16.0689 -16.0689
     9.0270   9.0270  11.5387  11.5387  12.7543  12.7543  12.9911  12.9911
    13.5784  13.5784  13.7081  13.7081  13.7326  13.7326  13.8082  13.8082
    13.9104  13.9104  14.4459  14.4459  14.4486  14.4486  14.6788  14.6788
    14.9786  14.9786  15.1212  15.1212  15.1749  15.1749  15.3016  15.3017
    15.4907  15.4907  15.5216  15.5216  15.6038  15.6038  15.6307  15.6307
    15.6842  15.6842  15.7932  15.7932  15.8502  15.8502  16.2246  16.2246
    17.0193  17.0193  17.2404  17.2404  17.3163  17.3163  17.3202  17.3202
    17.3800  17.3800  17.4150  17.4150  17.5620  17.5620  17.8609  17.8609
    17.9996  17.9996  18.0134  18.0134  18.4256  18.4256  18.8001  18.8001

          k = 0.0847 0.1694 0.1553 ( 33692 PWs)   bands (ev):

   -70.0492 -70.0486 -70.0472 -70.0466 -70.0457 -70.0452 -70.0438 -70.0432
   -40.1043 -40.0982 -40.0919 -40.0831 -40.0562 -40.0476 -39.8806 -39.8672
   -36.1813 -36.1784 -36.1714 -36.1713 -36.1620 -36.1611 -36.1438 -36.1430
   -36.1256 -36.1227 -36.1203 -36.1200 -36.1192 -36.1175 -36.1137 -36.1117
   -36.1105 -36.1080 -36.1072 -36.1069 -36.0980 -36.0973 -36.0881 -36.0873
   -16.5168 -16.5055 -16.4762 -16.4563 -16.4502 -16.4444 -16.4408 -16.3989
   -16.3954 -16.3906 -16.3870 -16.3409 -16.3332 -16.3150 -16.2948 -16.2680
   -16.2622 -16.2610 -16.1998 -16.1940 -16.1253 -16.1167 -16.0739 -16.0663
     8.4850   9.8575  11.1051  12.1442  12.2630  12.8633  13.0439  13.2599
    13.2675  13.7056  13.7235  13.8315  13.8373  13.9718  13.9732  14.0312
    14.0670  14.2784  14.3138  14.4913  14.5245  14.5599  14.6509  14.6700
    14.8131  14.9503  14.9768  14.9927  15.0468  15.1492  15.2904  15.3493
    15.3672  15.3684  15.3829  15.4109  15.4363  15.4364  15.4881  15.5447
    15.5557  15.5700  15.5847  15.6515  15.8588  15.9103  15.9248  16.1383
    16.8503  17.1869  17.2494  17.2864  17.3048  17.3188  17.4021  17.4570
    17.4850  17.5651  17.5831  17.6157  17.6474  17.7230  17.7255  17.8755
    17.9682  17.9794  18.1336  18.1430  18.2702  18.2826  18.5621  18.5969

          k = 0.0847 0.1694-0.2329 ( 33694 PWs)   bands (ev):

   -70.0489 -70.0489 -70.0469 -70.0469 -70.0455 -70.0455 -70.0435 -70.0435
   -40.1012 -40.1012 -40.0875 -40.0875 -40.0519 -40.0519 -39.8739 -39.8739
   -36.1798 -36.1798 -36.1713 -36.1713 -36.1616 -36.1616 -36.1434 -36.1434
   -36.1242 -36.1242 -36.1165 -36.1165 -36.1158 -36.1158 -36.1153 -36.1153
   -36.1127 -36.1127 -36.1070 -36.1070 -36.0977 -36.0976 -36.0877 -36.0877
   -16.5111 -16.5111 -16.4506 -16.4506 -16.4456 -16.4456 -16.4008 -16.4008
   -16.3912 -16.3912 -16.3563 -16.3563 -16.3476 -16.3476 -16.3020 -16.3020
   -16.2644 -16.2644 -16.1969 -16.1969 -16.1210 -16.1210 -16.0701 -16.0701
     9.1228   9.1228  11.5878  11.5878  12.5714  12.5714  13.2065  13.2065
    13.6333  13.6333  13.8788  13.8788  13.8994  13.8994  13.9967  13.9967
    14.0688  14.0688  14.4223  14.4223  14.5509  14.5509  14.6663  14.6663
    14.7459  14.7459  14.9484  14.9484  15.2195  15.2195  15.2355  15.2355
    15.2937  15.2937  15.3278  15.3278  15.4431  15.4431  15.4799  15.4799
    15.5581  15.5581  15.6170  15.6170  15.6451  15.6451  16.0629  16.0629
    17.0871  17.0871  17.4219  17.4219  17.4388  17.4388  17.4480  17.4480
    17.4714  17.4714  17.5821  17.5821  17.7377  17.7377  17.7742  17.7742
    17.8414  17.8414  18.0958  18.0958  18.2659  18.2659  18.7010  18.7010

          k = 0.0847-0.2542-0.2329 ( 33676 PWs)   bands (ev):

   -70.0480 -70.0480 -70.0478 -70.0478 -70.0446 -70.0446 -70.0444 -70.0444
   -40.0976 -40.0976 -40.0885 -40.0885 -40.0540 -40.0540 -39.8745 -39.8745
   -36.1752 -36.1752 -36.1750 -36.1750 -36.1525 -36.1525 -36.1515 -36.1515
   -36.1187 -36.1187 -36.1179 -36.1179 -36.1145 -36.1145 -36.1140 -36.1140
   -36.1140 -36.1140 -36.1134 -36.1134 -36.0936 -36.0936 -36.0928 -36.0928
   -16.5090 -16.5090 -16.4476 -16.4476 -16.3989 -16.3989 -16.3736 -16.3736
   -16.3654 -16.3654 -16.3551 -16.3551 -16.3455 -16.3455 -16.3373 -16.3373
   -16.3040 -16.3040 -16.1965 -16.1965 -16.1561 -16.1561 -16.0706 -16.0706
     9.1741   9.1741  11.6072  11.6072  12.4828  12.4828  13.4806  13.4806
    13.5496  13.5496  13.8950  13.8950  13.9729  13.9729  14.1562  14.1562
    14.2628  14.2628  14.4080  14.4080  14.5157  14.5157  14.6452  14.6452
    14.6804  14.6804  14.7849  14.7849  15.1139  15.1139  15.1170  15.1170
    15.3139  15.3139  15.3156  15.3156  15.3715  15.3715  15.3828  15.3828
    15.4422  15.4422  15.4953  15.4953  15.8109  15.8109  15.8439  15.8439
    17.1441  17.1441  17.5004  17.5004  17.5144  17.5144  17.5349  17.5349
    17.5841  17.5841  17.6242  17.6242  17.6779  17.6779  17.7549  17.7549
    17.8227  17.8227  18.1571  18.1571  18.3262  18.3262  18.4062  18.4062

          k = 0.1694 0.1694 0.1553 ( 33693 PWs)   bands (ev):

   -70.0484 -70.0479 -70.0465 -70.0465 -70.0459 -70.0459 -70.0445 -70.0439
   -40.0989 -40.0921 -40.0912 -40.0827 -40.0613 -40.0530 -39.8818 -39.8684
   -36.1759 -36.1738 -36.1656 -36.1644 -36.1643 -36.1631 -36.1483 -36.1478
   -36.1217 -36.1199 -36.1193 -36.1189 -36.1186 -36.1181 -36.1129 -36.1110
   -36.1108 -36.1088 -36.1056 -36.1044 -36.1040 -36.1028 -36.0933 -36.0928
   -16.4728 -16.4536 -16.4495 -16.4418 -16.4406 -16.4046 -16.3959 -16.3950
   -16.3930 -16.3927 -16.3885 -16.3450 -16.3270 -16.3133 -16.2992 -16.2705
   -16.2656 -16.2644 -16.2614 -16.2594 -16.1268 -16.1261 -16.1179 -16.1177
     8.5583   9.9273  11.3349  12.2033  12.3659  12.7230  12.8582  13.2615
    13.4238  13.9096  13.9270  13.9956  14.0162  14.0281  14.1352  14.2765
    14.2907  14.3196  14.3576  14.3629  14.5232  14.6301  14.6370  14.8264
    14.8330  14.8825  14.9763  15.0152  15.0510  15.0521  15.0915  15.1014
    15.1255  15.1801  15.2024  15.2384  15.2439  15.2454  15.3151  15.3523
    15.3790  15.4171  15.4378  15.5161  15.5362  15.5606  15.5844  15.9351
    17.0079  17.2096  17.3252  17.3754  17.4093  17.5533  17.6283  17.6452
    17.6654  17.6826  17.7700  17.7867  17.9179  17.9443  17.9452  18.0053
    18.0133  18.0503  18.1175  18.2166  18.2512  18.3137  18.5305  18.5941

          k = 0.1694 0.1694-0.2329 ( 33708 PWs)   bands (ev):

   -70.0482 -70.0482 -70.0462 -70.0462 -70.0462 -70.0462 -70.0442 -70.0442
   -40.0955 -40.0955 -40.0870 -40.0870 -40.0571 -40.0571 -39.8751 -39.8751
   -36.1748 -36.1748 -36.1650 -36.1650 -36.1637 -36.1637 -36.1481 -36.1481
   -36.1202 -36.1202 -36.1162 -36.1162 -36.1154 -36.1154 -36.1149 -36.1149
   -36.1135 -36.1135 -36.1050 -36.1050 -36.1033 -36.1033 -36.0931 -36.0931
   -16.4479 -16.4479 -16.4450 -16.4450 -16.4010 -16.4010 -16.3929 -16.3929
   -16.3924 -16.3924 -16.3527 -16.3527 -16.3525 -16.3525 -16.3058 -16.3058
   -16.2656 -16.2656 -16.2619 -16.2619 -16.1223 -16.1223 -16.1219 -16.1219
     9.1969   9.1969  11.8087  11.8087  12.5376  12.5376  13.0884  13.0884
    13.6261  13.6261  14.1415  14.1415  14.1621  14.1621  14.1686  14.1686
    14.1948  14.1948  14.4233  14.4233  14.6217  14.6217  14.6587  14.6587
    14.7081  14.7081  14.9786  14.9786  15.0870  15.0870  15.0965  15.0965
    15.1191  15.1191  15.1859  15.1859  15.2330  15.2330  15.2627  15.2627
    15.3359  15.3359  15.3449  15.3449  15.4593  15.4593  15.7230  15.7230
    17.1668  17.1668  17.5515  17.5515  17.5992  17.5992  17.6304  17.6304
    17.6639  17.6639  17.8243  17.8243  17.8624  17.8624  17.9914  17.9914
    18.0106  18.0106  18.1014  18.1014  18.4045  18.4045  18.7421  18.7489

          k = 0.1694-0.2542-0.2329 ( 33692 PWs)   bands (ev):

   -70.0473 -70.0473 -70.0471 -70.0471 -70.0453 -70.0453 -70.0451 -70.0451
   -40.0913 -40.0913 -40.0874 -40.0874 -40.0603 -40.0603 -39.8757 -39.8757
   -36.1692 -36.1692 -36.1689 -36.1689 -36.1561 -36.1561 -36.1552 -36.1552
   -36.1165 -36.1165 -36.1163 -36.1163 -36.1147 -36.1147 -36.1144 -36.1144
   -36.1124 -36.1124 -36.1112 -36.1112 -36.0996 -36.0996 -36.0988 -36.0988
   -16.4443 -16.4443 -16.3993 -16.3993 -16.3919 -16.3919 -16.3679 -16.3679
   -16.3616 -16.3616 -16.3540 -16.3540 -16.3504 -16.3504 -16.3436 -16.3436
   -16.3079 -16.3079 -16.2634 -16.2634 -16.1572 -16.1572 -16.1227 -16.1227
     9.2356   9.2356  11.9670  11.9670  12.4649  12.4649  13.0629  13.0629
    13.6011  13.6011  14.1670  14.1670  14.2574  14.2574  14.4485  14.4485
    14.4508  14.4508  14.4648  14.4648  14.4789  14.4789  14.6135  14.6135
    14.7783  14.7783  14.8041  14.8041  15.0221  15.0221  15.0390  15.0390
    15.0844  15.0844  15.1062  15.1062  15.1154  15.1154  15.1661  15.1661
    15.2912  15.2912  15.3168  15.3168  15.3755  15.3755  15.4153  15.4153
    17.2072  17.2072  17.6509  17.6509  17.6752  17.6752  17.7239  17.7239
    17.8341  17.8341  17.9129  17.9129  17.9437  17.9437  17.9584  17.9584
    18.0181  18.0181  18.3692  18.3692  18.4619  18.4619  18.5084  18.5084

          k =-0.2542-0.2542-0.2329 ( 33704 PWs)   bands (ev):

   -70.0464 -70.0464 -70.0462 -70.0462 -70.0462 -70.0462 -70.0460 -70.0460
   -40.0869 -40.0869 -40.0869 -40.0869 -40.0648 -40.0648 -39.8763 -39.8763
   -36.1626 -36.1626 -36.1626 -36.1626 -36.1615 -36.1615 -36.1602 -36.1602
   -36.1154 -36.1154 -36.1154 -36.1154 -36.1152 -36.1152 -36.1148 -36.1148
   -36.1085 -36.1085 -36.1063 -36.1063 -36.1053 -36.1053 -36.1053 -36.1053
   -16.3904 -16.3904 -16.3670 -16.3670 -16.3642 -16.3642 -16.3589 -16.3589
   -16.3550 -16.3550 -16.3550 -16.3550 -16.3547 -16.3547 -16.3478 -16.3478
   -16.3478 -16.3478 -16.3099 -16.3099 -16.1578 -16.1578 -16.1578 -16.1578
     9.2674   9.2674  12.4562  12.4562  12.4563  12.4563  12.5382  12.5382
    13.6173  13.6173  14.4422  14.4422  14.4422  14.4422  14.4666  14.4666
    14.5608  14.5608  14.5609  14.5609  14.6051  14.6051  14.6605  14.6605
    14.8940  14.8941  14.8941  14.8941  14.9409  14.9409  14.9510  14.9510
    14.9510  14.9510  14.9568  14.9568  14.9674  14.9674  14.9841  14.9841
    15.1517  15.1517  15.1559  15.1559  15.1559  15.1559  15.1919  15.1919
    17.2393  17.2393  17.8025  17.8025  17.8025  17.8025  17.8274  17.8274
    17.9610  17.9610  17.9611  17.9611  17.9669  17.9669  18.0443  18.0443
    18.1437  18.1437  18.6621  18.6621  18.6621  18.6621  18.7151  18.7151

          k = 0.0847 0.0000 0.0000 ( 33729 PWs)   bands (ev):

   -70.0504 -70.0493 -70.0470 -70.0465 -70.0459 -70.0454 -70.0431 -70.0420
   -40.1135 -40.1038 -40.0972 -40.0772 -40.0550 -40.0377 -39.8855 -39.8587
   -36.1901 -36.1814 -36.1729 -36.1710 -36.1698 -36.1671 -36.1368 -36.1352
   -36.1341 -36.1265 -36.1265 -36.1263 -36.1209 -36.1202 -36.1117 -36.1068
   -36.1061 -36.1021 -36.1020 -36.1006 -36.0989 -36.0967 -36.0819 -36.0803
   -16.5578 -16.5527 -16.5310 -16.5252 -16.5030 -16.4693 -16.4540 -16.4464
   -16.4440 -16.4330 -16.4259 -16.3744 -16.2876 -16.2756 -16.2308 -16.2085
   -16.2040 -16.1927 -16.1784 -16.1680 -16.0763 -16.0607 -16.0551 -16.0402
     7.7662  10.4987  10.7063  12.5602  12.6118  12.6887  12.7588  13.0564
    13.1619  13.2471  13.2892  13.3785  13.3870  13.4203  13.7635  13.8636
    14.3976  14.4033  14.5660  14.6629  14.6645  14.6948  14.6985  14.7752
    14.8080  14.9580  14.9749  15.0034  15.0499  15.0842  15.4120  15.5225
    15.5226  15.5393  15.6052  15.6951  15.7494  15.8004  15.8489  15.9460
    15.9522  16.0793  16.2525  16.2725  16.4371  16.5311  16.5852  16.6004
    16.6066  16.7510  16.7863  16.9755  17.0859  17.1334  17.1817  17.2321
    17.2507  17.4682  17.5034  17.5497  17.6241  17.7022  17.7630  17.9280
    17.9900  18.0470  18.0680  18.0827  18.1710  18.1884  18.1983  18.4116

          k = 0.1694 0.0000 0.0000 ( 33701 PWs)   bands (ev):

   -70.0497 -70.0486 -70.0477 -70.0466 -70.0457 -70.0446 -70.0438 -70.0427
   -40.1095 -40.0976 -40.0968 -40.0791 -40.0583 -40.0410 -39.8867 -39.8599
   -36.1850 -36.1786 -36.1741 -36.1738 -36.1619 -36.1595 -36.1427 -36.1409
   -36.1281 -36.1253 -36.1251 -36.1223 -36.1221 -36.1215 -36.1107 -36.1086
   -36.1081 -36.1079 -36.1053 -36.1029 -36.0962 -36.0942 -36.0865 -36.0848
   -16.5543 -16.5466 -16.5231 -16.4753 -16.4645 -16.4560 -16.4429 -16.4398
   -16.4273 -16.3966 -16.3839 -16.3776 -16.2836 -16.2761 -16.2718 -16.2580
   -16.2283 -16.2146 -16.1777 -16.1669 -16.1291 -16.1119 -16.0559 -16.0414
     7.8775  10.5875  10.7429  11.9465  12.7076  12.9204  13.0205  13.2070
    13.2468  13.3517  13.4251  13.5086  13.5791  13.6711  13.8855  13.9077
    14.1447  14.1861  14.4387  14.5872  14.6152  14.6179  14.6868  14.7752
    14.8475  14.8762  15.1182  15.1639  15.1694  15.2027  15.3429  15.4231
    15.4866  15.5078  15.5356  15.5763  15.6426  15.6649  15.7868  15.8466
    15.8578  15.8977  16.0219  16.1195  16.1450  16.3752  16.3918  16.5089
    16.6346  16.6839  16.7221  16.7657  16.8128  16.9546  17.1265  17.1869
    17.2559  17.4347  17.4972  17.6217  17.6225  17.8654  17.8869  17.9938
    18.1510  18.1928  18.2960  18.3409  18.3914  18.4155  18.5221  18.6349

          k =-0.2542-0.0000-0.0000 ( 33646 PWs)   bands (ev):

   -70.0488 -70.0486 -70.0477 -70.0475 -70.0449 -70.0447 -70.0438 -70.0436
   -40.1071 -40.0968 -40.0932 -40.0814 -40.0601 -40.0426 -39.8873 -39.8605
   -36.1791 -36.1790 -36.1758 -36.1755 -36.1524 -36.1513 -36.1503 -36.1492
   -36.1238 -36.1236 -36.1233 -36.1233 -36.1195 -36.1182 -36.1164 -36.1150
   -36.1094 -36.1092 -36.1042 -36.1040 -36.0922 -36.0914 -36.0903 -36.0896
   -16.5525 -16.5432 -16.5221 -16.4787 -16.4571 -16.4428 -16.4276 -16.3886
   -16.3793 -16.3701 -16.3673 -16.3527 -16.3404 -16.3292 -16.2791 -16.2790
   -16.2240 -16.2207 -16.1773 -16.1663 -16.1652 -16.1464 -16.0563 -16.0421
     7.9373  10.6534  10.7613  11.6734  12.7677  13.0914  13.1336  13.3522
    13.3813  13.4074  13.5169  13.6978  13.7103  13.7657  13.8160  13.8200
    13.8586  14.0611  14.0660  14.6044  14.7635  14.7792  14.8648  14.8649
    14.8654  14.9557  14.9731  15.0612  15.1033  15.2776  15.4167  15.4284
    15.4355  15.5083  15.5139  15.5707  15.5904  15.7268  15.7870  15.8421
    15.8881  15.8882  15.9291  15.9363  15.9404  15.9857  15.9910  16.0941
    16.6484  16.6751  16.6842  16.7162  16.7211  17.2371  17.2478  17.3963
    17.4354  17.4511  17.4519  17.4639  17.6294  17.8852  17.9070  18.1961
    18.2059  18.2061  18.2173  18.4767  18.6740  18.7438  18.7580  18.7643

          k = 0.0847-0.0847 0.0000 ( 33701 PWs)   bands (ev):

   -70.0502 -70.0490 -70.0467 -70.0467 -70.0456 -70.0456 -70.0433 -70.0423
   -40.1117 -40.1013 -40.0968 -40.0774 -40.0567 -40.0395 -39.8861 -39.8593
   -36.1880 -36.1801 -36.1707 -36.1694 -36.1683 -36.1680 -36.1387 -36.1371
   -36.1322 -36.1261 -36.1261 -36.1251 -36.1213 -36.1206 -36.1113 -36.1065
   -36.1065 -36.1023 -36.1018 -36.1006 -36.0999 -36.0996 -36.0838 -36.0822
   -16.5562 -16.5290 -16.5277 -16.5020 -16.5020 -16.4510 -16.4468 -16.4429
   -16.4341 -16.4339 -16.4269 -16.3761 -16.2860 -16.2752 -16.2306 -16.2108
   -16.2050 -16.2022 -16.1923 -16.1922 -16.0771 -16.0765 -16.0613 -16.0612
     7.8129  10.5463  10.7261  12.4885  12.7254  12.7270  12.7445  12.8216
    13.1503  13.3123  13.3867  13.4206  13.4686  13.6859  13.8639  13.9072
    14.4182  14.5201  14.5379  14.5879  14.5906  14.6178  14.6504  14.7903
    14.8151  14.9827  14.9866  15.0103  15.0104  15.0222  15.3824  15.4318
    15.4367  15.4635  15.6197  15.6275  15.6328  15.8298  15.8488  15.9796
    16.0177  16.0454  16.0863  16.1756  16.2840  16.3615  16.6388  16.6457
    16.7097  16.7450  16.8043  16.8577  16.8808  16.8834  16.9443  17.1628
    17.3567  17.5452  17.5468  17.7130  17.7263  17.7507  17.8142  17.8960
    17.9508  18.0441  18.0872  18.2160  18.2684  18.2774  18.2970  18.5052

          k =-0.0847-0.0847-0.0000 ( 33701 PWs)   bands (ev):

   -70.0502 -70.0490 -70.0467 -70.0467 -70.0456 -70.0456 -70.0433 -70.0423
   -40.1117 -40.1013 -40.0968 -40.0774 -40.0567 -40.0395 -39.8861 -39.8593
   -36.1880 -36.1801 -36.1707 -36.1695 -36.1684 -36.1680 -36.1387 -36.1371
   -36.1322 -36.1261 -36.1261 -36.1251 -36.1213 -36.1206 -36.1113 -36.1065
   -36.1065 -36.1023 -36.1018 -36.1006 -36.0999 -36.0996 -36.0838 -36.0822
   -16.5562 -16.5290 -16.5277 -16.5020 -16.5020 -16.4510 -16.4469 -16.4429
   -16.4341 -16.4339 -16.4269 -16.3761 -16.2860 -16.2752 -16.2306 -16.2108
   -16.2050 -16.2022 -16.1923 -16.1922 -16.0771 -16.0765 -16.0613 -16.0612
     7.8129  10.5463  10.7261  12.4885  12.7254  12.7270  12.7445  12.8216
    13.1503  13.3123  13.3867  13.4206  13.4686  13.6859  13.8639  13.9072
    14.4183  14.5201  14.5379  14.5880  14.5906  14.6178  14.6504  14.7902
    14.8150  14.9827  14.9866  15.0103  15.0104  15.0222  15.3824  15.4318
    15.4367  15.4635  15.6197  15.6274  15.6328  15.8297  15.8488  15.9796
    16.0177  16.0454  16.0863  16.1756  16.2840  16.3615  16.6388  16.6458
    16.7097  16.7450  16.8043  16.8578  16.8808  16.8834  16.9442  17.1628
    17.3567  17.5452  17.5468  17.7130  17.7264  17.7507  17.8142  17.8961
    17.9509  18.0441  18.0872  18.2160  18.2683  18.2774  18.2969  18.5052

          k = 0.1694-0.0847 0.0000 ( 33677 PWs)   bands (ev):

   -70.0495 -70.0483 -70.0474 -70.0463 -70.0460 -70.0449 -70.0440 -70.0430
   -40.1074 -40.0963 -40.0951 -40.0787 -40.0604 -40.0433 -39.8873 -39.8605
   -36.1827 -36.1769 -36.1714 -36.1713 -36.1624 -36.1607 -36.1442 -36.1426
   -36.1264 -36.1251 -36.1249 -36.1223 -36.1218 -36.1212 -36.1103 -36.1075
   -36.1075 -36.1073 -36.1056 -36.1032 -36.0984 -36.0970 -36.0885 -36.0869
   -16.5530 -16.5226 -16.4999 -16.4621 -16.4549 -16.4411 -16.4386 -16.4360
   -16.4285 -16.3986 -16.3849 -16.3796 -16.2821 -16.2752 -16.2715 -16.2576
   -16.2289 -16.2165 -16.2028 -16.1911 -16.1297 -16.1124 -16.0777 -16.0625
     7.9116  10.6755  10.7662  11.9552  12.7820  12.8183  12.9413  13.0496
    13.3551  13.4671  13.4932  13.6583  13.7040  13.7341  13.9496  13.9585
    14.2039  14.2077  14.4433  14.5676  14.6320  14.7214  14.7455  14.7658
    14.7681  14.9182  15.0309  15.1040  15.1346  15.1475  15.2873  15.3024
    15.3434  15.4095  15.5271  15.5482  15.5669  15.6963  15.7375  15.7396
    15.7945  15.8443  15.9367  15.9622  16.0544  16.2651  16.3237  16.3388
    16.5453  16.6703  16.6975  16.7260  16.8456  17.0921  17.2152  17.2862
    17.3889  17.5865  17.7012  17.7129  17.7352  17.9003  17.9516  17.9615
    18.0531  18.0712  18.1027  18.3216  18.3944  18.3963  18.5197  18.6149

          k =-0.1694-0.0847-0.0000 ( 33677 PWs)   bands (ev):

   -70.0495 -70.0483 -70.0474 -70.0463 -70.0460 -70.0449 -70.0440 -70.0430
   -40.1074 -40.0963 -40.0951 -40.0787 -40.0604 -40.0433 -39.8873 -39.8605
   -36.1827 -36.1769 -36.1714 -36.1713 -36.1624 -36.1607 -36.1442 -36.1426
   -36.1264 -36.1251 -36.1249 -36.1223 -36.1218 -36.1212 -36.1103 -36.1075
   -36.1075 -36.1073 -36.1056 -36.1032 -36.0984 -36.0970 -36.0885 -36.0869
   -16.5530 -16.5226 -16.4999 -16.4621 -16.4549 -16.4411 -16.4386 -16.4360
   -16.4285 -16.3986 -16.3849 -16.3796 -16.2821 -16.2752 -16.2715 -16.2576
   -16.2289 -16.2165 -16.2028 -16.1911 -16.1297 -16.1124 -16.0777 -16.0625
     7.9116  10.6755  10.7662  11.9551  12.7820  12.8183  12.9413  13.0496
    13.3551  13.4671  13.4932  13.6583  13.7040  13.7341  13.9496  13.9585
    14.2039  14.2077  14.4433  14.5676  14.6320  14.7214  14.7454  14.7658
    14.7681  14.9182  15.0309  15.1041  15.1346  15.1475  15.2873  15.3024
    15.3435  15.4095  15.5272  15.5482  15.5669  15.6963  15.7375  15.7396
    15.7944  15.8443  15.9366  15.9622  16.0544  16.2651  16.3237  16.3388
    16.5453  16.6703  16.6975  16.7260  16.8456  17.0921  17.2152  17.2862
    17.3889  17.5865  17.7012  17.7129  17.7353  17.9003  17.9516  17.9615
    18.0531  18.0712  18.1027  18.3216  18.3944  18.3963  18.5197  18.6149

          k = 0.0000 0.1694 0.0776 ( 33701 PWs)   bands (ev):

   -70.0496 -70.0487 -70.0476 -70.0467 -70.0457 -70.0447 -70.0437 -70.0428
   -40.1087 -40.0984 -40.0956 -40.0803 -40.0571 -40.0421 -39.8849 -39.8617
   -36.1846 -36.1790 -36.1741 -36.1738 -36.1618 -36.1596 -36.1426 -36.1411
   -36.1279 -36.1240 -36.1237 -36.1227 -36.1209 -36.1208 -36.1117 -36.1090
   -36.1085 -36.1078 -36.1066 -36.1042 -36.0961 -36.0943 -36.0864 -36.0849
   -16.5450 -16.5338 -16.5247 -16.4740 -16.4628 -16.4574 -16.4417 -16.4314
   -16.4168 -16.3958 -16.3848 -16.3673 -16.2967 -16.2868 -16.2707 -16.2589
   -16.2445 -16.2293 -16.1770 -16.1676 -16.1280 -16.1130 -16.0550 -16.0424
     8.0256  10.4692  10.6985  12.0275  12.5099  13.0093  13.0651  13.1612
    13.2501  13.4303  13.4916  13.5748  13.6261  13.6822  13.9285  13.9472
    14.1452  14.1525  14.4037  14.5764  14.5953  14.6152  14.7321  14.7409
    14.7712  14.9069  15.0324  15.1342  15.1350  15.1613  15.3305  15.4414
    15.4647  15.4774  15.5005  15.6065  15.6204  15.6313  15.7012  15.7593
    15.8150  15.9199  15.9577  15.9783  16.0522  16.1027  16.1444  16.4666
    16.6452  16.8927  16.9173  17.0207  17.0572  17.0735  17.2028  17.2032
    17.2723  17.4252  17.5185  17.5394  17.6128  17.6782  17.8239  17.9103
    17.9940  18.2167  18.2636  18.2818  18.3495  18.3678  18.4289  18.6080

          k =-0.2542-0.0847-0.0000 ( 33698 PWs)   bands (ev):

   -70.0485 -70.0484 -70.0474 -70.0472 -70.0451 -70.0449 -70.0440 -70.0438
   -40.1047 -40.0963 -40.0905 -40.0808 -40.0625 -40.0454 -39.8879 -39.8611
   -36.1766 -36.1765 -36.1737 -36.1734 -36.1533 -36.1522 -36.1516 -36.1506
   -36.1238 -36.1236 -36.1234 -36.1233 -36.1182 -36.1168 -36.1155 -36.1141
   -36.1090 -36.1088 -36.1045 -36.1043 -36.0944 -36.0936 -36.0929 -36.0920
   -16.5513 -16.5193 -16.4988 -16.4581 -16.4406 -16.4371 -16.4288 -16.3857
   -16.3815 -16.3694 -16.3651 -16.3523 -16.3432 -16.3314 -16.2777 -16.2776
   -16.2254 -16.2221 -16.2026 -16.1906 -16.1656 -16.1468 -16.0782 -16.0631
     7.9640  10.7787  10.7864  11.6676  12.8314  12.8770  13.0263  13.4060
    13.4702  13.5001  13.6796  13.7462  13.7537  13.7945  13.9047  13.9128
    13.9709  14.0957  14.0982  14.6424  14.7995  14.8168  14.8236  14.8245
    14.8568  14.9880  15.0449  15.1140  15.1294  15.1943  15.1947  15.2860
    15.2871  15.4405  15.4418  15.4545  15.4601  15.5854  15.7443  15.7470
    15.7597  15.7847  15.7914  15.8268  15.8842  15.9269  16.0265  16.0281
    16.6965  16.6991  16.7442  16.7498  16.7505  17.3346  17.4008  17.4967
    17.5370  17.5477  17.5702  17.5764  17.7122  17.8857  17.9648  18.1392
    18.1416  18.1743  18.1760  18.1952  18.5650  18.6216  18.6564  18.6674

          k =-0.0000-0.2542 0.0776 ( 33642 PWs)   bands (ev):

   -70.0487 -70.0485 -70.0478 -70.0476 -70.0448 -70.0446 -70.0438 -70.0437
   -40.1062 -40.0958 -40.0941 -40.0824 -40.0589 -40.0438 -39.8856 -39.8623
   -36.1789 -36.1788 -36.1761 -36.1758 -36.1522 -36.1511 -36.1504 -36.1494
   -36.1228 -36.1226 -36.1225 -36.1223 -36.1189 -36.1176 -36.1168 -36.1155
   -36.1101 -36.1098 -36.1055 -36.1053 -36.0921 -36.0913 -36.0905 -36.0897
   -16.5418 -16.5319 -16.5235 -16.4773 -16.4585 -16.4320 -16.4169 -16.3873
   -16.3690 -16.3690 -16.3685 -16.3538 -16.3397 -16.3299 -16.2914 -16.2901
   -16.2410 -16.2346 -16.1766 -16.1670 -16.1638 -16.1476 -16.0554 -16.0430
     8.0856  10.4987  10.7537  11.7747  12.5008  13.1647  13.2118  13.2871
    13.4427  13.5294  13.5971  13.7293  13.7700  13.7898  13.8009  13.8353
    13.8751  14.0655  14.1363  14.6462  14.7891  14.7911  14.8000  14.8093
    14.8306  14.8508  14.8822  14.9782  15.1889  15.3029  15.3278  15.3709
    15.4734  15.5438  15.5502  15.5535  15.5864  15.5948  15.5969  15.6468
    15.6475  15.7571  15.7650  15.7961  15.8759  16.0307  16.1111  16.1150
    16.7284  16.8865  16.9052  16.9190  16.9219  17.2514  17.2638  17.4295
    17.4383  17.4467  17.4558  17.4868  17.6600  17.7569  17.9594  18.0675
    18.0874  18.1519  18.1844  18.1933  18.2187  18.3617  18.6536  18.7352

          k = 0.1694-0.1694 0.0000 ( 33678 PWs)   bands (ev):

   -70.0487 -70.0476 -70.0467 -70.0467 -70.0456 -70.0456 -70.0448 -70.0437
   -40.1022 -40.0954 -40.0888 -40.0785 -40.0654 -40.0488 -39.8884 -39.8617
   -36.1769 -36.1728 -36.1663 -36.1648 -36.1637 -36.1625 -36.1486 -36.1475
   -36.1244 -36.1243 -36.1228 -36.1224 -36.1214 -36.1177 -36.1093 -36.1066
   -36.1066 -36.1061 -36.1047 -36.1041 -36.1038 -36.1026 -36.0936 -36.0924
   -16.5502 -16.4594 -16.4541 -16.4373 -16.4362 -16.4360 -16.4307 -16.4101
   -16.3975 -16.3874 -16.3868 -16.3840 -16.2783 -16.2746 -16.2738 -16.2670
   -16.2571 -16.2568 -16.2294 -16.2212 -16.1313 -16.1303 -16.1135 -16.1134
     7.9823  10.8138  10.9162  11.8734  12.3659  12.9221  13.1174  13.1341
    13.6088  13.6524  13.7630  13.7916  13.8320  13.8742  13.9780  14.0014
    14.2391  14.4132  14.4428  14.4777  14.5939  14.6616  14.7493  14.8073
    14.9533  14.9636  14.9973  15.0268  15.0479  15.0856  15.1052  15.1143
    15.1619  15.3064  15.3584  15.3634  15.3878  15.5050  15.5917  15.6478
    15.7061  15.7596  15.7782  15.7998  15.9035  15.9471  15.9510  16.0171
    16.7080  16.7203  16.7298  16.8025  16.8409  17.4498  17.4652  17.4751
    17.5777  17.7284  17.8335  17.8551  17.8663  17.9148  17.9163  17.9978
    18.0339  18.0348  18.1996  18.2842  18.2865  18.3006  18.3438  18.4445

          k =-0.1694-0.1694-0.0000 ( 33678 PWs)   bands (ev):

   -70.0487 -70.0476 -70.0467 -70.0467 -70.0456 -70.0456 -70.0448 -70.0437
   -40.1022 -40.0954 -40.0888 -40.0785 -40.0654 -40.0488 -39.8884 -39.8617
   -36.1769 -36.1728 -36.1663 -36.1648 -36.1637 -36.1625 -36.1486 -36.1475
   -36.1244 -36.1243 -36.1228 -36.1224 -36.1214 -36.1177 -36.1093 -36.1066
   -36.1066 -36.1061 -36.1047 -36.1041 -36.1038 -36.1026 -36.0936 -36.0924
   -16.5502 -16.4594 -16.4541 -16.4373 -16.4362 -16.4360 -16.4307 -16.4101
   -16.3975 -16.3874 -16.3868 -16.3840 -16.2783 -16.2746 -16.2738 -16.2670
   -16.2571 -16.2568 -16.2294 -16.2212 -16.1313 -16.1303 -16.1135 -16.1134
     7.9823  10.8138  10.9162  11.8734  12.3659  12.9221  13.1174  13.1340
    13.6088  13.6525  13.7629  13.7916  13.8320  13.8742  13.9780  14.0015
    14.2391  14.4132  14.4428  14.4777  14.5939  14.6617  14.7493  14.8073
    14.9534  14.9636  14.9973  15.0268  15.0479  15.0856  15.1053  15.1142
    15.1619  15.3064  15.3584  15.3634  15.3878  15.5050  15.5917  15.6478
    15.7061  15.7596  15.7783  15.7997  15.9035  15.9470  15.9510  16.0171
    16.7080  16.7203  16.7298  16.8026  16.8408  17.4499  17.4652  17.4751
    17.5777  17.7284  17.8334  17.8552  17.8663  17.9148  17.9163  17.9978
    18.0340  18.0349  18.1996  18.2841  18.2865  18.3006  18.3438  18.4445

          k =-0.2542-0.1694-0.0000 ( 33700 PWs)   bands (ev):

   -70.0478 -70.0476 -70.0467 -70.0465 -70.0458 -70.0457 -70.0447 -70.0446
   -40.0988 -40.0952 -40.0838 -40.0796 -40.0685 -40.0521 -39.8890 -39.8624
   -36.1702 -36.1699 -36.1684 -36.1681 -36.1561 -36.1557 -36.1551 -36.1549
   -36.1237 -36.1235 -36.1234 -36.1232 -36.1140 -36.1128 -36.1127 -36.1111
   -36.1081 -36.1079 -36.1055 -36.1053 -36.0996 -36.0994 -36.0990 -36.0984
   -16.5488 -16.4539 -16.4356 -16.4347 -16.4314 -16.4082 -16.3883 -16.3865
   -16.3775 -16.3681 -16.3596 -16.3516 -16.3505 -16.3369 -16.2747 -16.2747
   -16.2703 -16.2567 -16.2284 -16.2250 -16.1668 -16.1476 -16.1313 -16.1139
     8.0189  10.8380  11.1362  11.6520  12.2790  12.9179  13.1766  13.4368
    13.7749  13.7944  13.8066  13.8333  13.8434  13.8464  14.1604  14.1668
    14.1668  14.1679  14.2429  14.6844  14.7702  14.8281  14.8495  14.8582
    14.8618  14.8650  14.8703  14.8763  14.9262  15.0388  15.0541  15.1163
    15.2107  15.2226  15.2265  15.2948  15.3996  15.4166  15.5624  15.5683
    15.5924  15.6103  15.6736  15.6906  15.7338  15.7410  15.9660  15.9729
    16.7179  16.7308  16.7645  16.7872  16.9429  17.5570  17.6070  17.7301
    17.7396  17.7706  17.8618  17.8692  17.8738  17.8878  17.8970  18.0302
    18.0851  18.0921  18.1265  18.1385  18.2848  18.3341  18.3970  18.4209

          k =-0.0000-0.2542 0.1553 ( 33646 PWs)   bands (ev):

   -70.0485 -70.0483 -70.0480 -70.0478 -70.0446 -70.0444 -70.0440 -70.0439
   -40.1036 -40.0966 -40.0929 -40.0852 -40.0557 -40.0470 -39.8807 -39.8672
   -36.1783 -36.1782 -36.1767 -36.1764 -36.1518 -36.1508 -36.1508 -36.1497
   -36.1214 -36.1209 -36.1189 -36.1187 -36.1180 -36.1172 -36.1168 -36.1161
   -36.1120 -36.1116 -36.1091 -36.1089 -36.0918 -36.0910 -36.0908 -36.0900
   -16.5379 -16.5273 -16.4756 -16.4733 -16.4625 -16.4028 -16.3875 -16.3841
   -16.3716 -16.3663 -16.3566 -16.3408 -16.3378 -16.3320 -16.3295 -16.3198
   -16.2913 -16.2633 -16.1746 -16.1690 -16.1603 -16.1510 -16.0528 -16.0456
     8.5097   9.8712  11.0423  12.0012  12.0638  12.9604  13.3515  13.4210
    13.5184  13.7066  13.7505  13.7954  13.8109  13.8247  13.8518  13.9807
    14.0650  14.0809  14.2233  14.6026  14.6866  14.7194  14.7283  14.7311
    14.7365  14.7439  14.7648  14.7916  15.1975  15.2204  15.2221  15.2886
    15.3329  15.3629  15.4158  15.4534  15.4783  15.4834  15.5413  15.5633
    15.5777  15.6180  15.7222  15.8137  15.8569  15.8578  16.1392  16.1538
    16.9213  17.1761  17.2133  17.2309  17.2351  17.3023  17.3191  17.3404
    17.4301  17.4514  17.4919  17.5357  17.6827  17.6863  17.7339  17.7432
    17.7969  17.8795  18.1276  18.1679  18.1772  18.2021  18.5357  18.5768

          k =-0.2542 0.2542-0.0000 ( 33704 PWs)   bands (ev):

   -70.0469 -70.0467 -70.0467 -70.0466 -70.0458 -70.0456 -70.0456 -70.0454
   -40.0947 -40.0947 -40.0790 -40.0790 -40.0726 -40.0569 -39.8895 -39.8630
   -36.1638 -36.1638 -36.1633 -36.1622 -36.1613 -36.1613 -36.1595 -36.1582
   -36.1236 -36.1235 -36.1235 -36.1232 -36.1098 -36.1075 -36.1074 -36.1074
   -36.1073 -36.1069 -36.1067 -36.1067 -36.1065 -36.1051 -36.1039 -36.1039
   -16.5475 -16.4327 -16.4327 -16.3895 -16.3805 -16.3763 -16.3629 -16.3586
   -16.3578 -16.3578 -16.3557 -16.3549 -16.3515 -16.3508 -16.3412 -16.3412
   -16.2731 -16.2731 -16.2300 -16.2266 -16.1674 -16.1674 -16.1480 -16.1480
     8.0472  10.8645  11.6418  11.6419  11.6974  12.8708  13.4700  13.4700
    13.7067  13.8759  13.8810  13.8811  14.0625  14.1128  14.1144  14.1144
    14.5049  14.5049  14.5297  14.5473  14.5726  14.6059  14.6060  14.6540
    14.7309  14.8684  14.8684  14.8890  14.9297  14.9808  14.9808  15.0195
    15.0390  15.1098  15.1124  15.1124  15.5346  15.5346  15.5478  15.5478
    15.5526  15.5614  15.6550  15.6552  15.6943  15.7230  15.7491  15.7491
    16.7329  16.7609  16.7609  16.7769  17.0392  17.7118  17.7118  17.7487
    17.8104  17.9512  17.9512  17.9962  18.0242  18.0607  18.0619  18.0620
    18.1202  18.1202  18.1326  18.1430  18.1890  18.1954  18.1954  18.2036

          k = 0.0847-0.0847 0.0776 ( 33729 PWs)   bands (ev):

   -70.0501 -70.0491 -70.0466 -70.0466 -70.0457 -70.0457 -70.0433 -70.0423
   -40.1110 -40.1020 -40.0955 -40.0787 -40.0556 -40.0407 -39.8843 -39.8611
   -36.1875 -36.1806 -36.1705 -36.1694 -36.1684 -36.1682 -36.1386 -36.1372
   -36.1318 -36.1256 -36.1247 -36.1247 -36.1201 -36.1200 -36.1120 -36.1078
   -36.1078 -36.1036 -36.1016 -36.1005 -36.0999 -36.0997 -36.0837 -36.0823
   -16.5357 -16.5272 -16.5259 -16.5037 -16.5036 -16.4499 -16.4461 -16.4353
   -16.4349 -16.4312 -16.4168 -16.3657 -16.2994 -16.2854 -16.2467 -16.2256
   -16.2041 -16.2015 -16.1931 -16.1928 -16.0760 -16.0755 -16.0623 -16.0623
     7.9610  10.4396  10.6659  12.5390  12.6134  12.7440  12.8038  12.9029
    13.0499  13.3773  13.4263  13.4589  13.5204  13.7396  13.8907  13.9614
    14.3840  14.4175  14.4749  14.5048  14.5280  14.6055  14.6303  14.7456
    14.8627  14.9258  15.0219  15.0765  15.0824  15.1674  15.2153  15.3557
    15.3706  15.5022  15.6080  15.6193  15.6414  15.7833  15.7890  15.9174
    15.9471  16.0466  16.1000  16.1142  16.1370  16.3097  16.3117  16.3162
    16.7059  16.7294  16.8993  16.9178  17.0962  17.1792  17.2252  17.2315
    17.3879  17.4551  17.4668  17.6745  17.7667  17.7876  17.7923  17.8108
    18.0202  18.0300  18.0549  18.0574  18.1478  18.4400  18.4430  18.4646

          k = 0.0847-0.0847 0.1553 ( 33703 PWs)   bands (ev):

   -70.0499 -70.0493 -70.0464 -70.0464 -70.0459 -70.0459 -70.0431 -70.0425
   -40.1091 -40.1039 -40.0920 -40.0822 -40.0524 -40.0438 -39.8794 -39.8660
   -36.1860 -36.1820 -36.1700 -36.1692 -36.1687 -36.1686 -36.1383 -36.1375
   -36.1305 -36.1269 -36.1212 -36.1211 -36.1184 -36.1165 -36.1138 -36.1114
   -36.1113 -36.1071 -36.1012 -36.1002 -36.1001 -36.0999 -36.0834 -36.0826
   -16.5221 -16.5211 -16.5087 -16.5082 -16.4797 -16.4470 -16.4438 -16.4385
   -16.4374 -16.3985 -16.3892 -16.3393 -16.3374 -16.3134 -16.2945 -16.2582
   -16.2017 -16.1997 -16.1954 -16.1947 -16.0731 -16.0727 -16.0652 -16.0651
     8.3858   9.7748  11.0117  12.1469  12.6560  12.7740  12.9167  12.9987
    13.1651  13.5506  13.5641  13.5700  13.6719  13.8200  13.8741  13.9453
    14.0575  14.2083  14.4155  14.4230  14.5115  14.5274  14.5352  14.6865
    14.8955  15.0309  15.0611  15.1212  15.2087  15.2690  15.2881  15.3510
    15.4773  15.4922  15.5110  15.5413  15.5719  15.5884  15.6153  15.7138
    15.7168  15.7462  15.7698  15.9306  16.1438  16.1722  16.1878  16.2995
    16.6716  16.9549  17.1648  17.1890  17.2035  17.2397  17.3261  17.3408
    17.3656  17.4054  17.5009  17.5797  17.5965  17.6542  17.8232  17.8816
    17.9501  17.9614  17.9959  18.0377  18.3625  18.4023  18.6516  18.7843

          k = 0.1694-0.0847 0.0776 ( 33702 PWs)   bands (ev):

   -70.0494 -70.0484 -70.0474 -70.0464 -70.0459 -70.0450 -70.0440 -70.0430
   -40.1065 -40.0959 -40.0951 -40.0799 -40.0593 -40.0445 -39.8855 -39.8623
   -36.1823 -36.1773 -36.1714 -36.1713 -36.1623 -36.1608 -36.1441 -36.1427
   -36.1264 -36.1237 -36.1234 -36.1216 -36.1211 -36.1210 -36.1113 -36.1086
   -36.1074 -36.1071 -36.1069 -36.1045 -36.0983 -36.0971 -36.0884 -36.0870
   -16.5324 -16.5210 -16.5014 -16.4605 -16.4536 -16.4404 -16.4373 -16.4297
   -16.4180 -16.3977 -16.3859 -16.3692 -16.2949 -16.2858 -16.2704 -16.2585
   -16.2454 -16.2312 -16.2020 -16.1919 -16.1285 -16.1136 -16.0767 -16.0635
     8.0601  10.4970  10.7862  12.0372  12.6202  12.8593  13.0186  13.0211
    13.3199  13.5411  13.5590  13.7019  13.7303  13.8066  13.9951  14.0211
    14.1774  14.1894  14.4459  14.5594  14.5954  14.6445  14.7243  14.7387
    14.8143  14.9445  15.0275  15.0632  15.0803  15.1254  15.2410  15.3041
    15.3335  15.3664  15.4782  15.5162  15.5765  15.6365  15.6425  15.7207
    15.7239  15.7913  15.8199  15.8771  15.8888  16.0104  16.0762  16.2117
    16.6321  16.9074  17.0114  17.0205  17.0481  17.1499  17.2937  17.3079
    17.3863  17.6025  17.6629  17.6869  17.7060  17.8092  17.8688  17.9582
    18.0016  18.1045  18.1125  18.2268  18.3342  18.4000  18.4721  18.5536

          k =-0.1694-0.0847-0.0776 ( 33702 PWs)   bands (ev):

   -70.0494 -70.0484 -70.0474 -70.0464 -70.0459 -70.0450 -70.0440 -70.0430
   -40.1065 -40.0959 -40.0951 -40.0799 -40.0593 -40.0445 -39.8855 -39.8623
   -36.1823 -36.1773 -36.1714 -36.1713 -36.1623 -36.1608 -36.1441 -36.1427
   -36.1264 -36.1237 -36.1234 -36.1216 -36.1211 -36.1210 -36.1113 -36.1086
   -36.1074 -36.1071 -36.1069 -36.1045 -36.0983 -36.0971 -36.0884 -36.0870
   -16.5324 -16.5210 -16.5014 -16.4605 -16.4536 -16.4404 -16.4373 -16.4297
   -16.4180 -16.3977 -16.3859 -16.3692 -16.2949 -16.2858 -16.2704 -16.2585
   -16.2454 -16.2312 -16.2020 -16.1919 -16.1285 -16.1136 -16.0767 -16.0635
     8.0601  10.4970  10.7862  12.0371  12.6202  12.8593  13.0186  13.0211
    13.3199  13.5411  13.5590  13.7019  13.7303  13.8066  13.9951  14.0211
    14.1774  14.1894  14.4459  14.5594  14.5954  14.6445  14.7243  14.7387
    14.8143  14.9445  15.0275  15.0632  15.0803  15.1254  15.2410  15.3041
    15.3335  15.3664  15.4782  15.5162  15.5765  15.6365  15.6425  15.7207
    15.7239  15.7913  15.8199  15.8770  15.8888  16.0104  16.0762  16.2118
    16.6321  16.9073  17.0114  17.0205  17.0481  17.1499  17.2937  17.3079
    17.3863  17.6025  17.6629  17.6869  17.7060  17.8092  17.8688  17.9582
    18.0016  18.1045  18.1125  18.2267  18.3342  18.4000  18.4721  18.5536

          k = 0.0847-0.0847-0.2329 ( 33732 PWs)   bands (ev):

   -70.0496 -70.0496 -70.0462 -70.0462 -70.0462 -70.0462 -70.0428 -70.0428
   -40.1065 -40.1065 -40.0871 -40.0871 -40.0481 -40.0481 -39.8727 -39.8727
   -36.1840 -36.1840 -36.1694 -36.1694 -36.1689 -36.1689 -36.1379 -36.1379
   -36.1287 -36.1287 -36.1163 -36.1163 -36.1162 -36.1162 -36.1161 -36.1161
   -36.1118 -36.1118 -36.1007 -36.1007 -36.1000 -36.1000 -36.0830 -36.0830
   -16.5153 -16.5153 -16.5146 -16.5146 -16.4429 -16.4429 -16.4407 -16.4407
   -16.4053 -16.4053 -16.3514 -16.3514 -16.3510 -16.3510 -16.2983 -16.2983
   -16.1986 -16.1986 -16.1972 -16.1972 -16.0691 -16.0691 -16.0689 -16.0689
     9.0270   9.0270  11.5387  11.5387  12.7543  12.7543  12.9911  12.9911
    13.5784  13.5784  13.7080  13.7080  13.7326  13.7326  13.8082  13.8082
    13.9104  13.9104  14.4459  14.4459  14.4486  14.4486  14.6788  14.6788
    14.9786  14.9786  15.1212  15.1213  15.1749  15.1749  15.3017  15.3017
    15.4907  15.4907  15.5216  15.5216  15.6038  15.6038  15.6307  15.6307
    15.6842  15.6842  15.7932  15.7932  15.8503  15.8503  16.2246  16.2246
    17.0193  17.0193  17.2404  17.2404  17.3163  17.3163  17.3202  17.3202
    17.3800  17.3800  17.4150  17.4150  17.5620  17.5620  17.8609  17.8609
    17.9996  17.9996  18.0134  18.0134  18.4256  18.4256  18.8001  18.8001

          k =-0.2542-0.0847 0.0776 ( 33668 PWs)   bands (ev):

   -70.0485 -70.0483 -70.0475 -70.0473 -70.0450 -70.0449 -70.0441 -70.0439
   -40.1038 -40.0952 -40.0914 -40.0818 -40.0614 -40.0465 -39.8861 -39.8629
   -36.1764 -36.1763 -36.1739 -36.1736 -36.1532 -36.1521 -36.1517 -36.1508
   -36.1227 -36.1225 -36.1225 -36.1222 -36.1177 -36.1164 -36.1159 -36.1145
   -36.1098 -36.1095 -36.1058 -36.1056 -36.0943 -36.0935 -36.0930 -36.0922
   -16.5306 -16.5179 -16.5001 -16.4567 -16.4385 -16.4299 -16.4181 -16.3844
   -16.3712 -16.3684 -16.3663 -16.3534 -16.3425 -16.3322 -16.2897 -16.2887
   -16.2427 -16.2360 -16.2017 -16.1914 -16.1643 -16.1480 -16.0772 -16.0641
     8.1128  10.5264  10.8793  11.7686  12.6187  12.9200  13.1057  13.2836
    13.5481  13.6408  13.7539  13.7591  13.8277  13.8472  13.9183  13.9293
    13.9364  14.1077  14.1732  14.6786  14.7803  14.8063  14.8230  14.8262
    14.8469  14.8707  14.9303  14.9621  15.2033  15.2037  15.2635  15.2661
    15.2784  15.4208  15.4313  15.4340  15.4552  15.4942  15.5103  15.5706
    15.5948  15.6153  15.6760  15.7127  15.7586  15.8415  16.0636  16.0698
    16.8146  16.9320  16.9439  16.9610  16.9615  17.3402  17.4252  17.5221
    17.5627  17.5726  17.5760  17.5914  17.7190  17.8075  17.9646  18.0536
    18.0685  18.1275  18.1802  18.1934  18.2528  18.2812  18.6063  18.6576

          k = 0.1694-0.0847 0.1553 ( 33693 PWs)   bands (ev):

   -70.0492 -70.0486 -70.0472 -70.0466 -70.0457 -70.0452 -70.0438 -70.0432
   -40.1043 -40.0982 -40.0919 -40.0831 -40.0562 -40.0476 -39.8806 -39.8672
   -36.1813 -36.1784 -36.1714 -36.1713 -36.1620 -36.1611 -36.1438 -36.1430
   -36.1256 -36.1227 -36.1203 -36.1200 -36.1192 -36.1175 -36.1137 -36.1117
   -36.1105 -36.1080 -36.1072 -36.1069 -36.0980 -36.0973 -36.0881 -36.0873
   -16.5168 -16.5055 -16.4762 -16.4563 -16.4502 -16.4444 -16.4408 -16.3989
   -16.3954 -16.3906 -16.3870 -16.3409 -16.3332 -16.3150 -16.2948 -16.2680
   -16.2622 -16.2610 -16.1998 -16.1940 -16.1253 -16.1167 -16.0739 -16.0663
     8.4850   9.8575  11.1051  12.1442  12.2631  12.8633  13.0439  13.2599
    13.2675  13.7056  13.7235  13.8315  13.8373  13.9718  13.9732  14.0312
    14.0671  14.2784  14.3138  14.4913  14.5245  14.5599  14.6509  14.6700
    14.8131  14.9503  14.9769  14.9927  15.0468  15.1492  15.2904  15.3494
    15.3672  15.3684  15.3829  15.4109  15.4363  15.4364  15.4881  15.5446
    15.5557  15.5700  15.5847  15.6515  15.8588  15.9103  15.9247  16.1383
    16.8503  17.1869  17.2494  17.2864  17.3048  17.3188  17.4021  17.4570
    17.4850  17.5651  17.5831  17.6157  17.6474  17.7231  17.7255  17.8755
    17.9682  17.9794  18.1336  18.1430  18.2702  18.2826  18.5621  18.5970

          k = 0.1694-0.1694 0.0776 ( 33694 PWs)   bands (ev):

   -70.0487 -70.0477 -70.0467 -70.0467 -70.0457 -70.0457 -70.0447 -70.0437
   -40.1013 -40.0943 -40.0897 -40.0796 -40.0643 -40.0499 -39.8866 -39.8635
   -36.1766 -36.1730 -36.1661 -36.1647 -36.1639 -36.1627 -36.1485 -36.1476
   -36.1235 -36.1231 -36.1216 -36.1215 -36.1208 -36.1180 -36.1104 -36.1078
   -36.1077 -36.1060 -36.1054 -36.1045 -36.1040 -36.1026 -36.0935 -36.0925
   -16.5295 -16.4578 -16.4529 -16.4378 -16.4373 -16.4262 -16.4202 -16.4087
   -16.3968 -16.3889 -16.3876 -16.3736 -16.2906 -16.2844 -16.2732 -16.2663
   -16.2583 -16.2575 -16.2466 -16.2359 -16.1301 -16.1291 -16.1146 -16.1145
     8.1315  10.5541  11.0240  11.9608  12.4599  12.8737  13.0103  13.0662
    13.5981  13.7225  13.8238  13.8486  13.9112  13.9119  14.0396  14.0618
    14.2540  14.4127  14.4463  14.4883  14.5269  14.6542  14.6784  14.8901
    14.9166  14.9842  14.9854  15.0104  15.0589  15.0659  15.0824  15.1280
    15.1284  15.1416  15.3157  15.3335  15.3492  15.4920  15.5235  15.5525
    15.5906  15.6194  15.6243  15.6629  15.7056  15.7091  15.7798  16.0361
    16.8634  16.9333  16.9952  17.0160  17.0691  17.4752  17.5062  17.5486
    17.5706  17.7529  17.8163  17.8423  17.8634  17.9054  17.9471  18.0173
    18.0635  18.0919  18.1197  18.2244  18.2401  18.2878  18.3736  18.5224

          k =-0.1694-0.1694-0.0776 ( 33692 PWs)   bands (ev):

   -70.0487 -70.0477 -70.0467 -70.0467 -70.0457 -70.0457 -70.0447 -70.0437
   -40.1013 -40.0943 -40.0897 -40.0796 -40.0643 -40.0499 -39.8866 -39.8635
   -36.1766 -36.1730 -36.1661 -36.1647 -36.1639 -36.1627 -36.1485 -36.1476
   -36.1235 -36.1231 -36.1217 -36.1215 -36.1208 -36.1180 -36.1104 -36.1078
   -36.1077 -36.1060 -36.1054 -36.1045 -36.1040 -36.1026 -36.0935 -36.0925
   -16.5295 -16.4578 -16.4529 -16.4378 -16.4373 -16.4262 -16.4202 -16.4086
   -16.3968 -16.3889 -16.3876 -16.3736 -16.2906 -16.2844 -16.2732 -16.2663
   -16.2583 -16.2575 -16.2466 -16.2359 -16.1301 -16.1291 -16.1146 -16.1145
     8.1315  10.5541  11.0240  11.9608  12.4599  12.8737  13.0103  13.0661
    13.5982  13.7225  13.8238  13.8486  13.9112  13.9119  14.0397  14.0618
    14.2540  14.4128  14.4463  14.4883  14.5268  14.6543  14.6784  14.8901
    14.9166  14.9842  14.9854  15.0104  15.0589  15.0659  15.0824  15.1280
    15.1284  15.1415  15.3157  15.3335  15.3493  15.4920  15.5235  15.5525
    15.5906  15.6194  15.6243  15.6629  15.7056  15.7091  15.7798  16.0361
    16.8634  16.9333  16.9952  17.0160  17.0691  17.4752  17.5062  17.5486
    17.5706  17.7529  17.8164  17.8423  17.8634  17.9054  17.9471  18.0174
    18.0635  18.0920  18.1197  18.2243  18.2401  18.2877  18.3735  18.5225

          k = 0.1694-0.0847-0.2329 ( 33694 PWs)   bands (ev):

   -70.0489 -70.0489 -70.0469 -70.0469 -70.0455 -70.0455 -70.0435 -70.0435
   -40.1012 -40.1012 -40.0875 -40.0875 -40.0519 -40.0519 -39.8739 -39.8739
   -36.1798 -36.1798 -36.1713 -36.1713 -36.1616 -36.1616 -36.1434 -36.1434
   -36.1242 -36.1242 -36.1165 -36.1165 -36.1158 -36.1158 -36.1153 -36.1153
   -36.1127 -36.1127 -36.1070 -36.1070 -36.0977 -36.0976 -36.0877 -36.0877
   -16.5111 -16.5111 -16.4506 -16.4506 -16.4456 -16.4456 -16.4008 -16.4008
   -16.3912 -16.3912 -16.3563 -16.3563 -16.3476 -16.3476 -16.3020 -16.3020
   -16.2644 -16.2644 -16.1969 -16.1969 -16.1210 -16.1210 -16.0701 -16.0701
     9.1228   9.1228  11.5878  11.5878  12.5714  12.5714  13.2065  13.2065
    13.6332  13.6332  13.8788  13.8788  13.8994  13.8994  13.9967  13.9967
    14.0688  14.0688  14.4223  14.4223  14.5509  14.5509  14.6663  14.6663
    14.7460  14.7460  14.9484  14.9484  15.2195  15.2195  15.2355  15.2355
    15.2937  15.2937  15.3278  15.3278  15.4431  15.4431  15.4799  15.4799
    15.5582  15.5582  15.6170  15.6170  15.6451  15.6451  16.0629  16.0629
    17.0871  17.0871  17.4219  17.4219  17.4388  17.4388  17.4480  17.4480
    17.4714  17.4714  17.5821  17.5821  17.7377  17.7377  17.7742  17.7742
    17.8414  17.8414  18.0958  18.0958  18.2659  18.2659  18.7010  18.7010

          k =-0.2542-0.1694 0.0776 ( 33686 PWs)   bands (ev):

   -70.0477 -70.0476 -70.0468 -70.0466 -70.0458 -70.0456 -70.0448 -70.0446
   -40.0978 -40.0942 -40.0848 -40.0807 -40.0674 -40.0532 -39.8872 -39.8641
   -36.1701 -36.1697 -36.1685 -36.1682 -36.1561 -36.1557 -36.1551 -36.1550
   -36.1225 -36.1225 -36.1225 -36.1221 -36.1138 -36.1129 -36.1126 -36.1115
   -36.1090 -36.1087 -36.1067 -36.1065 -36.0996 -36.0995 -36.0990 -36.0985
   -16.5280 -16.4526 -16.4360 -16.4249 -16.4208 -16.4068 -16.3896 -16.3763
   -16.3761 -16.3670 -16.3607 -16.3526 -16.3496 -16.3379 -16.2860 -16.2857
   -16.2693 -16.2576 -16.2465 -16.2391 -16.1655 -16.1489 -16.1302 -16.1151
     8.1686  10.5834  11.2374  11.7525  12.3775  12.9466  13.0068  13.2965
    13.7207  13.8380  13.9128  13.9193  13.9206  13.9448  14.1661  14.1843
    14.1854  14.2151  14.2853  14.7046  14.7707  14.7909  14.8092  14.8451
    14.8601  14.8684  14.8761  14.9035  14.9192  15.0449  15.0504  15.0532
    15.1855  15.1951  15.2098  15.2767  15.3242  15.3248  15.3340  15.3474
    15.4779  15.4831  15.4902  15.5290  15.6378  15.6504  15.8848  15.8950
    16.9488  16.9872  16.9907  17.0185  17.0497  17.5821  17.6496  17.7544
    17.7791  17.7976  17.8188  17.8470  17.8659  17.9326  17.9934  18.0302
    18.0872  18.1087  18.1295  18.1575  18.2846  18.3425  18.3930  18.4421

          k =-0.0847-0.2542 0.1553 ( 33674 PWs)   bands (ev):

   -70.0483 -70.0481 -70.0477 -70.0475 -70.0448 -70.0447 -70.0443 -70.0441
   -40.1012 -40.0940 -40.0924 -40.0847 -40.0582 -40.0497 -39.8812 -39.8678
   -36.1759 -36.1757 -36.1745 -36.1742 -36.1529 -36.1521 -36.1519 -36.1511
   -36.1208 -36.1205 -36.1190 -36.1187 -36.1169 -36.1164 -36.1158 -36.1153
   -36.1118 -36.1114 -36.1093 -36.1091 -36.0940 -36.0933 -36.0932 -36.0924
   -16.5142 -16.5039 -16.4741 -16.4529 -16.4423 -16.4007 -16.3888 -16.3813
   -16.3694 -16.3656 -16.3563 -16.3428 -16.3404 -16.3344 -16.3271 -16.3184
   -16.2939 -16.2648 -16.1995 -16.1936 -16.1608 -16.1515 -16.0744 -16.0669
     8.5380   9.9014  11.1685  12.0567  12.1260  12.9467  13.1639  13.3175
    13.6139  13.7028  13.8161  13.8980  13.9431  13.9488  13.9659  14.0472
    14.1120  14.1491  14.2570  14.6113  14.7197  14.7259  14.7289  14.7430
    14.7449  14.7775  14.7926  14.8291  15.0733  15.0807  15.2029  15.2500
    15.2641  15.2750  15.3279  15.3675  15.3694  15.3755  15.4344  15.4372
    15.4999  15.5268  15.5741  15.6212  15.6649  15.6679  15.9938  16.0121
    16.9704  17.2110  17.2741  17.3028  17.3038  17.3781  17.5053  17.5648
    17.5787  17.5827  17.5921  17.6378  17.7369  17.7532  17.8234  17.8276
    17.9269  17.9734  18.1595  18.1793  18.2026  18.2060  18.5082  18.6008

          k =-0.2542 0.2542 0.0776 ( 33612 PWs)   bands (ev):

   -70.0468 -70.0467 -70.0467 -70.0465 -70.0459 -70.0457 -70.0457 -70.0455
   -40.0937 -40.0937 -40.0801 -40.0801 -40.0716 -40.0580 -39.8877 -39.8648
   -36.1636 -36.1636 -36.1631 -36.1620 -36.1615 -36.1615 -36.1598 -36.1584
   -36.1224 -36.1224 -36.1224 -36.1221 -36.1096 -36.1080 -36.1080 -36.1080
   -36.1076 -36.1075 -36.1074 -36.1071 -36.1071 -36.1052 -36.1039 -36.1039
   -16.5266 -16.4221 -16.4221 -16.3791 -16.3788 -16.3747 -16.3623 -16.3580
   -16.3574 -16.3567 -16.3567 -16.3554 -16.3530 -16.3514 -16.3423 -16.3423
   -16.2839 -16.2839 -16.2487 -16.2408 -16.1661 -16.1661 -16.1493 -16.1493
     8.1974  10.6127  11.7422  11.7422  11.8001  12.9635  13.3160  13.3160
    13.4901  13.9539  13.9590  13.9591  14.0914  14.2128  14.2128  14.2676
    14.5127  14.5127  14.5406  14.5657  14.5849  14.6075  14.6076  14.6497
    14.7234  14.8700  14.8700  14.8936  14.9322  14.9681  14.9681  15.0079
    15.0280  15.0747  15.0747  15.0768  15.3318  15.3333  15.3333  15.3415
    15.4488  15.4488  15.5499  15.5679  15.5852  15.6029  15.6235  15.6235
    16.9577  17.0347  17.0348  17.0563  17.0743  17.7562  17.7562  17.7885
    17.8522  18.0018  18.0018  18.0375  18.0519  18.0624  18.0624  18.0660
    18.1340  18.1373  18.1373  18.1991  18.3105  18.3365  18.3453  18.3477

          k = 0.1694-0.1694 0.1553 ( 33693 PWs)   bands (ev):

   -70.0484 -70.0479 -70.0465 -70.0465 -70.0459 -70.0459 -70.0445 -70.0439
   -40.0989 -40.0921 -40.0912 -40.0827 -40.0613 -40.0530 -39.8818 -39.8684
   -36.1759 -36.1738 -36.1657 -36.1644 -36.1643 -36.1631 -36.1483 -36.1478
   -36.1217 -36.1199 -36.1193 -36.1189 -36.1186 -36.1181 -36.1129 -36.1110
   -36.1108 -36.1088 -36.1056 -36.1044 -36.1040 -36.1028 -36.0933 -36.0928
   -16.4728 -16.4536 -16.4495 -16.4418 -16.4406 -16.4046 -16.3959 -16.3950
   -16.3930 -16.3927 -16.3885 -16.3450 -16.3270 -16.3133 -16.2992 -16.2705
   -16.2656 -16.2644 -16.2614 -16.2594 -16.1268 -16.1261 -16.1179 -16.1177
     8.5583   9.9273  11.3349  12.2033  12.3659  12.7230  12.8582  13.2615
    13.4238  13.9096  13.9269  13.9956  14.0162  14.0281  14.1352  14.2765
    14.2907  14.3196  14.3576  14.3629  14.5232  14.6301  14.6370  14.8264
    14.8330  14.8825  14.9763  15.0152  15.0510  15.0521  15.0915  15.1014
    15.1255  15.1801  15.2023  15.2384  15.2439  15.2454  15.3151  15.3523
    15.3790  15.4170  15.4378  15.5161  15.5362  15.5606  15.5844  15.9351
    17.0079  17.2096  17.3252  17.3754  17.4093  17.5533  17.6283  17.6452
    17.6654  17.6826  17.7700  17.7866  17.9179  17.9443  17.9452  18.0053
    18.0133  18.0503  18.1175  18.2166  18.2513  18.3137  18.5305  18.5941

          k = 0.1694-0.1694-0.2329 ( 33704 PWs)   bands (ev):

   -70.0482 -70.0482 -70.0462 -70.0462 -70.0462 -70.0462 -70.0442 -70.0442
   -40.0955 -40.0955 -40.0870 -40.0870 -40.0571 -40.0571 -39.8751 -39.8751
   -36.1748 -36.1748 -36.1650 -36.1650 -36.1637 -36.1637 -36.1481 -36.1481
   -36.1202 -36.1202 -36.1162 -36.1162 -36.1154 -36.1154 -36.1149 -36.1149
   -36.1135 -36.1135 -36.1050 -36.1050 -36.1033 -36.1033 -36.0931 -36.0931
   -16.4479 -16.4479 -16.4450 -16.4450 -16.4010 -16.4010 -16.3929 -16.3929
   -16.3924 -16.3924 -16.3527 -16.3527 -16.3525 -16.3525 -16.3058 -16.3058
   -16.2656 -16.2656 -16.2619 -16.2619 -16.1223 -16.1223 -16.1219 -16.1219
     9.1969   9.1969  11.8087  11.8087  12.5377  12.5377  13.0884  13.0884
    13.6261  13.6261  14.1414  14.1414  14.1621  14.1621  14.1686  14.1686
    14.1948  14.1948  14.4233  14.4233  14.6217  14.6217  14.6587  14.6587
    14.7081  14.7081  14.9786  14.9786  15.0870  15.0870  15.0965  15.0965
    15.1191  15.1191  15.1859  15.1859  15.2330  15.2330  15.2627  15.2627
    15.3358  15.3358  15.3449  15.3449  15.4593  15.4593  15.7230  15.7230
    17.1668  17.1668  17.5515  17.5515  17.5991  17.5991  17.6304  17.6304
    17.6639  17.6639  17.8243  17.8243  17.8624  17.8624  17.9914  17.9914
    18.0106  18.0106  18.1014  18.1014  18.4045  18.4045  18.7418  18.7490

          k =-0.2542-0.1694 0.1553 ( 33680 PWs)   bands (ev):

   -70.0475 -70.0474 -70.0470 -70.0468 -70.0456 -70.0454 -70.0450 -70.0448
   -40.0951 -40.0913 -40.0876 -40.0835 -40.0644 -40.0562 -39.8823 -39.8690
   -36.1697 -36.1694 -36.1688 -36.1685 -36.1561 -36.1559 -36.1552 -36.1551
   -36.1199 -36.1198 -36.1192 -36.1189 -36.1139 -36.1132 -36.1130 -36.1120
   -36.1112 -36.1104 -36.1099 -36.1096 -36.0996 -36.0995 -36.0989 -36.0986
   -16.4709 -16.4490 -16.4395 -16.4031 -16.3959 -16.3936 -16.3911 -16.3734
   -16.3642 -16.3637 -16.3560 -16.3473 -16.3469 -16.3404 -16.3205 -16.3152
   -16.3009 -16.2689 -16.2662 -16.2600 -16.1620 -16.1524 -16.1270 -16.1183
     8.5964   9.9636  11.5281  12.0395  12.4785  12.6572  12.9326  13.2573
    13.4733  13.8449  14.0855  14.1087  14.1292  14.1460  14.2359  14.2412
    14.2503  14.3425  14.3587  14.6609  14.6967  14.7191  14.7730  14.7841
    14.8269  14.8272  14.8303  14.8396  14.9283  14.9421  15.0354  15.0440
    15.0760  15.1030  15.1463  15.1647  15.1788  15.1816  15.2189  15.2701
    15.2715  15.2780  15.2894  15.3411  15.4460  15.4708  15.6521  15.6713
    17.0921  17.2157  17.3788  17.4125  17.4692  17.6732  17.7693  17.7717
    17.7836  17.7941  17.8364  17.8782  17.9133  17.9377  17.9843  18.0041
    18.0705  18.1352  18.2331  18.2929  18.3397  18.3673  18.4607  18.5621

          k =-0.2542 0.2542 0.1553 ( 33656 PWs)   bands (ev):

   -70.0466 -70.0465 -70.0465 -70.0463 -70.0461 -70.0459 -70.0459 -70.0457
   -40.0908 -40.0908 -40.0830 -40.0830 -40.0687 -40.0608 -39.8829 -39.8696
   -36.1632 -36.1632 -36.1624 -36.1620 -36.1620 -36.1613 -36.1605 -36.1592
   -36.1195 -36.1195 -36.1194 -36.1190 -36.1112 -36.1112 -36.1110 -36.1106
   -36.1092 -36.1079 -36.1069 -36.1063 -36.1063 -36.1057 -36.1044 -36.1044
   -16.4691 -16.3933 -16.3933 -16.3746 -16.3703 -16.3617 -16.3609 -16.3591
   -16.3569 -16.3566 -16.3538 -16.3538 -16.3528 -16.3486 -16.3452 -16.3452
   -16.3132 -16.3132 -16.3083 -16.2701 -16.1626 -16.1626 -16.1529 -16.1529
     8.6266   9.9958  12.0292  12.0292  12.0947  12.9317  12.9317  13.0462
    13.2289  13.9864  14.1713  14.1747  14.1748  14.4074  14.4075  14.5193
    14.5310  14.5310  14.5695  14.6177  14.6226  14.6226  14.6341  14.6844
    14.6994  14.8793  14.8793  14.9104  14.9355  14.9355  14.9433  14.9455
    14.9542  14.9542  14.9778  14.9999  15.0890  15.0890  15.1020  15.1165
    15.2296  15.2296  15.2833  15.3128  15.3547  15.3582  15.3582  15.3741
    17.1542  17.2222  17.4796  17.4796  17.5054  17.8608  17.8608  17.8800
    17.9502  17.9594  17.9594  17.9834  18.0230  18.0264  18.0264  18.1040
    18.1273  18.1508  18.3820  18.3820  18.4442  18.4897  18.4897  18.5390

     the Fermi energy is    16.7941 ev

!    total energy              =   -3590.80019607 Ry
     estimated scf accuracy    <          2.0E-11 Ry
     smearing contrib. (-TS)   =       0.00022589 Ry
     internal energy E=F+TS    =   -3590.80042196 Ry

     The total energy is F=E-TS. E is the sum of the following terms:
     one-electron contribution =   -1257.86071734 Ry
     hartree contribution      =     750.89390559 Ry
     xc contribution           =    -424.35293276 Ry
     ewald contribution        =   -2050.26493764 Ry
     one-center paw contrib.   =    -609.21573981 Ry

     convergence has been achieved in  61 iterations

     negative rho (up, down):  7.280E-03 0.000E+00

     Forces acting on atoms (cartesian axes, Ry/au):

     atom    1 type  1   force =    -0.00000191   -0.00000191   -0.00000000
     atom    2 type  1   force =     0.00000212    0.00000212    0.00000000
     atom    3 type  1   force =     0.00000300   -0.00000284    0.00000000
     atom    4 type  1   force =    -0.00000306    0.00000279   -0.00000000
     atom    5 type  1   force =    -0.00000315   -0.00000315   -0.00000000
     atom    6 type  1   force =     0.00000305    0.00000305    0.00000000
     atom    7 type  1   force =     0.00000279   -0.00000306    0.00000000
     atom    8 type  1   force =    -0.00000284    0.00000300   -0.00000000
     atom    9 type  2   force =     0.00000022    0.00000022    0.00000038
     atom   10 type  2   force =    -0.00000023   -0.00000023    0.00000021
     atom   11 type  2   force =    -0.00000028    0.00000021    0.00000025
     atom   12 type  2   force =     0.00000021   -0.00000028   -0.00000025
     atom   13 type  2   force =     0.00000022    0.00000022   -0.00000038
     atom   14 type  2   force =    -0.00000023   -0.00000023   -0.00000021
     atom   15 type  2   force =    -0.00000028    0.00000021   -0.00000025
     atom   16 type  2   force =     0.00000021   -0.00000028    0.00000025
     atom   17 type  3   force =     0.00000017    0.00000017    0.00000000
     atom   18 type  3   force =    -0.00000003   -0.00000003   -0.00000000

     Total force =     0.000011     Total SCF correction =     0.000016
     SCF correction compared to forces is large: reduce conv_thr to get better values


     Computing stress (Cartesian axis) and pressure


     negative rho (up, down):  7.280E-03 0.000E+00
          total   stress  (Ry/bohr**3)                   (kbar)     P=       -0.06
  -0.00000124  -0.00000000   0.00000000           -0.18       -0.00        0.00
  -0.00000000  -0.00000124  -0.00000000           -0.00       -0.18       -0.00
   0.00000000   0.00000000   0.00000117            0.00        0.00        0.17


     Writing all to output data dir ./TiFeH_supercell.save/ :
     XML data file
     init_run     :     44.09s CPU     44.91s WALL (       2 calls)
     electrons    :  16168.25s CPU  16384.92s WALL (      10 calls)
     update_pot   :      4.82s CPU      5.06s WALL (       8 calls)
     forces       :     71.03s CPU     72.76s WALL (      10 calls)
     stress       :    290.03s CPU    294.88s WALL (      10 calls)

     Called by init_run:
     wfcinit      :     38.43s CPU     38.92s WALL (       2 calls)
     potinit      :      1.78s CPU      1.84s WALL (       2 calls)
     hinit0       :      0.88s CPU      0.94s WALL (       2 calls)

     Called by electrons:
     c_bands      :  14131.44s CPU  14253.28s WALL (     327 calls)
     sum_band     :   1605.80s CPU   1665.52s WALL (     327 calls)
     v_of_rho     :     54.06s CPU     58.55s WALL (     336 calls)
     newd         :    250.35s CPU    279.56s WALL (     336 calls)
     PAW_pot      :    129.07s CPU    129.77s WALL (     344 calls)
     mix_rho      :      7.91s CPU      8.93s WALL (     327 calls)

     Called by c_bands:
     init_us_2    :    165.23s CPU    166.81s WALL (   35568 calls)
     cegterg      :  13666.76s CPU  13785.10s WALL (   17019 calls)

     Called by *egterg:
     cdiaghg      :   1845.01s CPU   1853.22s WALL (   79934 calls)
     h_psi        :   7574.82s CPU   7655.51s WALL (   80521 calls)
     s_psi        :    779.25s CPU    783.80s WALL (   80521 calls)
     g_psi        :     27.86s CPU     28.14s WALL (   63398 calls)

     Called by h_psi:
     h_psi:calbec :    940.64s CPU    950.83s WALL (   80521 calls)
     vloc_psi     :   5810.21s CPU   5875.68s WALL (   80521 calls)
     add_vuspsi   :    768.13s CPU    772.47s WALL (   80521 calls)

     General routines
     calbec       :   1477.24s CPU   1493.93s WALL (  106781 calls)
     fft          :     36.48s CPU     43.67s WALL (    4607 calls)
     ffts         :      1.41s CPU      1.65s WALL (     663 calls)
     fftw         :   5122.46s CPU   5180.37s WALL (13877378 calls)
     interpolate  :      3.55s CPU      4.26s WALL (     336 calls)

     Parallel routines

     PWSCF        :  16600.28s CPU  16825.61s WALL


   This run was terminated on:   6:50: 2  30Nov2025            

=------------------------------------------------------------------------------=
   JOB DONE.
=------------------------------------------------------------------------------=
