
     Program PWSCF v.7.4 starts on  1Nov2025 at  0: 6:26 

     This program is part of the open-source Quantum ESPRESSO suite
     for quantum simulation of materials; please cite
         "P. Giannozzi et al., J. Phys.:Condens. Matter 21 395502 (2009);
         "P. Giannozzi et al., J. Phys.:Condens. Matter 29 465901 (2017);
         "P. Giannozzi et al., J. Chem. Phys. 152 154105 (2020);
          URL http://www.quantum-espresso.org", 
     in publications or presentations arising from this work. More details at
     http://www.quantum-espresso.org/quote

     Parallel version (MPI & OpenMP), running on      16 processor cores
     Number of MPI processes:                16
     Threads/MPI process:                     1

     MPI processes distributed on     1 nodes
     215149 MiB available memory on the printing compute node when the environment starts

     Reading input from TiFe2_hex.in
Warning: card / ignored

     Current dimensions of program PWSCF are:
     Max number of different atomic species (ntypx) = 10
     Max number of k-points (npk) =  40000
     Max angular momentum in pseudopotentials (lmaxx) =  4
     file Fe.pbe-spn-kjpaw_psl.0.2.1.UPF: wavefunction(s)  3D renormalized
     file Fe.pbe-spn-kjpaw_psl.0.2.1.UPF: wavefunction(s)  3D renormalized

     IMPORTANT: XC functional enforced from input :
     Exchange-correlation= PBE
                           (   1   4   3   4   0   0   0)
     Any further DFT definition will be discarded
     Please, verify this is what you really want

     Message from routine setup:
     using ibrav=0 with symmetry is DISCOURAGED, use correct ibrav instead

     R & G space division:  proc/nbgrp/npool/nimage =      16
     Subspace diagonalization in iterative solution of the eigenvalue problem:
     a serial algorithm will be used


     Parallelization info
     --------------------
     sticks:   dense  smooth     PW     G-vecs:    dense   smooth      PW
     Min         289     144     40                25687     9076    1320
     Max         291     150     41                25691     9077    1323
     Sum        4639    2335    649               411019   145217   21133

     Using Slab Decomposition



     bravais-lattice index     =            0
     lattice parameter (alat)  =       9.1568  a.u.
     unit-cell volume          =    1075.5644 (a.u.)^3
     number of atoms/cell      =           12
     number of atomic types    =            3
     number of electrons       =       176.00
     number of Kohn-Sham states=          106
     kinetic-energy cutoff     =     100.0000  Ry
     charge density cutoff     =     800.0000  Ry
     scf convergence threshold =      1.0E-06
     mixing beta               =       0.0500
     number of iterations used =            8  local-TF  mixing
     Exchange-correlation= PBE
                           (   1   4   3   4   0   0   0)

     celldm(1)=   9.156781  celldm(2)=   0.000000  celldm(3)=   0.000000
     celldm(4)=   0.000000  celldm(5)=   0.000000  celldm(6)=   0.000000

     crystal axes: (cart. coord. in units of alat)
               a(1) = (   1.000000   0.000000   0.000000 )  
               a(2) = (  -0.500000   0.866025   0.000000 )  
               a(3) = (   0.000000   0.000000   1.617623 )  

     reciprocal axes: (cart. coord. in units 2 pi/alat)
               b(1) = (  1.000000  0.577350 -0.000000 )  
               b(2) = (  0.000000  1.154701  0.000000 )  
               b(3) = (  0.000000 -0.000000  0.618191 )  


     PseudoPot. # 1 for Fe read from file:
     ../../pseudos/Fe.pbe-spn-kjpaw_psl.0.2.1.UPF
     MD5 check sum: e86618425769142926afa95317d90200
     Pseudo is Projector augmented-wave + core cor, Zval = 16.0
     Generated using "atomic" code by A. Dal Corso  v.5.0.99 svn rev. 10869
     Shape of augmentation charge: PSQ
     Using radial grid of 1191 points,  6 beta functions with: 
                l(1) =   0
                l(2) =   0
                l(3) =   1
                l(4) =   1
                l(5) =   2
                l(6) =   2
     Q(r) pseudized with 0 coefficients 


     PseudoPot. # 2 for Fe read from file:
     ../../pseudos/Fe.pbe-spn-kjpaw_psl.0.2.1.UPF
     MD5 check sum: e86618425769142926afa95317d90200
     Pseudo is Projector augmented-wave + core cor, Zval = 16.0
     Generated using "atomic" code by A. Dal Corso  v.5.0.99 svn rev. 10869
     Shape of augmentation charge: PSQ
     Using radial grid of 1191 points,  6 beta functions with: 
                l(1) =   0
                l(2) =   0
                l(3) =   1
                l(4) =   1
                l(5) =   2
                l(6) =   2
     Q(r) pseudized with 0 coefficients 


     PseudoPot. # 3 for Ti read from file:
     ../../pseudos/ti_pbe_v1.4.uspp.F.UPF
     MD5 check sum: 88a00a6731bd790ddea75d31a80cb452
     Pseudo is Ultrasoft + core correction, Zval = 12.0
     Generated by new atomic code, or converted to UPF format
     Using radial grid of  851 points,  6 beta functions with: 
                l(1) =   0
                l(2) =   0
                l(3) =   1
                l(4) =   1
                l(5) =   2
                l(6) =   2
     Q(r) pseudized with  6 coefficients,  rinner =    1.000   1.000   1.000
                                                       1.000   1.000

     atomic species   valence    mass     pseudopotential
     Fe_1             16.00    55.84500     Fe( 1.00)
     Fe_2             16.00    55.84500     Fe( 1.00)
     Ti               12.00    47.86700     Ti( 1.00)

     Starting magnetic structure 
     atomic species   magnetization
     Fe_1            0.062
     Fe_2            0.061
     Ti             -0.037

     24 Sym. Ops., with inversion, found (12 have fractional translation)


                                    s                        frac. trans.

      isym =  1     identity                                     

 cryst.   s( 1) = (     1          0          0      )
                  (     0          1          0      )
                  (     0          0          1      )

 cart.    s( 1) = (  1.0000000  0.0000000  0.0000000 )
                  (  0.0000000  1.0000000  0.0000000 )
                  (  0.0000000  0.0000000  1.0000000 )


      isym =  2     180 deg rotation - cart. axis [0,0,1]        

 cryst.   s( 2) = (    -1          0          0      )    f =(  0.0000000 )
                  (     0         -1          0      )       (  0.0000000 )
                  (     0          0          1      )       (  0.5000000 )

 cart.    s( 2) = ( -1.0000000  0.0000000  0.0000000 )    f =(  0.0000000 )
                  (  0.0000000 -1.0000000  0.0000000 )       (  0.0000000 )
                  (  0.0000000  0.0000000  1.0000000 )       (  0.8088114 )


      isym =  3     180 deg rotation - cart. axis [0,1,0]        

 cryst.   s( 3) = (    -1          0          0      )    f =( -0.0000000 )
                  (     1          1          0      )       (  0.0000000 )
                  (     0          0         -1      )       ( -0.5000000 )

 cart.    s( 3) = ( -1.0000000  0.0000000  0.0000000 )    f =( -0.0000000 )
                  (  0.0000000  1.0000000  0.0000000 )       (  0.0000000 )
                  (  0.0000000  0.0000000 -1.0000000 )       ( -0.8088114 )


      isym =  4     180 deg rotation - cart. axis [1,0,0]        

 cryst.   s( 4) = (     1          0          0      )
                  (    -1         -1          0      )
                  (     0          0         -1      )

 cart.    s( 4) = (  1.0000000  0.0000000  0.0000000 )
                  (  0.0000000 -1.0000000  0.0000000 )
                  (  0.0000000  0.0000000 -1.0000000 )


      isym =  5      60 deg rotation - cryst. axis [0,0,1]       

 cryst.   s( 5) = (     1          1          0      )    f =( -0.0000000 )
                  (    -1          0          0      )       (  0.0000000 )
                  (     0          0          1      )       (  0.5000000 )

 cart.    s( 5) = (  0.5000000 -0.8660254  0.0000000 )    f =( -0.0000000 )
                  (  0.8660254  0.5000000  0.0000000 )       (  0.0000000 )
                  (  0.0000000  0.0000000  1.0000000 )       (  0.8088114 )


      isym =  6      60 deg rotation - cryst. axis [0,0,-1]      

 cryst.   s( 6) = (     0         -1          0      )    f =( -0.0000000 )
                  (     1          1          0      )       (  0.0000000 )
                  (     0          0          1      )       (  0.5000000 )

 cart.    s( 6) = (  0.5000000  0.8660254  0.0000000 )    f =( -0.0000000 )
                  ( -0.8660254  0.5000000  0.0000000 )       (  0.0000000 )
                  (  0.0000000  0.0000000  1.0000000 )       (  0.8088114 )


      isym =  7     120 deg rotation - cryst. axis [0,0,1]       

 cryst.   s( 7) = (     0          1          0      )
                  (    -1         -1          0      )
                  (     0          0          1      )

 cart.    s( 7) = ( -0.5000000 -0.8660254  0.0000000 )
                  (  0.8660254 -0.5000000  0.0000000 )
                  (  0.0000000  0.0000000  1.0000000 )


      isym =  8     120 deg rotation - cryst. axis [0,0,-1]      

 cryst.   s( 8) = (    -1         -1          0      )
                  (     1          0          0      )
                  (     0          0          1      )

 cart.    s( 8) = ( -0.5000000  0.8660254  0.0000000 )
                  ( -0.8660254 -0.5000000  0.0000000 )
                  (  0.0000000  0.0000000  1.0000000 )


      isym =  9     180 deg rotation - cryst. axis [1,-1,0]      

 cryst.   s( 9) = (     0         -1          0      )    f =(  0.0000000 )
                  (    -1          0          0      )       (  0.0000000 )
                  (     0          0         -1      )       ( -0.5000000 )

 cart.    s( 9) = (  0.5000000 -0.8660254  0.0000000 )    f =(  0.0000000 )
                  ( -0.8660254 -0.5000000  0.0000000 )       (  0.0000000 )
                  (  0.0000000  0.0000000 -1.0000000 )       ( -0.8088114 )


      isym = 10     180 deg rotation - cryst. axis [2,1,0]       

 cryst.   s(10) = (     1          1          0      )    f =( -0.0000000 )
                  (     0         -1          0      )       (  0.0000000 )
                  (     0          0         -1      )       ( -0.5000000 )

 cart.    s(10) = (  0.5000000  0.8660254  0.0000000 )    f =( -0.0000000 )
                  (  0.8660254 -0.5000000  0.0000000 )       (  0.0000000 )
                  (  0.0000000  0.0000000 -1.0000000 )       ( -0.8088114 )


      isym = 11     180 deg rotation - cryst. axis [0,1,0]       

 cryst.   s(11) = (    -1         -1          0      )
                  (     0          1          0      )
                  (     0          0         -1      )

 cart.    s(11) = ( -0.5000000 -0.8660254  0.0000000 )
                  ( -0.8660254  0.5000000  0.0000000 )
                  (  0.0000000  0.0000000 -1.0000000 )


      isym = 12     180 deg rotation - cryst. axis [1,1,0]       

 cryst.   s(12) = (     0          1          0      )
                  (     1          0          0      )
                  (     0          0         -1      )

 cart.    s(12) = ( -0.5000000  0.8660254  0.0000000 )
                  (  0.8660254  0.5000000  0.0000000 )
                  (  0.0000000  0.0000000 -1.0000000 )


      isym = 13     inversion                                    

 cryst.   s(13) = (    -1          0          0      )
                  (     0         -1          0      )
                  (     0          0         -1      )

 cart.    s(13) = ( -1.0000000  0.0000000  0.0000000 )
                  (  0.0000000 -1.0000000  0.0000000 )
                  (  0.0000000  0.0000000 -1.0000000 )


      isym = 14     inv. 180 deg rotation - cart. axis [0,0,1]   

 cryst.   s(14) = (     1          0          0      )    f =(  0.0000000 )
                  (     0          1          0      )       (  0.0000000 )
                  (     0          0         -1      )       ( -0.5000000 )

 cart.    s(14) = (  1.0000000  0.0000000  0.0000000 )    f =(  0.0000000 )
                  (  0.0000000  1.0000000  0.0000000 )       (  0.0000000 )
                  (  0.0000000  0.0000000 -1.0000000 )       ( -0.8088114 )


      isym = 15     inv. 180 deg rotation - cart. axis [0,1,0]   

 cryst.   s(15) = (     1          0          0      )    f =( -0.0000000 )
                  (    -1         -1          0      )       (  0.0000000 )
                  (     0          0          1      )       (  0.5000000 )

 cart.    s(15) = (  1.0000000  0.0000000  0.0000000 )    f =( -0.0000000 )
                  (  0.0000000 -1.0000000  0.0000000 )       (  0.0000000 )
                  (  0.0000000  0.0000000  1.0000000 )       (  0.8088114 )


      isym = 16     inv. 180 deg rotation - cart. axis [1,0,0]   

 cryst.   s(16) = (    -1          0          0      )
                  (     1          1          0      )
                  (     0          0          1      )

 cart.    s(16) = ( -1.0000000  0.0000000  0.0000000 )
                  (  0.0000000  1.0000000  0.0000000 )
                  (  0.0000000  0.0000000  1.0000000 )


      isym = 17     inv.  60 deg rotation - cryst. axis [0,0,1]  

 cryst.   s(17) = (    -1         -1          0      )    f =( -0.0000000 )
                  (     1          0          0      )       (  0.0000000 )
                  (     0          0         -1      )       ( -0.5000000 )

 cart.    s(17) = ( -0.5000000  0.8660254  0.0000000 )    f =( -0.0000000 )
                  ( -0.8660254 -0.5000000  0.0000000 )       (  0.0000000 )
                  (  0.0000000  0.0000000 -1.0000000 )       ( -0.8088114 )


      isym = 18     inv.  60 deg rotation - cryst. axis [0,0,-1] 

 cryst.   s(18) = (     0          1          0      )    f =(  0.0000000 )
                  (    -1         -1          0      )       (  0.0000000 )
                  (     0          0         -1      )       ( -0.5000000 )

 cart.    s(18) = ( -0.5000000 -0.8660254  0.0000000 )    f =( -0.0000000 )
                  (  0.8660254 -0.5000000  0.0000000 )       (  0.0000000 )
                  (  0.0000000  0.0000000 -1.0000000 )       ( -0.8088114 )


      isym = 19     inv. 120 deg rotation - cryst. axis [0,0,1]  

 cryst.   s(19) = (     0         -1          0      )
                  (     1          1          0      )
                  (     0          0         -1      )

 cart.    s(19) = (  0.5000000  0.8660254  0.0000000 )
                  ( -0.8660254  0.5000000  0.0000000 )
                  (  0.0000000  0.0000000 -1.0000000 )


      isym = 20     inv. 120 deg rotation - cryst. axis [0,0,-1] 

 cryst.   s(20) = (     1          1          0      )
                  (    -1          0          0      )
                  (     0          0         -1      )

 cart.    s(20) = (  0.5000000 -0.8660254  0.0000000 )
                  (  0.8660254  0.5000000  0.0000000 )
                  (  0.0000000  0.0000000 -1.0000000 )


      isym = 21     inv. 180 deg rotation - cryst. axis [1,-1,0] 

 cryst.   s(21) = (     0          1          0      )    f =( -0.0000000 )
                  (     1          0          0      )       (  0.0000000 )
                  (     0          0          1      )       (  0.5000000 )

 cart.    s(21) = ( -0.5000000  0.8660254  0.0000000 )    f =( -0.0000000 )
                  (  0.8660254  0.5000000  0.0000000 )       (  0.0000000 )
                  (  0.0000000  0.0000000  1.0000000 )       (  0.8088114 )


      isym = 22     inv. 180 deg rotation - cryst. axis [2,1,0]  

 cryst.   s(22) = (    -1         -1          0      )    f =(  0.0000000 )
                  (     0          1          0      )       (  0.0000000 )
                  (     0          0          1      )       (  0.5000000 )

 cart.    s(22) = ( -0.5000000 -0.8660254  0.0000000 )    f =( -0.0000000 )
                  ( -0.8660254  0.5000000  0.0000000 )       (  0.0000000 )
                  (  0.0000000  0.0000000  1.0000000 )       (  0.8088114 )


      isym = 23     inv. 180 deg rotation - cryst. axis [0,1,0]  

 cryst.   s(23) = (     1          1          0      )
                  (     0         -1          0      )
                  (     0          0          1      )

 cart.    s(23) = (  0.5000000  0.8660254  0.0000000 )
                  (  0.8660254 -0.5000000  0.0000000 )
                  (  0.0000000  0.0000000  1.0000000 )


      isym = 24     inv. 180 deg rotation - cryst. axis [1,1,0]  

 cryst.   s(24) = (     0         -1          0      )
                  (    -1          0          0      )
                  (     0          0          1      )

 cart.    s(24) = (  0.5000000 -0.8660254  0.0000000 )
                  ( -0.8660254 -0.5000000  0.0000000 )
                  (  0.0000000  0.0000000  1.0000000 )


   Cartesian axes

     site n.     atom                  positions (alat units)
         1        Fe_2   tau(   1) = (   0.7465670   0.1463196   0.4044057  )
         2        Fe_2   tau(   2) = (  -0.2465670   0.7197058   1.2132171  )
         3        Fe_2   tau(   3) = (  -0.0000000   0.2926392   1.2132171  )
         4        Fe_2   tau(   4) = (   0.2534330   0.1463196   0.4044057  )
         5        Fe_2   tau(   5) = (   0.5000000   0.5733862   0.4044057  )
         6        Fe_2   tau(   6) = (   0.2465670   0.7197058   1.2132171  )
         7        Fe_1   tau(   7) = (   0.0000000   0.0000000   0.0000000  )
         8        Fe_1   tau(   8) = (   0.0000000   0.0000000   0.8088114  )
         9        Ti     tau(   9) = (   0.5000000   0.2886751   1.5200090  )
        10        Ti     tau(  10) = (  -0.0000000   0.5773503   0.7111976  )
        11        Ti     tau(  11) = (  -0.0000000   0.5773503   0.0976138  )
        12        Ti     tau(  12) = (   0.5000000   0.2886751   0.9064252  )

   Crystallographic axes

     site n.     atom                  positions (cryst. coord.)
         1        Fe_2   tau(   1) = (  0.8310447  0.1689553  0.2500000  )
         2        Fe_2   tau(   2) = (  0.1689553  0.8310447  0.7500000  )
         3        Fe_2   tau(   3) = (  0.1689553  0.3379107  0.7500000  )
         4        Fe_2   tau(   4) = (  0.3379107  0.1689553  0.2500000  )
         5        Fe_2   tau(   5) = (  0.8310447  0.6620893  0.2500000  )
         6        Fe_2   tau(   6) = (  0.6620893  0.8310447  0.7500000  )
         7        Fe_1   tau(   7) = (  0.0000000  0.0000000  0.0000000  )
         8        Fe_1   tau(   8) = (  0.0000000  0.0000000  0.5000000  )
         9        Ti     tau(   9) = (  0.6666667  0.3333333  0.9396560  )
        10        Ti     tau(  10) = (  0.3333333  0.6666667  0.4396560  )
        11        Ti     tau(  11) = (  0.3333333  0.6666667  0.0603440  )
        12        Ti     tau(  12) = (  0.6666667  0.3333333  0.5603440  )

     number of k points=    21  Marzari-Vanderbilt smearing, width (Ry)=  0.0400
                       cart. coord. in units 2pi/alat
        k(    1) = (   0.0000000   0.0000000   0.0000000), wk =   0.0069444
        k(    2) = (   0.0000000   0.0000000   0.1545478), wk =   0.0138889
        k(    3) = (   0.0000000   0.0000000  -0.3090955), wk =   0.0069444
        k(    4) = (   0.0000000   0.1924501   0.0000000), wk =   0.0416667
        k(    5) = (   0.0000000   0.1924501   0.1545478), wk =   0.0833333
        k(    6) = (   0.0000000   0.1924501  -0.3090955), wk =   0.0416667
        k(    7) = (   0.0000000   0.3849002   0.0000000), wk =   0.0416667
        k(    8) = (   0.0000000   0.3849002   0.1545478), wk =   0.0833333
        k(    9) = (   0.0000000   0.3849002  -0.3090955), wk =   0.0416667
        k(   10) = (   0.0000000  -0.5773503   0.0000000), wk =   0.0208333
        k(   11) = (   0.0000000  -0.5773503   0.1545478), wk =   0.0416667
        k(   12) = (   0.0000000  -0.5773503  -0.3090955), wk =   0.0208333
        k(   13) = (   0.1666667   0.2886751   0.0000000), wk =   0.0416667
        k(   14) = (   0.1666667   0.2886751   0.1545478), wk =   0.0833333
        k(   15) = (   0.1666667   0.2886751  -0.3090955), wk =   0.0416667
        k(   16) = (   0.1666667   0.4811252   0.0000000), wk =   0.0833333
        k(   17) = (   0.1666667   0.4811252   0.1545478), wk =   0.1666667
        k(   18) = (   0.1666667   0.4811252  -0.3090955), wk =   0.0833333
        k(   19) = (   0.3333333   0.5773503   0.0000000), wk =   0.0138889
        k(   20) = (   0.3333333   0.5773503   0.1545478), wk =   0.0277778
        k(   21) = (   0.3333333   0.5773503  -0.3090955), wk =   0.0138889

                       cryst. coord.
        k(    1) = (   0.0000000   0.0000000   0.0000000), wk =   0.0069444
        k(    2) = (   0.0000000   0.0000000   0.2500000), wk =   0.0138889
        k(    3) = (   0.0000000   0.0000000  -0.5000000), wk =   0.0069444
        k(    4) = (   0.0000000   0.1666667   0.0000000), wk =   0.0416667
        k(    5) = (   0.0000000   0.1666667   0.2500000), wk =   0.0833333
        k(    6) = (   0.0000000   0.1666667  -0.5000000), wk =   0.0416667
        k(    7) = (   0.0000000   0.3333333   0.0000000), wk =   0.0416667
        k(    8) = (   0.0000000   0.3333333   0.2500000), wk =   0.0833333
        k(    9) = (   0.0000000   0.3333333  -0.5000000), wk =   0.0416667
        k(   10) = (   0.0000000  -0.5000000   0.0000000), wk =   0.0208333
        k(   11) = (   0.0000000  -0.5000000   0.2500000), wk =   0.0416667
        k(   12) = (   0.0000000  -0.5000000  -0.5000000), wk =   0.0208333
        k(   13) = (   0.1666667   0.1666667   0.0000000), wk =   0.0416667
        k(   14) = (   0.1666667   0.1666667   0.2500000), wk =   0.0833333
        k(   15) = (   0.1666667   0.1666667  -0.5000000), wk =   0.0416667
        k(   16) = (   0.1666667   0.3333333   0.0000000), wk =   0.0833333
        k(   17) = (   0.1666667   0.3333333   0.2500000), wk =   0.1666667
        k(   18) = (   0.1666667   0.3333333  -0.5000000), wk =   0.0833333
        k(   19) = (   0.3333333   0.3333333   0.0000000), wk =   0.0138889
        k(   20) = (   0.3333333   0.3333333   0.2500000), wk =   0.0277778
        k(   21) = (   0.3333333   0.3333333  -0.5000000), wk =   0.0138889

     Dense  grid:   411019 G-vectors     FFT dimensions: (  90,  90, 144)

     Smooth grid:   145217 G-vectors     FFT dimensions: (  60,  60,  96)

     Dynamical RAM for                 wfc:       1.84 MB

     Dynamical RAM for     wfc (w. buffer):      78.94 MB

     Dynamical RAM for           str. fact:       1.18 MB

     Dynamical RAM for           local pot:       0.00 MB

     Dynamical RAM for          nlocal pot:       3.74 MB

     Dynamical RAM for                qrad:       6.81 MB

     Dynamical RAM for          rho,v,vnew:       5.69 MB

     Dynamical RAM for               rhoin:       1.90 MB

     Dynamical RAM for            rho*nmix:      12.54 MB

     Dynamical RAM for           G-vectors:       1.54 MB

     Dynamical RAM for          h,s,v(r/c):       0.51 MB

     Dynamical RAM for          <psi|beta>:       0.35 MB

     Dynamical RAM for      wfcinit/wfcrot:       3.93 MB

     Dynamical RAM for           addusdens:      75.65 MB

     Dynamical RAM for          addusforce:      79.62 MB

     Dynamical RAM for         addusstress:      79.37 MB

     Estimated static dynamical RAM per process >     104.69 MB

     Estimated max dynamical RAM per process >     196.85 MB

     Estimated total dynamical RAM >       3.08 GB

     Check: negative core charge=   -0.000014
     Generating pointlists ...
     new r_m :   0.2059 (alat units)  1.8855 (a.u.) for type    1
     new r_m :   0.2034 (alat units)  1.8627 (a.u.) for type    2
     new r_m :   0.2381 (alat units)  2.1799 (a.u.) for type    3

     Initial potential from superposition of free atoms

     starting charge     171.9963, renormalised to     176.0000

     negative rho (up, down):  2.854E-03 3.091E-03
     Starting wfcs are  144 randomized atomic wfcs
     Checking if some PAW data can be deallocated... 
       PAW data deallocated on   14 nodes for type:  1
       PAW data deallocated on    6 nodes for type:  2

     total cpu time spent up to now is        8.2 secs

     per-process dynamical memory:   228.3 Mb

     Self-consistent Calculation

     iteration #  1     ecut=   100.00 Ry     beta= 0.05
     CG style diagonalization

---- Real-time Memory Report at c_bands before calling an iterative solver
           275 MiB given to the printing process from OS
           222 MiB allocation reported by mallinfo(arena+hblkhd)
        211718 MiB available memory on the node where the printing process lives
------------------
     ethr =  1.00E-02,  avg # of iterations =  2.6

     negative rho (up, down):  2.221E-03 2.390E-03

     total cpu time spent up to now is       58.2 secs

     total energy              =   -3115.02608423 Ry
     estimated scf accuracy    <     128.00400378 Ry

     total magnetization       =     3.37 Bohr mag/cell
     absolute magnetization    =     4.82 Bohr mag/cell

     iteration #  2     ecut=   100.00 Ry     beta= 0.05
     CG style diagonalization

---- Real-time Memory Report at c_bands before calling an iterative solver
           350 MiB given to the printing process from OS
           229 MiB allocation reported by mallinfo(arena+hblkhd)
        212903 MiB available memory on the node where the printing process lives
------------------
     ethr =  1.00E-02,  avg # of iterations =  3.0

     negative rho (up, down):  4.644E-04 3.738E-04

     total cpu time spent up to now is      100.7 secs

     total energy              =   -3106.47637411 Ry
     estimated scf accuracy    <      79.44263231 Ry

     total magnetization       =     2.81 Bohr mag/cell
     absolute magnetization    =     4.86 Bohr mag/cell

     iteration #  3     ecut=   100.00 Ry     beta= 0.05
     CG style diagonalization

---- Real-time Memory Report at c_bands before calling an iterative solver
           350 MiB given to the printing process from OS
           230 MiB allocation reported by mallinfo(arena+hblkhd)
        212388 MiB available memory on the node where the printing process lives
------------------
     ethr =  1.00E-02,  avg # of iterations =  3.3

     negative rho (up, down):  6.951E-04 6.117E-04

     total cpu time spent up to now is      147.4 secs

     total energy              =   -3111.25706427 Ry
     estimated scf accuracy    <       1.54367159 Ry

     total magnetization       =     2.83 Bohr mag/cell
     absolute magnetization    =     4.11 Bohr mag/cell

     iteration #  4     ecut=   100.00 Ry     beta= 0.05
     CG style diagonalization

---- Real-time Memory Report at c_bands before calling an iterative solver
           351 MiB given to the printing process from OS
           231 MiB allocation reported by mallinfo(arena+hblkhd)
        215605 MiB available memory on the node where the printing process lives
------------------
     c_bands:  1 eigenvalues not converged
     c_bands:  1 eigenvalues not converged
     c_bands:  2 eigenvalues not converged
     ethr =  8.77E-04,  avg # of iterations =  4.1

     negative rho (up, down):  1.078E-03 9.200E-04

     total cpu time spent up to now is      211.5 secs

     total energy              =   -3111.46987179 Ry
     estimated scf accuracy    <       1.14092159 Ry

     total magnetization       =     5.50 Bohr mag/cell
     absolute magnetization    =     7.27 Bohr mag/cell

     iteration #  5     ecut=   100.00 Ry     beta= 0.05
     CG style diagonalization

---- Real-time Memory Report at c_bands before calling an iterative solver
           351 MiB given to the printing process from OS
           231 MiB allocation reported by mallinfo(arena+hblkhd)
        212753 MiB available memory on the node where the printing process lives
------------------
     c_bands:  1 eigenvalues not converged
     ethr =  6.48E-04,  avg # of iterations =  3.2

     negative rho (up, down):  1.208E-03 1.032E-03

     total cpu time spent up to now is      258.9 secs

     total energy              =   -3111.52017076 Ry
     estimated scf accuracy    <       0.93696651 Ry

     total magnetization       =     5.45 Bohr mag/cell
     absolute magnetization    =     7.61 Bohr mag/cell

     iteration #  6     ecut=   100.00 Ry     beta= 0.05
     CG style diagonalization

---- Real-time Memory Report at c_bands before calling an iterative solver
           353 MiB given to the printing process from OS
           232 MiB allocation reported by mallinfo(arena+hblkhd)
        213257 MiB available memory on the node where the printing process lives
------------------
     ethr =  5.32E-04,  avg # of iterations =  3.0

     negative rho (up, down):  2.433E-03 1.927E-03

     total cpu time spent up to now is      301.6 secs

     total energy              =   -3111.19594679 Ry
     estimated scf accuracy    <       0.86512846 Ry

     total magnetization       =     5.46 Bohr mag/cell
     absolute magnetization    =     7.70 Bohr mag/cell

     iteration #  7     ecut=   100.00 Ry     beta= 0.05
     CG style diagonalization

---- Real-time Memory Report at c_bands before calling an iterative solver
           353 MiB given to the printing process from OS
           233 MiB allocation reported by mallinfo(arena+hblkhd)
        211443 MiB available memory on the node where the printing process lives
------------------
     ethr =  4.92E-04,  avg # of iterations =  3.5

     negative rho (up, down):  2.447E-03 1.960E-03

     total cpu time spent up to now is      354.3 secs

     total energy              =   -3111.34406786 Ry
     estimated scf accuracy    <       0.40310030 Ry

     total magnetization       =     5.43 Bohr mag/cell
     absolute magnetization    =     8.07 Bohr mag/cell

     iteration #  8     ecut=   100.00 Ry     beta= 0.05
     CG style diagonalization

---- Real-time Memory Report at c_bands before calling an iterative solver
           354 MiB given to the printing process from OS
           233 MiB allocation reported by mallinfo(arena+hblkhd)
        213957 MiB available memory on the node where the printing process lives
------------------
     c_bands:  1 eigenvalues not converged
     ethr =  2.29E-04,  avg # of iterations =  3.1

     negative rho (up, down):  2.420E-03 1.943E-03

     total cpu time spent up to now is      397.8 secs

     total energy              =   -3111.36480089 Ry
     estimated scf accuracy    <       0.11975180 Ry

     total magnetization       =     5.47 Bohr mag/cell
     absolute magnetization    =     8.09 Bohr mag/cell

     iteration #  9     ecut=   100.00 Ry     beta= 0.05
     CG style diagonalization

---- Real-time Memory Report at c_bands before calling an iterative solver
           355 MiB given to the printing process from OS
           234 MiB allocation reported by mallinfo(arena+hblkhd)
        213990 MiB available memory on the node where the printing process lives
------------------
     c_bands:  1 eigenvalues not converged
     c_bands:  2 eigenvalues not converged
     c_bands:  2 eigenvalues not converged
     c_bands:  3 eigenvalues not converged
     c_bands:  3 eigenvalues not converged
     c_bands:  3 eigenvalues not converged
     c_bands:  1 eigenvalues not converged
     c_bands:  1 eigenvalues not converged
     c_bands:  1 eigenvalues not converged
     c_bands:  1 eigenvalues not converged
     c_bands:  3 eigenvalues not converged
     c_bands:  1 eigenvalues not converged
     ethr =  6.80E-05,  avg # of iterations =  3.4

     negative rho (up, down):  2.434E-03 1.921E-03

     total cpu time spent up to now is      449.1 secs

     total energy              =   -3111.36732200 Ry
     estimated scf accuracy    <       0.15131024 Ry

     total magnetization       =     5.46 Bohr mag/cell
     absolute magnetization    =     8.06 Bohr mag/cell

     iteration # 10     ecut=   100.00 Ry     beta= 0.05
     CG style diagonalization

---- Real-time Memory Report at c_bands before calling an iterative solver
           355 MiB given to the printing process from OS
           234 MiB allocation reported by mallinfo(arena+hblkhd)
        213883 MiB available memory on the node where the printing process lives
------------------
     ethr =  6.80E-05,  avg # of iterations =  3.0

     negative rho (up, down):  2.220E-03 1.596E-03

     total cpu time spent up to now is      492.4 secs

     total energy              =   -3111.37864797 Ry
     estimated scf accuracy    <       0.08962734 Ry

     total magnetization       =     5.54 Bohr mag/cell
     absolute magnetization    =     8.19 Bohr mag/cell

     iteration # 11     ecut=   100.00 Ry     beta= 0.05
     CG style diagonalization

---- Real-time Memory Report at c_bands before calling an iterative solver
           355 MiB given to the printing process from OS
           234 MiB allocation reported by mallinfo(arena+hblkhd)
        211780 MiB available memory on the node where the printing process lives
------------------
     c_bands:  1 eigenvalues not converged
     c_bands:  2 eigenvalues not converged
     c_bands:  1 eigenvalues not converged
     c_bands:  1 eigenvalues not converged
     c_bands:  1 eigenvalues not converged
     c_bands:  1 eigenvalues not converged
     c_bands:  1 eigenvalues not converged
     c_bands:  1 eigenvalues not converged
     c_bands:  1 eigenvalues not converged
     c_bands:  1 eigenvalues not converged
     c_bands:  2 eigenvalues not converged
     c_bands:  1 eigenvalues not converged
     ethr =  5.09E-05,  avg # of iterations =  3.3

     negative rho (up, down):  2.377E-03 1.473E-03

     total cpu time spent up to now is      539.9 secs

     total energy              =   -3111.41731127 Ry
     estimated scf accuracy    <       0.36918130 Ry

     total magnetization       =     5.83 Bohr mag/cell
     absolute magnetization    =     8.61 Bohr mag/cell

     iteration # 12     ecut=   100.00 Ry     beta= 0.05
     CG style diagonalization

---- Real-time Memory Report at c_bands before calling an iterative solver
           355 MiB given to the printing process from OS
           234 MiB allocation reported by mallinfo(arena+hblkhd)
        211798 MiB available memory on the node where the printing process lives
------------------
     c_bands:  1 eigenvalues not converged
     c_bands:  1 eigenvalues not converged
     ethr =  5.09E-05,  avg # of iterations =  3.5

     negative rho (up, down):  2.508E-03 1.478E-03

     total cpu time spent up to now is      591.8 secs

     total energy              =   -3111.33512480 Ry
     estimated scf accuracy    <       0.87755098 Ry

     total magnetization       =     6.32 Bohr mag/cell
     absolute magnetization    =     9.54 Bohr mag/cell

     iteration # 13     ecut=   100.00 Ry     beta= 0.05
     CG style diagonalization

---- Real-time Memory Report at c_bands before calling an iterative solver
           355 MiB given to the printing process from OS
           234 MiB allocation reported by mallinfo(arena+hblkhd)
        211324 MiB available memory on the node where the printing process lives
------------------
     c_bands:  1 eigenvalues not converged
     c_bands:  1 eigenvalues not converged
     ethr =  5.09E-05,  avg # of iterations =  3.6

     negative rho (up, down):  2.498E-03 1.468E-03

     total cpu time spent up to now is      646.9 secs

     total energy              =   -3111.39374743 Ry
     estimated scf accuracy    <       0.04451940 Ry

     total magnetization       =     6.81 Bohr mag/cell
     absolute magnetization    =    10.42 Bohr mag/cell

     iteration # 14     ecut=   100.00 Ry     beta= 0.05
     CG style diagonalization

---- Real-time Memory Report at c_bands before calling an iterative solver
           355 MiB given to the printing process from OS
           234 MiB allocation reported by mallinfo(arena+hblkhd)
        214035 MiB available memory on the node where the printing process lives
------------------
     c_bands:  1 eigenvalues not converged
     c_bands:  1 eigenvalues not converged
     c_bands:  1 eigenvalues not converged
     c_bands:  1 eigenvalues not converged
     ethr =  2.53E-05,  avg # of iterations =  3.2

     negative rho (up, down):  2.578E-03 1.529E-03

     total cpu time spent up to now is      692.4 secs

     total energy              =   -3111.39698132 Ry
     estimated scf accuracy    <       0.04933376 Ry

     total magnetization       =     6.79 Bohr mag/cell
     absolute magnetization    =    10.40 Bohr mag/cell

     iteration # 15     ecut=   100.00 Ry     beta= 0.05
     CG style diagonalization

---- Real-time Memory Report at c_bands before calling an iterative solver
           355 MiB given to the printing process from OS
           234 MiB allocation reported by mallinfo(arena+hblkhd)
        209536 MiB available memory on the node where the printing process lives
------------------
     c_bands:  1 eigenvalues not converged
     c_bands:  1 eigenvalues not converged
     c_bands:  1 eigenvalues not converged
     ethr =  2.53E-05,  avg # of iterations =  3.1

     negative rho (up, down):  2.566E-03 1.411E-03

     total cpu time spent up to now is      737.5 secs

     total energy              =   -3111.38706103 Ry
     estimated scf accuracy    <       0.10011201 Ry

     total magnetization       =     6.89 Bohr mag/cell
     absolute magnetization    =    10.55 Bohr mag/cell

     iteration # 16     ecut=   100.00 Ry     beta= 0.05
     CG style diagonalization

---- Real-time Memory Report at c_bands before calling an iterative solver
           355 MiB given to the printing process from OS
           234 MiB allocation reported by mallinfo(arena+hblkhd)
        210975 MiB available memory on the node where the printing process lives
------------------
     ethr =  2.53E-05,  avg # of iterations =  3.1

     negative rho (up, down):  2.704E-03 1.419E-03

     total cpu time spent up to now is      782.9 secs

     total energy              =   -3111.39901216 Ry
     estimated scf accuracy    <       0.06239526 Ry

     total magnetization       =     7.28 Bohr mag/cell
     absolute magnetization    =    11.17 Bohr mag/cell

     iteration # 17     ecut=   100.00 Ry     beta= 0.05
     CG style diagonalization

---- Real-time Memory Report at c_bands before calling an iterative solver
           355 MiB given to the printing process from OS
           234 MiB allocation reported by mallinfo(arena+hblkhd)
        211455 MiB available memory on the node where the printing process lives
------------------
     c_bands:  1 eigenvalues not converged
     ethr =  2.53E-05,  avg # of iterations =  3.2

     negative rho (up, down):  2.662E-03 1.509E-03

     total cpu time spent up to now is      828.0 secs

     total energy              =   -3111.39943286 Ry
     estimated scf accuracy    <       0.01122518 Ry

     total magnetization       =     7.74 Bohr mag/cell
     absolute magnetization    =    11.91 Bohr mag/cell

     iteration # 18     ecut=   100.00 Ry     beta= 0.05
     CG style diagonalization

---- Real-time Memory Report at c_bands before calling an iterative solver
           355 MiB given to the printing process from OS
           234 MiB allocation reported by mallinfo(arena+hblkhd)
        214311 MiB available memory on the node where the printing process lives
------------------
     c_bands:  1 eigenvalues not converged
     c_bands:  1 eigenvalues not converged
     c_bands:  1 eigenvalues not converged
     c_bands:  1 eigenvalues not converged
     c_bands:  1 eigenvalues not converged
     c_bands:  1 eigenvalues not converged
     c_bands:  1 eigenvalues not converged
     c_bands:  1 eigenvalues not converged
     c_bands:  1 eigenvalues not converged
     c_bands:  1 eigenvalues not converged
     c_bands:  1 eigenvalues not converged
     c_bands:  1 eigenvalues not converged
     c_bands:  1 eigenvalues not converged
     c_bands:  1 eigenvalues not converged
     c_bands:  1 eigenvalues not converged
     c_bands:  2 eigenvalues not converged
     ethr =  6.38E-06,  avg # of iterations =  3.7

     negative rho (up, down):  2.885E-03 1.341E-03

     total cpu time spent up to now is      884.6 secs

     total energy              =   -3111.40174003 Ry
     estimated scf accuracy    <       0.05838870 Ry

     total magnetization       =     7.54 Bohr mag/cell
     absolute magnetization    =    11.58 Bohr mag/cell

     iteration # 19     ecut=   100.00 Ry     beta= 0.05
     CG style diagonalization

---- Real-time Memory Report at c_bands before calling an iterative solver
           355 MiB given to the printing process from OS
           234 MiB allocation reported by mallinfo(arena+hblkhd)
        213932 MiB available memory on the node where the printing process lives
------------------
     c_bands:  1 eigenvalues not converged
     c_bands:  1 eigenvalues not converged
     c_bands:  1 eigenvalues not converged
     c_bands:  3 eigenvalues not converged
     c_bands:  2 eigenvalues not converged
     c_bands:  1 eigenvalues not converged
     c_bands:  2 eigenvalues not converged
     c_bands:  1 eigenvalues not converged
     c_bands:  1 eigenvalues not converged
     c_bands:  1 eigenvalues not converged
     c_bands:  1 eigenvalues not converged
     c_bands:  1 eigenvalues not converged
     c_bands:  1 eigenvalues not converged
     c_bands:  1 eigenvalues not converged
     c_bands:  1 eigenvalues not converged
     ethr =  6.38E-06,  avg # of iterations =  4.6

     negative rho (up, down):  2.765E-03 1.075E-03

     total cpu time spent up to now is      958.5 secs

     total energy              =   -3111.42545581 Ry
     estimated scf accuracy    <       0.05829419 Ry

     total magnetization       =     9.34 Bohr mag/cell
     absolute magnetization    =    14.82 Bohr mag/cell

     iteration # 20     ecut=   100.00 Ry     beta= 0.05
     CG style diagonalization

---- Real-time Memory Report at c_bands before calling an iterative solver
           355 MiB given to the printing process from OS
           234 MiB allocation reported by mallinfo(arena+hblkhd)
        210345 MiB available memory on the node where the printing process lives
------------------
     c_bands:  1 eigenvalues not converged
     c_bands:  2 eigenvalues not converged
     c_bands:  1 eigenvalues not converged
     c_bands:  2 eigenvalues not converged
     c_bands:  1 eigenvalues not converged
     ethr =  6.38E-06,  avg # of iterations =  3.3

     negative rho (up, down):  2.816E-03 1.006E-03

     total cpu time spent up to now is     1007.7 secs

     total energy              =   -3111.42886721 Ry
     estimated scf accuracy    <       0.01700320 Ry

     total magnetization       =     9.66 Bohr mag/cell
     absolute magnetization    =    15.51 Bohr mag/cell

     iteration # 21     ecut=   100.00 Ry     beta= 0.05
     CG style diagonalization

---- Real-time Memory Report at c_bands before calling an iterative solver
           355 MiB given to the printing process from OS
           234 MiB allocation reported by mallinfo(arena+hblkhd)
        215081 MiB available memory on the node where the printing process lives
------------------
     c_bands:  1 eigenvalues not converged
     ethr =  6.38E-06,  avg # of iterations =  3.1

     negative rho (up, down):  2.805E-03 1.035E-03

     total cpu time spent up to now is     1052.3 secs

     total energy              =   -3111.42110355 Ry
     estimated scf accuracy    <       0.02499074 Ry

     total magnetization       =     9.94 Bohr mag/cell
     absolute magnetization    =    16.07 Bohr mag/cell

     iteration # 22     ecut=   100.00 Ry     beta= 0.05
     CG style diagonalization

---- Real-time Memory Report at c_bands before calling an iterative solver
           355 MiB given to the printing process from OS
           234 MiB allocation reported by mallinfo(arena+hblkhd)
        212909 MiB available memory on the node where the printing process lives
------------------
     ethr =  6.38E-06,  avg # of iterations =  3.3

     negative rho (up, down):  2.691E-03 1.128E-03

     total cpu time spent up to now is     1100.1 secs

     total energy              =   -3111.41666339 Ry
     estimated scf accuracy    <       0.00567821 Ry

     total magnetization       =     9.48 Bohr mag/cell
     absolute magnetization    =    15.29 Bohr mag/cell

     iteration # 23     ecut=   100.00 Ry     beta= 0.05
     CG style diagonalization

---- Real-time Memory Report at c_bands before calling an iterative solver
           355 MiB given to the printing process from OS
           234 MiB allocation reported by mallinfo(arena+hblkhd)
        212651 MiB available memory on the node where the printing process lives
------------------
     c_bands:  1 eigenvalues not converged
     c_bands:  1 eigenvalues not converged
     c_bands:  1 eigenvalues not converged
     c_bands:  1 eigenvalues not converged
     c_bands:  1 eigenvalues not converged
     ethr =  3.23E-06,  avg # of iterations =  3.5

     negative rho (up, down):  3.035E-03 9.944E-04

     total cpu time spent up to now is     1152.7 secs

     total energy              =   -3111.41828336 Ry
     estimated scf accuracy    <       0.01176974 Ry

     total magnetization       =     8.94 Bohr mag/cell
     absolute magnetization    =    14.23 Bohr mag/cell

     iteration # 24     ecut=   100.00 Ry     beta= 0.05
     CG style diagonalization

---- Real-time Memory Report at c_bands before calling an iterative solver
           355 MiB given to the printing process from OS
           234 MiB allocation reported by mallinfo(arena+hblkhd)
        214491 MiB available memory on the node where the printing process lives
------------------
     c_bands:  1 eigenvalues not converged
     c_bands:  1 eigenvalues not converged
     c_bands:  1 eigenvalues not converged
     c_bands:  1 eigenvalues not converged
     c_bands:  1 eigenvalues not converged
     ethr =  3.23E-06,  avg # of iterations =  4.0

     negative rho (up, down):  3.187E-03 9.787E-04

     total cpu time spent up to now is     1214.2 secs

     total energy              =   -3111.42672647 Ry
     estimated scf accuracy    <       0.00435994 Ry

     total magnetization       =     9.83 Bohr mag/cell
     absolute magnetization    =    16.28 Bohr mag/cell

     iteration # 25     ecut=   100.00 Ry     beta= 0.05
     CG style diagonalization

---- Real-time Memory Report at c_bands before calling an iterative solver
           355 MiB given to the printing process from OS
           234 MiB allocation reported by mallinfo(arena+hblkhd)
        213988 MiB available memory on the node where the printing process lives
------------------
     c_bands:  1 eigenvalues not converged
     ethr =  2.48E-06,  avg # of iterations =  3.8

     negative rho (up, down):  3.174E-03 9.613E-04

     total cpu time spent up to now is     1271.5 secs

     total energy              =   -3111.42914185 Ry
     estimated scf accuracy    <       0.00083305 Ry

     total magnetization       =    10.25 Bohr mag/cell
     absolute magnetization    =    17.23 Bohr mag/cell

     iteration # 26     ecut=   100.00 Ry     beta= 0.05
     CG style diagonalization

---- Real-time Memory Report at c_bands before calling an iterative solver
           355 MiB given to the printing process from OS
           234 MiB allocation reported by mallinfo(arena+hblkhd)
        216597 MiB available memory on the node where the printing process lives
------------------
     ethr =  4.73E-07,  avg # of iterations =  4.1

     negative rho (up, down):  3.203E-03 9.538E-04

     total cpu time spent up to now is     1333.7 secs

     total energy              =   -3111.42963798 Ry
     estimated scf accuracy    <       0.00081424 Ry

     total magnetization       =    10.19 Bohr mag/cell
     absolute magnetization    =    17.14 Bohr mag/cell

     iteration # 27     ecut=   100.00 Ry     beta= 0.05
     CG style diagonalization

---- Real-time Memory Report at c_bands before calling an iterative solver
           355 MiB given to the printing process from OS
           234 MiB allocation reported by mallinfo(arena+hblkhd)
        216698 MiB available memory on the node where the printing process lives
------------------
     c_bands:  1 eigenvalues not converged
     ethr =  4.63E-07,  avg # of iterations =  3.4

     negative rho (up, down):  3.228E-03 9.550E-04

     total cpu time spent up to now is     1383.3 secs

     total energy              =   -3111.42995290 Ry
     estimated scf accuracy    <       0.00052735 Ry

     total magnetization       =    10.26 Bohr mag/cell
     absolute magnetization    =    17.32 Bohr mag/cell

     iteration # 28     ecut=   100.00 Ry     beta= 0.05
     CG style diagonalization

---- Real-time Memory Report at c_bands before calling an iterative solver
           355 MiB given to the printing process from OS
           234 MiB allocation reported by mallinfo(arena+hblkhd)
        211542 MiB available memory on the node where the printing process lives
------------------
     ethr =  3.00E-07,  avg # of iterations =  3.6

     negative rho (up, down):  3.288E-03 8.982E-04

     total cpu time spent up to now is     1437.4 secs

     total energy              =   -3111.43015720 Ry
     estimated scf accuracy    <       0.00183965 Ry

     total magnetization       =    10.27 Bohr mag/cell
     absolute magnetization    =    17.37 Bohr mag/cell

     iteration # 29     ecut=   100.00 Ry     beta= 0.05
     CG style diagonalization

---- Real-time Memory Report at c_bands before calling an iterative solver
           356 MiB given to the printing process from OS
           234 MiB allocation reported by mallinfo(arena+hblkhd)
        213694 MiB available memory on the node where the printing process lives
------------------
     ethr =  3.00E-07,  avg # of iterations =  3.5

     negative rho (up, down):  3.324E-03 7.902E-04

     total cpu time spent up to now is     1489.9 secs

     total energy              =   -3111.43031506 Ry
     estimated scf accuracy    <       0.00050325 Ry

     total magnetization       =    10.36 Bohr mag/cell
     absolute magnetization    =    17.67 Bohr mag/cell

     iteration # 30     ecut=   100.00 Ry     beta= 0.05
     CG style diagonalization

---- Real-time Memory Report at c_bands before calling an iterative solver
           356 MiB given to the printing process from OS
           234 MiB allocation reported by mallinfo(arena+hblkhd)
        211405 MiB available memory on the node where the printing process lives
------------------
     c_bands:  1 eigenvalues not converged
     ethr =  2.86E-07,  avg # of iterations =  3.9

     negative rho (up, down):  3.331E-03 7.865E-04

     total cpu time spent up to now is     1550.8 secs

     total energy              =   -3111.43068222 Ry
     estimated scf accuracy    <       0.00049619 Ry

     total magnetization       =    10.46 Bohr mag/cell
     absolute magnetization    =    18.04 Bohr mag/cell

     iteration # 31     ecut=   100.00 Ry     beta= 0.05
     CG style diagonalization

---- Real-time Memory Report at c_bands before calling an iterative solver
           356 MiB given to the printing process from OS
           234 MiB allocation reported by mallinfo(arena+hblkhd)
        214066 MiB available memory on the node where the printing process lives
------------------
     c_bands:  1 eigenvalues not converged
     ethr =  2.82E-07,  avg # of iterations =  3.3

     negative rho (up, down):  3.292E-03 8.056E-04

     total cpu time spent up to now is     1598.8 secs

     total energy              =   -3111.43036362 Ry
     estimated scf accuracy    <       0.00020089 Ry

     total magnetization       =    10.45 Bohr mag/cell
     absolute magnetization    =    18.05 Bohr mag/cell

     iteration # 32     ecut=   100.00 Ry     beta= 0.05
     CG style diagonalization

---- Real-time Memory Report at c_bands before calling an iterative solver
           356 MiB given to the printing process from OS
           234 MiB allocation reported by mallinfo(arena+hblkhd)
        213001 MiB available memory on the node where the printing process lives
------------------
     c_bands:  1 eigenvalues not converged
     ethr =  1.14E-07,  avg # of iterations =  3.9

     negative rho (up, down):  3.294E-03 7.994E-04

     total cpu time spent up to now is     1658.0 secs

     total energy              =   -3111.43070076 Ry
     estimated scf accuracy    <       0.00038326 Ry

     total magnetization       =    10.30 Bohr mag/cell
     absolute magnetization    =    17.71 Bohr mag/cell

     iteration # 33     ecut=   100.00 Ry     beta= 0.05
     CG style diagonalization

---- Real-time Memory Report at c_bands before calling an iterative solver
           356 MiB given to the printing process from OS
           234 MiB allocation reported by mallinfo(arena+hblkhd)
        213622 MiB available memory on the node where the printing process lives
------------------
     ethr =  1.14E-07,  avg # of iterations =  3.2

     negative rho (up, down):  3.309E-03 8.012E-04

     total cpu time spent up to now is     1703.4 secs

     total energy              =   -3111.43075831 Ry
     estimated scf accuracy    <       0.00024370 Ry

     total magnetization       =    10.34 Bohr mag/cell
     absolute magnetization    =    17.79 Bohr mag/cell

     iteration # 34     ecut=   100.00 Ry     beta= 0.05
     CG style diagonalization

---- Real-time Memory Report at c_bands before calling an iterative solver
           356 MiB given to the printing process from OS
           234 MiB allocation reported by mallinfo(arena+hblkhd)
        224252 MiB available memory on the node where the printing process lives
------------------
     ethr =  1.14E-07,  avg # of iterations =  3.0

     negative rho (up, down):  3.339E-03 7.700E-04

     total cpu time spent up to now is     1746.7 secs

     total energy              =   -3111.43065320 Ry
     estimated scf accuracy    <       0.00040384 Ry

     total magnetization       =    10.36 Bohr mag/cell
     absolute magnetization    =    17.84 Bohr mag/cell

     iteration # 35     ecut=   100.00 Ry     beta= 0.05
     CG style diagonalization

---- Real-time Memory Report at c_bands before calling an iterative solver
           356 MiB given to the printing process from OS
           234 MiB allocation reported by mallinfo(arena+hblkhd)
        221811 MiB available memory on the node where the printing process lives
------------------
     ethr =  1.14E-07,  avg # of iterations =  3.7

     negative rho (up, down):  3.332E-03 7.679E-04

     total cpu time spent up to now is     1804.3 secs

     total energy              =   -3111.43080870 Ry
     estimated scf accuracy    <       0.00010055 Ry

     total magnetization       =    10.44 Bohr mag/cell
     absolute magnetization    =    18.05 Bohr mag/cell

     iteration # 36     ecut=   100.00 Ry     beta= 0.05
     CG style diagonalization

---- Real-time Memory Report at c_bands before calling an iterative solver
           356 MiB given to the printing process from OS
           234 MiB allocation reported by mallinfo(arena+hblkhd)
        219074 MiB available memory on the node where the printing process lives
------------------
     ethr =  5.71E-08,  avg # of iterations =  3.3

     negative rho (up, down):  3.342E-03 7.662E-04

     total cpu time spent up to now is     1852.1 secs

     total energy              =   -3111.43082971 Ry
     estimated scf accuracy    <       0.00007242 Ry

     total magnetization       =    10.42 Bohr mag/cell
     absolute magnetization    =    18.02 Bohr mag/cell

     iteration # 37     ecut=   100.00 Ry     beta= 0.05
     CG style diagonalization

---- Real-time Memory Report at c_bands before calling an iterative solver
           356 MiB given to the printing process from OS
           234 MiB allocation reported by mallinfo(arena+hblkhd)
        220936 MiB available memory on the node where the printing process lives
------------------
     ethr =  4.11E-08,  avg # of iterations =  3.4

     negative rho (up, down):  3.337E-03 7.705E-04

     total cpu time spent up to now is     1903.7 secs

     total energy              =   -3111.43082965 Ry
     estimated scf accuracy    <       0.00006649 Ry

     total magnetization       =    10.43 Bohr mag/cell
     absolute magnetization    =    18.05 Bohr mag/cell

     iteration # 38     ecut=   100.00 Ry     beta= 0.05
     CG style diagonalization

---- Real-time Memory Report at c_bands before calling an iterative solver
           356 MiB given to the printing process from OS
           234 MiB allocation reported by mallinfo(arena+hblkhd)
        218155 MiB available memory on the node where the printing process lives
------------------
     ethr =  3.78E-08,  avg # of iterations =  3.5

     negative rho (up, down):  3.355E-03 7.708E-04

     total cpu time spent up to now is     1956.5 secs

     total energy              =   -3111.43084623 Ry
     estimated scf accuracy    <       0.00003077 Ry

     total magnetization       =    10.44 Bohr mag/cell
     absolute magnetization    =    18.08 Bohr mag/cell

     iteration # 39     ecut=   100.00 Ry     beta= 0.05
     CG style diagonalization

---- Real-time Memory Report at c_bands before calling an iterative solver
           356 MiB given to the printing process from OS
           234 MiB allocation reported by mallinfo(arena+hblkhd)
        224639 MiB available memory on the node where the printing process lives
------------------
     ethr =  1.75E-08,  avg # of iterations =  3.4

     negative rho (up, down):  3.364E-03 7.701E-04

     total cpu time spent up to now is     2006.7 secs

     total energy              =   -3111.43085018 Ry
     estimated scf accuracy    <       0.00000786 Ry

     total magnetization       =    10.46 Bohr mag/cell
     absolute magnetization    =    18.12 Bohr mag/cell

     iteration # 40     ecut=   100.00 Ry     beta= 0.05
     CG style diagonalization

---- Real-time Memory Report at c_bands before calling an iterative solver
           356 MiB given to the printing process from OS
           234 MiB allocation reported by mallinfo(arena+hblkhd)
        220783 MiB available memory on the node where the printing process lives
------------------
     c_bands:  1 eigenvalues not converged
     ethr =  4.47E-09,  avg # of iterations =  4.3

     negative rho (up, down):  3.363E-03 7.675E-04

     total cpu time spent up to now is     2074.7 secs

     total energy              =   -3111.43085652 Ry
     estimated scf accuracy    <       0.00000865 Ry

     total magnetization       =    10.47 Bohr mag/cell
     absolute magnetization    =    18.16 Bohr mag/cell

     iteration # 41     ecut=   100.00 Ry     beta= 0.05
     CG style diagonalization

---- Real-time Memory Report at c_bands before calling an iterative solver
           356 MiB given to the printing process from OS
           234 MiB allocation reported by mallinfo(arena+hblkhd)
        219599 MiB available memory on the node where the printing process lives
------------------
     ethr =  4.47E-09,  avg # of iterations =  3.4

     negative rho (up, down):  3.348E-03 7.655E-04

     total cpu time spent up to now is     2125.6 secs

     total energy              =   -3111.43086021 Ry
     estimated scf accuracy    <       0.00000610 Ry

     total magnetization       =    10.47 Bohr mag/cell
     absolute magnetization    =    18.16 Bohr mag/cell

     iteration # 42     ecut=   100.00 Ry     beta= 0.05
     CG style diagonalization

---- Real-time Memory Report at c_bands before calling an iterative solver
           356 MiB given to the printing process from OS
           234 MiB allocation reported by mallinfo(arena+hblkhd)
        219262 MiB available memory on the node where the printing process lives
------------------
     ethr =  3.46E-09,  avg # of iterations =  3.6

     negative rho (up, down):  3.347E-03 7.650E-04

     total cpu time spent up to now is     2179.1 secs

     total energy              =   -3111.43086419 Ry
     estimated scf accuracy    <       0.00000448 Ry

     total magnetization       =    10.46 Bohr mag/cell
     absolute magnetization    =    18.13 Bohr mag/cell

     iteration # 43     ecut=   100.00 Ry     beta= 0.05
     CG style diagonalization

---- Real-time Memory Report at c_bands before calling an iterative solver
           356 MiB given to the printing process from OS
           234 MiB allocation reported by mallinfo(arena+hblkhd)
        219835 MiB available memory on the node where the printing process lives
------------------
     ethr =  2.55E-09,  avg # of iterations =  3.2

     negative rho (up, down):  3.341E-03 7.699E-04

     total cpu time spent up to now is     2226.3 secs

     total energy              =   -3111.43086542 Ry
     estimated scf accuracy    <       0.00000276 Ry

     total magnetization       =    10.46 Bohr mag/cell
     absolute magnetization    =    18.13 Bohr mag/cell

     iteration # 44     ecut=   100.00 Ry     beta= 0.05
     CG style diagonalization

---- Real-time Memory Report at c_bands before calling an iterative solver
           356 MiB given to the printing process from OS
           234 MiB allocation reported by mallinfo(arena+hblkhd)
        217478 MiB available memory on the node where the printing process lives
------------------
     ethr =  1.57E-09,  avg # of iterations =  3.7

     negative rho (up, down):  3.341E-03 7.688E-04

     total cpu time spent up to now is     2282.4 secs

     total energy              =   -3111.43086677 Ry
     estimated scf accuracy    <       0.00000442 Ry

     total magnetization       =    10.46 Bohr mag/cell
     absolute magnetization    =    18.12 Bohr mag/cell

     iteration # 45     ecut=   100.00 Ry     beta= 0.05
     CG style diagonalization

---- Real-time Memory Report at c_bands before calling an iterative solver
           356 MiB given to the printing process from OS
           234 MiB allocation reported by mallinfo(arena+hblkhd)
        221999 MiB available memory on the node where the printing process lives
------------------
     ethr =  1.57E-09,  avg # of iterations =  3.2

     negative rho (up, down):  3.339E-03 7.691E-04

     total cpu time spent up to now is     2328.2 secs

     total energy              =   -3111.43086817 Ry
     estimated scf accuracy    <       0.00000138 Ry

     total magnetization       =    10.46 Bohr mag/cell
     absolute magnetization    =    18.12 Bohr mag/cell

     iteration # 46     ecut=   100.00 Ry     beta= 0.05
     CG style diagonalization

---- Real-time Memory Report at c_bands before calling an iterative solver
           356 MiB given to the printing process from OS
           234 MiB allocation reported by mallinfo(arena+hblkhd)
        220124 MiB available memory on the node where the printing process lives
------------------
     ethr =  7.84E-10,  avg # of iterations =  3.2

     negative rho (up, down):  3.339E-03 7.690E-04

     total cpu time spent up to now is     2374.8 secs

     total energy              =   -3111.43086908 Ry
     estimated scf accuracy    <       0.00000136 Ry

     total magnetization       =    10.46 Bohr mag/cell
     absolute magnetization    =    18.12 Bohr mag/cell

     iteration # 47     ecut=   100.00 Ry     beta= 0.05
     CG style diagonalization

---- Real-time Memory Report at c_bands before calling an iterative solver
           356 MiB given to the printing process from OS
           234 MiB allocation reported by mallinfo(arena+hblkhd)
        215594 MiB available memory on the node where the printing process lives
------------------
     ethr =  7.75E-10,  avg # of iterations =  3.1

     negative rho (up, down):  3.338E-03 7.707E-04

     total cpu time spent up to now is     2418.8 secs

     total energy              =   -3111.43086970 Ry
     estimated scf accuracy    <       0.00000124 Ry

     total magnetization       =    10.46 Bohr mag/cell
     absolute magnetization    =    18.12 Bohr mag/cell

     iteration # 48     ecut=   100.00 Ry     beta= 0.05
     CG style diagonalization

---- Real-time Memory Report at c_bands before calling an iterative solver
           356 MiB given to the printing process from OS
           234 MiB allocation reported by mallinfo(arena+hblkhd)
        218453 MiB available memory on the node where the printing process lives
------------------
     c_bands:  1 eigenvalues not converged
     ethr =  7.02E-10,  avg # of iterations =  3.3

     negative rho (up, down):  3.341E-03 7.752E-04

     Magnetic moment per site  (integrated on atomic sphere of radius R)
     atom   1 (R=0.203)  charge= 14.2568  magn=  1.7980
     atom   2 (R=0.203)  charge= 14.2568  magn=  1.7980
     atom   3 (R=0.203)  charge= 14.2568  magn=  1.7980
     atom   4 (R=0.203)  charge= 14.2568  magn=  1.7980
     atom   5 (R=0.203)  charge= 14.2568  magn=  1.7980
     atom   6 (R=0.203)  charge= 14.2568  magn=  1.7980
     atom   7 (R=0.206)  charge= 14.3283  magn=  1.6698
     atom   8 (R=0.206)  charge= 14.3283  magn=  1.6698
     atom   9 (R=0.238)  charge= 10.2865  magn= -0.6412
     atom  10 (R=0.238)  charge= 10.2865  magn= -0.6412
     atom  11 (R=0.238)  charge= 10.2865  magn= -0.6412
     atom  12 (R=0.238)  charge= 10.2865  magn= -0.6412

     total cpu time spent up to now is     2468.5 secs

     End of self-consistent calculation

 ------ SPIN UP ------------


          k = 0.0000 0.0000 0.0000 ( 18257 PWs)   bands (ev):

   -71.7380 -71.7284 -71.6673 -71.6673 -71.6673 -71.6673 -71.6071 -71.5975
   -40.4609 -40.4472 -40.4117 -40.3964 -38.0392 -37.9870 -37.8716 -37.8541
   -37.8541 -37.8447 -37.8447 -37.7873 -37.7873 -37.7478 -37.6984 -37.6984
   -37.6718 -37.6718 -37.6373 -37.6372 -37.5773 -37.5773 -37.5704 -37.5598
   -37.5598 -37.5451 -37.5451 -37.4998 -16.7544 -16.7544 -16.7438 -16.7415
   -16.7402 -16.7402 -16.6032 -16.6008 -16.5829 -16.5829 -16.5682 -16.5682
     8.6553  10.5198  11.5034  11.5075  11.9829  12.1349  12.3722  12.3722
    12.6118  12.6444  12.6444  12.7073  12.7073  12.8692  13.2503  13.2503
    13.2979  13.2979  13.7678  13.8437  13.8437  13.8509  13.8509  14.1432
    14.1432  14.3344  15.0554  15.0554  15.0672  15.1173  15.1295  15.1295
    15.1505  15.1505  15.1558  15.3787  15.3787  15.6514  15.6514  15.6573
    15.6573  15.7299  15.7299  16.2311  16.2382  16.2868  16.2868  16.7142
    16.7145  16.7438  16.9290  16.9290  17.2217  17.2217  17.4262  17.4747
    17.4748  18.9478

     occupation numbers 
     1.0000   1.0000   1.0000   1.0000   1.0000   1.0000   1.0000   1.0000
     1.0000   1.0000   1.0000   1.0000   1.0000   1.0000   1.0000   1.0000
     1.0000   1.0000   1.0000   1.0000   1.0000   1.0000   1.0000   1.0000
     1.0000   1.0000   1.0000   1.0000   1.0000   1.0000   1.0000   1.0000
     1.0000   1.0000   1.0000   1.0000   1.0000   1.0000   1.0000   1.0000
     1.0000   1.0000   1.0000   1.0000   1.0000   1.0000   1.0000   1.0000
     1.0000   1.0000   1.0000   1.0000   1.0000   1.0000   1.0000   1.0000
     1.0000   1.0000   1.0000   1.0000   1.0000   1.0000   1.0000   1.0000
     1.0000   1.0000   1.0000   1.0000   1.0000   1.0000   1.0000   1.0000
     1.0000   1.0001   1.0217   1.0217   1.0230   1.0293   1.0310   1.0310
     1.0340   1.0340   1.0348   1.0715   1.0715   1.0650   1.0650   1.0632
     1.0632   1.0331   1.0331   0.4717   0.4621   0.3994   0.3994   0.0601
     0.0600   0.0505   0.0150   0.0150   0.0014   0.0014   0.0002   0.0001
     0.0001   0.0000

          k = 0.0000 0.0000 0.1545 ( 18191 PWs)   bands (ev):

   -71.7366 -71.7299 -71.6672 -71.6672 -71.6672 -71.6672 -71.6056 -71.5988
   -40.4593 -40.4499 -40.4088 -40.3982 -38.0339 -37.9987 -37.8532 -37.8532
   -37.8520 -37.8468 -37.8468 -37.7784 -37.7784 -37.7676 -37.7241 -37.7241
   -37.6460 -37.6460 -37.6373 -37.6372 -37.5895 -37.5895 -37.5561 -37.5545
   -37.5545 -37.5460 -37.5460 -37.5076 -16.7525 -16.7525 -16.7430 -16.7425
   -16.7425 -16.7413 -16.6034 -16.6017 -16.5806 -16.5806 -16.5702 -16.5702
     8.8242  10.0099  11.5185  11.6695  11.9340  12.4007  12.4007  12.4589
    12.4775  12.5697  12.5697  12.8006  12.8006  12.9054  13.1490  13.1490
    13.3275  13.3275  13.5902  13.5902  14.0401  14.2154  14.2154  14.2765
    14.2765  14.4351  14.8698  14.8698  14.9898  15.0736  15.0736  15.0745
    15.1099  15.1489  15.1489  15.2735  15.2735  15.4815  15.4815  15.5291
    15.5291  15.6790  16.0899  16.0899  16.5412  16.5412  16.5961  16.7143
    16.8867  16.8867  17.1073  17.1219  17.1220  17.3704  17.3706  17.4679
    17.4680  17.9666

     occupation numbers 
     1.0000   1.0000   1.0000   1.0000   1.0000   1.0000   1.0000   1.0000
     1.0000   1.0000   1.0000   1.0000   1.0000   1.0000   1.0000   1.0000
     1.0000   1.0000   1.0000   1.0000   1.0000   1.0000   1.0000   1.0000
     1.0000   1.0000   1.0000   1.0000   1.0000   1.0000   1.0000   1.0000
     1.0000   1.0000   1.0000   1.0000   1.0000   1.0000   1.0000   1.0000
     1.0000   1.0000   1.0000   1.0000   1.0000   1.0000   1.0000   1.0000
     1.0000   1.0000   1.0000   1.0000   1.0000   1.0000   1.0000   1.0000
     1.0000   1.0000   1.0000   1.0000   1.0000   1.0000   1.0000   1.0000
     1.0000   1.0000   1.0000   1.0000   1.0000   1.0000   1.0000   1.0000
     1.0000   1.0002   1.0073   1.0073   1.0152   1.0238   1.0238   1.0239
     1.0283   1.0338   1.0338   1.0541   1.0541   1.0824   1.0824   1.0832
     1.0832   1.0558   0.6655   0.6655   0.1481   0.1481   0.1135   0.0600
     0.0202   0.0202   0.0038   0.0034   0.0034   0.0003   0.0003   0.0001
     0.0001   0.0000

          k = 0.0000 0.0000-0.3091 ( 18180 PWs)   bands (ev):

   -71.7333 -71.7333 -71.6673 -71.6673 -71.6673 -71.6673 -71.6021 -71.6021
   -40.4552 -40.4552 -40.4030 -40.4030 -38.0189 -38.0189 -37.8506 -37.8506
   -37.8506 -37.8506 -37.8100 -37.8100 -37.7554 -37.7554 -37.7554 -37.7554
   -37.6373 -37.6373 -37.6143 -37.6143 -37.6143 -37.6143 -37.5489 -37.5489
   -37.5489 -37.5489 -37.5290 -37.5290 -16.7476 -16.7476 -16.7476 -16.7476
   -16.7417 -16.7417 -16.6030 -16.6030 -16.5753 -16.5753 -16.5753 -16.5753
     9.3072   9.3072  11.5720  11.5720  12.2212  12.2212  12.4753  12.4753
    12.4753  12.4753  12.7904  12.7904  12.9611  12.9611  12.9611  12.9611
    13.4236  13.4236  13.4236  13.4236  14.5536  14.5536  14.5536  14.5536
    14.6645  14.6645  14.6855  14.6855  14.6855  14.6855  14.8438  14.8438
    15.0921  15.0921  15.1553  15.1553  15.1553  15.1553  15.4794  15.4795
    15.4795  15.4795  16.5647  16.5647  16.5647  16.5647  16.7144  16.7144
    16.8777  16.8777  16.8777  16.8777  17.1358  17.1358  17.4087  17.4087
    17.4087  17.9490

     occupation numbers 
     1.0000   1.0000   1.0000   1.0000   1.0000   1.0000   1.0000   1.0000
     1.0000   1.0000   1.0000   1.0000   1.0000   1.0000   1.0000   1.0000
     1.0000   1.0000   1.0000   1.0000   1.0000   1.0000   1.0000   1.0000
     1.0000   1.0000   1.0000   1.0000   1.0000   1.0000   1.0000   1.0000
     1.0000   1.0000   1.0000   1.0000   1.0000   1.0000   1.0000   1.0000
     1.0000   1.0000   1.0000   1.0000   1.0000   1.0000   1.0000   1.0000
     1.0000   1.0000   1.0000   1.0000   1.0000   1.0000   1.0000   1.0000
     1.0000   1.0000   1.0000   1.0000   1.0000   1.0000   1.0000   1.0000
     1.0000   1.0000   1.0000   1.0000   1.0006   1.0006   1.0006   1.0006
     1.0016   1.0016   1.0019   1.0019   1.0019   1.0019   1.0062   1.0062
     1.0260   1.0260   1.0347   1.0347   1.0347   1.0347   1.0823   1.0823
     1.0823   1.0823   0.1325   0.1325   0.1325   0.1325   0.0600   0.0600
     0.0215   0.0215   0.0215   0.0215   0.0030   0.0030   0.0002   0.0002
     0.0002   0.0000

          k = 0.0000 0.1925 0.0000 ( 18205 PWs)   bands (ev):

   -71.7341 -71.7249 -71.6720 -71.6708 -71.6673 -71.6673 -71.6071 -71.5967
   -40.4583 -40.4443 -40.4148 -40.3993 -38.0176 -37.9668 -37.8679 -37.8497
   -37.8412 -37.8394 -37.8300 -37.7920 -37.7873 -37.7409 -37.7044 -37.6984
   -37.6751 -37.6741 -37.6472 -37.6453 -37.6133 -37.5797 -37.5773 -37.5690
   -37.5648 -37.5487 -37.5414 -37.4974 -16.7708 -16.7589 -16.7452 -16.7442
   -16.7362 -16.7193 -16.6185 -16.5965 -16.5882 -16.5788 -16.5639 -16.5614
     8.9178  10.7260  11.6281  11.6404  12.0586  12.2100  12.3647  12.4505
    12.5556  12.5590  12.7673  12.7762  12.7901  12.9900  13.2029  13.2905
    13.3226  13.3930  13.7721  13.8140  13.8521  13.8654  13.9071  14.0599
    14.1173  14.1523  14.6182  14.6778  14.7884  14.8540  14.9086  15.0117
    15.0443  15.0695  15.1720  15.2066  15.3442  15.6057  15.6457  15.6526
    15.7469  15.9917  16.0021  16.0936  16.1513  16.1859  16.2732  16.3965
    16.4546  16.8599  17.0184  17.1763  17.1768  17.2557  17.4253  17.4865
    17.6028  17.6104

     occupation numbers 
     1.0000   1.0000   1.0000   1.0000   1.0000   1.0000   1.0000   1.0000
     1.0000   1.0000   1.0000   1.0000   1.0000   1.0000   1.0000   1.0000
     1.0000   1.0000   1.0000   1.0000   1.0000   1.0000   1.0000   1.0000
     1.0000   1.0000   1.0000   1.0000   1.0000   1.0000   1.0000   1.0000
     1.0000   1.0000   1.0000   1.0000   1.0000   1.0000   1.0000   1.0000
     1.0000   1.0000   1.0000   1.0000   1.0000   1.0000   1.0000   1.0000
     1.0000   1.0000   1.0000   1.0000   1.0000   1.0000   1.0000   1.0000
     1.0000   1.0000   1.0000   1.0000   1.0000   1.0000   1.0000   1.0000
     1.0000   1.0000   1.0000   1.0000   1.0000   1.0000   1.0000   1.0000
     1.0000   1.0000   1.0011   1.0018   1.0042   1.0066   1.0094   1.0172
     1.0205   1.0233   1.0372   1.0427   1.0661   1.0758   1.0666   1.0646
     1.0238   0.7949   0.7818   0.6604   0.5805   0.5328   0.4167   0.2731
     0.2169   0.0242   0.0077   0.0021   0.0021   0.0010   0.0002   0.0001
     0.0000   0.0000

          k = 0.0000 0.1925 0.1545 ( 18177 PWs)   bands (ev):

   -71.7328 -71.7263 -71.6718 -71.6710 -71.6673 -71.6672 -71.6055 -71.5981
   -40.4567 -40.4472 -40.4117 -40.4011 -38.0125 -37.9785 -37.8534 -37.8454
   -37.8421 -37.8386 -37.8324 -37.7849 -37.7782 -37.7594 -37.7280 -37.7245
   -37.6526 -37.6511 -37.6473 -37.6416 -37.6100 -37.5904 -37.5813 -37.5702
   -37.5584 -37.5496 -37.5351 -37.5037 -16.7675 -16.7569 -16.7501 -16.7465
   -16.7326 -16.7212 -16.6164 -16.6025 -16.5816 -16.5764 -16.5660 -16.5643
     9.0822  10.2323  11.6427  11.8128  11.9889  12.3460  12.4369  12.4844
    12.5266  12.6516  12.6814  12.7380  12.8878  12.9892  13.1720  13.2264
    13.3094  13.3804  13.5461  13.6183  14.0467  14.1516  14.1973  14.2166
    14.2464  14.2531  14.5891  14.6149  14.7116  14.8219  14.9253  14.9641
    15.0152  15.0633  15.1102  15.1409  15.2855  15.3785  15.5677  15.5890
    15.6862  15.7811  15.9506  15.9550  16.2437  16.3857  16.5398  16.6067
    16.6538  16.9123  16.9452  17.1412  17.1442  17.2887  17.3261  17.4667
    17.5588  17.5934

     occupation numbers 
     1.0000   1.0000   1.0000   1.0000   1.0000   1.0000   1.0000   1.0000
     1.0000   1.0000   1.0000   1.0000   1.0000   1.0000   1.0000   1.0000
     1.0000   1.0000   1.0000   1.0000   1.0000   1.0000   1.0000   1.0000
     1.0000   1.0000   1.0000   1.0000   1.0000   1.0000   1.0000   1.0000
     1.0000   1.0000   1.0000   1.0000   1.0000   1.0000   1.0000   1.0000
     1.0000   1.0000   1.0000   1.0000   1.0000   1.0000   1.0000   1.0000
     1.0000   1.0000   1.0000   1.0000   1.0000   1.0000   1.0000   1.0000
     1.0000   1.0000   1.0000   1.0000   1.0000   1.0000   1.0000   1.0000
     1.0000   1.0000   1.0000   1.0000   1.0000   1.0000   1.0000   1.0000
     1.0000   1.0000   1.0009   1.0011   1.0024   1.0053   1.0104   1.0131
     1.0175   1.0226   1.0284   1.0326   1.0562   1.0714   1.0810   1.0784
     1.0530   1.0023   0.8444   0.8392   0.4550   0.2844   0.1490   0.1076
     0.0841   0.0169   0.0134   0.0029   0.0028   0.0008   0.0005   0.0001
     0.0000   0.0000

          k = 0.0000 0.1925-0.3091 ( 18170 PWs)   bands (ev):

   -71.7296 -71.7296 -71.6715 -71.6715 -71.6673 -71.6673 -71.6017 -71.6017
   -40.4526 -40.4526 -40.4058 -40.4058 -37.9982 -37.9982 -37.8479 -37.8479
   -37.8362 -37.8362 -37.8061 -37.8061 -37.7574 -37.7574 -37.7553 -37.7553
   -37.6476 -37.6476 -37.6234 -37.6234 -37.6151 -37.6151 -37.5753 -37.5753
   -37.5525 -37.5525 -37.5194 -37.5194 -16.7593 -16.7593 -16.7518 -16.7518
   -16.7264 -16.7264 -16.6105 -16.6105 -16.5719 -16.5719 -16.5711 -16.5711
     9.5518   9.5518  11.6976  11.6976  12.2365  12.2365  12.5182  12.5182
    12.5732  12.5732  12.7425  12.7425  13.0137  13.0137  13.0465  13.0465
    13.4086  13.4086  13.4580  13.4580  14.3781  14.3781  14.4213  14.4213
    14.4484  14.4484  14.5474  14.5474  14.6555  14.6555  14.8303  14.8303
    14.9918  14.9918  15.1011  15.1011  15.1198  15.1198  15.5271  15.5271
    15.5619  15.5619  16.1477  16.1477  16.2648  16.2648  16.7127  16.7127
    16.9632  16.9632  16.9892  16.9892  17.0869  17.0869  17.4319  17.4319
    17.5399  17.5399

     occupation numbers 
     1.0000   1.0000   1.0000   1.0000   1.0000   1.0000   1.0000   1.0000
     1.0000   1.0000   1.0000   1.0000   1.0000   1.0000   1.0000   1.0000
     1.0000   1.0000   1.0000   1.0000   1.0000   1.0000   1.0000   1.0000
     1.0000   1.0000   1.0000   1.0000   1.0000   1.0000   1.0000   1.0000
     1.0000   1.0000   1.0000   1.0000   1.0000   1.0000   1.0000   1.0000
     1.0000   1.0000   1.0000   1.0000   1.0000   1.0000   1.0000   1.0000
     1.0000   1.0000   1.0000   1.0000   1.0000   1.0000   1.0000   1.0000
     1.0000   1.0000   1.0000   1.0000   1.0000   1.0000   1.0000   1.0000
     1.0000   1.0000   1.0000   1.0000   1.0001   1.0001   1.0002   1.0002
     1.0002   1.0002   1.0006   1.0006   1.0015   1.0015   1.0056   1.0056
     1.0154   1.0154   1.0272   1.0272   1.0296   1.0296   1.0832   1.0832
     1.0815   1.0815   0.5855   0.5855   0.4273   0.4273   0.0606   0.0606
     0.0117   0.0117   0.0097   0.0097   0.0045   0.0045   0.0002   0.0002
     0.0001   0.0001

          k = 0.0000 0.3849 0.0000 ( 18169 PWs)   bands (ev):

   -71.7240 -71.7160 -71.6835 -71.6798 -71.6673 -71.6672 -71.6071 -71.5953
   -40.4514 -40.4367 -40.4227 -40.4070 -37.9679 -37.9226 -37.8599 -37.8338
   -37.8185 -37.7996 -37.7985 -37.7907 -37.7874 -37.7322 -37.7144 -37.7008
   -37.6984 -37.6974 -37.6793 -37.6756 -37.6575 -37.6232 -37.5847 -37.5773
   -37.5725 -37.5545 -37.5325 -37.4927 -16.7801 -16.7673 -16.7540 -16.7517
   -16.7267 -16.6913 -16.6432 -16.5998 -16.5868 -16.5710 -16.5561 -16.5560
     9.6485  11.2244  11.8382  11.9069  12.1733  12.1942  12.3119  12.5436
    12.5942  12.6317  12.9270  12.9709  13.0847  13.1645  13.2153  13.3523
    13.4220  13.5982  13.6526  13.6925  13.7699  13.8632  13.9187  14.0142
    14.0361  14.0437  14.0621  14.2249  14.2449  14.4275  14.4468  14.4709
    14.6066  14.7900  14.9543  15.1343  15.2629  15.2993  15.4135  15.5289
    15.6200  15.8184  15.9114  15.9161  16.3595  16.3643  16.3940  16.7526
    16.7880  16.8519  16.9419  17.2234  17.2319  17.3335  17.6910  17.7140
    17.7601  17.9261

     occupation numbers 
     1.0000   1.0000   1.0000   1.0000   1.0000   1.0000   1.0000   1.0000
     1.0000   1.0000   1.0000   1.0000   1.0000   1.0000   1.0000   1.0000
     1.0000   1.0000   1.0000   1.0000   1.0000   1.0000   1.0000   1.0000
     1.0000   1.0000   1.0000   1.0000   1.0000   1.0000   1.0000   1.0000
     1.0000   1.0000   1.0000   1.0000   1.0000   1.0000   1.0000   1.0000
     1.0000   1.0000   1.0000   1.0000   1.0000   1.0000   1.0000   1.0000
     1.0000   1.0000   1.0000   1.0000   1.0000   1.0000   1.0000   1.0000
     1.0000   1.0000   1.0000   1.0000   1.0000   1.0000   1.0000   1.0000
     1.0000   1.0000   1.0000   1.0000   1.0000   1.0000   1.0000   1.0000
     1.0000   1.0000   1.0000   1.0000   1.0000   1.0002   1.0002   1.0003
     1.0010   1.0042   1.0124   1.0317   1.0523   1.0585   1.0762   1.0832
     1.0729   0.9748   0.8880   0.8830   0.3129   0.3076   0.2757   0.0479
     0.0386   0.0256   0.0137   0.0014   0.0013   0.0005   0.0000   0.0000
     0.0000   0.0000

          k = 0.0000 0.3849 0.1545 ( 18173 PWs)   bands (ev):

   -71.7228 -71.7171 -71.6831 -71.6805 -71.6673 -71.6673 -71.6052 -71.5968
   -40.4500 -40.4404 -40.4189 -40.4085 -37.9638 -37.9342 -37.8458 -37.8333
   -37.8175 -37.7993 -37.7956 -37.7902 -37.7760 -37.7524 -37.7371 -37.7268
   -37.6831 -37.6821 -37.6795 -37.6690 -37.6429 -37.6179 -37.5921 -37.5901
   -37.5641 -37.5553 -37.5261 -37.4981 -16.7761 -16.7651 -16.7570 -16.7541
   -16.7241 -16.6995 -16.6350 -16.6067 -16.5801 -16.5686 -16.5596 -16.5580
     9.7974  10.8139  11.8077  11.9996  12.1692  12.3190  12.4002  12.4623
    12.6550  12.6794  12.8654  12.9051  13.1703  13.2111  13.2383  13.3139
    13.3959  13.5060  13.5916  13.6879  13.7030  13.8138  13.8826  14.0642
    14.1059  14.1233  14.1960  14.3313  14.3776  14.4443  14.5126  14.5199
    14.6437  14.8121  14.9565  15.0657  15.1850  15.2607  15.3900  15.4469
    15.4528  15.5601  15.9210  16.0291  16.1172  16.3848  16.5637  16.7526
    16.9145  16.9976  17.0207  17.1652  17.2721  17.3079  17.4965  17.6403
    17.8410  17.9876

     occupation numbers 
     1.0000   1.0000   1.0000   1.0000   1.0000   1.0000   1.0000   1.0000
     1.0000   1.0000   1.0000   1.0000   1.0000   1.0000   1.0000   1.0000
     1.0000   1.0000   1.0000   1.0000   1.0000   1.0000   1.0000   1.0000
     1.0000   1.0000   1.0000   1.0000   1.0000   1.0000   1.0000   1.0000
     1.0000   1.0000   1.0000   1.0000   1.0000   1.0000   1.0000   1.0000
     1.0000   1.0000   1.0000   1.0000   1.0000   1.0000   1.0000   1.0000
     1.0000   1.0000   1.0000   1.0000   1.0000   1.0000   1.0000   1.0000
     1.0000   1.0000   1.0000   1.0000   1.0000   1.0000   1.0000   1.0000
     1.0000   1.0000   1.0000   1.0000   1.0000   1.0000   1.0000   1.0000
     1.0000   1.0000   1.0000   1.0001   1.0001   1.0002   1.0004   1.0005
     1.0014   1.0050   1.0126   1.0228   1.0393   1.0519   1.0731   1.0799
     1.0804   1.0816   0.8777   0.7470   0.6278   0.2854   0.1331   0.0479
     0.0167   0.0091   0.0076   0.0023   0.0009   0.0006   0.0001   0.0000
     0.0000   0.0000

          k = 0.0000 0.3849-0.3091 ( 18162 PWs)   bands (ev):

   -71.7200 -71.7200 -71.6820 -71.6820 -71.6673 -71.6673 -71.6009 -71.6009
   -40.4460 -40.4460 -40.4128 -40.4128 -37.9517 -37.9517 -37.8348 -37.8348
   -37.7982 -37.7982 -37.7955 -37.7955 -37.7626 -37.7626 -37.7549 -37.7549
   -37.6801 -37.6801 -37.6688 -37.6688 -37.6158 -37.6158 -37.6037 -37.6037
   -37.5582 -37.5582 -37.5116 -37.5116 -16.7663 -16.7662 -16.7597 -16.7597
   -16.7140 -16.7140 -16.6200 -16.6200 -16.5688 -16.5688 -16.5632 -16.5632
    10.2186  10.2186  11.8709  11.8709  12.3136  12.3136  12.4936  12.4936
    12.7055  12.7055  12.7981  12.7981  13.2195  13.2195  13.2680  13.2680
    13.3964  13.3964  13.5847  13.5847  13.8143  13.8143  14.0367  14.0367
    14.1029  14.1029  14.2777  14.2777  14.4575  14.4575  14.6653  14.6653
    14.8726  14.8726  15.0279  15.0279  15.1034  15.1034  15.1431  15.1431
    15.4851  15.4851  15.9608  15.9608  16.1871  16.1871  16.6901  16.6901
    17.0629  17.0629  17.1422  17.1422  17.2988  17.2988  17.6680  17.6681
    17.6818  17.6818

     occupation numbers 
     1.0000   1.0000   1.0000   1.0000   1.0000   1.0000   1.0000   1.0000
     1.0000   1.0000   1.0000   1.0000   1.0000   1.0000   1.0000   1.0000
     1.0000   1.0000   1.0000   1.0000   1.0000   1.0000   1.0000   1.0000
     1.0000   1.0000   1.0000   1.0000   1.0000   1.0000   1.0000   1.0000
     1.0000   1.0000   1.0000   1.0000   1.0000   1.0000   1.0000   1.0000
     1.0000   1.0000   1.0000   1.0000   1.0000   1.0000   1.0000   1.0000
     1.0000   1.0000   1.0000   1.0000   1.0000   1.0000   1.0000   1.0000
     1.0000   1.0000   1.0000   1.0000   1.0000   1.0000   1.0000   1.0000
     1.0000   1.0000   1.0000   1.0000   1.0000   1.0000   1.0000   1.0000
     1.0000   1.0000   1.0000   1.0000   1.0003   1.0003   1.0016   1.0016
     1.0075   1.0075   1.0188   1.0188   1.0275   1.0275   1.0329   1.0329
     1.0826   1.0826   0.8323   0.8323   0.5311   0.5311   0.0689   0.0689
     0.0054   0.0054   0.0028   0.0028   0.0007   0.0007   0.0000   0.0000
     0.0000   0.0000

          k = 0.0000-0.5774 0.0000 ( 18152 PWs)   bands (ev):

   -71.7158 -71.7091 -71.6924 -71.6867 -71.6673 -71.6673 -71.6071 -71.5946
   -40.4457 -40.4306 -40.4289 -40.4131 -37.9411 -37.8997 -37.8555 -37.8008
   -37.7939 -37.7874 -37.7717 -37.7709 -37.7509 -37.7505 -37.7414 -37.7331
   -37.7231 -37.7168 -37.7151 -37.6984 -37.6602 -37.6453 -37.5875 -37.5773
   -37.5754 -37.5568 -37.5302 -37.4906 -16.7814 -16.7712 -16.7595 -16.7552
   -16.7207 -16.6783 -16.6555 -16.6068 -16.5810 -16.5673 -16.5557 -16.5522
    10.4108  11.1167  11.9135  12.0036  12.0142  12.2410  12.4290  12.7014
    12.7370  12.7738  13.0069  13.0392  13.0454  13.3641  13.3894  13.3905
    13.4307  13.6640  13.7605  13.7835  13.7874  13.8656  13.8747  13.8840
    13.9133  13.9569  13.9694  13.9737  14.0300  14.0384  14.0468  14.1201
    14.2611  14.3912  14.9421  15.1525  15.2742  15.2867  15.2908  15.3774
    15.3903  15.8054  15.9232  15.9689  16.3633  16.4843  16.6866  16.7429
    16.8537  17.0658  17.1425  17.2441  17.2987  17.4084  17.4503  17.6617
    18.9400  19.0512

     occupation numbers 
     1.0000   1.0000   1.0000   1.0000   1.0000   1.0000   1.0000   1.0000
     1.0000   1.0000   1.0000   1.0000   1.0000   1.0000   1.0000   1.0000
     1.0000   1.0000   1.0000   1.0000   1.0000   1.0000   1.0000   1.0000
     1.0000   1.0000   1.0000   1.0000   1.0000   1.0000   1.0000   1.0000
     1.0000   1.0000   1.0000   1.0000   1.0000   1.0000   1.0000   1.0000
     1.0000   1.0000   1.0000   1.0000   1.0000   1.0000   1.0000   1.0000
     1.0000   1.0000   1.0000   1.0000   1.0000   1.0000   1.0000   1.0000
     1.0000   1.0000   1.0000   1.0000   1.0000   1.0000   1.0000   1.0000
     1.0000   1.0000   1.0000   1.0000   1.0000   1.0000   1.0000   1.0000
     1.0000   1.0000   1.0000   1.0000   1.0000   1.0000   1.0000   1.0000
     1.0000   1.0001   1.0115   1.0343   1.0542   1.0564   1.0571   1.0713
     1.0731   0.9849   0.8753   0.8227   0.3087   0.1913   0.0702   0.0508
     0.0253   0.0053   0.0028   0.0011   0.0007   0.0002   0.0001   0.0000
     0.0000   0.0000

          k = 0.0000-0.5774 0.1545 ( 18148 PWs)   bands (ev):

   -71.7147 -71.7099 -71.6918 -71.6879 -71.6673 -71.6673 -71.6051 -71.5963
   -40.4446 -40.4362 -40.4232 -40.4143 -37.9375 -37.9110 -37.8402 -37.7994
   -37.7954 -37.7818 -37.7733 -37.7700 -37.7517 -37.7505 -37.7480 -37.7464
   -37.7225 -37.7175 -37.7163 -37.7074 -37.6430 -37.6325 -37.5935 -37.5929
   -37.5661 -37.5576 -37.5236 -37.4957 -16.7773 -16.7690 -16.7608 -16.7577
   -16.7198 -16.6929 -16.6410 -16.6104 -16.5774 -16.5649 -16.5593 -16.5543
    10.5296  11.1278  11.5657  11.8943  12.1890  12.4052  12.4078  12.6661
    12.6964  12.7966  12.9493  13.0281  13.1472  13.3724  13.3784  13.4398
    13.4903  13.5276  13.5635  13.6903  13.7791  13.7928  13.8661  13.8790
    13.8995  13.9171  13.9305  13.9856  14.0185  14.0345  14.3172  14.3268
    14.4582  14.6279  14.9645  15.0873  15.2098  15.2400  15.2981  15.3306
    15.3623  15.4300  15.9553  16.0951  16.1521  16.4060  16.7732  16.8279
    16.9286  17.0748  17.1876  17.2173  17.3234  17.4589  17.5009  17.7300
    17.9081  18.0363

     occupation numbers 
     1.0000   1.0000   1.0000   1.0000   1.0000   1.0000   1.0000   1.0000
     1.0000   1.0000   1.0000   1.0000   1.0000   1.0000   1.0000   1.0000
     1.0000   1.0000   1.0000   1.0000   1.0000   1.0000   1.0000   1.0000
     1.0000   1.0000   1.0000   1.0000   1.0000   1.0000   1.0000   1.0000
     1.0000   1.0000   1.0000   1.0000   1.0000   1.0000   1.0000   1.0000
     1.0000   1.0000   1.0000   1.0000   1.0000   1.0000   1.0000   1.0000
     1.0000   1.0000   1.0000   1.0000   1.0000   1.0000   1.0000   1.0000
     1.0000   1.0000   1.0000   1.0000   1.0000   1.0000   1.0000   1.0000
     1.0000   1.0000   1.0000   1.0000   1.0000   1.0000   1.0000   1.0000
     1.0000   1.0000   1.0000   1.0000   1.0000   1.0000   1.0001   1.0001
     1.0003   1.0012   1.0132   1.0254   1.0433   1.0483   1.0583   1.0639
     1.0690   1.0781   0.8388   0.6583   0.5795   0.2633   0.0423   0.0299
     0.0151   0.0050   0.0019   0.0015   0.0005   0.0001   0.0001   0.0000
     0.0000   0.0000

          k = 0.0000-0.5774-0.3091 ( 18108 PWs)   bands (ev):

   -71.7122 -71.7122 -71.6902 -71.6902 -71.6673 -71.6673 -71.6005 -71.6005
   -40.4413 -40.4413 -40.4178 -40.4178 -37.9268 -37.9268 -37.8160 -37.8160
   -37.7814 -37.7814 -37.7666 -37.7666 -37.7652 -37.7652 -37.7504 -37.7504
   -37.7206 -37.7206 -37.7141 -37.7141 -37.6160 -37.6160 -37.6103 -37.6103
   -37.5604 -37.5604 -37.5089 -37.5089 -16.7679 -16.7679 -16.7635 -16.7635
   -16.7109 -16.7109 -16.6225 -16.6225 -16.5682 -16.5682 -16.5595 -16.5595
    10.8481  10.8481  11.6218  11.6218  12.3006  12.3006  12.5915  12.5915
    12.7854  12.7854  12.9346  12.9346  13.3010  13.3010  13.3974  13.3974
    13.4060  13.4060  13.6570  13.6570  13.7673  13.7673  13.8570  13.8570
    13.8904  13.8904  13.9812  13.9812  14.0019  14.0019  14.4315  14.4315
    14.8877  14.8877  15.0600  15.0600  15.0704  15.0704  15.1241  15.1241
    15.3524  15.3524  15.9675  15.9675  16.2813  16.2813  16.7252  16.7252
    17.0365  17.0365  17.3088  17.3088  17.4806  17.4806  17.6573  17.6573
    17.8119  17.8120

     occupation numbers 
     1.0000   1.0000   1.0000   1.0000   1.0000   1.0000   1.0000   1.0000
     1.0000   1.0000   1.0000   1.0000   1.0000   1.0000   1.0000   1.0000
     1.0000   1.0000   1.0000   1.0000   1.0000   1.0000   1.0000   1.0000
     1.0000   1.0000   1.0000   1.0000   1.0000   1.0000   1.0000   1.0000
     1.0000   1.0000   1.0000   1.0000   1.0000   1.0000   1.0000   1.0000
     1.0000   1.0000   1.0000   1.0000   1.0000   1.0000   1.0000   1.0000
     1.0000   1.0000   1.0000   1.0000   1.0000   1.0000   1.0000   1.0000
     1.0000   1.0000   1.0000   1.0000   1.0000   1.0000   1.0000   1.0000
     1.0000   1.0000   1.0000   1.0000   1.0000   1.0000   1.0000   1.0000
     1.0000   1.0000   1.0000   1.0000   1.0000   1.0000   1.0002   1.0002
     1.0082   1.0082   1.0222   1.0222   1.0234   1.0234   1.0302   1.0302
     1.0674   1.0674   0.8244   0.8244   0.4063   0.4063   0.0564   0.0564
     0.0067   0.0067   0.0006   0.0006   0.0001   0.0001   0.0000   0.0000
     0.0000   0.0000

          k = 0.1667 0.2887 0.0000 ( 18169 PWs)   bands (ev):

   -71.7269 -71.7186 -71.6802 -71.6772 -71.6673 -71.6673 -71.6071 -71.5956
   -40.4534 -40.4389 -40.4204 -40.4047 -37.9797 -37.9324 -37.8620 -37.8421
   -37.8369 -37.8089 -37.7991 -37.7967 -37.7882 -37.7324 -37.7123 -37.6994
   -37.6965 -37.6871 -37.6624 -37.6614 -37.6479 -37.6079 -37.5826 -37.5779
   -37.5715 -37.5590 -37.5330 -37.4939 -16.7773 -16.7679 -16.7518 -16.7513
   -16.7267 -16.6960 -16.6382 -16.5991 -16.5894 -16.5713 -16.5582 -16.5561
     9.4169  11.1005  11.8251  11.8401  12.1940  12.2823  12.3140  12.4475
    12.4499  12.6423  12.9231  12.9348  13.0285  13.1348  13.1439  13.3159
    13.3354  13.5587  13.6585  13.7773  13.8587  13.8652  13.9127  13.9898
    14.0338  14.0479  14.1584  14.3397  14.4329  14.4580  14.6658  14.7669
    14.7680  14.8294  14.9869  15.0404  15.1255  15.4906  15.5637  15.5898
    15.7664  15.8506  15.9938  16.0516  16.0563  16.3193  16.3602  16.4785
    16.7470  16.8821  17.0181  17.1061  17.1748  17.3134  17.5841  17.6977
    17.7443  18.9986

     occupation numbers 
     1.0000   1.0000   1.0000   1.0000   1.0000   1.0000   1.0000   1.0000
     1.0000   1.0000   1.0000   1.0000   1.0000   1.0000   1.0000   1.0000
     1.0000   1.0000   1.0000   1.0000   1.0000   1.0000   1.0000   1.0000
     1.0000   1.0000   1.0000   1.0000   1.0000   1.0000   1.0000   1.0000
     1.0000   1.0000   1.0000   1.0000   1.0000   1.0000   1.0000   1.0000
     1.0000   1.0000   1.0000   1.0000   1.0000   1.0000   1.0000   1.0000
     1.0000   1.0000   1.0000   1.0000   1.0000   1.0000   1.0000   1.0000
     1.0000   1.0000   1.0000   1.0000   1.0000   1.0000   1.0000   1.0000
     1.0000   1.0000   1.0000   1.0000   1.0000   1.0000   1.0000   1.0000
     1.0000   1.0000   1.0000   1.0001   1.0002   1.0003   1.0016   1.0036
     1.0036   1.0056   1.0150   1.0201   1.0304   1.0828   1.0813   1.0783
     1.0120   0.9476   0.7923   0.7174   0.7110   0.3595   0.3121   0.1961
     0.0496   0.0209   0.0077   0.0038   0.0021   0.0006   0.0000   0.0000
     0.0000   0.0000

          k = 0.1667 0.2887 0.1545 ( 18190 PWs)   bands (ev):

   -71.7258 -71.7198 -71.6799 -71.6777 -71.6673 -71.6673 -71.6053 -71.5971
   -40.4520 -40.4423 -40.4169 -40.4064 -37.9753 -37.9442 -37.8505 -37.8395
   -37.8340 -37.8087 -37.8027 -37.7893 -37.7779 -37.7523 -37.7333 -37.7272
   -37.6808 -37.6782 -37.6520 -37.6468 -37.6414 -37.6095 -37.5891 -37.5880
   -37.5652 -37.5591 -37.5270 -37.4993 -16.7735 -16.7657 -16.7546 -16.7543
   -16.7239 -16.7023 -16.6319 -16.6065 -16.5819 -16.5690 -16.5616 -16.5582
     9.5716  10.6425  11.8363  12.0231  12.0964  12.2864  12.3843  12.5250
    12.5715  12.6426  12.8503  12.8645  13.0744  13.1307  13.2149  13.3190
    13.3198  13.4546  13.5390  13.6630  13.8628  13.8988  14.0373  14.0803
    14.1218  14.1802  14.3565  14.3943  14.4152  14.5713  14.6356  14.7422
    14.7922  14.8127  14.9944  15.0235  15.0334  15.4001  15.4015  15.4559
    15.6975  15.7366  15.9368  16.0148  16.1074  16.1670  16.5226  16.6492
    16.8502  16.9501  17.0868  17.1175  17.2040  17.2879  17.4781  17.5171
    17.7262  17.8516

     occupation numbers 
     1.0000   1.0000   1.0000   1.0000   1.0000   1.0000   1.0000   1.0000
     1.0000   1.0000   1.0000   1.0000   1.0000   1.0000   1.0000   1.0000
     1.0000   1.0000   1.0000   1.0000   1.0000   1.0000   1.0000   1.0000
     1.0000   1.0000   1.0000   1.0000   1.0000   1.0000   1.0000   1.0000
     1.0000   1.0000   1.0000   1.0000   1.0000   1.0000   1.0000   1.0000
     1.0000   1.0000   1.0000   1.0000   1.0000   1.0000   1.0000   1.0000
     1.0000   1.0000   1.0000   1.0000   1.0000   1.0000   1.0000   1.0000
     1.0000   1.0000   1.0000   1.0000   1.0000   1.0000   1.0000   1.0000
     1.0000   1.0000   1.0000   1.0000   1.0000   1.0000   1.0000   1.0000
     1.0000   1.0000   1.0001   1.0001   1.0002   1.0007   1.0013   1.0030
     1.0043   1.0050   1.0156   1.0183   1.0193   1.0745   1.0747   1.0807
     1.0484   1.0295   0.8602   0.7655   0.6413   0.5588   0.1613   0.0862
     0.0259   0.0129   0.0045   0.0035   0.0016   0.0008   0.0001   0.0001
     0.0000   0.0000

          k = 0.1667 0.2887-0.3091 ( 18172 PWs)   bands (ev):

   -71.7228 -71.7228 -71.6789 -71.6789 -71.6673 -71.6673 -71.6011 -71.6011
   -40.4479 -40.4479 -40.4109 -40.4109 -37.9625 -37.9625 -37.8440 -37.8440
   -37.8091 -37.8091 -37.7978 -37.7978 -37.7606 -37.7606 -37.7555 -37.7555
   -37.6764 -37.6764 -37.6389 -37.6389 -37.6210 -37.6210 -37.5964 -37.5964
   -37.5607 -37.5607 -37.5128 -37.5128 -16.7643 -16.7643 -16.7598 -16.7598
   -16.7145 -16.7145 -16.6191 -16.6191 -16.5707 -16.5707 -16.5634 -16.5634
    10.0113  10.0113  11.8883  11.8883  12.2527  12.2527  12.5444  12.5444
    12.6766  12.6766  12.7356  12.7356  13.1484  13.1484  13.1986  13.1986
    13.4028  13.4028  13.5234  13.5234  13.9484  13.9484  14.1487  14.1487
    14.2381  14.2381  14.4374  14.4374  14.5355  14.5355  14.7506  14.7506
    14.8086  14.8086  14.9805  14.9805  15.1236  15.1236  15.2269  15.2269
    15.6612  15.6612  15.9547  15.9547  16.1182  16.1182  16.6290  16.6290
    17.0270  17.0270  17.2084  17.2084  17.2279  17.2279  17.3958  17.3958
    17.7011  17.7011

     occupation numbers 
     1.0000   1.0000   1.0000   1.0000   1.0000   1.0000   1.0000   1.0000
     1.0000   1.0000   1.0000   1.0000   1.0000   1.0000   1.0000   1.0000
     1.0000   1.0000   1.0000   1.0000   1.0000   1.0000   1.0000   1.0000
     1.0000   1.0000   1.0000   1.0000   1.0000   1.0000   1.0000   1.0000
     1.0000   1.0000   1.0000   1.0000   1.0000   1.0000   1.0000   1.0000
     1.0000   1.0000   1.0000   1.0000   1.0000   1.0000   1.0000   1.0000
     1.0000   1.0000   1.0000   1.0000   1.0000   1.0000   1.0000   1.0000
     1.0000   1.0000   1.0000   1.0000   1.0000   1.0000   1.0000   1.0000
     1.0000   1.0000   1.0000   1.0000   1.0000   1.0000   1.0000   1.0000
     1.0000   1.0000   1.0002   1.0002   1.0005   1.0005   1.0032   1.0032
     1.0048   1.0048   1.0144   1.0144   1.0302   1.0302   1.0461   1.0461
     1.0619   1.0619   0.8396   0.8396   0.6264   0.6264   0.0959   0.0959
     0.0072   0.0072   0.0016   0.0016   0.0013   0.0013   0.0003   0.0003
     0.0000   0.0000

          k = 0.1667 0.4811 0.0000 ( 18164 PWs)   bands (ev):

   -71.7158 -71.7091 -71.6924 -71.6867 -71.6673 -71.6673 -71.6071 -71.5946
   -40.4456 -40.4305 -40.4290 -40.4132 -37.9303 -37.8893 -37.8553 -37.8282
   -37.8109 -37.7996 -37.7904 -37.7647 -37.7595 -37.7555 -37.7272 -37.7252
   -37.7161 -37.7021 -37.6920 -37.6822 -37.6631 -37.6477 -37.5854 -37.5828
   -37.5788 -37.5682 -37.5284 -37.4906 -16.7798 -16.7744 -16.7603 -16.7597
   -16.7121 -16.6712 -16.6607 -16.6150 -16.5797 -16.5639 -16.5602 -16.5480
    10.2682  11.4586  11.8545  12.0186  12.1693  12.2718  12.3192  12.4688
    12.6064  12.7222  13.0748  13.1087  13.2407  13.2809  13.3279  13.3427
    13.3580  13.4325  13.7022  13.7115  13.7685  13.7782  13.8491  13.8524
    13.9190  13.9574  13.9734  14.0125  14.0945  14.1133  14.2813  14.3474
    14.4597  14.5102  14.9191  14.9481  15.1375  15.3235  15.4316  15.4815
    15.5008  15.7572  15.8113  16.1530  16.1851  16.4017  16.5056  16.7306
    16.8412  16.9434  17.0422  17.2226  17.3218  17.3787  17.7196  17.8089
    17.8704  18.1239

     occupation numbers 
     1.0000   1.0000   1.0000   1.0000   1.0000   1.0000   1.0000   1.0000
     1.0000   1.0000   1.0000   1.0000   1.0000   1.0000   1.0000   1.0000
     1.0000   1.0000   1.0000   1.0000   1.0000   1.0000   1.0000   1.0000
     1.0000   1.0000   1.0000   1.0000   1.0000   1.0000   1.0000   1.0000
     1.0000   1.0000   1.0000   1.0000   1.0000   1.0000   1.0000   1.0000
     1.0000   1.0000   1.0000   1.0000   1.0000   1.0000   1.0000   1.0000
     1.0000   1.0000   1.0000   1.0000   1.0000   1.0000   1.0000   1.0000
     1.0000   1.0000   1.0000   1.0000   1.0000   1.0000   1.0000   1.0000
     1.0000   1.0000   1.0000   1.0000   1.0000   1.0000   1.0000   1.0000
     1.0000   1.0000   1.0000   1.0000   1.0000   1.0000   1.0000   1.0001
     1.0003   1.0004   1.0100   1.0120   1.0321   1.0627   1.0783   1.0824
     1.0831   1.0177   0.9804   0.5782   0.5339   0.2677   0.1742   0.0546
     0.0275   0.0136   0.0064   0.0014   0.0005   0.0003   0.0000   0.0000
     0.0000   0.0000

          k = 0.1667 0.4811 0.1545 ( 18157 PWs)   bands (ev):

   -71.7147 -71.7099 -71.6918 -71.6879 -71.6673 -71.6673 -71.6051 -71.5963
   -40.4445 -40.4361 -40.4232 -40.4144 -37.9269 -37.9012 -37.8427 -37.8287
   -37.8093 -37.7912 -37.7844 -37.7713 -37.7601 -37.7561 -37.7412 -37.7335
   -37.7224 -37.7147 -37.6830 -37.6761 -37.6486 -37.6374 -37.5947 -37.5920
   -37.5724 -37.5678 -37.5223 -37.4956 -16.7765 -16.7716 -16.7627 -16.7602
   -16.7125 -16.6890 -16.6430 -16.6164 -16.5779 -16.5635 -16.5613 -16.5502
    10.3983  11.2458  11.7061  12.0149  12.2731  12.3099  12.3953  12.4650
    12.6630  12.7360  12.9698  13.0851  13.2830  13.3149  13.3335  13.3558
    13.4125  13.4838  13.5222  13.5925  13.6740  13.7727  13.8082  13.8272
    13.8511  13.9129  14.0125  14.0911  14.1669  14.2988  14.4150  14.4616
    14.5447  14.6248  14.8935  14.9554  15.0580  15.2799  15.4020  15.4133
    15.4527  15.4843  15.8941  16.0376  16.0909  16.3138  16.5792  16.8552
    16.9186  16.9622  17.0874  17.2294  17.3065  17.3767  17.6505  17.7151
    17.9567  18.1598

     occupation numbers 
     1.0000   1.0000   1.0000   1.0000   1.0000   1.0000   1.0000   1.0000
     1.0000   1.0000   1.0000   1.0000   1.0000   1.0000   1.0000   1.0000
     1.0000   1.0000   1.0000   1.0000   1.0000   1.0000   1.0000   1.0000
     1.0000   1.0000   1.0000   1.0000   1.0000   1.0000   1.0000   1.0000
     1.0000   1.0000   1.0000   1.0000   1.0000   1.0000   1.0000   1.0000
     1.0000   1.0000   1.0000   1.0000   1.0000   1.0000   1.0000   1.0000
     1.0000   1.0000   1.0000   1.0000   1.0000   1.0000   1.0000   1.0000
     1.0000   1.0000   1.0000   1.0000   1.0000   1.0000   1.0000   1.0000
     1.0000   1.0000   1.0000   1.0000   1.0000   1.0000   1.0000   1.0000
     1.0000   1.0000   1.0000   1.0000   1.0000   1.0001   1.0002   1.0003
     1.0006   1.0012   1.0085   1.0125   1.0220   1.0552   1.0747   1.0762
     1.0804   1.0825   0.9060   0.7359   0.6641   0.3661   0.1234   0.0250
     0.0162   0.0118   0.0045   0.0013   0.0006   0.0003   0.0000   0.0000
     0.0000   0.0000

          k = 0.1667 0.4811-0.3091 ( 18144 PWs)   bands (ev):

   -71.7122 -71.7122 -71.6902 -71.6902 -71.6673 -71.6673 -71.6005 -71.6005
   -40.4412 -40.4412 -40.4179 -40.4179 -37.9168 -37.9168 -37.8321 -37.8321
   -37.7923 -37.7923 -37.7762 -37.7762 -37.7603 -37.7603 -37.7525 -37.7525
   -37.7209 -37.7209 -37.6767 -37.6767 -37.6276 -37.6276 -37.6045 -37.6045
   -37.5686 -37.5686 -37.5083 -37.5083 -16.7695 -16.7695 -16.7645 -16.7645
   -16.7061 -16.7061 -16.6254 -16.6254 -16.5713 -16.5713 -16.5557 -16.5557
    10.7612  10.7612  11.8363  11.8363  12.3217  12.3217  12.4591  12.4591
    12.8120  12.8120  12.9049  12.9049  13.3140  13.3140  13.3547  13.3547
    13.4085  13.4085  13.5600  13.5600  13.6964  13.6964  13.7899  13.7899
    13.8767  13.8767  14.0694  14.0694  14.2276  14.2276  14.6005  14.6005
    14.7836  14.7836  14.9085  14.9086  15.0584  15.0584  15.2531  15.2531
    15.4164  15.4164  15.9366  15.9366  16.1425  16.1425  16.7079  16.7079
    17.0510  17.0510  17.2074  17.2074  17.3159  17.3159  17.6568  17.6568
    17.9937  17.9938

     occupation numbers 
     1.0000   1.0000   1.0000   1.0000   1.0000   1.0000   1.0000   1.0000
     1.0000   1.0000   1.0000   1.0000   1.0000   1.0000   1.0000   1.0000
     1.0000   1.0000   1.0000   1.0000   1.0000   1.0000   1.0000   1.0000
     1.0000   1.0000   1.0000   1.0000   1.0000   1.0000   1.0000   1.0000
     1.0000   1.0000   1.0000   1.0000   1.0000   1.0000   1.0000   1.0000
     1.0000   1.0000   1.0000   1.0000   1.0000   1.0000   1.0000   1.0000
     1.0000   1.0000   1.0000   1.0000   1.0000   1.0000   1.0000   1.0000
     1.0000   1.0000   1.0000   1.0000   1.0000   1.0000   1.0000   1.0000
     1.0000   1.0000   1.0000   1.0000   1.0000   1.0000   1.0000   1.0000
     1.0000   1.0000   1.0000   1.0000   1.0000   1.0000   1.0010   1.0010
     1.0040   1.0040   1.0094   1.0094   1.0220   1.0220   1.0506   1.0506
     1.0766   1.0766   0.8603   0.8603   0.5928   0.5928   0.0623   0.0623
     0.0060   0.0060   0.0016   0.0016   0.0006   0.0006   0.0000   0.0000
     0.0000   0.0000

          k = 0.3333 0.5774 0.0000 ( 18168 PWs)   bands (ev):

   -71.7057 -71.7028 -71.7028 -71.6930 -71.6673 -71.6673 -71.6071 -71.5943
   -40.4374 -40.4374 -40.4218 -40.4218 -37.8843 -37.8527 -37.8497 -37.8497
   -37.8169 -37.7966 -37.7966 -37.7962 -37.7962 -37.7210 -37.7149 -37.7121
   -37.7121 -37.6895 -37.6895 -37.6860 -37.6777 -37.6777 -37.5871 -37.5871
   -37.5825 -37.5825 -37.5263 -37.4895 -16.7827 -16.7695 -16.7695 -16.7649
   -16.6866 -16.6866 -16.6421 -16.6421 -16.5693 -16.5693 -16.5593 -16.5434
    10.7885  11.6475  11.6475  12.0766  12.2752  12.3488  12.3488  12.4603
    12.4603  12.6022  13.2224  13.2224  13.2925  13.2925  13.3703  13.3703
    13.3832  13.4509  13.4509  13.4546  13.5434  13.7112  13.7699  13.7699
    13.9125  13.9125  13.9583  14.0209  14.0209  14.2622  14.3891  14.3891
    14.4110  14.6095  14.9238  14.9238  15.0576  15.2012  15.2012  15.3563
    15.6655  15.6655  15.8428  15.8428  16.4688  16.4688  16.5658  16.5658
    16.5859  16.9439  17.2306  17.2309  17.3859  17.4607  17.8810  17.9668
    18.0104  18.9569

     occupation numbers 
     1.0000   1.0000   1.0000   1.0000   1.0000   1.0000   1.0000   1.0000
     1.0000   1.0000   1.0000   1.0000   1.0000   1.0000   1.0000   1.0000
     1.0000   1.0000   1.0000   1.0000   1.0000   1.0000   1.0000   1.0000
     1.0000   1.0000   1.0000   1.0000   1.0000   1.0000   1.0000   1.0000
     1.0000   1.0000   1.0000   1.0000   1.0000   1.0000   1.0000   1.0000
     1.0000   1.0000   1.0000   1.0000   1.0000   1.0000   1.0000   1.0000
     1.0000   1.0000   1.0000   1.0000   1.0000   1.0000   1.0000   1.0000
     1.0000   1.0000   1.0000   1.0000   1.0000   1.0000   1.0000   1.0000
     1.0000   1.0000   1.0000   1.0000   1.0000   1.0000   1.0000   1.0000
     1.0000   1.0000   1.0000   1.0000   1.0000   1.0000   1.0001   1.0001
     1.0002   1.0010   1.0103   1.0103   1.0219   1.0419   1.0419   1.0680
     1.0605   1.0605   0.9545   0.9545   0.2044   0.2044   0.1317   0.1317
     0.1194   0.0135   0.0013   0.0013   0.0003   0.0001   0.0000   0.0000
     0.0000   0.0000

          k = 0.3333 0.5774 0.1545 ( 18126 PWs)   bands (ev):

   -71.7040 -71.7028 -71.7028 -71.6951 -71.6673 -71.6673 -71.6050 -71.5960
   -40.4376 -40.4376 -40.4217 -40.4217 -37.8817 -37.8619 -37.8505 -37.8505
   -37.8019 -37.7977 -37.7977 -37.7882 -37.7882 -37.7437 -37.7317 -37.7317
   -37.7005 -37.6894 -37.6894 -37.6872 -37.6595 -37.6595 -37.5949 -37.5949
   -37.5795 -37.5795 -37.5202 -37.4944 -16.7802 -16.7677 -16.7671 -16.7671
   -16.6938 -16.6938 -16.6354 -16.6354 -16.5712 -16.5712 -16.5568 -16.5456
    10.8959  11.6471  11.7135  11.7135  12.2595  12.2595  12.4737  12.4737
    12.6798  12.6873  13.2101  13.2304  13.2304  13.3524  13.3524  13.3685
    13.3764  13.3764  13.4373  13.4373  13.5365  13.6325  13.6325  13.6334
    13.8176  13.8176  14.0120  14.2193  14.2309  14.2309  14.4420  14.4420
    14.6444  14.6848  14.8841  14.8841  14.9988  15.2271  15.2271  15.2690
    15.5159  15.5159  15.8766  15.8766  16.1376  16.1376  16.6270  16.8949
    16.9214  16.9214  17.2183  17.2183  17.3154  17.3432  17.8615  17.8616
    17.9915  18.2248

     occupation numbers 
     1.0000   1.0000   1.0000   1.0000   1.0000   1.0000   1.0000   1.0000
     1.0000   1.0000   1.0000   1.0000   1.0000   1.0000   1.0000   1.0000
     1.0000   1.0000   1.0000   1.0000   1.0000   1.0000   1.0000   1.0000
     1.0000   1.0000   1.0000   1.0000   1.0000   1.0000   1.0000   1.0000
     1.0000   1.0000   1.0000   1.0000   1.0000   1.0000   1.0000   1.0000
     1.0000   1.0000   1.0000   1.0000   1.0000   1.0000   1.0000   1.0000
     1.0000   1.0000   1.0000   1.0000   1.0000   1.0000   1.0000   1.0000
     1.0000   1.0000   1.0000   1.0000   1.0000   1.0000   1.0000   1.0000
     1.0000   1.0000   1.0000   1.0000   1.0000   1.0000   1.0000   1.0000
     1.0000   1.0000   1.0000   1.0000   1.0000   1.0000   1.0002   1.0002
     1.0014   1.0019   1.0080   1.0080   1.0160   1.0461   1.0461   1.0533
     1.0833   1.0833   0.9234   0.9234   0.5996   0.5996   0.0969   0.0191
     0.0159   0.0159   0.0014   0.0014   0.0006   0.0004   0.0000   0.0000
     0.0000   0.0000

          k = 0.3333 0.5774-0.3091 ( 18156 PWs)   bands (ev):

   -71.7028 -71.7028 -71.6998 -71.6998 -71.6673 -71.6673 -71.6003 -71.6003
   -40.4377 -40.4377 -40.4215 -40.4215 -37.8740 -37.8740 -37.8513 -37.8513
   -37.7978 -37.7978 -37.7769 -37.7769 -37.7737 -37.7737 -37.7502 -37.7502
   -37.6914 -37.6914 -37.6894 -37.6894 -37.6448 -37.6448 -37.6028 -37.6028
   -37.5782 -37.5782 -37.5067 -37.5067 -16.7741 -16.7741 -16.7645 -16.7645
   -16.7002 -16.7002 -16.6295 -16.6295 -16.5733 -16.5733 -16.5511 -16.5511
    11.2001  11.2001  11.8046  11.8046  12.1567  12.1567  12.4773  12.4773
    12.8961  12.8961  13.1071  13.1071  13.2983  13.2983  13.3031  13.3031
    13.3281  13.3281  13.5166  13.5166  13.5543  13.5543  13.5586  13.5586
    13.8098  13.8098  14.1194  14.1194  14.2059  14.2059  14.7051  14.7051
    14.7593  14.7593  14.8489  14.8489  15.0122  15.0122  15.2499  15.2499
    15.3326  15.3326  15.9192  15.9192  16.0103  16.0103  16.7502  16.7502
    17.1245  17.1245  17.1472  17.1472  17.2706  17.2706  17.8537  17.8537
    17.9729  17.9730

     occupation numbers 
     1.0000   1.0000   1.0000   1.0000   1.0000   1.0000   1.0000   1.0000
     1.0000   1.0000   1.0000   1.0000   1.0000   1.0000   1.0000   1.0000
     1.0000   1.0000   1.0000   1.0000   1.0000   1.0000   1.0000   1.0000
     1.0000   1.0000   1.0000   1.0000   1.0000   1.0000   1.0000   1.0000
     1.0000   1.0000   1.0000   1.0000   1.0000   1.0000   1.0000   1.0000
     1.0000   1.0000   1.0000   1.0000   1.0000   1.0000   1.0000   1.0000
     1.0000   1.0000   1.0000   1.0000   1.0000   1.0000   1.0000   1.0000
     1.0000   1.0000   1.0000   1.0000   1.0000   1.0000   1.0000   1.0000
     1.0000   1.0000   1.0000   1.0000   1.0000   1.0000   1.0000   1.0000
     1.0000   1.0000   1.0000   1.0000   1.0000   1.0000   1.0022   1.0022
     1.0034   1.0034   1.0064   1.0064   1.0172   1.0172   1.0500   1.0500
     1.0642   1.0642   0.8796   0.8796   0.7714   0.7714   0.0486   0.0486
     0.0033   0.0033   0.0027   0.0027   0.0009   0.0009   0.0000   0.0000
     0.0000   0.0000

 ------ SPIN DOWN ----------


          k = 0.0000 0.0000 0.0000 ( 18257 PWs)   bands (ev):

   -69.6658 -69.6372 -69.6159 -69.5872 -69.5506 -69.5506 -69.5506 -69.5506
   -41.0411 -41.0265 -40.9910 -40.9755 -36.0764 -35.9789 -35.9484 -35.8004
   -35.8004 -35.7774 -35.7774 -35.7766 -35.7766 -35.7166 -35.6839 -35.6774
   -35.6774 -35.6286 -35.6286 -35.5497 -35.5432 -35.5432 -35.5404 -35.5404
   -35.5049 -35.5049 -35.4962 -35.4962 -17.3440 -17.3440 -17.3298 -17.3298
   -17.3198 -17.3184 -17.1769 -17.1735 -17.1680 -17.1680 -17.1533 -17.1533
     8.5765  10.7486  11.3217  12.6200  13.0581  13.1374  13.1374  13.1742
    13.2508  13.2508  13.6173  13.8833  14.0870  14.0870  14.4563  14.4563
    14.6005  14.6005  14.7266  14.7310  14.7310  14.8366  14.8366  15.2453
    15.2453  15.3231  15.3231  15.3967  15.3967  15.5050  16.0096  16.4531
    16.4531  16.4972  16.5172  16.5172  16.5987  16.8670  16.8670  16.8872
    16.8872  16.9448  16.9996  16.9996  17.1555  17.2323  17.3641  17.3641
    17.6700  17.6701  17.9830  17.9830  18.4086  18.4089  18.7289  18.8029
    18.8030  18.8052

     occupation numbers 
     1.0000   1.0000   1.0000   1.0000   1.0000   1.0000   1.0000   1.0000
     1.0000   1.0000   1.0000   1.0000   1.0000   1.0000   1.0000   1.0000
     1.0000   1.0000   1.0000   1.0000   1.0000   1.0000   1.0000   1.0000
     1.0000   1.0000   1.0000   1.0000   1.0000   1.0000   1.0000   1.0000
     1.0000   1.0000   1.0000   1.0000   1.0000   1.0000   1.0000   1.0000
     1.0000   1.0000   1.0000   1.0000   1.0000   1.0000   1.0000   1.0000
     1.0000   1.0000   1.0000   1.0000   1.0000   1.0000   1.0000   1.0000
     1.0000   1.0000   1.0000   1.0000   1.0000   1.0000   1.0003   1.0003
     1.0010   1.0010   1.0027   1.0027   1.0027   1.0059   1.0059   1.0492
     1.0492   1.0626   1.0626   1.0740   1.0740   1.0832   0.7723   0.2182
     0.2182   0.1808   0.1654   0.1654   0.1120   0.0231   0.0231   0.0201
     0.0201   0.0134   0.0089   0.0089   0.0025   0.0013   0.0004   0.0004
     0.0000   0.0000   0.0000   0.0000   0.0000   0.0000   0.0000   0.0000
     0.0000   0.0000

          k = 0.0000 0.0000 0.1545 ( 18191 PWs)   bands (ev):

   -69.6631 -69.6445 -69.6086 -69.5899 -69.5506 -69.5506 -69.5506 -69.5506
   -41.0394 -41.0293 -40.9880 -40.9773 -36.0692 -36.0136 -35.9032 -35.7994
   -35.7994 -35.7892 -35.7892 -35.7702 -35.7578 -35.7578 -35.6991 -35.6991
   -35.6376 -35.6072 -35.6072 -35.5602 -35.5527 -35.5527 -35.5404 -35.5404
   -35.5025 -35.5025 -35.4968 -35.4968 -17.3420 -17.3420 -17.3320 -17.3320
   -17.3191 -17.3181 -17.1769 -17.1745 -17.1657 -17.1657 -17.1553 -17.1553
     8.7505  10.0265  12.0137  12.5977  12.9018  13.1584  13.1584  13.2397
    13.2397  13.3724  13.5095  14.0246  14.1294  14.1294  14.3929  14.3929
    14.6053  14.6053  14.7250  14.7250  14.7756  14.8340  14.8340  15.1193
    15.1193  15.3744  15.4074  15.4074  15.4322  15.4322  15.9708  16.2913
    16.5124  16.5124  16.5297  16.5297  16.5891  16.8318  16.8318  16.8707
    16.8707  17.0096  17.0096  17.1666  17.2209  17.3302  17.3302  17.4115
    17.6553  17.6553  17.9393  17.9941  17.9944  18.2263  18.2263  18.3916
    18.3922  18.4417

     occupation numbers 
     1.0000   1.0000   1.0000   1.0000   1.0000   1.0000   1.0000   1.0000
     1.0000   1.0000   1.0000   1.0000   1.0000   1.0000   1.0000   1.0000
     1.0000   1.0000   1.0000   1.0000   1.0000   1.0000   1.0000   1.0000
     1.0000   1.0000   1.0000   1.0000   1.0000   1.0000   1.0000   1.0000
     1.0000   1.0000   1.0000   1.0000   1.0000   1.0000   1.0000   1.0000
     1.0000   1.0000   1.0000   1.0000   1.0000   1.0000   1.0000   1.0000
     1.0000   1.0000   1.0000   1.0000   1.0000   1.0000   1.0000   1.0000
     1.0000   1.0000   1.0000   1.0000   1.0000   1.0000   1.0001   1.0001
     1.0010   1.0010   1.0026   1.0026   1.0038   1.0058   1.0058   1.0296
     1.0296   1.0708   1.0754   1.0754   1.0784   1.0784   0.8205   0.3937
     0.1690   0.1690   0.1562   0.1562   0.1175   0.0292   0.0292   0.0225
     0.0225   0.0083   0.0083   0.0023   0.0014   0.0005   0.0005   0.0002
     0.0000   0.0000   0.0000   0.0000   0.0000   0.0000   0.0000   0.0000
     0.0000   0.0000

          k = 0.0000 0.0000-0.3091 ( 18180 PWs)   bands (ev):

   -69.6553 -69.6553 -69.5977 -69.5977 -69.5506 -69.5506 -69.5506 -69.5506
   -41.0349 -41.0349 -40.9821 -40.9821 -36.0478 -36.0478 -35.8385 -35.8385
   -35.7960 -35.7960 -35.7960 -35.7960 -35.7310 -35.7310 -35.7310 -35.7310
   -35.5906 -35.5906 -35.5763 -35.5763 -35.5763 -35.5763 -35.5404 -35.5404
   -35.4990 -35.4990 -35.4990 -35.4990 -17.3372 -17.3372 -17.3372 -17.3372
   -17.3181 -17.3181 -17.1762 -17.1762 -17.1604 -17.1604 -17.1604 -17.1604
     9.2546   9.2546  12.4975  12.4975  13.0447  13.0447  13.2040  13.2040
    13.2040  13.2040  13.8992  13.8992  14.2468  14.2468  14.2468  14.2468
    14.6650  14.6650  14.6650  14.6650  14.9292  14.9292  14.9292  14.9292
    15.0138  15.0138  15.4705  15.4705  15.4705  15.4705  16.0533  16.0533
    16.5540  16.5540  16.5540  16.5540  16.8200  16.8200  16.8200  16.8200
    17.0039  17.0039  17.1311  17.1311  17.1311  17.1311  17.1936  17.1936
    17.8506  17.8506  17.8506  17.8506  18.3481  18.3484  18.3484  18.3485
    18.4180  18.4180

     occupation numbers 
     1.0000   1.0000   1.0000   1.0000   1.0000   1.0000   1.0000   1.0000
     1.0000   1.0000   1.0000   1.0000   1.0000   1.0000   1.0000   1.0000
     1.0000   1.0000   1.0000   1.0000   1.0000   1.0000   1.0000   1.0000
     1.0000   1.0000   1.0000   1.0000   1.0000   1.0000   1.0000   1.0000
     1.0000   1.0000   1.0000   1.0000   1.0000   1.0000   1.0000   1.0000
     1.0000   1.0000   1.0000   1.0000   1.0000   1.0000   1.0000   1.0000
     1.0000   1.0000   1.0000   1.0000   1.0000   1.0000   1.0000   1.0000
     1.0000   1.0000   1.0000   1.0000   1.0000   1.0000   1.0000   1.0000
     1.0016   1.0016   1.0016   1.0016   1.0107   1.0107   1.0107   1.0107
     1.0174   1.0174   1.0817   1.0817   1.0817   1.0817   0.7150   0.7150
     0.1394   0.1394   0.1394   0.1394   0.0315   0.0315   0.0315   0.0315
     0.0086   0.0086   0.0031   0.0031   0.0031   0.0031   0.0018   0.0018
     0.0000   0.0000   0.0000   0.0000   0.0000   0.0000   0.0000   0.0000
     0.0000   0.0000

          k = 0.0000 0.1925 0.0000 ( 18205 PWs)   bands (ev):

   -69.6637 -69.6372 -69.6122 -69.5874 -69.5544 -69.5525 -69.5506 -69.5506
   -41.0383 -41.0235 -40.9941 -40.9785 -36.0559 -35.9570 -35.9463 -35.7969
   -35.7862 -35.7796 -35.7789 -35.7767 -35.7612 -35.7150 -35.6777 -35.6776
   -35.6768 -35.6366 -35.6286 -35.5521 -35.5512 -35.5475 -35.5432 -35.5430
   -35.5265 -35.5218 -35.5097 -35.5004 -17.3552 -17.3484 -17.3338 -17.3251
   -17.3224 -17.3002 -17.1962 -17.1732 -17.1696 -17.1639 -17.1490 -17.1426
     8.8452  10.9477  11.5201  12.6863  12.8940  12.9734  13.1231  13.1644
    13.3166  13.4566  13.7835  13.8627  14.0590  14.1285  14.4143  14.5083
    14.5744  14.6983  14.7287  14.7366  14.7386  14.8341  14.8822  15.0566
    15.1455  15.1588  15.1727  15.3420  15.3556  15.4801  15.8658  16.1228
    16.4119  16.4204  16.4914  16.4935  16.5534  16.5548  16.7072  16.7220
    16.8251  16.9129  17.2581  17.3122  17.3539  17.3565  17.4204  17.5902
    17.6183  17.6911  17.8396  17.9895  17.9913  18.0318  18.0815  18.2325
    18.3619  18.5268

     occupation numbers 
     1.0000   1.0000   1.0000   1.0000   1.0000   1.0000   1.0000   1.0000
     1.0000   1.0000   1.0000   1.0000   1.0000   1.0000   1.0000   1.0000
     1.0000   1.0000   1.0000   1.0000   1.0000   1.0000   1.0000   1.0000
     1.0000   1.0000   1.0000   1.0000   1.0000   1.0000   1.0000   1.0000
     1.0000   1.0000   1.0000   1.0000   1.0000   1.0000   1.0000   1.0000
     1.0000   1.0000   1.0000   1.0000   1.0000   1.0000   1.0000   1.0000
     1.0000   1.0000   1.0000   1.0000   1.0000   1.0000   1.0000   1.0000
     1.0000   1.0000   1.0000   1.0000   1.0000   1.0000   1.0002   1.0004
     1.0008   1.0021   1.0027   1.0029   1.0029   1.0058   1.0079   1.0218
     1.0333   1.0352   1.0373   1.0657   1.0679   1.0823   0.9337   0.6201
     0.2574   0.2490   0.1854   0.1838   0.1398   0.1389   0.0626   0.0574
     0.0305   0.0168   0.0010   0.0006   0.0004   0.0004   0.0002   0.0000
     0.0000   0.0000   0.0000   0.0000   0.0000   0.0000   0.0000   0.0000
     0.0000   0.0000

          k = 0.0000 0.1925 0.1545 ( 18177 PWs)   bands (ev):

   -69.6611 -69.6435 -69.6060 -69.5897 -69.5541 -69.5528 -69.5506 -69.5506
   -41.0367 -41.0265 -40.9909 -40.9802 -36.0491 -35.9964 -35.8972 -35.7985
   -35.7927 -35.7857 -35.7804 -35.7622 -35.7566 -35.7505 -35.7007 -35.6974
   -35.6364 -35.6149 -35.6077 -35.5565 -35.5552 -35.5544 -35.5512 -35.5498
   -35.5236 -35.5208 -35.5071 -35.5011 -17.3519 -17.3464 -17.3361 -17.3331
   -17.3156 -17.3023 -17.1941 -17.1800 -17.1623 -17.1615 -17.1511 -17.1455
     9.0152  10.2565  12.1694  12.6719  12.8931  12.9427  13.0973  13.1694
    13.4053  13.4951  13.5959  14.0114  14.0982  14.1746  14.3526  14.4530
    14.5752  14.6742  14.6966  14.7454  14.7887  14.8704  14.8718  15.1161
    15.1306  15.1574  15.2026  15.3159  15.3357  15.3817  15.8713  16.1362
    16.2205  16.4614  16.4732  16.5019  16.6178  16.6522  16.6904  16.7853
    16.8055  16.8821  17.1841  17.2264  17.2520  17.4030  17.4238  17.4545
    17.6811  17.8138  17.9467  17.9777  17.9998  18.1137  18.2162  18.2521
    18.3129  18.3819

     occupation numbers 
     1.0000   1.0000   1.0000   1.0000   1.0000   1.0000   1.0000   1.0000
     1.0000   1.0000   1.0000   1.0000   1.0000   1.0000   1.0000   1.0000
     1.0000   1.0000   1.0000   1.0000   1.0000   1.0000   1.0000   1.0000
     1.0000   1.0000   1.0000   1.0000   1.0000   1.0000   1.0000   1.0000
     1.0000   1.0000   1.0000   1.0000   1.0000   1.0000   1.0000   1.0000
     1.0000   1.0000   1.0000   1.0000   1.0000   1.0000   1.0000   1.0000
     1.0000   1.0000   1.0000   1.0000   1.0000   1.0000   1.0000   1.0000
     1.0000   1.0000   1.0000   1.0000   1.0000   1.0000   1.0001   1.0003
     1.0008   1.0018   1.0021   1.0031   1.0042   1.0074   1.0074   1.0291
     1.0311   1.0350   1.0421   1.0614   1.0647   1.0719   0.9285   0.6015
     0.4858   0.2108   0.2006   0.1771   0.1016   0.0848   0.0688   0.0392
     0.0346   0.0209   0.0020   0.0013   0.0011   0.0002   0.0002   0.0001
     0.0000   0.0000   0.0000   0.0000   0.0000   0.0000   0.0000   0.0000
     0.0000   0.0000

          k = 0.0000 0.1925-0.3091 ( 18170 PWs)   bands (ev):

   -69.6536 -69.6536 -69.5965 -69.5965 -69.5536 -69.5536 -69.5506 -69.5506
   -41.0322 -41.0322 -40.9850 -40.9850 -36.0291 -36.0291 -35.8383 -35.8383
   -35.7887 -35.7887 -35.7840 -35.7840 -35.7328 -35.7328 -35.7272 -35.7272
   -35.5979 -35.5979 -35.5774 -35.5774 -35.5723 -35.5723 -35.5511 -35.5511
   -35.5210 -35.5210 -35.5033 -35.5033 -17.3433 -17.3433 -17.3414 -17.3414
   -17.3081 -17.3081 -17.1880 -17.1880 -17.1562 -17.1562 -17.1529 -17.1529
     9.5068   9.5068  12.6021  12.6021  12.9416  12.9416  13.1921  13.1921
    13.2847  13.2847  13.9186  13.9186  14.2022  14.2022  14.3006  14.3006
    14.6565  14.6565  14.7120  14.7120  14.8938  14.8938  14.9601  14.9601
    15.0397  15.0397  15.2684  15.2684  15.4000  15.4000  15.9373  15.9373
    16.4222  16.4222  16.5469  16.5469  16.6473  16.6473  16.6522  16.6522
    16.8153  16.8153  17.1416  17.1416  17.2355  17.2355  17.4299  17.4299
    17.8785  17.8785  17.8876  17.8877  18.1701  18.1703  18.2229  18.2230
    18.4274  18.4279

     occupation numbers 
     1.0000   1.0000   1.0000   1.0000   1.0000   1.0000   1.0000   1.0000
     1.0000   1.0000   1.0000   1.0000   1.0000   1.0000   1.0000   1.0000
     1.0000   1.0000   1.0000   1.0000   1.0000   1.0000   1.0000   1.0000
     1.0000   1.0000   1.0000   1.0000   1.0000   1.0000   1.0000   1.0000
     1.0000   1.0000   1.0000   1.0000   1.0000   1.0000   1.0000   1.0000
     1.0000   1.0000   1.0000   1.0000   1.0000   1.0000   1.0000   1.0000
     1.0000   1.0000   1.0000   1.0000   1.0000   1.0000   1.0000   1.0000
     1.0000   1.0000   1.0000   1.0000   1.0000   1.0000   1.0001   1.0001
     1.0015   1.0015   1.0024   1.0024   1.0086   1.0086   1.0128   1.0128
     1.0200   1.0200   1.0532   1.0532   1.0745   1.0745   0.8596   0.8596
     0.2473   0.2473   0.1442   0.1442   0.0871   0.0871   0.0848   0.0848
     0.0325   0.0325   0.0028   0.0028   0.0012   0.0012   0.0002   0.0002
     0.0000   0.0000   0.0000   0.0000   0.0000   0.0000   0.0000   0.0000
     0.0000   0.0000

          k = 0.0000 0.3849 0.0000 ( 18169 PWs)   bands (ev):

   -69.6593 -69.6372 -69.6026 -69.5879 -69.5640 -69.5565 -69.5506 -69.5506
   -41.0310 -41.0158 -41.0019 -40.9862 -36.0087 -35.9418 -35.9065 -35.8020
   -35.7847 -35.7768 -35.7622 -35.7518 -35.7173 -35.7098 -35.6787 -35.6735
   -35.6674 -35.6474 -35.6286 -35.5957 -35.5920 -35.5846 -35.5690 -35.5562
   -35.5432 -35.5331 -35.5143 -35.5053 -17.3629 -17.3568 -17.3412 -17.3320
   -17.3143 -17.2733 -17.2238 -17.1846 -17.1607 -17.1561 -17.1411 -17.1350
     9.6067  11.4579  12.0504  12.0684  12.6188  13.0464  13.0635  13.1946
    13.4490  13.5390  13.8675  14.1865  14.2072  14.2493  14.2693  14.4732
    14.5940  14.6856  14.7380  14.7678  14.8532  14.8752  14.9198  14.9343
    14.9442  14.9865  14.9926  15.1505  15.1645  15.3455  15.5007  15.6733
    15.6881  16.0589  16.4008  16.5182  16.6036  16.7170  16.7960  16.8045
    16.8127  17.0717  17.0979  17.2189  17.3531  17.3600  17.4273  17.5481
    17.6969  17.7314  17.8063  17.9257  17.9372  17.9745  18.0009  18.1149
    18.3884  18.4427

     occupation numbers 
     1.0000   1.0000   1.0000   1.0000   1.0000   1.0000   1.0000   1.0000
     1.0000   1.0000   1.0000   1.0000   1.0000   1.0000   1.0000   1.0000
     1.0000   1.0000   1.0000   1.0000   1.0000   1.0000   1.0000   1.0000
     1.0000   1.0000   1.0000   1.0000   1.0000   1.0000   1.0000   1.0000
     1.0000   1.0000   1.0000   1.0000   1.0000   1.0000   1.0000   1.0000
     1.0000   1.0000   1.0000   1.0000   1.0000   1.0000   1.0000   1.0000
     1.0000   1.0000   1.0000   1.0000   1.0000   1.0000   1.0000   1.0000
     1.0000   1.0000   1.0000   1.0000   1.0000   1.0000   1.0000   1.0003
     1.0009   1.0019   1.0029   1.0036   1.0066   1.0076   1.0101   1.0110
     1.0117   1.0150   1.0155   1.0340   1.0361   1.0663   1.0831   1.0578
     1.0523   0.7076   0.2687   0.1646   0.1093   0.0591   0.0367   0.0348
     0.0330   0.0051   0.0041   0.0014   0.0004   0.0004   0.0002   0.0001
     0.0000   0.0000   0.0000   0.0000   0.0000   0.0000   0.0000   0.0000
     0.0000   0.0000

          k = 0.0000 0.3849 0.1545 ( 18173 PWs)   bands (ev):

   -69.6568 -69.6417 -69.5990 -69.5891 -69.5631 -69.5577 -69.5506 -69.5506
   -41.0295 -41.0196 -40.9981 -40.9877 -36.0034 -35.9635 -35.8782 -35.8110
   -35.7799 -35.7725 -35.7557 -35.7545 -35.7361 -35.7149 -35.7037 -35.6883
   -35.6401 -35.6297 -35.6124 -35.5943 -35.5926 -35.5825 -35.5659 -35.5624
   -35.5519 -35.5393 -35.5117 -35.5060 -17.3586 -17.3546 -17.3436 -17.3368
   -17.3097 -17.2818 -17.2156 -17.1892 -17.1564 -17.1537 -17.1431 -17.1384
     9.7635  10.8880  12.0929  12.5356  12.6122  12.9637  13.1325  13.2693
    13.3116  13.6944  13.7274  14.0159  14.2908  14.3147  14.3693  14.4706
    14.5443  14.6289  14.7864  14.8016  14.8321  14.8445  14.8930  14.9105
    14.9547  15.0343  15.0635  15.1184  15.1544  15.3411  15.4997  15.6200
    15.8195  16.1086  16.4086  16.4377  16.5558  16.5628  16.7387  16.7980
    16.8186  17.0773  17.1468  17.2050  17.3481  17.4069  17.5002  17.5664
    17.6412  17.6765  17.7177  17.8427  17.9306  17.9609  18.2161  18.2564
    18.4064  18.4380

     occupation numbers 
     1.0000   1.0000   1.0000   1.0000   1.0000   1.0000   1.0000   1.0000
     1.0000   1.0000   1.0000   1.0000   1.0000   1.0000   1.0000   1.0000
     1.0000   1.0000   1.0000   1.0000   1.0000   1.0000   1.0000   1.0000
     1.0000   1.0000   1.0000   1.0000   1.0000   1.0000   1.0000   1.0000
     1.0000   1.0000   1.0000   1.0000   1.0000   1.0000   1.0000   1.0000
     1.0000   1.0000   1.0000   1.0000   1.0000   1.0000   1.0000   1.0000
     1.0000   1.0000   1.0000   1.0000   1.0000   1.0000   1.0000   1.0000
     1.0000   1.0000   1.0000   1.0000   1.0000   1.0001   1.0001   1.0003
     1.0006   1.0012   1.0041   1.0046   1.0057   1.0062   1.0085   1.0095
     1.0124   1.0194   1.0226   1.0295   1.0346   1.0656   1.0831   1.0729
     0.9739   0.6397   0.2607   0.2324   0.1382   0.1337   0.0521   0.0362
     0.0318   0.0049   0.0027   0.0016   0.0004   0.0002   0.0001   0.0000
     0.0000   0.0000   0.0000   0.0000   0.0000   0.0000   0.0000   0.0000
     0.0000   0.0000

          k = 0.0000 0.3849-0.3091 ( 18162 PWs)   bands (ev):

   -69.6502 -69.6502 -69.5930 -69.5930 -69.5605 -69.5605 -69.5506 -69.5506
   -41.0254 -41.0254 -40.9921 -40.9921 -35.9880 -35.9880 -35.8381 -35.8381
   -35.7674 -35.7674 -35.7627 -35.7627 -35.7324 -35.7324 -35.7061 -35.7061
   -35.6211 -35.6211 -35.5963 -35.5963 -35.5811 -35.5811 -35.5705 -35.5705
   -35.5535 -35.5535 -35.5081 -35.5081 -17.3493 -17.3493 -17.3480 -17.3480
   -17.2973 -17.2973 -17.2010 -17.2010 -17.1483 -17.1483 -17.1470 -17.1470
    10.2143  10.2143  12.2973  12.2973  13.0133  13.0133  13.1271  13.1271
    13.4716  13.4716  13.8605  13.8605  14.3899  14.3899  14.4240  14.4240
    14.5454  14.5454  14.7516  14.7516  14.8175  14.8175  14.9286  14.9286
    14.9671  14.9671  15.1627  15.1627  15.2616  15.2616  15.5064  15.5064
    16.1603  16.1603  16.2582  16.2582  16.5804  16.5804  16.6140  16.6140
    16.9375  16.9375  17.2678  17.2678  17.3456  17.3456  17.5142  17.5142
    17.6406  17.6406  17.7823  17.7823  18.1159  18.1159  18.1565  18.1568
    18.4356  18.4382

     occupation numbers 
     1.0000   1.0000   1.0000   1.0000   1.0000   1.0000   1.0000   1.0000
     1.0000   1.0000   1.0000   1.0000   1.0000   1.0000   1.0000   1.0000
     1.0000   1.0000   1.0000   1.0000   1.0000   1.0000   1.0000   1.0000
     1.0000   1.0000   1.0000   1.0000   1.0000   1.0000   1.0000   1.0000
     1.0000   1.0000   1.0000   1.0000   1.0000   1.0000   1.0000   1.0000
     1.0000   1.0000   1.0000   1.0000   1.0000   1.0000   1.0000   1.0000
     1.0000   1.0000   1.0000   1.0000   1.0000   1.0000   1.0000   1.0000
     1.0000   1.0000   1.0000   1.0000   1.0001   1.0001   1.0002   1.0002
     1.0006   1.0006   1.0032   1.0032   1.0051   1.0051   1.0106   1.0106
     1.0134   1.0134   1.0358   1.0358   1.0520   1.0520   1.0832   1.0832
     0.5681   0.5681   0.4360   0.4360   0.1227   0.1227   0.1036   0.1036
     0.0141   0.0141   0.0009   0.0009   0.0004   0.0004   0.0001   0.0001
     0.0000   0.0000   0.0000   0.0000   0.0000   0.0000   0.0000   0.0000
     0.0000   0.0000

          k = 0.0000-0.5774 0.0000 ( 18152 PWs)   bands (ev):

   -69.6569 -69.6372 -69.5952 -69.5883 -69.5714 -69.5585 -69.5506 -69.5506
   -41.0250 -41.0096 -41.0081 -40.9924 -35.9805 -35.9396 -35.8735 -35.8180
   -35.7870 -35.7769 -35.7293 -35.7185 -35.7056 -35.6723 -35.6708 -35.6699
   -35.6669 -35.6668 -35.6470 -35.6385 -35.6285 -35.6128 -35.5948 -35.5614
   -35.5432 -35.5289 -35.5154 -35.5067 -17.3636 -17.3607 -17.3447 -17.3381
   -17.3073 -17.2606 -17.2372 -17.1914 -17.1554 -17.1524 -17.1373 -17.1339
    10.5280  11.0014  12.0602  12.3190  12.5625  12.9656  13.0468  13.0722
    13.2485  13.7095  14.2186  14.2916  14.2974  14.3848  14.4125  14.5107
    14.5306  14.6124  14.6699  14.7733  14.7928  14.8596  14.8699  14.9143
    14.9377  14.9798  14.9832  14.9947  15.1223  15.1264  15.2129  15.2834
    15.5385  15.7545  16.6099  16.6205  16.7179  16.7688  16.8177  16.8221
    16.9951  17.0703  17.1537  17.1639  17.2040  17.2440  17.2725  17.2810
    17.6512  17.6631  17.7830  17.8959  17.9027  17.9856  18.0557  18.6210
    18.8033  18.1233

     occupation numbers 
     1.0000   1.0000   1.0000   1.0000   1.0000   1.0000   1.0000   1.0000
     1.0000   1.0000   1.0000   1.0000   1.0000   1.0000   1.0000   1.0000
     1.0000   1.0000   1.0000   1.0000   1.0000   1.0000   1.0000   1.0000
     1.0000   1.0000   1.0000   1.0000   1.0000   1.0000   1.0000   1.0000
     1.0000   1.0000   1.0000   1.0000   1.0000   1.0000   1.0000   1.0000
     1.0000   1.0000   1.0000   1.0000   1.0000   1.0000   1.0000   1.0000
     1.0000   1.0000   1.0000   1.0000   1.0000   1.0000   1.0000   1.0000
     1.0000   1.0000   1.0000   1.0000   1.0001   1.0001   1.0002   1.0004
     1.0005   1.0011   1.0017   1.0038   1.0043   1.0068   1.0073   1.0097
     1.0112   1.0144   1.0147   1.0157   1.0300   1.0306   1.0438   1.0558
     1.0829   1.0193   0.1058   0.1002   0.0588   0.0434   0.0320   0.0311
     0.0092   0.0051   0.0026   0.0023   0.0016   0.0011   0.0009   0.0008
     0.0000   0.0000   0.0000   0.0000   0.0000   0.0000   0.0000   0.0000
     0.0000   0.0000

          k = 0.0000-0.5774 0.1545 ( 18148 PWs)   bands (ev):

   -69.6546 -69.6409 -69.5933 -69.5887 -69.5696 -69.5604 -69.5506 -69.5506
   -41.0239 -41.0152 -41.0025 -40.9936 -35.9766 -35.9495 -35.8603 -35.8230
   -35.7794 -35.7712 -35.7380 -35.7209 -35.7161 -35.6996 -35.6711 -35.6697
   -35.6678 -35.6572 -35.6382 -35.6338 -35.6256 -35.5972 -35.5804 -35.5691
   -35.5520 -35.5360 -35.5128 -35.5074 -17.3592 -17.3585 -17.3472 -17.3401
   -17.3056 -17.2756 -17.2227 -17.1941 -17.1530 -17.1500 -17.1394 -17.1373
    10.6584  11.1203  11.6217  12.0206  12.9234  12.9923  13.0634  13.1119
    13.3363  13.7985  13.9304  14.2016  14.3819  14.4710  14.4922  14.5078
    14.5238  14.5732  14.6846  14.7863  14.7888  14.8717  14.8726  14.8945
    14.9115  14.9707  15.0091  15.0100  15.0995  15.1834  15.2062  15.2490
    15.6884  15.8866  16.3872  16.4400  16.7364  16.7521  16.8179  16.8789
    16.9187  17.0548  17.0899  17.1083  17.2385  17.3089  17.3932  17.4060
    17.6723  17.7406  17.7806  17.7996  17.8104  17.9872  18.1033  18.4517
    18.5559  18.6383

     occupation numbers 
     1.0000   1.0000   1.0000   1.0000   1.0000   1.0000   1.0000   1.0000
     1.0000   1.0000   1.0000   1.0000   1.0000   1.0000   1.0000   1.0000
     1.0000   1.0000   1.0000   1.0000   1.0000   1.0000   1.0000   1.0000
     1.0000   1.0000   1.0000   1.0000   1.0000   1.0000   1.0000   1.0000
     1.0000   1.0000   1.0000   1.0000   1.0000   1.0000   1.0000   1.0000
     1.0000   1.0000   1.0000   1.0000   1.0000   1.0000   1.0000   1.0000
     1.0000   1.0000   1.0000   1.0000   1.0000   1.0000   1.0000   1.0000
     1.0000   1.0000   1.0000   1.0000   1.0001   1.0003   1.0004   1.0004
     1.0005   1.0008   1.0019   1.0041   1.0042   1.0074   1.0075   1.0086
     1.0096   1.0137   1.0170   1.0170   1.0270   1.0390   1.0427   1.0499
     1.0522   0.9136   0.2828   0.2302   0.0528   0.0481   0.0319   0.0213
     0.0162   0.0058   0.0044   0.0038   0.0012   0.0006   0.0003   0.0002
     0.0000   0.0000   0.0000   0.0000   0.0000   0.0000   0.0000   0.0000
     0.0000   0.0000

          k = 0.0000-0.5774-0.3091 ( 18108 PWs)   bands (ev):

   -69.6484 -69.6484 -69.5903 -69.5903 -69.5650 -69.5650 -69.5506 -69.5506
   -41.0204 -41.0204 -40.9971 -40.9971 -35.9654 -35.9654 -35.8382 -35.8382
   -35.7560 -35.7560 -35.7560 -35.7560 -35.7094 -35.7094 -35.6691 -35.6691
   -35.6667 -35.6667 -35.6370 -35.6370 -35.5914 -35.5914 -35.5725 -35.5725
   -35.5555 -35.5555 -35.5094 -35.5094 -17.3530 -17.3530 -17.3488 -17.3488
   -17.2948 -17.2948 -17.2048 -17.2048 -17.1454 -17.1454 -17.1446 -17.1446
    11.0198  11.0198  11.5388  11.5388  13.0441  13.0441  13.1434  13.1434
    13.5824  13.5824  13.9895  13.9895  14.4004  14.4004  14.5198  14.5198
    14.5629  14.5629  14.7798  14.7798  14.8441  14.8441  14.9153  14.9153
    14.9422  14.9422  15.0342  15.0342  15.1223  15.1223  15.1752  15.1752
    16.0757  16.0757  16.1498  16.1498  16.7019  16.7019  16.7390  16.7390
    16.9646  16.9646  17.1486  17.1486  17.4018  17.4018  17.4523  17.4524
    17.6126  17.6126  17.8286  17.8289  17.9415  17.9416  18.2340  18.2345
    18.3794  18.5173

     occupation numbers 
     1.0000   1.0000   1.0000   1.0000   1.0000   1.0000   1.0000   1.0000
     1.0000   1.0000   1.0000   1.0000   1.0000   1.0000   1.0000   1.0000
     1.0000   1.0000   1.0000   1.0000   1.0000   1.0000   1.0000   1.0000
     1.0000   1.0000   1.0000   1.0000   1.0000   1.0000   1.0000   1.0000
     1.0000   1.0000   1.0000   1.0000   1.0000   1.0000   1.0000   1.0000
     1.0000   1.0000   1.0000   1.0000   1.0000   1.0000   1.0000   1.0000
     1.0000   1.0000   1.0000   1.0000   1.0000   1.0000   1.0000   1.0000
     1.0000   1.0000   1.0000   1.0000   1.0002   1.0002   1.0005   1.0005
     1.0007   1.0007   1.0039   1.0039   1.0062   1.0062   1.0098   1.0098
     1.0115   1.0115   1.0194   1.0194   1.0300   1.0300   1.0377   1.0377
     0.6848   0.6848   0.5827   0.5827   0.0644   0.0644   0.0520   0.0520
     0.0116   0.0116   0.0027   0.0027   0.0002   0.0002   0.0001   0.0001
     0.0000   0.0000   0.0000   0.0000   0.0000   0.0000   0.0000   0.0000
     0.0000   0.0000

          k = 0.1667 0.2887 0.0000 ( 18169 PWs)   bands (ev):

   -69.6604 -69.6372 -69.6054 -69.5878 -69.5612 -69.5554 -69.5506 -69.5506
   -41.0331 -41.0181 -40.9996 -40.9839 -36.0208 -35.9430 -35.9193 -35.7896
   -35.7891 -35.7830 -35.7775 -35.7582 -35.7283 -35.7111 -35.6777 -35.6754
   -35.6682 -35.6458 -35.6297 -35.5916 -35.5811 -35.5517 -35.5499 -35.5450
   -35.5423 -35.5353 -35.5215 -35.5143 -17.3602 -17.3573 -17.3414 -17.3293
   -17.3146 -17.2781 -17.2184 -17.1839 -17.1632 -17.1564 -17.1411 -17.1374
     9.3611  11.3147  11.8829  12.4535  12.7297  12.8452  13.1134  13.1643
    13.4207  13.5184  13.7470  14.1095  14.1602  14.2453  14.3304  14.5214
    14.5702  14.6899  14.7323  14.7364  14.8185  14.8967  14.9260  14.9428
    15.0054  15.0094  15.0243  15.2127  15.2633  15.2998  15.7233  15.7531
    15.9193  16.1056  16.4446  16.4598  16.5219  16.6204  16.6857  16.7402
    16.8205  17.0349  17.2726  17.2884  17.3980  17.3992  17.4575  17.5688
    17.7286  17.7754  17.8019  17.8917  17.9376  18.0367  18.1034  18.1926
    18.2945  18.3543

     occupation numbers 
     1.0000   1.0000   1.0000   1.0000   1.0000   1.0000   1.0000   1.0000
     1.0000   1.0000   1.0000   1.0000   1.0000   1.0000   1.0000   1.0000
     1.0000   1.0000   1.0000   1.0000   1.0000   1.0000   1.0000   1.0000
     1.0000   1.0000   1.0000   1.0000   1.0000   1.0000   1.0000   1.0000
     1.0000   1.0000   1.0000   1.0000   1.0000   1.0000   1.0000   1.0000
     1.0000   1.0000   1.0000   1.0000   1.0000   1.0000   1.0000   1.0000
     1.0000   1.0000   1.0000   1.0000   1.0000   1.0000   1.0000   1.0000
     1.0000   1.0000   1.0000   1.0000   1.0000   1.0000   1.0001   1.0005
     1.0007   1.0020   1.0028   1.0029   1.0052   1.0087   1.0105   1.0116
     1.0166   1.0170   1.0184   1.0437   1.0523   1.0586   1.0365   1.0201
     0.8795   0.6438   0.2260   0.2122   0.1619   0.1003   0.0706   0.0516
     0.0314   0.0068   0.0009   0.0008   0.0003   0.0003   0.0001   0.0000
     0.0000   0.0000   0.0000   0.0000   0.0000   0.0000   0.0000   0.0000
     0.0000   0.0000

          k = 0.1667 0.2887 0.1545 ( 18190 PWs)   bands (ev):

   -69.6579 -69.6421 -69.6011 -69.5893 -69.5605 -69.5564 -69.5506 -69.5506
   -41.0316 -41.0215 -40.9961 -40.9856 -36.0152 -35.9709 -35.8837 -35.8049
   -35.7874 -35.7738 -35.7708 -35.7561 -35.7422 -35.7252 -35.7022 -35.6928
   -35.6377 -35.6247 -35.6118 -35.5910 -35.5787 -35.5592 -35.5554 -35.5541
   -35.5412 -35.5376 -35.5187 -35.5145 -17.3561 -17.3551 -17.3438 -17.3347
   -17.3096 -17.2847 -17.2122 -17.1886 -17.1586 -17.1541 -17.1432 -17.1407
     9.5226  10.6901  12.4312  12.4946  12.8020  12.8474  12.8658  13.3998
    13.4415  13.4562  13.7249  13.9811  14.2231  14.2620  14.3190  14.5239
    14.5821  14.6777  14.6827  14.7665  14.8246  14.8305  14.9403  14.9515
    15.0328  15.1046  15.1155  15.1767  15.2136  15.2180  15.7153  15.7963
    15.9181  16.1797  16.4033  16.4077  16.4790  16.5790  16.7104  16.7221
    16.8118  16.9407  17.2557  17.3213  17.3668  17.4427  17.4809  17.5566
    17.5824  17.7858  17.7886  17.9174  18.0057  18.0695  18.1660  18.3044
    18.3389  18.4010

     occupation numbers 
     1.0000   1.0000   1.0000   1.0000   1.0000   1.0000   1.0000   1.0000
     1.0000   1.0000   1.0000   1.0000   1.0000   1.0000   1.0000   1.0000
     1.0000   1.0000   1.0000   1.0000   1.0000   1.0000   1.0000   1.0000
     1.0000   1.0000   1.0000   1.0000   1.0000   1.0000   1.0000   1.0000
     1.0000   1.0000   1.0000   1.0000   1.0000   1.0000   1.0000   1.0000
     1.0000   1.0000   1.0000   1.0000   1.0000   1.0000   1.0000   1.0000
     1.0000   1.0000   1.0000   1.0000   1.0000   1.0000   1.0000   1.0000
     1.0000   1.0000   1.0000   1.0000   1.0000   1.0000   1.0001   1.0005
     1.0008   1.0018   1.0019   1.0036   1.0054   1.0056   1.0114   1.0122
     1.0193   1.0276   1.0291   1.0380   1.0439   1.0446   1.0404   0.9917
     0.8809   0.5414   0.2661   0.2616   0.1957   0.1235   0.0614   0.0574
     0.0332   0.0138   0.0010   0.0006   0.0004   0.0002   0.0001   0.0000
     0.0000   0.0000   0.0000   0.0000   0.0000   0.0000   0.0000   0.0000
     0.0000   0.0000

          k = 0.1667 0.2887-0.3091 ( 18172 PWs)   bands (ev):

   -69.6510 -69.6510 -69.5940 -69.5940 -69.5586 -69.5586 -69.5506 -69.5506
   -41.0273 -41.0273 -40.9900 -40.9900 -35.9983 -35.9983 -35.8374 -35.8374
   -35.7785 -35.7785 -35.7651 -35.7651 -35.7344 -35.7344 -35.7135 -35.7135
   -35.6140 -35.6140 -35.5882 -35.5882 -35.5715 -35.5715 -35.5684 -35.5684
   -35.5398 -35.5398 -35.5156 -35.5156 -17.3497 -17.3497 -17.3458 -17.3458
   -17.2979 -17.2979 -17.1996 -17.1996 -17.1498 -17.1498 -17.1478 -17.1478
     9.9879   9.9879  12.6137  12.6137  12.7928  12.7928  13.1285  13.1285
    13.4975  13.4975  13.8582  13.8582  14.2266  14.2266  14.4037  14.4037
    14.6821  14.6821  14.6919  14.6919  14.8403  14.8403  14.9237  14.9237
    14.9957  14.9957  15.2278  15.2278  15.2386  15.2386  15.6896  15.6896
    16.1964  16.1964  16.3287  16.3287  16.5259  16.5259  16.6146  16.6146
    16.8649  16.8649  17.2904  17.2905  17.2960  17.2960  17.5504  17.5504
    17.7425  17.7425  17.9156  17.9160  18.0531  18.0534  18.2133  18.2135
    18.3124  18.3126

     occupation numbers 
     1.0000   1.0000   1.0000   1.0000   1.0000   1.0000   1.0000   1.0000
     1.0000   1.0000   1.0000   1.0000   1.0000   1.0000   1.0000   1.0000
     1.0000   1.0000   1.0000   1.0000   1.0000   1.0000   1.0000   1.0000
     1.0000   1.0000   1.0000   1.0000   1.0000   1.0000   1.0000   1.0000
     1.0000   1.0000   1.0000   1.0000   1.0000   1.0000   1.0000   1.0000
     1.0000   1.0000   1.0000   1.0000   1.0000   1.0000   1.0000   1.0000
     1.0000   1.0000   1.0000   1.0000   1.0000   1.0000   1.0000   1.0000
     1.0000   1.0000   1.0000   1.0000   1.0000   1.0000   1.0002   1.0002
     1.0019   1.0019   1.0020   1.0020   1.0060   1.0060   1.0103   1.0103
     1.0157   1.0157   1.0463   1.0463   1.0481   1.0481   1.0517   1.0517
     0.5184   0.5184   0.3483   0.3483   0.1590   0.1590   0.1033   0.1033
     0.0234   0.0234   0.0007   0.0007   0.0007   0.0007   0.0001   0.0000
     0.0000   0.0000   0.0000   0.0000   0.0000   0.0000   0.0000   0.0000
     0.0000   0.0000

          k = 0.1667 0.4811 0.0000 ( 18164 PWs)   bands (ev):

   -69.6569 -69.6372 -69.5952 -69.5883 -69.5714 -69.5585 -69.5506 -69.5506
   -41.0250 -41.0096 -41.0081 -40.9924 -35.9766 -35.9395 -35.8684 -35.8145
   -35.7856 -35.7788 -35.7659 -35.7249 -35.7018 -35.6923 -35.6733 -35.6679
   -35.6614 -35.6545 -35.6490 -35.6334 -35.6113 -35.5914 -35.5756 -35.5568
   -35.5456 -35.5306 -35.5293 -35.5244 -17.3670 -17.3582 -17.3492 -17.3391
   -17.2985 -17.2541 -17.2430 -17.1995 -17.1544 -17.1490 -17.1383 -17.1325
    10.2865  11.5394  11.9664  12.4153  12.4406  12.8000  12.9923  13.0817
    13.1887  13.6480  14.1401  14.3094  14.3135  14.3601  14.4340  14.4800
    14.5245  14.6784  14.7036  14.7239  14.7550  14.8425  14.8534  14.8684
    14.9385  15.0378  15.0701  15.1257  15.1480  15.1483  15.3034  15.4358
    15.5441  15.7526  16.3447  16.3965  16.5943  16.6707  16.6797  16.9233
    16.9587  17.1038  17.1490  17.1656  17.4159  17.4219  17.5011  17.5017
    17.6269  17.7581  17.8031  17.9005  17.9937  18.0076  18.0266  18.1658
    18.2204  18.4475

     occupation numbers 
     1.0000   1.0000   1.0000   1.0000   1.0000   1.0000   1.0000   1.0000
     1.0000   1.0000   1.0000   1.0000   1.0000   1.0000   1.0000   1.0000
     1.0000   1.0000   1.0000   1.0000   1.0000   1.0000   1.0000   1.0000
     1.0000   1.0000   1.0000   1.0000   1.0000   1.0000   1.0000   1.0000
     1.0000   1.0000   1.0000   1.0000   1.0000   1.0000   1.0000   1.0000
     1.0000   1.0000   1.0000   1.0000   1.0000   1.0000   1.0000   1.0000
     1.0000   1.0000   1.0000   1.0000   1.0000   1.0000   1.0000   1.0000
     1.0000   1.0000   1.0000   1.0001   1.0001   1.0001   1.0002   1.0003
     1.0005   1.0018   1.0022   1.0026   1.0033   1.0061   1.0066   1.0073
     1.0113   1.0198   1.0234   1.0305   1.0336   1.0337   1.0592   1.0788
     1.0826   1.0205   0.3297   0.2731   0.1146   0.0767   0.0730   0.0157
     0.0121   0.0039   0.0027   0.0023   0.0002   0.0002   0.0001   0.0001
     0.0000   0.0000   0.0000   0.0000   0.0000   0.0000   0.0000   0.0000
     0.0000   0.0000

          k = 0.1667 0.4811 0.1545 ( 18157 PWs)   bands (ev):

   -69.6546 -69.6409 -69.5933 -69.5887 -69.5696 -69.5604 -69.5506 -69.5506
   -41.0238 -41.0152 -41.0025 -40.9936 -35.9730 -35.9482 -35.8565 -35.8208
   -35.7778 -35.7729 -35.7620 -35.7302 -35.7207 -35.7054 -35.6844 -35.6815
   -35.6542 -35.6490 -35.6257 -35.6223 -35.6014 -35.5898 -35.5707 -35.5640
   -35.5546 -35.5363 -35.5275 -35.5240 -17.3644 -17.3544 -17.3519 -17.3396
   -17.2985 -17.2723 -17.2254 -17.2005 -17.1532 -17.1465 -17.1412 -17.1349
    10.4280  11.4016  11.7105  12.3171  12.6459  12.8611  12.9380  13.1701
    13.3296  13.7248  13.9666  14.1401  14.3072  14.3672  14.4842  14.5224
    14.5678  14.6167  14.6908  14.7439  14.7691  14.8029  14.8574  14.8906
    14.9846  14.9990  15.0558  15.0994  15.1398  15.1901  15.2997  15.4579
    15.7228  15.8596  16.2564  16.3311  16.4915  16.7014  16.7298  16.7776
    16.9440  17.0785  17.2186  17.2301  17.3606  17.4432  17.4847  17.5731
    17.6124  17.7358  17.7756  17.8689  17.9155  17.9503  18.1440  18.2998
    18.3094  18.3719

     occupation numbers 
     1.0000   1.0000   1.0000   1.0000   1.0000   1.0000   1.0000   1.0000
     1.0000   1.0000   1.0000   1.0000   1.0000   1.0000   1.0000   1.0000
     1.0000   1.0000   1.0000   1.0000   1.0000   1.0000   1.0000   1.0000
     1.0000   1.0000   1.0000   1.0000   1.0000   1.0000   1.0000   1.0000
     1.0000   1.0000   1.0000   1.0000   1.0000   1.0000   1.0000   1.0000
     1.0000   1.0000   1.0000   1.0000   1.0000   1.0000   1.0000   1.0000
     1.0000   1.0000   1.0000   1.0000   1.0000   1.0000   1.0000   1.0000
     1.0000   1.0000   1.0000   1.0000   1.0001   1.0001   1.0003   1.0005
     1.0007   1.0011   1.0020   1.0030   1.0036   1.0046   1.0067   1.0084
     1.0148   1.0160   1.0217   1.0270   1.0324   1.0401   1.0586   1.0808
     1.0367   0.9395   0.4383   0.3455   0.1853   0.0646   0.0549   0.0412
     0.0135   0.0048   0.0014   0.0013   0.0004   0.0002   0.0001   0.0000
     0.0000   0.0000   0.0000   0.0000   0.0000   0.0000   0.0000   0.0000
     0.0000   0.0000

          k = 0.1667 0.4811-0.3091 ( 18144 PWs)   bands (ev):

   -69.6484 -69.6484 -69.5903 -69.5903 -69.5650 -69.5650 -69.5506 -69.5506
   -41.0204 -41.0204 -40.9972 -40.9972 -35.9627 -35.9627 -35.8358 -35.8358
   -35.7632 -35.7632 -35.7536 -35.7536 -35.7276 -35.7276 -35.6850 -35.6850
   -35.6523 -35.6523 -35.6084 -35.6084 -35.5874 -35.5874 -35.5724 -35.5724
   -35.5533 -35.5533 -35.5247 -35.5247 -17.3583 -17.3583 -17.3455 -17.3455
   -17.2906 -17.2906 -17.2085 -17.2085 -17.1480 -17.1480 -17.1405 -17.1405
    10.8305  10.8305  11.9741  11.9741  12.7648  12.7648  13.1297  13.1297
    13.6551  13.6551  13.9305  13.9305  14.3086  14.3086  14.4963  14.4963
    14.6203  14.6203  14.7048  14.7048  14.8152  14.8152  14.8652  14.8652
    14.9891  14.9891  15.0113  15.0113  15.2533  15.2533  15.3537  15.3537
    16.0715  16.0715  16.1004  16.1004  16.4978  16.4978  16.7490  16.7490
    16.9732  16.9732  17.3040  17.3040  17.4041  17.4042  17.4892  17.4892
    17.6888  17.6889  17.8442  17.8443  17.9669  17.9670  18.1671  18.1675
    18.3386  18.3387

     occupation numbers 
     1.0000   1.0000   1.0000   1.0000   1.0000   1.0000   1.0000   1.0000
     1.0000   1.0000   1.0000   1.0000   1.0000   1.0000   1.0000   1.0000
     1.0000   1.0000   1.0000   1.0000   1.0000   1.0000   1.0000   1.0000
     1.0000   1.0000   1.0000   1.0000   1.0000   1.0000   1.0000   1.0000
     1.0000   1.0000   1.0000   1.0000   1.0000   1.0000   1.0000   1.0000
     1.0000   1.0000   1.0000   1.0000   1.0000   1.0000   1.0000   1.0000
     1.0000   1.0000   1.0000   1.0000   1.0000   1.0000   1.0000   1.0000
     1.0000   1.0000   1.0000   1.0000   1.0001   1.0001   1.0004   1.0004
     1.0011   1.0011   1.0022   1.0022   1.0051   1.0051   1.0071   1.0071
     1.0152   1.0152   1.0172   1.0172   1.0506   1.0506   1.0676   1.0676
     0.6905   0.6905   0.6509   0.6509   0.1803   0.1803   0.0490   0.0490
     0.0109   0.0109   0.0007   0.0007   0.0002   0.0002   0.0001   0.0001
     0.0000   0.0000   0.0000   0.0000   0.0000   0.0000   0.0000   0.0000
     0.0000   0.0000

          k = 0.3333 0.5774 0.0000 ( 18168 PWs)   bands (ev):

   -69.6557 -69.6372 -69.5885 -69.5885 -69.5782 -69.5595 -69.5506 -69.5506
   -41.0166 -41.0166 -41.0010 -41.0010 -35.9531 -35.9384 -35.8297 -35.8297
   -35.7831 -35.7831 -35.7810 -35.7172 -35.7172 -35.6874 -35.6874 -35.6757
   -35.6536 -35.6454 -35.6454 -35.6078 -35.6019 -35.6019 -35.5741 -35.5552
   -35.5552 -35.5513 -35.5513 -35.5278 -17.3723 -17.3545 -17.3494 -17.3494
   -17.2711 -17.2711 -17.2259 -17.2259 -17.1453 -17.1453 -17.1444 -17.1285
    10.9478  11.5950  11.5950  12.4318  12.6573  12.7479  12.7479  13.0237
    13.0237  13.6409  14.3307  14.3307  14.3872  14.3872  14.4603  14.6011
    14.6285  14.6285  14.6320  14.6320  14.6411  14.8149  14.8149  14.9630
    14.9633  15.0146  15.0146  15.1130  15.1130  15.1533  15.3524  15.3524
    15.4696  15.7680  16.2654  16.2654  16.3070  16.5091  16.5091  16.8362
    17.2665  17.2666  17.3738  17.3738  17.4036  17.4874  17.6195  17.6195
    17.6831  17.7757  17.7759  17.9209  17.9209  17.9253  18.0286  18.0289
    18.0884  18.5857

     occupation numbers 
     1.0000   1.0000   1.0000   1.0000   1.0000   1.0000   1.0000   1.0000
     1.0000   1.0000   1.0000   1.0000   1.0000   1.0000   1.0000   1.0000
     1.0000   1.0000   1.0000   1.0000   1.0000   1.0000   1.0000   1.0000
     1.0000   1.0000   1.0000   1.0000   1.0000   1.0000   1.0000   1.0000
     1.0000   1.0000   1.0000   1.0000   1.0000   1.0000   1.0000   1.0000
     1.0000   1.0000   1.0000   1.0000   1.0000   1.0000   1.0000   1.0000
     1.0000   1.0000   1.0000   1.0000   1.0000   1.0000   1.0000   1.0000
     1.0000   1.0000   1.0001   1.0001   1.0001   1.0001   1.0003   1.0010
     1.0012   1.0012   1.0012   1.0012   1.0013   1.0050   1.0050   1.0131
     1.0131   1.0175   1.0175   1.0287   1.0287   1.0344   1.0674   1.0674
     1.0817   1.0110   0.4266   0.4266   0.3744   0.1715   0.1715   0.0284
     0.0009   0.0009   0.0003   0.0003   0.0002   0.0001   0.0000   0.0000
     0.0000   0.0000   0.0000   0.0000   0.0000   0.0000   0.0000   0.0000
     0.0000   0.0000

          k = 0.3333 0.5774 0.1545 ( 18126 PWs)   bands (ev):

   -69.6534 -69.6405 -69.5885 -69.5885 -69.5748 -69.5618 -69.5506 -69.5506
   -41.0167 -41.0167 -41.0009 -41.0009 -35.9513 -35.9410 -35.8311 -35.8311
   -35.7753 -35.7753 -35.7706 -35.7196 -35.7196 -35.7061 -35.7046 -35.7046
   -35.6308 -35.6268 -35.6268 -35.6091 -35.6020 -35.6020 -35.5680 -35.5629
   -35.5629 -35.5489 -35.5489 -35.5344 -17.3698 -17.3573 -17.3468 -17.3468
   -17.2786 -17.2786 -17.2195 -17.2195 -17.1469 -17.1469 -17.1419 -17.1307
    11.0647  11.7021  11.7021  11.9113  12.4971  12.4971  13.1402  13.1402
    13.1944  13.6985  14.1661  14.1661  14.3242  14.3568  14.5579  14.5579
    14.5899  14.5899  14.6353  14.6353  14.6925  14.7902  14.7902  14.8325
    15.0390  15.0390  15.0530  15.2065  15.2549  15.2549  15.2800  15.2800
    15.6042  15.9037  16.2046  16.2046  16.2341  16.6477  16.6477  16.6545
    17.1482  17.1482  17.4246  17.4247  17.4413  17.4741  17.5152  17.5153
    17.8032  17.8036  17.8309  17.8666  17.8933  17.8941  18.0262  18.0286
    18.2389  18.3030

     occupation numbers 
     1.0000   1.0000   1.0000   1.0000   1.0000   1.0000   1.0000   1.0000
     1.0000   1.0000   1.0000   1.0000   1.0000   1.0000   1.0000   1.0000
     1.0000   1.0000   1.0000   1.0000   1.0000   1.0000   1.0000   1.0000
     1.0000   1.0000   1.0000   1.0000   1.0000   1.0000   1.0000   1.0000
     1.0000   1.0000   1.0000   1.0000   1.0000   1.0000   1.0000   1.0000
     1.0000   1.0000   1.0000   1.0000   1.0000   1.0000   1.0000   1.0000
     1.0000   1.0000   1.0000   1.0000   1.0000   1.0000   1.0000   1.0000
     1.0000   1.0000   1.0000   1.0000   1.0001   1.0001   1.0007   1.0007
     1.0009   1.0009   1.0013   1.0013   1.0020   1.0042   1.0042   1.0057
     1.0199   1.0199   1.0214   1.0427   1.0509   1.0509   1.0552   1.0552
     1.0760   0.8961   0.5073   0.5073   0.4676   0.0869   0.0869   0.0838
     0.0027   0.0027   0.0002   0.0002   0.0002   0.0001   0.0001   0.0001
     0.0000   0.0000   0.0000   0.0000   0.0000   0.0000   0.0000   0.0000
     0.0000   0.0000

          k = 0.3333 0.5774-0.3091 ( 18156 PWs)   bands (ev):

   -69.6475 -69.6475 -69.5885 -69.5885 -69.5678 -69.5678 -69.5506 -69.5506
   -41.0168 -41.0168 -41.0009 -41.0009 -35.9466 -35.9466 -35.8323 -35.8323
   -35.7641 -35.7641 -35.7431 -35.7431 -35.7304 -35.7304 -35.7121 -35.7121
   -35.6148 -35.6148 -35.6103 -35.6103 -35.6023 -35.6023 -35.5716 -35.5716
   -35.5512 -35.5512 -35.5481 -35.5481 -17.3637 -17.3637 -17.3438 -17.3438
   -17.2853 -17.2853 -17.2139 -17.2139 -17.1487 -17.1487 -17.1362 -17.1362
    11.4009  11.4009  11.8926  11.8926  12.2171  12.2171  13.2058  13.2058
    13.6858  13.6858  14.0767  14.0767  14.1357  14.1357  14.5320  14.5320
    14.6305  14.6305  14.7179  14.7179  14.7197  14.7197  14.8569  14.8569
    14.9401  14.9401  15.1683  15.1683  15.1808  15.1808  15.4234  15.4234
    15.8771  15.8771  16.1660  16.1660  16.3378  16.3378  16.7611  16.7611
    17.0597  17.0597  17.3402  17.3402  17.4581  17.4581  17.5524  17.5524
    17.8309  17.8310  17.9173  17.9174  17.9445  17.9446  18.0461  18.0462
    18.0611  18.0611

     occupation numbers 
     1.0000   1.0000   1.0000   1.0000   1.0000   1.0000   1.0000   1.0000
     1.0000   1.0000   1.0000   1.0000   1.0000   1.0000   1.0000   1.0000
     1.0000   1.0000   1.0000   1.0000   1.0000   1.0000   1.0000   1.0000
     1.0000   1.0000   1.0000   1.0000   1.0000   1.0000   1.0000   1.0000
     1.0000   1.0000   1.0000   1.0000   1.0000   1.0000   1.0000   1.0000
     1.0000   1.0000   1.0000   1.0000   1.0000   1.0000   1.0000   1.0000
     1.0000   1.0000   1.0000   1.0000   1.0000   1.0000   1.0000   1.0000
     1.0000   1.0000   1.0000   1.0000   1.0000   1.0000   1.0005   1.0005
     1.0012   1.0012   1.0025   1.0025   1.0025   1.0025   1.0067   1.0067
     1.0114   1.0114   1.0367   1.0367   1.0386   1.0386   1.0774   1.0774
     0.9229   0.9229   0.5603   0.5603   0.3377   0.3377   0.0455   0.0455
     0.0056   0.0056   0.0005   0.0005   0.0001   0.0001   0.0000   0.0000
     0.0000   0.0000   0.0000   0.0000   0.0000   0.0000   0.0000   0.0000
     0.0000   0.0000

     the Fermi energy is    16.2858 ev

!    total energy              =   -3111.43087598 Ry
     estimated scf accuracy    <       0.00000083 Ry
     smearing contrib. (-TS)   =       0.01309950 Ry
     internal energy E=F+TS    =   -3111.44397549 Ry

     The total energy is F=E-TS. E is the sum of the following terms:
     one-electron contribution =   -1208.38125133 Ry
     hartree contribution      =     698.93588729 Ry
     xc contribution           =    -350.14766065 Ry
     ewald contribution        =   -1642.60130586 Ry
     one-center paw contrib.   =    -609.24964494 Ry
      -> PAW hartree energy AE =     209.45806603 Ry
      -> PAW hartree energy PS =    -208.59009144 Ry
      -> PAW xc energy AE      =    -111.32241729 Ry
      -> PAW xc energy PS      =      34.29819253 Ry
      -> total E_H with PAW    =     699.80386187 Ry
      -> total E_XC with PAW   =    -427.17188541 Ry

     total magnetization       =    10.46 Bohr mag/cell
     absolute magnetization    =    18.11 Bohr mag/cell

     convergence has been achieved in  48 iterations

     negative rho (up, down):  3.341E-03 7.752E-04

     Forces acting on atoms (cartesian axes, Ry/au):

     atom    1 type  2   force =     0.00059656   -0.00034442    0.00000000
     atom    2 type  2   force =    -0.00059656    0.00034442   -0.00000000
     atom    3 type  2   force =     0.00000000   -0.00068884    0.00000000
     atom    4 type  2   force =    -0.00059656   -0.00034442    0.00000000
     atom    5 type  2   force =    -0.00000000    0.00068884    0.00000000
     atom    6 type  2   force =     0.00059656    0.00034442   -0.00000000
     atom    7 type  1   force =     0.00000000    0.00000000    0.00000000
     atom    8 type  1   force =     0.00000000    0.00000000    0.00000000
     atom    9 type  3   force =    -0.00000000   -0.00000000   -0.00368907
     atom   10 type  3   force =     0.00000000    0.00000000   -0.00368907
     atom   11 type  3   force =     0.00000000    0.00000000    0.00368907
     atom   12 type  3   force =     0.00000000    0.00000000    0.00368907
     The non-local contrib.  to forces
     atom    1 type  2   force =     0.01515916   -0.00875215    0.00000000
     atom    2 type  2   force =    -0.01515916    0.00875215    0.00000000
     atom    3 type  2   force =     0.00000000   -0.01750429    0.00000000
     atom    4 type  2   force =    -0.01515916   -0.00875215    0.00000000
     atom    5 type  2   force =    -0.00000000    0.01750429    0.00000000
     atom    6 type  2   force =     0.01515916    0.00875215    0.00000000
     atom    7 type  1   force =    -0.00000000    0.00000000    0.00000000
     atom    8 type  1   force =     0.00000000   -0.00000000    0.00000000
     atom    9 type  3   force =    -0.00000000   -0.00000000   -0.01284444
     atom   10 type  3   force =     0.00000000    0.00000000   -0.01284444
     atom   11 type  3   force =     0.00000000   -0.00000000    0.01284444
     atom   12 type  3   force =    -0.00000000    0.00000000    0.01284444
     The ionic contribution  to forces
     atom    1 type  2   force =    -7.31998773    4.22619689    0.00000000
     atom    2 type  2   force =     7.31998773   -4.22619689    0.00000000
     atom    3 type  2   force =     0.00000025    8.45239357    0.00000000
     atom    4 type  2   force =     7.31998743    4.22619700    0.00000000
     atom    5 type  2   force =    -0.00000025   -8.45239357   -0.00000000
     atom    6 type  2   force =    -7.31998743   -4.22619700    0.00000000
     atom    7 type  1   force =    -0.00000000   -0.00000000   -0.00000000
     atom    8 type  1   force =     0.00000000   -0.00000000    0.00000000
     atom    9 type  3   force =    -0.00000036    0.00000021   -0.69540611
     atom   10 type  3   force =     0.00000036   -0.00000021   -0.69540611
     atom   11 type  3   force =     0.00000036   -0.00000021    0.69540611
     atom   12 type  3   force =    -0.00000036    0.00000021    0.69540611
     The local contribution  to forces
     atom    1 type  2   force =     7.30553930   -4.21785509   -0.00000118
     atom    2 type  2   force =    -7.30553189    4.21785080   -0.00000118
     atom    3 type  2   force =     0.00001275   -8.43572082    0.00000024
     atom    4 type  2   force =    -7.30554659   -4.21785461    0.00000024
     atom    5 type  2   force =    -0.00000463    8.43571723    0.00000024
     atom    6 type  2   force =     7.30555605    4.21784937    0.00000024
     atom    7 type  1   force =     0.00000526   -0.00000370    0.00000204
     atom    8 type  1   force =     0.00000284   -0.00000231    0.00000155
     atom    9 type  3   force =     0.00000180   -0.00000159    0.70482228
     atom   10 type  3   force =     0.00000110   -0.00000118    0.70482171
     atom   11 type  3   force =     0.00000180   -0.00000159   -0.70481875
     atom   12 type  3   force =     0.00000110   -0.00000118   -0.70481932
     The core correction contribution to forces
     atom    1 type  2   force =     0.00146582   -0.00084629    0.00000002
     atom    2 type  2   force =    -0.00146608    0.00084645    0.00000002
     atom    3 type  2   force =    -0.00000044   -0.00169213    0.00000001
     atom    4 type  2   force =    -0.00146553   -0.00084629    0.00000001
     atom    5 type  2   force =     0.00000015    0.00169234    0.00000001
     atom    6 type  2   force =     0.00146521    0.00084645    0.00000001
     atom    7 type  1   force =    -0.00000016    0.00000009    0.00000004
     atom    8 type  1   force =    -0.00000013    0.00000008    0.00000002
     atom    9 type  3   force =    -0.00000004    0.00000002   -0.00045219
     atom   10 type  3   force =    -0.00000006    0.00000003   -0.00045219
     atom   11 type  3   force =    -0.00000004    0.00000002    0.00045220
     atom   12 type  3   force =    -0.00000006    0.00000003    0.00045220
     The Hubbard contrib.    to forces
     atom    1 type  2   force =     0.00000000    0.00000000    0.00000000
     atom    2 type  2   force =     0.00000000    0.00000000    0.00000000
     atom    3 type  2   force =     0.00000000    0.00000000    0.00000000
     atom    4 type  2   force =     0.00000000    0.00000000    0.00000000
     atom    5 type  2   force =     0.00000000    0.00000000    0.00000000
     atom    6 type  2   force =     0.00000000    0.00000000    0.00000000
     atom    7 type  1   force =     0.00000000    0.00000000    0.00000000
     atom    8 type  1   force =     0.00000000    0.00000000    0.00000000
     atom    9 type  3   force =     0.00000000    0.00000000    0.00000000
     atom   10 type  3   force =     0.00000000    0.00000000    0.00000000
     atom   11 type  3   force =     0.00000000    0.00000000    0.00000000
     atom   12 type  3   force =     0.00000000    0.00000000    0.00000000
     The SCF correction term to forces
     atom    1 type  2   force =    -0.00158383    0.00091443   -0.00000000
     atom    2 type  2   force =     0.00158382   -0.00091442   -0.00000000
     atom    3 type  2   force =     0.00000001    0.00182886   -0.00000000
     atom    4 type  2   force =     0.00158384    0.00091444   -0.00000000
     atom    5 type  2   force =    -0.00000001   -0.00182886   -0.00000000
     atom    6 type  2   force =    -0.00158384   -0.00091444   -0.00000000
     atom    7 type  1   force =     0.00000000    0.00000000   -0.00000000
     atom    8 type  1   force =     0.00000001   -0.00000000    0.00000000
     atom    9 type  3   force =    -0.00000001    0.00000001    0.00019316
     atom   10 type  3   force =     0.00000000   -0.00000000    0.00019315
     atom   11 type  3   force =     0.00000000   -0.00000000   -0.00019315
     atom   12 type  3   force =    -0.00000001    0.00000001   -0.00019316

     Total force =     0.007569     Total SCF correction =     0.004496
     SCF correction compared to forces is large: reduce conv_thr to get better values


     Computing stress (Cartesian axis) and pressure


     negative rho (up, down):  3.341E-03 7.752E-04
          total   stress  (Ry/bohr**3)                   (kbar)     P=      -65.15
  -0.00046829   0.00000000   0.00000000          -68.89        0.00        0.00
   0.00000000  -0.00046829   0.00000000            0.00      -68.89        0.00
   0.00000000   0.00000000  -0.00039203            0.00        0.00      -57.67

     kinetic stress (kbar)  56371.89      0.00      0.00
                                0.00  56371.89     -0.00
                                0.00     -0.00  56399.25

     local   stress (kbar)  34934.66      0.00     -0.00
                                0.00  34934.66      0.00
                               -0.00      0.00  32117.74

     nonloc. stress (kbar) -33456.98      0.00      0.00
                                0.00 -33456.98      0.00
                                0.00      0.00 -33460.18

     hartree stress (kbar)  31440.83      0.00      0.00
                                0.00  31440.83     -0.00
                                0.00     -0.00  32711.89

     exc-cor stress (kbar)  -2413.82      0.00     -0.00
                                0.00  -2413.82      0.00
                               -0.00      0.00  -2412.71

     corecor stress (kbar) -11548.27     -0.00     -0.00
                               -0.00 -11548.27      0.00
                               -0.00      0.00 -11549.27

     ewald   stress (kbar) -75397.20     -0.00      0.00
                               -0.00 -75397.20      0.00
                                0.00      0.00 -73864.40

     hubbard stress (kbar)      0.00      0.00      0.00
                                0.00      0.00      0.00
                                0.00      0.00      0.00

     DFT-D   stress (kbar)      0.00      0.00      0.00
                                0.00      0.00      0.00
                                0.00      0.00      0.00

     XDM     stress (kbar)      0.00      0.00      0.00
                                0.00      0.00      0.00
                                0.00      0.00      0.00

     dft-nl  stress (kbar)      0.00      0.00      0.00
                                0.00      0.00      0.00
                                0.00      0.00      0.00

     TS-vdW  stress (kbar)      0.00      0.00      0.00
                                0.00      0.00      0.00
                                0.00      0.00      0.00

     MDB     stress (kbar)      0.00      0.00      0.00
                                0.00      0.00      0.00
                                0.00      0.00      0.00

     3D-RISM stress (kbar)      0.00      0.00      0.00
                                0.00      0.00      0.00
                                0.00      0.00      0.00


     Writing all to output data dir /vscmnt/antwerpen_storage_data/_data_antwerpen/211/vsc21136/save_outputs/TiFe2_hex.save/ :
     XML data file, charge density, pseudopotentials, collected wavefunctions

     init_run     :      7.16s CPU      7.68s WALL (       1 calls)
     electrons    :   2433.40s CPU   2460.62s WALL (       1 calls)
     forces       :      2.45s CPU      2.51s WALL (       1 calls)
     stress       :      8.64s CPU      8.79s WALL (       1 calls)

     Called by init_run:
     wfcinit      :      5.25s CPU      5.57s WALL (       1 calls)
     wfcinit:atom :      0.03s CPU      0.03s WALL (      42 calls)
     wfcinit:wfcr :      4.86s CPU      5.18s WALL (      42 calls)
     potinit      :      0.93s CPU      1.07s WALL (       1 calls)
     hinit0       :      0.56s CPU      0.58s WALL (       1 calls)

     Called by electrons:
     c_bands      :   2302.00s CPU   2322.86s WALL (      48 calls)
     sum_band     :     92.52s CPU     95.37s WALL (      48 calls)
     v_of_rho     :      4.18s CPU      4.57s WALL (      49 calls)
     v_h          :      0.11s CPU      0.13s WALL (      49 calls)
     v_xc         :      4.24s CPU      4.62s WALL (      51 calls)
     newd         :     15.01s CPU     16.71s WALL (      49 calls)
     PAW_pot      :     18.74s CPU     19.82s WALL (      49 calls)
     mix_rho      :      1.28s CPU      1.42s WALL (      48 calls)

     Called by c_bands:
     init_us_2    :      4.27s CPU      4.32s WALL (    4158 calls)
     ccgdiagg     :   2139.48s CPU   2157.82s WALL (    2016 calls)
     wfcrot       :    157.02s CPU    158.97s WALL (    2016 calls)

     Called by sum_band:
     sum_band:wei :      0.22s CPU      0.22s WALL (      48 calls)
     sum_band:loo :     61.26s CPU     62.01s WALL (      48 calls)
     sum_band:buf :      0.60s CPU      0.61s WALL (    2016 calls)
     sum_band:ini :      2.33s CPU      2.35s WALL (    2016 calls)
     sum_band:cal :     14.92s CPU     15.00s WALL (    2016 calls)
     sum_band:bec :      0.38s CPU      0.39s WALL (    2016 calls)
     addusdens    :     17.38s CPU     19.35s WALL (      48 calls)
                                        0.00s GPU  (      48 calls)
     addusd:skk   :      0.05s CPU      0.05s WALL (     144 calls)
                                        0.00s GPU  (     144 calls)

     Called by *cgdiagg:
     h_psi        :   1284.46s CPU   1296.30s WALL (  527062 calls)
     s_psi        :    116.78s CPU    117.86s WALL ( 1052108 calls)

     Called by h_psi:
     h_psi:calbec :    618.93s CPU    624.37s WALL (  527062 calls)
     vloc_psi     :    492.52s CPU    497.89s WALL (  527062 calls)
     add_vuspsi   :    168.98s CPU    170.13s WALL (  527062 calls)
     hs_1psi      :   1228.01s CPU   1238.68s WALL (  525046 calls)
     s_1psi       :    217.87s CPU    219.30s WALL (  525046 calls)

     General routines
     calbec       :    802.47s CPU    809.49s WALL ( 1054838 calls)
     fft          :      2.90s CPU      3.29s WALL (    1263 calls)
     ffts         :      0.85s CPU      0.92s WALL (    1185 calls)
     fftw         :    457.17s CPU    462.11s WALL ( 1694372 calls)
     interpolate  :      0.66s CPU      0.71s WALL (      98 calls)

     Parallel routines

     PAW routines
     PAW_pot      :     18.74s CPU     19.82s WALL (      49 calls)
     PAW_symme    :      0.04s CPU      0.04s WALL (      97 calls)

     PWSCF        :   2452.70s CPU   2494.35s WALL


   This run was terminated on:   0:48: 1   1Nov2025            

=------------------------------------------------------------------------------=
   JOB DONE.
=------------------------------------------------------------------------------=
