
     Program PWSCF v.7.4 starts on 31Oct2025 at 11:12:14 

     This program is part of the open-source Quantum ESPRESSO suite
     for quantum simulation of materials; please cite
         "P. Giannozzi et al., J. Phys.:Condens. Matter 21 395502 (2009);
         "P. Giannozzi et al., J. Phys.:Condens. Matter 29 465901 (2017);
         "P. Giannozzi et al., J. Chem. Phys. 152 154105 (2020);
          URL http://www.quantum-espresso.org", 
     in publications or presentations arising from this work. More details at
     http://www.quantum-espresso.org/quote

     Parallel version (MPI & OpenMP), running on      16 processor cores
     Number of MPI processes:                16
     Threads/MPI process:                     1

     MPI processes distributed on     1 nodes
     126295 MiB available memory on the printing compute node when the environment starts

     Reading input from TiFe2_hex.in
Warning: card / ignored

     Current dimensions of program PWSCF are:
     Max number of different atomic species (ntypx) = 10
     Max number of k-points (npk) =  40000
     Max angular momentum in pseudopotentials (lmaxx) =  4
     file Fe.pbe-spn-kjpaw_psl.0.2.1.UPF: wavefunction(s)  3D renormalized
     file Fe.pbe-spn-kjpaw_psl.0.2.1.UPF: wavefunction(s)  3D renormalized

     IMPORTANT: XC functional enforced from input :
     Exchange-correlation= PBE
                           (   1   4   3   4   0   0   0)
     Any further DFT definition will be discarded
     Please, verify this is what you really want

     Message from routine setup:
     using ibrav=0 with symmetry is DISCOURAGED, use correct ibrav instead

     R & G space division:  proc/nbgrp/npool/nimage =      16
     Subspace diagonalization in iterative solution of the eigenvalue problem:
     a serial algorithm will be used


     Parallelization info
     --------------------
     sticks:   dense  smooth     PW     G-vecs:    dense   smooth      PW
     Min         289     144     40                25687     9076    1320
     Max         291     150     41                25691     9077    1323
     Sum        4639    2335    649               411019   145217   21133

     Using Slab Decomposition



     bravais-lattice index     =            0
     lattice parameter (alat)  =       9.1568  a.u.
     unit-cell volume          =    1075.5644 (a.u.)^3
     number of atoms/cell      =           12
     number of atomic types    =            3
     number of electrons       =       176.00
     number of Kohn-Sham states=          106
     kinetic-energy cutoff     =     100.0000  Ry
     charge density cutoff     =     800.0000  Ry
     scf convergence threshold =      1.0E-06
     mixing beta               =       0.1000
     number of iterations used =            8  local-TF  mixing
     Exchange-correlation= PBE
                           (   1   4   3   4   0   0   0)

     celldm(1)=   9.156781  celldm(2)=   0.000000  celldm(3)=   0.000000
     celldm(4)=   0.000000  celldm(5)=   0.000000  celldm(6)=   0.000000

     crystal axes: (cart. coord. in units of alat)
               a(1) = (   1.000000   0.000000   0.000000 )  
               a(2) = (  -0.500000   0.866025   0.000000 )  
               a(3) = (   0.000000   0.000000   1.617623 )  

     reciprocal axes: (cart. coord. in units 2 pi/alat)
               b(1) = (  1.000000  0.577350 -0.000000 )  
               b(2) = (  0.000000  1.154701  0.000000 )  
               b(3) = (  0.000000 -0.000000  0.618191 )  


     PseudoPot. # 1 for Fe read from file:
     ../../pseudos/Fe.pbe-spn-kjpaw_psl.0.2.1.UPF
     MD5 check sum: e86618425769142926afa95317d90200
     Pseudo is Projector augmented-wave + core cor, Zval = 16.0
     Generated using "atomic" code by A. Dal Corso  v.5.0.99 svn rev. 10869
     Shape of augmentation charge: PSQ
     Using radial grid of 1191 points,  6 beta functions with: 
                l(1) =   0
                l(2) =   0
                l(3) =   1
                l(4) =   1
                l(5) =   2
                l(6) =   2
     Q(r) pseudized with 0 coefficients 


     PseudoPot. # 2 for Fe read from file:
     ../../pseudos/Fe.pbe-spn-kjpaw_psl.0.2.1.UPF
     MD5 check sum: e86618425769142926afa95317d90200
     Pseudo is Projector augmented-wave + core cor, Zval = 16.0
     Generated using "atomic" code by A. Dal Corso  v.5.0.99 svn rev. 10869
     Shape of augmentation charge: PSQ
     Using radial grid of 1191 points,  6 beta functions with: 
                l(1) =   0
                l(2) =   0
                l(3) =   1
                l(4) =   1
                l(5) =   2
                l(6) =   2
     Q(r) pseudized with 0 coefficients 


     PseudoPot. # 3 for Ti read from file:
     ../../pseudos/ti_pbe_v1.4.uspp.F.UPF
     MD5 check sum: 88a00a6731bd790ddea75d31a80cb452
     Pseudo is Ultrasoft + core correction, Zval = 12.0
     Generated by new atomic code, or converted to UPF format
     Using radial grid of  851 points,  6 beta functions with: 
                l(1) =   0
                l(2) =   0
                l(3) =   1
                l(4) =   1
                l(5) =   2
                l(6) =   2
     Q(r) pseudized with  6 coefficients,  rinner =    1.000   1.000   1.000
                                                       1.000   1.000

     atomic species   valence    mass     pseudopotential
     Fe_up            16.00    55.84500     Fe( 1.00)
     Fe_dn            16.00    55.84500     Fe( 1.00)
     Ti               12.00    47.86700     Ti( 1.00)

     Starting magnetic structure 
     atomic species   magnetization
     Fe_up           0.062
     Fe_dn          -0.062
     Ti              0.000

     24 Sym. Ops., with inversion, found (12 have fractional translation)


                                    s                        frac. trans.

      isym =  1     identity                                     

 cryst.   s( 1) = (     1          0          0      )
                  (     0          1          0      )
                  (     0          0          1      )

 cart.    s( 1) = (  1.0000000  0.0000000  0.0000000 )
                  (  0.0000000  1.0000000  0.0000000 )
                  (  0.0000000  0.0000000  1.0000000 )


      isym =  2     180 deg rotation - cart. axis [0,0,1]        

 cryst.   s( 2) = (    -1          0          0      )    f =(  0.0000000 )
                  (     0         -1          0      )       (  0.0000000 )
                  (     0          0          1      )       (  0.5000000 )

 cart.    s( 2) = ( -1.0000000  0.0000000  0.0000000 )    f =(  0.0000000 )
                  (  0.0000000 -1.0000000  0.0000000 )       (  0.0000000 )
                  (  0.0000000  0.0000000  1.0000000 )       (  0.8088114 )


      isym =  3     180 deg rotation - cart. axis [0,1,0]        

 cryst.   s( 3) = (    -1          0          0      )    f =( -0.0000000 )
                  (     1          1          0      )       (  0.0000000 )
                  (     0          0         -1      )       ( -0.5000000 )

 cart.    s( 3) = ( -1.0000000  0.0000000  0.0000000 )    f =( -0.0000000 )
                  (  0.0000000  1.0000000  0.0000000 )       (  0.0000000 )
                  (  0.0000000  0.0000000 -1.0000000 )       ( -0.8088114 )


      isym =  4     180 deg rotation - cart. axis [1,0,0]        

 cryst.   s( 4) = (     1          0          0      )
                  (    -1         -1          0      )
                  (     0          0         -1      )

 cart.    s( 4) = (  1.0000000  0.0000000  0.0000000 )
                  (  0.0000000 -1.0000000  0.0000000 )
                  (  0.0000000  0.0000000 -1.0000000 )


      isym =  5      60 deg rotation - cryst. axis [0,0,1]       

 cryst.   s( 5) = (     1          1          0      )    f =( -0.0000000 )
                  (    -1          0          0      )       (  0.0000000 )
                  (     0          0          1      )       (  0.5000000 )

 cart.    s( 5) = (  0.5000000 -0.8660254  0.0000000 )    f =( -0.0000000 )
                  (  0.8660254  0.5000000  0.0000000 )       (  0.0000000 )
                  (  0.0000000  0.0000000  1.0000000 )       (  0.8088114 )


      isym =  6      60 deg rotation - cryst. axis [0,0,-1]      

 cryst.   s( 6) = (     0         -1          0      )    f =( -0.0000000 )
                  (     1          1          0      )       (  0.0000000 )
                  (     0          0          1      )       (  0.5000000 )

 cart.    s( 6) = (  0.5000000  0.8660254  0.0000000 )    f =( -0.0000000 )
                  ( -0.8660254  0.5000000  0.0000000 )       (  0.0000000 )
                  (  0.0000000  0.0000000  1.0000000 )       (  0.8088114 )


      isym =  7     120 deg rotation - cryst. axis [0,0,1]       

 cryst.   s( 7) = (     0          1          0      )
                  (    -1         -1          0      )
                  (     0          0          1      )

 cart.    s( 7) = ( -0.5000000 -0.8660254  0.0000000 )
                  (  0.8660254 -0.5000000  0.0000000 )
                  (  0.0000000  0.0000000  1.0000000 )


      isym =  8     120 deg rotation - cryst. axis [0,0,-1]      

 cryst.   s( 8) = (    -1         -1          0      )
                  (     1          0          0      )
                  (     0          0          1      )

 cart.    s( 8) = ( -0.5000000  0.8660254  0.0000000 )
                  ( -0.8660254 -0.5000000  0.0000000 )
                  (  0.0000000  0.0000000  1.0000000 )


      isym =  9     180 deg rotation - cryst. axis [1,-1,0]      

 cryst.   s( 9) = (     0         -1          0      )    f =(  0.0000000 )
                  (    -1          0          0      )       (  0.0000000 )
                  (     0          0         -1      )       ( -0.5000000 )

 cart.    s( 9) = (  0.5000000 -0.8660254  0.0000000 )    f =(  0.0000000 )
                  ( -0.8660254 -0.5000000  0.0000000 )       (  0.0000000 )
                  (  0.0000000  0.0000000 -1.0000000 )       ( -0.8088114 )


      isym = 10     180 deg rotation - cryst. axis [2,1,0]       

 cryst.   s(10) = (     1          1          0      )    f =( -0.0000000 )
                  (     0         -1          0      )       (  0.0000000 )
                  (     0          0         -1      )       ( -0.5000000 )

 cart.    s(10) = (  0.5000000  0.8660254  0.0000000 )    f =( -0.0000000 )
                  (  0.8660254 -0.5000000  0.0000000 )       (  0.0000000 )
                  (  0.0000000  0.0000000 -1.0000000 )       ( -0.8088114 )


      isym = 11     180 deg rotation - cryst. axis [0,1,0]       

 cryst.   s(11) = (    -1         -1          0      )
                  (     0          1          0      )
                  (     0          0         -1      )

 cart.    s(11) = ( -0.5000000 -0.8660254  0.0000000 )
                  ( -0.8660254  0.5000000  0.0000000 )
                  (  0.0000000  0.0000000 -1.0000000 )


      isym = 12     180 deg rotation - cryst. axis [1,1,0]       

 cryst.   s(12) = (     0          1          0      )
                  (     1          0          0      )
                  (     0          0         -1      )

 cart.    s(12) = ( -0.5000000  0.8660254  0.0000000 )
                  (  0.8660254  0.5000000  0.0000000 )
                  (  0.0000000  0.0000000 -1.0000000 )


      isym = 13     inversion                                    

 cryst.   s(13) = (    -1          0          0      )
                  (     0         -1          0      )
                  (     0          0         -1      )

 cart.    s(13) = ( -1.0000000  0.0000000  0.0000000 )
                  (  0.0000000 -1.0000000  0.0000000 )
                  (  0.0000000  0.0000000 -1.0000000 )


      isym = 14     inv. 180 deg rotation - cart. axis [0,0,1]   

 cryst.   s(14) = (     1          0          0      )    f =(  0.0000000 )
                  (     0          1          0      )       (  0.0000000 )
                  (     0          0         -1      )       ( -0.5000000 )

 cart.    s(14) = (  1.0000000  0.0000000  0.0000000 )    f =(  0.0000000 )
                  (  0.0000000  1.0000000  0.0000000 )       (  0.0000000 )
                  (  0.0000000  0.0000000 -1.0000000 )       ( -0.8088114 )


      isym = 15     inv. 180 deg rotation - cart. axis [0,1,0]   

 cryst.   s(15) = (     1          0          0      )    f =( -0.0000000 )
                  (    -1         -1          0      )       (  0.0000000 )
                  (     0          0          1      )       (  0.5000000 )

 cart.    s(15) = (  1.0000000  0.0000000  0.0000000 )    f =( -0.0000000 )
                  (  0.0000000 -1.0000000  0.0000000 )       (  0.0000000 )
                  (  0.0000000  0.0000000  1.0000000 )       (  0.8088114 )


      isym = 16     inv. 180 deg rotation - cart. axis [1,0,0]   

 cryst.   s(16) = (    -1          0          0      )
                  (     1          1          0      )
                  (     0          0          1      )

 cart.    s(16) = ( -1.0000000  0.0000000  0.0000000 )
                  (  0.0000000  1.0000000  0.0000000 )
                  (  0.0000000  0.0000000  1.0000000 )


      isym = 17     inv.  60 deg rotation - cryst. axis [0,0,1]  

 cryst.   s(17) = (    -1         -1          0      )    f =( -0.0000000 )
                  (     1          0          0      )       (  0.0000000 )
                  (     0          0         -1      )       ( -0.5000000 )

 cart.    s(17) = ( -0.5000000  0.8660254  0.0000000 )    f =( -0.0000000 )
                  ( -0.8660254 -0.5000000  0.0000000 )       (  0.0000000 )
                  (  0.0000000  0.0000000 -1.0000000 )       ( -0.8088114 )


      isym = 18     inv.  60 deg rotation - cryst. axis [0,0,-1] 

 cryst.   s(18) = (     0          1          0      )    f =(  0.0000000 )
                  (    -1         -1          0      )       (  0.0000000 )
                  (     0          0         -1      )       ( -0.5000000 )

 cart.    s(18) = ( -0.5000000 -0.8660254  0.0000000 )    f =( -0.0000000 )
                  (  0.8660254 -0.5000000  0.0000000 )       (  0.0000000 )
                  (  0.0000000  0.0000000 -1.0000000 )       ( -0.8088114 )


      isym = 19     inv. 120 deg rotation - cryst. axis [0,0,1]  

 cryst.   s(19) = (     0         -1          0      )
                  (     1          1          0      )
                  (     0          0         -1      )

 cart.    s(19) = (  0.5000000  0.8660254  0.0000000 )
                  ( -0.8660254  0.5000000  0.0000000 )
                  (  0.0000000  0.0000000 -1.0000000 )


      isym = 20     inv. 120 deg rotation - cryst. axis [0,0,-1] 

 cryst.   s(20) = (     1          1          0      )
                  (    -1          0          0      )
                  (     0          0         -1      )

 cart.    s(20) = (  0.5000000 -0.8660254  0.0000000 )
                  (  0.8660254  0.5000000  0.0000000 )
                  (  0.0000000  0.0000000 -1.0000000 )


      isym = 21     inv. 180 deg rotation - cryst. axis [1,-1,0] 

 cryst.   s(21) = (     0          1          0      )    f =( -0.0000000 )
                  (     1          0          0      )       (  0.0000000 )
                  (     0          0          1      )       (  0.5000000 )

 cart.    s(21) = ( -0.5000000  0.8660254  0.0000000 )    f =( -0.0000000 )
                  (  0.8660254  0.5000000  0.0000000 )       (  0.0000000 )
                  (  0.0000000  0.0000000  1.0000000 )       (  0.8088114 )


      isym = 22     inv. 180 deg rotation - cryst. axis [2,1,0]  

 cryst.   s(22) = (    -1         -1          0      )    f =(  0.0000000 )
                  (     0          1          0      )       (  0.0000000 )
                  (     0          0          1      )       (  0.5000000 )

 cart.    s(22) = ( -0.5000000 -0.8660254  0.0000000 )    f =( -0.0000000 )
                  ( -0.8660254  0.5000000  0.0000000 )       (  0.0000000 )
                  (  0.0000000  0.0000000  1.0000000 )       (  0.8088114 )


      isym = 23     inv. 180 deg rotation - cryst. axis [0,1,0]  

 cryst.   s(23) = (     1          1          0      )
                  (     0         -1          0      )
                  (     0          0          1      )

 cart.    s(23) = (  0.5000000  0.8660254  0.0000000 )
                  (  0.8660254 -0.5000000  0.0000000 )
                  (  0.0000000  0.0000000  1.0000000 )


      isym = 24     inv. 180 deg rotation - cryst. axis [1,1,0]  

 cryst.   s(24) = (     0         -1          0      )
                  (    -1          0          0      )
                  (     0          0          1      )

 cart.    s(24) = (  0.5000000 -0.8660254  0.0000000 )
                  ( -0.8660254 -0.5000000  0.0000000 )
                  (  0.0000000  0.0000000  1.0000000 )


   Cartesian axes

     site n.     atom                  positions (alat units)
         1        Fe_dn  tau(   1) = (   0.7465670   0.1463196   0.4044057  )
         2        Fe_dn  tau(   2) = (  -0.2465670   0.7197058   1.2132171  )
         3        Fe_dn  tau(   3) = (  -0.0000000   0.2926392   1.2132171  )
         4        Fe_dn  tau(   4) = (   0.2534330   0.1463196   0.4044057  )
         5        Fe_dn  tau(   5) = (   0.5000000   0.5733862   0.4044057  )
         6        Fe_dn  tau(   6) = (   0.2465670   0.7197058   1.2132171  )
         7        Fe_up  tau(   7) = (   0.0000000   0.0000000   0.0000000  )
         8        Fe_up  tau(   8) = (   0.0000000   0.0000000   0.8088114  )
         9        Ti     tau(   9) = (   0.5000000   0.2886751   1.5200090  )
        10        Ti     tau(  10) = (  -0.0000000   0.5773503   0.7111976  )
        11        Ti     tau(  11) = (  -0.0000000   0.5773503   0.0976138  )
        12        Ti     tau(  12) = (   0.5000000   0.2886751   0.9064252  )

   Crystallographic axes

     site n.     atom                  positions (cryst. coord.)
         1        Fe_dn  tau(   1) = (  0.8310447  0.1689553  0.2500000  )
         2        Fe_dn  tau(   2) = (  0.1689553  0.8310447  0.7500000  )
         3        Fe_dn  tau(   3) = (  0.1689553  0.3379107  0.7500000  )
         4        Fe_dn  tau(   4) = (  0.3379107  0.1689553  0.2500000  )
         5        Fe_dn  tau(   5) = (  0.8310447  0.6620893  0.2500000  )
         6        Fe_dn  tau(   6) = (  0.6620893  0.8310447  0.7500000  )
         7        Fe_up  tau(   7) = (  0.0000000  0.0000000  0.0000000  )
         8        Fe_up  tau(   8) = (  0.0000000  0.0000000  0.5000000  )
         9        Ti     tau(   9) = (  0.6666667  0.3333333  0.9396560  )
        10        Ti     tau(  10) = (  0.3333333  0.6666667  0.4396560  )
        11        Ti     tau(  11) = (  0.3333333  0.6666667  0.0603440  )
        12        Ti     tau(  12) = (  0.6666667  0.3333333  0.5603440  )

     number of k points=    21  Marzari-Vanderbilt smearing, width (Ry)=  0.0400
                       cart. coord. in units 2pi/alat
        k(    1) = (   0.0000000   0.0000000   0.0000000), wk =   0.0069444
        k(    2) = (   0.0000000   0.0000000   0.1545478), wk =   0.0138889
        k(    3) = (   0.0000000   0.0000000  -0.3090955), wk =   0.0069444
        k(    4) = (   0.0000000   0.1924501   0.0000000), wk =   0.0416667
        k(    5) = (   0.0000000   0.1924501   0.1545478), wk =   0.0833333
        k(    6) = (   0.0000000   0.1924501  -0.3090955), wk =   0.0416667
        k(    7) = (   0.0000000   0.3849002   0.0000000), wk =   0.0416667
        k(    8) = (   0.0000000   0.3849002   0.1545478), wk =   0.0833333
        k(    9) = (   0.0000000   0.3849002  -0.3090955), wk =   0.0416667
        k(   10) = (   0.0000000  -0.5773503   0.0000000), wk =   0.0208333
        k(   11) = (   0.0000000  -0.5773503   0.1545478), wk =   0.0416667
        k(   12) = (   0.0000000  -0.5773503  -0.3090955), wk =   0.0208333
        k(   13) = (   0.1666667   0.2886751   0.0000000), wk =   0.0416667
        k(   14) = (   0.1666667   0.2886751   0.1545478), wk =   0.0833333
        k(   15) = (   0.1666667   0.2886751  -0.3090955), wk =   0.0416667
        k(   16) = (   0.1666667   0.4811252   0.0000000), wk =   0.0833333
        k(   17) = (   0.1666667   0.4811252   0.1545478), wk =   0.1666667
        k(   18) = (   0.1666667   0.4811252  -0.3090955), wk =   0.0833333
        k(   19) = (   0.3333333   0.5773503   0.0000000), wk =   0.0138889
        k(   20) = (   0.3333333   0.5773503   0.1545478), wk =   0.0277778
        k(   21) = (   0.3333333   0.5773503  -0.3090955), wk =   0.0138889

                       cryst. coord.
        k(    1) = (   0.0000000   0.0000000   0.0000000), wk =   0.0069444
        k(    2) = (   0.0000000   0.0000000   0.2500000), wk =   0.0138889
        k(    3) = (   0.0000000   0.0000000  -0.5000000), wk =   0.0069444
        k(    4) = (   0.0000000   0.1666667   0.0000000), wk =   0.0416667
        k(    5) = (   0.0000000   0.1666667   0.2500000), wk =   0.0833333
        k(    6) = (   0.0000000   0.1666667  -0.5000000), wk =   0.0416667
        k(    7) = (   0.0000000   0.3333333   0.0000000), wk =   0.0416667
        k(    8) = (   0.0000000   0.3333333   0.2500000), wk =   0.0833333
        k(    9) = (   0.0000000   0.3333333  -0.5000000), wk =   0.0416667
        k(   10) = (   0.0000000  -0.5000000   0.0000000), wk =   0.0208333
        k(   11) = (   0.0000000  -0.5000000   0.2500000), wk =   0.0416667
        k(   12) = (   0.0000000  -0.5000000  -0.5000000), wk =   0.0208333
        k(   13) = (   0.1666667   0.1666667   0.0000000), wk =   0.0416667
        k(   14) = (   0.1666667   0.1666667   0.2500000), wk =   0.0833333
        k(   15) = (   0.1666667   0.1666667  -0.5000000), wk =   0.0416667
        k(   16) = (   0.1666667   0.3333333   0.0000000), wk =   0.0833333
        k(   17) = (   0.1666667   0.3333333   0.2500000), wk =   0.1666667
        k(   18) = (   0.1666667   0.3333333  -0.5000000), wk =   0.0833333
        k(   19) = (   0.3333333   0.3333333   0.0000000), wk =   0.0138889
        k(   20) = (   0.3333333   0.3333333   0.2500000), wk =   0.0277778
        k(   21) = (   0.3333333   0.3333333  -0.5000000), wk =   0.0138889

     Dense  grid:   411019 G-vectors     FFT dimensions: (  90,  90, 144)

     Smooth grid:   145217 G-vectors     FFT dimensions: (  60,  60,  96)

     Dynamical RAM for                 wfc:       1.84 MB

     Dynamical RAM for     wfc (w. buffer):      78.94 MB

     Dynamical RAM for           str. fact:       1.18 MB

     Dynamical RAM for           local pot:       0.00 MB

     Dynamical RAM for          nlocal pot:       3.74 MB

     Dynamical RAM for                qrad:       6.81 MB

     Dynamical RAM for          rho,v,vnew:       5.69 MB

     Dynamical RAM for               rhoin:       1.90 MB

     Dynamical RAM for            rho*nmix:      12.54 MB

     Dynamical RAM for           G-vectors:       1.54 MB

     Dynamical RAM for          h,s,v(r/c):       0.51 MB

     Dynamical RAM for          <psi|beta>:       0.35 MB

     Dynamical RAM for      wfcinit/wfcrot:       3.93 MB

     Dynamical RAM for           addusdens:      75.65 MB

     Dynamical RAM for          addusforce:      79.62 MB

     Dynamical RAM for         addusstress:      79.37 MB

     Estimated static dynamical RAM per process >     104.69 MB

     Estimated max dynamical RAM per process >     196.85 MB

     Estimated total dynamical RAM >       3.08 GB

     Atomic positions and unit cell read from directory:
     ./TiFe2_hex.save/TiFe2_hex.save/
     Message from routine qexsd_readschema :
     xml data file ./TiFe2_hex.save/TiFe2_hex.save/data-file-schema.xml not found
     Nothing found: using input atomic positions and unit cell


     Check: negative core charge=   -0.000014
     Generating pointlists ...
     new r_m :   0.2059 (alat units)  1.8855 (a.u.) for type    1
     new r_m :   0.2034 (alat units)  1.8627 (a.u.) for type    2
     new r_m :   0.2381 (alat units)  2.1799 (a.u.) for type    3
     Cannot read rho : file not found

     Initial potential from superposition of free atoms

     starting charge     171.9963, renormalised to     176.0000

     negative rho (up, down):  2.975E-03 2.969E-03
     Message from routine qexsd_readschema :
     xml data file ./TiFe2_hex.save/TiFe2_hex.save/data-file-schema.xml not found
     Cannot read wfcs: file not found
     Starting wfcs are  144 randomized atomic wfcs
     Checking if some PAW data can be deallocated... 
       PAW data deallocated on   14 nodes for type:  1
       PAW data deallocated on    6 nodes for type:  2

     total cpu time spent up to now is        8.2 secs

     per-process dynamical memory:   228.3 Mb

     Self-consistent Calculation

     iteration #  1     ecut=   100.00 Ry     beta= 0.10
     CG style diagonalization

---- Real-time Memory Report at c_bands before calling an iterative solver
           272 MiB given to the printing process from OS
           222 MiB allocation reported by mallinfo(arena+hblkhd)
        124093 MiB available memory on the node where the printing process lives
------------------
     c_bands:  1 eigenvalues not converged
     c_bands:  1 eigenvalues not converged
     c_bands:  4 eigenvalues not converged
     ethr =  1.00E-05,  avg # of iterations = 17.3

     negative rho (up, down):  1.680E-03 1.671E-03

     total cpu time spent up to now is      250.1 secs

     total energy              =   -3112.51666964 Ry
     estimated scf accuracy    <     118.28759275 Ry

     total magnetization       =    -1.66 Bohr mag/cell
     absolute magnetization    =     4.40 Bohr mag/cell

     iteration #  2     ecut=   100.00 Ry     beta= 0.10
     CG style diagonalization

---- Real-time Memory Report at c_bands before calling an iterative solver
           347 MiB given to the printing process from OS
           230 MiB allocation reported by mallinfo(arena+hblkhd)
        123483 MiB available memory on the node where the printing process lives
------------------
     ethr =  1.00E-02,  avg # of iterations =  3.0

     negative rho (up, down):  6.048E-04 5.879E-04

     total cpu time spent up to now is      285.2 secs

     total energy              =   -3108.43244910 Ry
     estimated scf accuracy    <      42.16562929 Ry

     total magnetization       =    -2.33 Bohr mag/cell
     absolute magnetization    =     5.87 Bohr mag/cell

     iteration #  3     ecut=   100.00 Ry     beta= 0.10
     CG style diagonalization

---- Real-time Memory Report at c_bands before calling an iterative solver
           347 MiB given to the printing process from OS
           230 MiB allocation reported by mallinfo(arena+hblkhd)
        122891 MiB available memory on the node where the printing process lives
------------------
     ethr =  1.00E-02,  avg # of iterations =  3.2

     negative rho (up, down):  1.047E-03 1.025E-03

     total cpu time spent up to now is      323.7 secs

     total energy              =   -3111.16766023 Ry
     estimated scf accuracy    <       1.35182621 Ry

     total magnetization       =    -2.84 Bohr mag/cell
     absolute magnetization    =     7.14 Bohr mag/cell

     iteration #  4     ecut=   100.00 Ry     beta= 0.10
     CG style diagonalization

---- Real-time Memory Report at c_bands before calling an iterative solver
           348 MiB given to the printing process from OS
           231 MiB allocation reported by mallinfo(arena+hblkhd)
        123306 MiB available memory on the node where the printing process lives
------------------
     ethr =  7.68E-04,  avg # of iterations =  3.8

     negative rho (up, down):  1.159E-03 1.145E-03

     total cpu time spent up to now is      370.8 secs

     total energy              =   -3111.40561663 Ry
     estimated scf accuracy    <       0.80086419 Ry

     total magnetization       =    -3.23 Bohr mag/cell
     absolute magnetization    =     7.08 Bohr mag/cell

     iteration #  5     ecut=   100.00 Ry     beta= 0.10
     CG style diagonalization

---- Real-time Memory Report at c_bands before calling an iterative solver
           348 MiB given to the printing process from OS
           231 MiB allocation reported by mallinfo(arena+hblkhd)
        122352 MiB available memory on the node where the printing process lives
------------------
     c_bands:  1 eigenvalues not converged
     ethr =  4.55E-04,  avg # of iterations =  3.5

     negative rho (up, down):  1.168E-03 1.159E-03

     total cpu time spent up to now is      412.7 secs

     total energy              =   -3111.45548950 Ry
     estimated scf accuracy    <       0.62312821 Ry

     total magnetization       =    -3.28 Bohr mag/cell
     absolute magnetization    =     7.08 Bohr mag/cell

     iteration #  6     ecut=   100.00 Ry     beta= 0.10
     CG style diagonalization

---- Real-time Memory Report at c_bands before calling an iterative solver
           349 MiB given to the printing process from OS
           232 MiB allocation reported by mallinfo(arena+hblkhd)
        122574 MiB available memory on the node where the printing process lives
------------------
     ethr =  3.54E-04,  avg # of iterations =  3.1

     negative rho (up, down):  1.383E-03 1.468E-03

     total cpu time spent up to now is      448.2 secs

     total energy              =   -3111.41230629 Ry
     estimated scf accuracy    <       0.60844448 Ry

     total magnetization       =    -3.29 Bohr mag/cell
     absolute magnetization    =     7.12 Bohr mag/cell

     iteration #  7     ecut=   100.00 Ry     beta= 0.10
     CG style diagonalization

---- Real-time Memory Report at c_bands before calling an iterative solver
           350 MiB given to the printing process from OS
           233 MiB allocation reported by mallinfo(arena+hblkhd)
        121918 MiB available memory on the node where the printing process lives
------------------
     ethr =  3.46E-04,  avg # of iterations =  3.0

     negative rho (up, down):  1.969E-03 2.126E-03

     total cpu time spent up to now is      483.2 secs

     total energy              =   -3111.37288394 Ry
     estimated scf accuracy    <       0.78746639 Ry

     total magnetization       =    -3.32 Bohr mag/cell
     absolute magnetization    =     7.46 Bohr mag/cell

     iteration #  8     ecut=   100.00 Ry     beta= 0.10
     CG style diagonalization

---- Real-time Memory Report at c_bands before calling an iterative solver
           350 MiB given to the printing process from OS
           233 MiB allocation reported by mallinfo(arena+hblkhd)
        121790 MiB available memory on the node where the printing process lives
------------------
     ethr =  3.46E-04,  avg # of iterations =  3.2

     negative rho (up, down):  2.052E-03 2.239E-03

     total cpu time spent up to now is      520.3 secs

     total energy              =   -3111.31399166 Ry
     estimated scf accuracy    <       1.23320459 Ry

     total magnetization       =    -3.52 Bohr mag/cell
     absolute magnetization    =     7.89 Bohr mag/cell

     iteration #  9     ecut=   100.00 Ry     beta= 0.10
     CG style diagonalization

---- Real-time Memory Report at c_bands before calling an iterative solver
           351 MiB given to the printing process from OS
           234 MiB allocation reported by mallinfo(arena+hblkhd)
        121826 MiB available memory on the node where the printing process lives
------------------
     ethr =  3.46E-04,  avg # of iterations =  3.0

     negative rho (up, down):  2.130E-03 2.387E-03

     total cpu time spent up to now is      555.1 secs

     total energy              =   -3111.31263375 Ry
     estimated scf accuracy    <       0.17275081 Ry

     total magnetization       =    -3.53 Bohr mag/cell
     absolute magnetization    =     8.05 Bohr mag/cell

     iteration # 10     ecut=   100.00 Ry     beta= 0.10
     CG style diagonalization

---- Real-time Memory Report at c_bands before calling an iterative solver
           351 MiB given to the printing process from OS
           234 MiB allocation reported by mallinfo(arena+hblkhd)
        122833 MiB available memory on the node where the printing process lives
------------------
     c_bands:  1 eigenvalues not converged
     c_bands:  2 eigenvalues not converged
     ethr =  9.82E-05,  avg # of iterations =  3.7

     negative rho (up, down):  1.946E-03 2.226E-03

     total cpu time spent up to now is      600.4 secs

     total energy              =   -3111.35234170 Ry
     estimated scf accuracy    <       0.15935639 Ry

     total magnetization       =    -3.70 Bohr mag/cell
     absolute magnetization    =     8.27 Bohr mag/cell

     iteration # 11     ecut=   100.00 Ry     beta= 0.10
     CG style diagonalization

---- Real-time Memory Report at c_bands before calling an iterative solver
           351 MiB given to the printing process from OS
           234 MiB allocation reported by mallinfo(arena+hblkhd)
        122445 MiB available memory on the node where the printing process lives
------------------
     ethr =  9.05E-05,  avg # of iterations =  3.1

     negative rho (up, down):  1.775E-03 2.208E-03

     total cpu time spent up to now is      636.9 secs

     total energy              =   -3111.36274348 Ry
     estimated scf accuracy    <       0.10123888 Ry

     total magnetization       =    -3.74 Bohr mag/cell
     absolute magnetization    =     8.30 Bohr mag/cell

     iteration # 12     ecut=   100.00 Ry     beta= 0.10
     CG style diagonalization

---- Real-time Memory Report at c_bands before calling an iterative solver
           351 MiB given to the printing process from OS
           234 MiB allocation reported by mallinfo(arena+hblkhd)
        121451 MiB available memory on the node where the printing process lives
------------------
     c_bands:  1 eigenvalues not converged
     c_bands:  1 eigenvalues not converged
     c_bands:  1 eigenvalues not converged
     c_bands:  1 eigenvalues not converged
     ethr =  5.75E-05,  avg # of iterations =  3.1

     negative rho (up, down):  1.709E-03 2.248E-03

     total cpu time spent up to now is      675.2 secs

     total energy              =   -3111.36631196 Ry
     estimated scf accuracy    <       0.08268202 Ry

     total magnetization       =    -4.05 Bohr mag/cell
     absolute magnetization    =     8.79 Bohr mag/cell

     iteration # 13     ecut=   100.00 Ry     beta= 0.10
     CG style diagonalization

---- Real-time Memory Report at c_bands before calling an iterative solver
           351 MiB given to the printing process from OS
           234 MiB allocation reported by mallinfo(arena+hblkhd)
        121414 MiB available memory on the node where the printing process lives
------------------
     c_bands:  1 eigenvalues not converged
     c_bands:  2 eigenvalues not converged
     ethr =  4.70E-05,  avg # of iterations =  3.1

     negative rho (up, down):  1.730E-03 2.291E-03

     total cpu time spent up to now is      713.4 secs

     total energy              =   -3111.36907430 Ry
     estimated scf accuracy    <       0.03555322 Ry

     total magnetization       =    -4.25 Bohr mag/cell
     absolute magnetization    =     9.19 Bohr mag/cell

     iteration # 14     ecut=   100.00 Ry     beta= 0.10
     CG style diagonalization

---- Real-time Memory Report at c_bands before calling an iterative solver
           351 MiB given to the printing process from OS
           234 MiB allocation reported by mallinfo(arena+hblkhd)
        123009 MiB available memory on the node where the printing process lives
------------------
     c_bands:  1 eigenvalues not converged
     c_bands:  1 eigenvalues not converged
     c_bands:  1 eigenvalues not converged
     c_bands:  2 eigenvalues not converged
     c_bands:  1 eigenvalues not converged
     c_bands:  1 eigenvalues not converged
     c_bands:  2 eigenvalues not converged
     c_bands:  1 eigenvalues not converged
     c_bands:  1 eigenvalues not converged
     c_bands:  1 eigenvalues not converged
     c_bands:  1 eigenvalues not converged
     ethr =  2.02E-05,  avg # of iterations =  3.4

     negative rho (up, down):  1.722E-03 2.281E-03

     total cpu time spent up to now is      759.3 secs

     total energy              =   -3111.37262339 Ry
     estimated scf accuracy    <       0.00738556 Ry

     total magnetization       =    -4.33 Bohr mag/cell
     absolute magnetization    =     9.33 Bohr mag/cell

     iteration # 15     ecut=   100.00 Ry     beta= 0.10
     CG style diagonalization

---- Real-time Memory Report at c_bands before calling an iterative solver
           351 MiB given to the printing process from OS
           234 MiB allocation reported by mallinfo(arena+hblkhd)
        123014 MiB available memory on the node where the printing process lives
------------------
     c_bands:  1 eigenvalues not converged
     c_bands:  1 eigenvalues not converged
     c_bands:  1 eigenvalues not converged
     c_bands:  1 eigenvalues not converged
     c_bands:  2 eigenvalues not converged
     c_bands:  1 eigenvalues not converged
     c_bands:  1 eigenvalues not converged
     c_bands:  1 eigenvalues not converged
     c_bands:  2 eigenvalues not converged
     c_bands:  1 eigenvalues not converged
     c_bands:  1 eigenvalues not converged
     c_bands:  1 eigenvalues not converged
     c_bands:  1 eigenvalues not converged
     c_bands:  1 eigenvalues not converged
     c_bands:  2 eigenvalues not converged
     c_bands:  3 eigenvalues not converged
     c_bands:  2 eigenvalues not converged
     c_bands:  1 eigenvalues not converged
     c_bands:  1 eigenvalues not converged
     c_bands:  1 eigenvalues not converged
     c_bands:  2 eigenvalues not converged
     c_bands:  2 eigenvalues not converged
     c_bands:  1 eigenvalues not converged
     c_bands:  4 eigenvalues not converged
     c_bands:  1 eigenvalues not converged
     ethr =  4.20E-06,  avg # of iterations =  5.6

     negative rho (up, down):  1.503E-03 2.290E-03

     total cpu time spent up to now is      838.4 secs

     total energy              =   -3111.38346642 Ry
     estimated scf accuracy    <       0.00625292 Ry

     total magnetization       =    -4.29 Bohr mag/cell
     absolute magnetization    =     9.43 Bohr mag/cell

     iteration # 16     ecut=   100.00 Ry     beta= 0.10
     CG style diagonalization

---- Real-time Memory Report at c_bands before calling an iterative solver
           351 MiB given to the printing process from OS
           234 MiB allocation reported by mallinfo(arena+hblkhd)
        122891 MiB available memory on the node where the printing process lives
------------------
     c_bands:  1 eigenvalues not converged
     c_bands:  1 eigenvalues not converged
     c_bands:  1 eigenvalues not converged
     c_bands:  1 eigenvalues not converged
     c_bands:  1 eigenvalues not converged
     c_bands:  1 eigenvalues not converged
     c_bands:  2 eigenvalues not converged
     c_bands:  2 eigenvalues not converged
     c_bands:  3 eigenvalues not converged
     c_bands:  1 eigenvalues not converged
     c_bands:  1 eigenvalues not converged
     c_bands:  1 eigenvalues not converged
     c_bands:  2 eigenvalues not converged
     ethr =  3.55E-06,  avg # of iterations =  4.2

     negative rho (up, down):  1.534E-03 2.345E-03

     total cpu time spent up to now is      894.3 secs

     total energy              =   -3111.38770762 Ry
     estimated scf accuracy    <       0.00502206 Ry

     total magnetization       =    -4.90 Bohr mag/cell
     absolute magnetization    =    10.20 Bohr mag/cell

     iteration # 17     ecut=   100.00 Ry     beta= 0.10
     CG style diagonalization

---- Real-time Memory Report at c_bands before calling an iterative solver
           351 MiB given to the printing process from OS
           234 MiB allocation reported by mallinfo(arena+hblkhd)
        121570 MiB available memory on the node where the printing process lives
------------------
     c_bands:  1 eigenvalues not converged
     c_bands:  1 eigenvalues not converged
     c_bands:  1 eigenvalues not converged
     ethr =  2.85E-06,  avg # of iterations =  3.1

     negative rho (up, down):  1.535E-03 2.354E-03

     total cpu time spent up to now is      930.9 secs

     total energy              =   -3111.38817650 Ry
     estimated scf accuracy    <       0.00412610 Ry

     total magnetization       =    -4.98 Bohr mag/cell
     absolute magnetization    =    10.28 Bohr mag/cell

     iteration # 18     ecut=   100.00 Ry     beta= 0.10
     CG style diagonalization

---- Real-time Memory Report at c_bands before calling an iterative solver
           351 MiB given to the printing process from OS
           234 MiB allocation reported by mallinfo(arena+hblkhd)
        122600 MiB available memory on the node where the printing process lives
------------------
     c_bands:  1 eigenvalues not converged
     c_bands:  1 eigenvalues not converged
     c_bands:  1 eigenvalues not converged
     c_bands:  1 eigenvalues not converged
     ethr =  2.34E-06,  avg # of iterations =  3.0

     negative rho (up, down):  1.527E-03 2.546E-03

     total cpu time spent up to now is      968.4 secs

     total energy              =   -3111.38891547 Ry
     estimated scf accuracy    <       0.00418502 Ry

     total magnetization       =    -5.01 Bohr mag/cell
     absolute magnetization    =    10.29 Bohr mag/cell

     iteration # 19     ecut=   100.00 Ry     beta= 0.10
     CG style diagonalization

---- Real-time Memory Report at c_bands before calling an iterative solver
           351 MiB given to the printing process from OS
           234 MiB allocation reported by mallinfo(arena+hblkhd)
        121619 MiB available memory on the node where the printing process lives
------------------
     c_bands:  1 eigenvalues not converged
     c_bands:  1 eigenvalues not converged
     ethr =  2.34E-06,  avg # of iterations =  3.8

     negative rho (up, down):  1.535E-03 2.502E-03

     total cpu time spent up to now is     1019.6 secs

     total energy              =   -3111.39059726 Ry
     estimated scf accuracy    <       0.00412128 Ry

     total magnetization       =    -5.65 Bohr mag/cell
     absolute magnetization    =    10.91 Bohr mag/cell

     iteration # 20     ecut=   100.00 Ry     beta= 0.10
     CG style diagonalization

---- Real-time Memory Report at c_bands before calling an iterative solver
           351 MiB given to the printing process from OS
           234 MiB allocation reported by mallinfo(arena+hblkhd)
        121638 MiB available memory on the node where the printing process lives
------------------
     c_bands:  1 eigenvalues not converged
     c_bands:  1 eigenvalues not converged
     ethr =  2.34E-06,  avg # of iterations =  3.0

     negative rho (up, down):  1.574E-03 2.501E-03

     total cpu time spent up to now is     1055.3 secs

     total energy              =   -3111.39045663 Ry
     estimated scf accuracy    <       0.00621081 Ry

     total magnetization       =    -5.45 Bohr mag/cell
     absolute magnetization    =    10.81 Bohr mag/cell

     iteration # 21     ecut=   100.00 Ry     beta= 0.10
     CG style diagonalization

---- Real-time Memory Report at c_bands before calling an iterative solver
           351 MiB given to the printing process from OS
           234 MiB allocation reported by mallinfo(arena+hblkhd)
        121123 MiB available memory on the node where the printing process lives
------------------
     ethr =  2.34E-06,  avg # of iterations =  3.0

     negative rho (up, down):  1.658E-03 2.218E-03

     total cpu time spent up to now is     1092.6 secs

     total energy              =   -3111.37567539 Ry
     estimated scf accuracy    <       0.00483615 Ry

     total magnetization       =    -5.38 Bohr mag/cell
     absolute magnetization    =    10.70 Bohr mag/cell

     iteration # 22     ecut=   100.00 Ry     beta= 0.10
     CG style diagonalization

---- Real-time Memory Report at c_bands before calling an iterative solver
           351 MiB given to the printing process from OS
           234 MiB allocation reported by mallinfo(arena+hblkhd)
        121546 MiB available memory on the node where the printing process lives
------------------
     ethr =  2.34E-06,  avg # of iterations =  3.9

     negative rho (up, down):  1.658E-03 2.219E-03

     total cpu time spent up to now is     1146.8 secs

     total energy              =   -3111.38392139 Ry
     estimated scf accuracy    <       0.01140791 Ry

     total magnetization       =    -4.26 Bohr mag/cell
     absolute magnetization    =     9.55 Bohr mag/cell

     iteration # 23     ecut=   100.00 Ry     beta= 0.10
     CG style diagonalization

---- Real-time Memory Report at c_bands before calling an iterative solver
           351 MiB given to the printing process from OS
           234 MiB allocation reported by mallinfo(arena+hblkhd)
        121069 MiB available memory on the node where the printing process lives
------------------
     ethr =  2.34E-06,  avg # of iterations =  3.0

     negative rho (up, down):  1.561E-03 2.206E-03

     total cpu time spent up to now is     1185.3 secs

     total energy              =   -3111.38510139 Ry
     estimated scf accuracy    <       0.01240680 Ry

     total magnetization       =    -4.24 Bohr mag/cell
     absolute magnetization    =     9.58 Bohr mag/cell

     iteration # 24     ecut=   100.00 Ry     beta= 0.10
     CG style diagonalization

---- Real-time Memory Report at c_bands before calling an iterative solver
           351 MiB given to the printing process from OS
           234 MiB allocation reported by mallinfo(arena+hblkhd)
        121270 MiB available memory on the node where the printing process lives
------------------
     ethr =  2.34E-06,  avg # of iterations =  3.1

     negative rho (up, down):  1.568E-03 2.271E-03

     total cpu time spent up to now is     1224.9 secs

     total energy              =   -3111.38695595 Ry
     estimated scf accuracy    <       0.01533902 Ry

     total magnetization       =    -4.54 Bohr mag/cell
     absolute magnetization    =     9.77 Bohr mag/cell

     iteration # 25     ecut=   100.00 Ry     beta= 0.10
     CG style diagonalization

---- Real-time Memory Report at c_bands before calling an iterative solver
           351 MiB given to the printing process from OS
           234 MiB allocation reported by mallinfo(arena+hblkhd)
        121479 MiB available memory on the node where the printing process lives
------------------
     c_bands:  1 eigenvalues not converged
     ethr =  2.34E-06,  avg # of iterations =  3.1

     negative rho (up, down):  1.600E-03 2.360E-03

     total cpu time spent up to now is     1265.1 secs

     total energy              =   -3111.38812954 Ry
     estimated scf accuracy    <       0.01333235 Ry

     total magnetization       =    -4.85 Bohr mag/cell
     absolute magnetization    =    10.06 Bohr mag/cell

     iteration # 26     ecut=   100.00 Ry     beta= 0.10
     CG style diagonalization

---- Real-time Memory Report at c_bands before calling an iterative solver
           351 MiB given to the printing process from OS
           234 MiB allocation reported by mallinfo(arena+hblkhd)
        121962 MiB available memory on the node where the printing process lives
------------------
     ethr =  2.34E-06,  avg # of iterations =  3.1

     negative rho (up, down):  1.585E-03 2.391E-03

     total cpu time spent up to now is     1306.1 secs

     total energy              =   -3111.38831896 Ry
     estimated scf accuracy    <       0.00848257 Ry

     total magnetization       =    -5.11 Bohr mag/cell
     absolute magnetization    =    10.47 Bohr mag/cell

     iteration # 27     ecut=   100.00 Ry     beta= 0.10
     CG style diagonalization

---- Real-time Memory Report at c_bands before calling an iterative solver
           351 MiB given to the printing process from OS
           234 MiB allocation reported by mallinfo(arena+hblkhd)
        120842 MiB available memory on the node where the printing process lives
------------------
     ethr =  2.34E-06,  avg # of iterations =  3.4

     negative rho (up, down):  1.613E-03 2.312E-03

     total cpu time spent up to now is     1350.3 secs

     total energy              =   -3111.38464027 Ry
     estimated scf accuracy    <       0.00602849 Ry

     total magnetization       =    -5.64 Bohr mag/cell
     absolute magnetization    =    10.29 Bohr mag/cell

     iteration # 28     ecut=   100.00 Ry     beta= 0.10
     CG style diagonalization

---- Real-time Memory Report at c_bands before calling an iterative solver
           352 MiB given to the printing process from OS
           234 MiB allocation reported by mallinfo(arena+hblkhd)
        121249 MiB available memory on the node where the printing process lives
------------------
     ethr =  2.34E-06,  avg # of iterations =  3.4

     negative rho (up, down):  1.720E-03 2.441E-03

     total cpu time spent up to now is     1391.3 secs

     total energy              =   -3111.38685789 Ry
     estimated scf accuracy    <       0.00835141 Ry

     total magnetization       =    -4.95 Bohr mag/cell
     absolute magnetization    =    10.38 Bohr mag/cell

     iteration # 29     ecut=   100.00 Ry     beta= 0.10
     CG style diagonalization

---- Real-time Memory Report at c_bands before calling an iterative solver
           352 MiB given to the printing process from OS
           234 MiB allocation reported by mallinfo(arena+hblkhd)
        121757 MiB available memory on the node where the printing process lives
------------------
     ethr =  2.34E-06,  avg # of iterations =  3.3

     negative rho (up, down):  1.669E-03 2.450E-03

     total cpu time spent up to now is     1431.0 secs

     total energy              =   -3111.38826408 Ry
     estimated scf accuracy    <       0.00269905 Ry

     total magnetization       =    -4.93 Bohr mag/cell
     absolute magnetization    =    10.73 Bohr mag/cell

     iteration # 30     ecut=   100.00 Ry     beta= 0.10
     CG style diagonalization

---- Real-time Memory Report at c_bands before calling an iterative solver
           352 MiB given to the printing process from OS
           234 MiB allocation reported by mallinfo(arena+hblkhd)
        121193 MiB available memory on the node where the printing process lives
------------------
     ethr =  1.53E-06,  avg # of iterations =  3.1

     negative rho (up, down):  1.741E-03 2.414E-03

     total cpu time spent up to now is     1468.0 secs

     total energy              =   -3111.38214702 Ry
     estimated scf accuracy    <       0.00328454 Ry

     total magnetization       =    -5.33 Bohr mag/cell
     absolute magnetization    =    10.67 Bohr mag/cell

     iteration # 31     ecut=   100.00 Ry     beta= 0.10
     CG style diagonalization

---- Real-time Memory Report at c_bands before calling an iterative solver
           352 MiB given to the printing process from OS
           234 MiB allocation reported by mallinfo(arena+hblkhd)
        120166 MiB available memory on the node where the printing process lives
------------------
     ethr =  1.53E-06,  avg # of iterations =  3.7

     negative rho (up, down):  1.876E-03 2.440E-03

     total cpu time spent up to now is     1518.0 secs

     total energy              =   -3111.38328112 Ry
     estimated scf accuracy    <       0.00453566 Ry

     total magnetization       =    -4.61 Bohr mag/cell
     absolute magnetization    =    10.92 Bohr mag/cell

     iteration # 32     ecut=   100.00 Ry     beta= 0.10
     CG style diagonalization

---- Real-time Memory Report at c_bands before calling an iterative solver
           352 MiB given to the printing process from OS
           234 MiB allocation reported by mallinfo(arena+hblkhd)
        121141 MiB available memory on the node where the printing process lives
------------------
     ethr =  1.53E-06,  avg # of iterations =  3.7

     negative rho (up, down):  1.869E-03 2.414E-03

     total cpu time spent up to now is     1567.5 secs

     total energy              =   -3111.38376610 Ry
     estimated scf accuracy    <       0.00253846 Ry

     total magnetization       =    -4.29 Bohr mag/cell
     absolute magnetization    =    10.55 Bohr mag/cell

     iteration # 33     ecut=   100.00 Ry     beta= 0.10
     CG style diagonalization

---- Real-time Memory Report at c_bands before calling an iterative solver
           352 MiB given to the printing process from OS
           234 MiB allocation reported by mallinfo(arena+hblkhd)
        122931 MiB available memory on the node where the printing process lives
------------------
     ethr =  1.44E-06,  avg # of iterations =  3.1

     negative rho (up, down):  1.925E-03 2.322E-03

     total cpu time spent up to now is     1603.8 secs

     total energy              =   -3111.35681769 Ry
     estimated scf accuracy    <       0.00194680 Ry

     total magnetization       =    -4.09 Bohr mag/cell
     absolute magnetization    =    10.60 Bohr mag/cell

     iteration # 34     ecut=   100.00 Ry     beta= 0.10
     CG style diagonalization

---- Real-time Memory Report at c_bands before calling an iterative solver
           352 MiB given to the printing process from OS
           234 MiB allocation reported by mallinfo(arena+hblkhd)
        121798 MiB available memory on the node where the printing process lives
------------------
     c_bands:  1 eigenvalues not converged
     c_bands:  1 eigenvalues not converged
     ethr =  1.11E-06,  avg # of iterations =  5.1

     negative rho (up, down):  1.935E-03 2.287E-03

     total cpu time spent up to now is     1677.2 secs

     total energy              =   -3111.37510324 Ry
     estimated scf accuracy    <       0.00469100 Ry

     total magnetization       =    -2.52 Bohr mag/cell
     absolute magnetization    =    10.95 Bohr mag/cell

     iteration # 35     ecut=   100.00 Ry     beta= 0.10
     CG style diagonalization

---- Real-time Memory Report at c_bands before calling an iterative solver
           352 MiB given to the printing process from OS
           234 MiB allocation reported by mallinfo(arena+hblkhd)
        122378 MiB available memory on the node where the printing process lives
------------------
     c_bands:  1 eigenvalues not converged
     c_bands:  1 eigenvalues not converged
     ethr =  1.11E-06,  avg # of iterations =  3.6

     negative rho (up, down):  1.878E-03 2.358E-03

     total cpu time spent up to now is     1726.2 secs

     total energy              =   -3111.37559984 Ry
     estimated scf accuracy    <       0.00553320 Ry

     total magnetization       =    -2.15 Bohr mag/cell
     absolute magnetization    =    10.95 Bohr mag/cell

     iteration # 36     ecut=   100.00 Ry     beta= 0.10
     CG style diagonalization

---- Real-time Memory Report at c_bands before calling an iterative solver
           352 MiB given to the printing process from OS
           234 MiB allocation reported by mallinfo(arena+hblkhd)
        121988 MiB available memory on the node where the printing process lives
------------------
     ethr =  1.11E-06,  avg # of iterations =  3.9

     negative rho (up, down):  1.735E-03 2.454E-03

     total cpu time spent up to now is     1780.8 secs

     total energy              =   -3111.38091399 Ry
     estimated scf accuracy    <       0.00246223 Ry

     total magnetization       =    -2.98 Bohr mag/cell
     absolute magnetization    =    11.03 Bohr mag/cell

     iteration # 37     ecut=   100.00 Ry     beta= 0.10
     CG style diagonalization

---- Real-time Memory Report at c_bands before calling an iterative solver
           352 MiB given to the printing process from OS
           234 MiB allocation reported by mallinfo(arena+hblkhd)
        122343 MiB available memory on the node where the printing process lives
------------------
     ethr =  1.11E-06,  avg # of iterations =  3.8

     negative rho (up, down):  1.799E-03 2.432E-03

     total cpu time spent up to now is     1832.6 secs

     total energy              =   -3111.38141917 Ry
     estimated scf accuracy    <       0.00520428 Ry

     total magnetization       =    -3.33 Bohr mag/cell
     absolute magnetization    =    11.84 Bohr mag/cell

     iteration # 38     ecut=   100.00 Ry     beta= 0.10
     CG style diagonalization

---- Real-time Memory Report at c_bands before calling an iterative solver
           352 MiB given to the printing process from OS
           234 MiB allocation reported by mallinfo(arena+hblkhd)
        122811 MiB available memory on the node where the printing process lives
------------------
     ethr =  1.11E-06,  avg # of iterations =  3.1

     negative rho (up, down):  1.632E-03 2.489E-03

     total cpu time spent up to now is     1869.6 secs

     total energy              =   -3111.37746143 Ry
     estimated scf accuracy    <       0.00435823 Ry

     total magnetization       =    -3.11 Bohr mag/cell
     absolute magnetization    =    11.67 Bohr mag/cell

     iteration # 39     ecut=   100.00 Ry     beta= 0.10
     CG style diagonalization

---- Real-time Memory Report at c_bands before calling an iterative solver
           352 MiB given to the printing process from OS
           234 MiB allocation reported by mallinfo(arena+hblkhd)
        122368 MiB available memory on the node where the printing process lives
------------------
     c_bands:  1 eigenvalues not converged
     c_bands:  1 eigenvalues not converged
     ethr =  1.11E-06,  avg # of iterations =  4.4

     negative rho (up, down):  1.565E-03 2.521E-03

     total cpu time spent up to now is     1925.2 secs

     total energy              =   -3111.38513860 Ry
     estimated scf accuracy    <       0.00154539 Ry

     total magnetization       =    -4.19 Bohr mag/cell
     absolute magnetization    =    11.83 Bohr mag/cell

     iteration # 40     ecut=   100.00 Ry     beta= 0.10
     CG style diagonalization

---- Real-time Memory Report at c_bands before calling an iterative solver
           352 MiB given to the printing process from OS
           234 MiB allocation reported by mallinfo(arena+hblkhd)
        122849 MiB available memory on the node where the printing process lives
------------------
     c_bands:  1 eigenvalues not converged
     ethr =  8.78E-07,  avg # of iterations =  4.0

     negative rho (up, down):  1.632E-03 2.463E-03

     total cpu time spent up to now is     1977.1 secs

     total energy              =   -3111.37909495 Ry
     estimated scf accuracy    <       0.00142932 Ry

     total magnetization       =    -4.78 Bohr mag/cell
     absolute magnetization    =    11.77 Bohr mag/cell

     iteration # 41     ecut=   100.00 Ry     beta= 0.10
     CG style diagonalization

---- Real-time Memory Report at c_bands before calling an iterative solver
           352 MiB given to the printing process from OS
           234 MiB allocation reported by mallinfo(arena+hblkhd)
        122119 MiB available memory on the node where the printing process lives
------------------
     c_bands:  1 eigenvalues not converged
     ethr =  8.12E-07,  avg # of iterations =  4.0

     negative rho (up, down):  1.558E-03 2.493E-03

     total cpu time spent up to now is     2031.8 secs

     total energy              =   -3111.38311623 Ry
     estimated scf accuracy    <       0.00141369 Ry

     total magnetization       =    -3.93 Bohr mag/cell
     absolute magnetization    =    11.92 Bohr mag/cell

     iteration # 42     ecut=   100.00 Ry     beta= 0.10
     CG style diagonalization

---- Real-time Memory Report at c_bands before calling an iterative solver
           352 MiB given to the printing process from OS
           234 MiB allocation reported by mallinfo(arena+hblkhd)
        122531 MiB available memory on the node where the printing process lives
------------------
     ethr =  8.03E-07,  avg # of iterations =  3.9

     negative rho (up, down):  1.659E-03 2.445E-03

     total cpu time spent up to now is     2086.1 secs

     total energy              =   -3111.38121952 Ry
     estimated scf accuracy    <       0.00151732 Ry

     total magnetization       =    -4.68 Bohr mag/cell
     absolute magnetization    =    11.77 Bohr mag/cell

     iteration # 43     ecut=   100.00 Ry     beta= 0.10
     CG style diagonalization

---- Real-time Memory Report at c_bands before calling an iterative solver
           352 MiB given to the printing process from OS
           234 MiB allocation reported by mallinfo(arena+hblkhd)
        122647 MiB available memory on the node where the printing process lives
------------------
     ethr =  8.03E-07,  avg # of iterations =  3.8

     negative rho (up, down):  1.513E-03 2.483E-03

     total cpu time spent up to now is     2134.8 secs

     total energy              =   -3111.38463311 Ry
     estimated scf accuracy    <       0.00115694 Ry

     total magnetization       =    -3.97 Bohr mag/cell
     absolute magnetization    =    11.74 Bohr mag/cell

     iteration # 44     ecut=   100.00 Ry     beta= 0.10
     CG style diagonalization

---- Real-time Memory Report at c_bands before calling an iterative solver
           352 MiB given to the printing process from OS
           234 MiB allocation reported by mallinfo(arena+hblkhd)
        122980 MiB available memory on the node where the printing process lives
------------------
     ethr =  6.57E-07,  avg # of iterations =  3.7

     negative rho (up, down):  1.532E-03 2.449E-03

     total cpu time spent up to now is     2182.8 secs

     total energy              =   -3111.38638482 Ry
     estimated scf accuracy    <       0.00155239 Ry

     total magnetization       =    -4.57 Bohr mag/cell
     absolute magnetization    =    11.96 Bohr mag/cell

     iteration # 45     ecut=   100.00 Ry     beta= 0.10
     CG style diagonalization

---- Real-time Memory Report at c_bands before calling an iterative solver
           352 MiB given to the printing process from OS
           234 MiB allocation reported by mallinfo(arena+hblkhd)
        122287 MiB available memory on the node where the printing process lives
------------------
     ethr =  6.57E-07,  avg # of iterations =  3.1

     negative rho (up, down):  1.530E-03 2.411E-03

     total cpu time spent up to now is     2223.6 secs

     total energy              =   -3111.37698762 Ry
     estimated scf accuracy    <       0.00176878 Ry

     total magnetization       =    -4.36 Bohr mag/cell
     absolute magnetization    =    11.89 Bohr mag/cell

     iteration # 46     ecut=   100.00 Ry     beta= 0.10
     CG style diagonalization

---- Real-time Memory Report at c_bands before calling an iterative solver
           352 MiB given to the printing process from OS
           234 MiB allocation reported by mallinfo(arena+hblkhd)
        123019 MiB available memory on the node where the printing process lives
------------------
     ethr =  6.57E-07,  avg # of iterations =  4.3

     negative rho (up, down):  1.609E-03 2.332E-03

     total cpu time spent up to now is     2279.9 secs

     total energy              =   -3111.37065787 Ry
     estimated scf accuracy    <       0.00330537 Ry

     total magnetization       =    -3.53 Bohr mag/cell
     absolute magnetization    =    12.25 Bohr mag/cell

     iteration # 47     ecut=   100.00 Ry     beta= 0.10
     CG style diagonalization

---- Real-time Memory Report at c_bands before calling an iterative solver
           352 MiB given to the printing process from OS
           234 MiB allocation reported by mallinfo(arena+hblkhd)
        122911 MiB available memory on the node where the printing process lives
------------------
     ethr =  6.57E-07,  avg # of iterations =  4.7

     negative rho (up, down):  1.504E-03 2.586E-03

     total cpu time spent up to now is     2346.4 secs

     total energy              =   -3111.34460553 Ry
     estimated scf accuracy    <       0.00657806 Ry

     total magnetization       =    -2.55 Bohr mag/cell
     absolute magnetization    =    12.06 Bohr mag/cell

     iteration # 48     ecut=   100.00 Ry     beta= 0.10
     CG style diagonalization

---- Real-time Memory Report at c_bands before calling an iterative solver
           352 MiB given to the printing process from OS
           234 MiB allocation reported by mallinfo(arena+hblkhd)
        122125 MiB available memory on the node where the printing process lives
------------------
     c_bands:  1 eigenvalues not converged
     c_bands:  1 eigenvalues not converged
     ethr =  6.57E-07,  avg # of iterations =  5.8

     negative rho (up, down):  1.485E-03 2.486E-03

     total cpu time spent up to now is     2430.7 secs

     total energy              =   -3111.37312692 Ry
     estimated scf accuracy    <       0.00172712 Ry

     total magnetization       =    -5.03 Bohr mag/cell
     absolute magnetization    =    12.21 Bohr mag/cell

     iteration # 49     ecut=   100.00 Ry     beta= 0.10
     CG style diagonalization

---- Real-time Memory Report at c_bands before calling an iterative solver
           352 MiB given to the printing process from OS
           234 MiB allocation reported by mallinfo(arena+hblkhd)
        122380 MiB available memory on the node where the printing process lives
------------------
     c_bands:  1 eigenvalues not converged
     ethr =  6.57E-07,  avg # of iterations =  4.5

     negative rho (up, down):  1.477E-03 2.570E-03

     total cpu time spent up to now is     2493.8 secs

     total energy              =   -3111.38121697 Ry
     estimated scf accuracy    <       0.00147831 Ry

     total magnetization       =    -3.89 Bohr mag/cell
     absolute magnetization    =    12.58 Bohr mag/cell

     iteration # 50     ecut=   100.00 Ry     beta= 0.10
     CG style diagonalization

---- Real-time Memory Report at c_bands before calling an iterative solver
           352 MiB given to the printing process from OS
           234 MiB allocation reported by mallinfo(arena+hblkhd)
        121956 MiB available memory on the node where the printing process lives
------------------
     c_bands:  1 eigenvalues not converged
     ethr =  6.57E-07,  avg # of iterations =  4.2

     negative rho (up, down):  1.469E-03 2.517E-03

     total cpu time spent up to now is     2553.7 secs

     total energy              =   -3111.38569856 Ry
     estimated scf accuracy    <       0.00150170 Ry

     total magnetization       =    -4.82 Bohr mag/cell
     absolute magnetization    =    12.42 Bohr mag/cell

     iteration # 51     ecut=   100.00 Ry     beta= 0.10
     CG style diagonalization

---- Real-time Memory Report at c_bands before calling an iterative solver
           352 MiB given to the printing process from OS
           234 MiB allocation reported by mallinfo(arena+hblkhd)
        122585 MiB available memory on the node where the printing process lives
------------------
     ethr =  6.57E-07,  avg # of iterations =  3.4

     negative rho (up, down):  1.568E-03 2.430E-03

     total cpu time spent up to now is     2598.1 secs

     total energy              =   -3111.36469628 Ry
     estimated scf accuracy    <       0.00099607 Ry

     total magnetization       =    -4.45 Bohr mag/cell
     absolute magnetization    =    12.42 Bohr mag/cell

     iteration # 52     ecut=   100.00 Ry     beta= 0.10
     CG style diagonalization

---- Real-time Memory Report at c_bands before calling an iterative solver
           352 MiB given to the printing process from OS
           234 MiB allocation reported by mallinfo(arena+hblkhd)
        122348 MiB available memory on the node where the printing process lives
------------------
     c_bands:  1 eigenvalues not converged
     ethr =  5.66E-07,  avg # of iterations =  5.1

     negative rho (up, down):  1.355E-03 2.611E-03

     total cpu time spent up to now is     2667.4 secs

     total energy              =   -3111.34483725 Ry
     estimated scf accuracy    <       0.00216696 Ry

     total magnetization       =    -3.08 Bohr mag/cell
     absolute magnetization    =    12.46 Bohr mag/cell

     iteration # 53     ecut=   100.00 Ry     beta= 0.10
     CG style diagonalization

---- Real-time Memory Report at c_bands before calling an iterative solver
           352 MiB given to the printing process from OS
           234 MiB allocation reported by mallinfo(arena+hblkhd)
        122553 MiB available memory on the node where the printing process lives
------------------
     c_bands:  1 eigenvalues not converged
     ethr =  5.66E-07,  avg # of iterations =  5.9

     negative rho (up, down):  1.547E-03 2.462E-03

     total cpu time spent up to now is     2752.9 secs

     total energy              =   -3111.35343916 Ry
     estimated scf accuracy    <       0.00211109 Ry

     total magnetization       =    -5.53 Bohr mag/cell
     absolute magnetization    =    12.46 Bohr mag/cell

     iteration # 54     ecut=   100.00 Ry     beta= 0.10
     CG style diagonalization

---- Real-time Memory Report at c_bands before calling an iterative solver
           352 MiB given to the printing process from OS
           234 MiB allocation reported by mallinfo(arena+hblkhd)
        122706 MiB available memory on the node where the printing process lives
------------------
     ethr =  5.66E-07,  avg # of iterations =  5.4

     negative rho (up, down):  1.542E-03 2.435E-03

     total cpu time spent up to now is     2831.1 secs

     total energy              =   -3111.38273926 Ry
     estimated scf accuracy    <       0.00256000 Ry

     total magnetization       =    -3.60 Bohr mag/cell
     absolute magnetization    =    12.45 Bohr mag/cell

     iteration # 55     ecut=   100.00 Ry     beta= 0.10
     CG style diagonalization

---- Real-time Memory Report at c_bands before calling an iterative solver
           352 MiB given to the printing process from OS
           234 MiB allocation reported by mallinfo(arena+hblkhd)
        121837 MiB available memory on the node where the printing process lives
------------------
     ethr =  5.66E-07,  avg # of iterations =  3.2

     negative rho (up, down):  1.502E-03 2.487E-03

     total cpu time spent up to now is     2872.9 secs

     total energy              =   -3111.38234676 Ry
     estimated scf accuracy    <       0.00304980 Ry

     total magnetization       =    -3.42 Bohr mag/cell
     absolute magnetization    =    12.38 Bohr mag/cell

     iteration # 56     ecut=   100.00 Ry     beta= 0.10
     CG style diagonalization

---- Real-time Memory Report at c_bands before calling an iterative solver
           352 MiB given to the printing process from OS
           234 MiB allocation reported by mallinfo(arena+hblkhd)
        122635 MiB available memory on the node where the printing process lives
------------------
     ethr =  5.66E-07,  avg # of iterations =  3.9

     negative rho (up, down):  1.480E-03 2.520E-03

     total cpu time spent up to now is     2925.3 secs

     total energy              =   -3111.38557239 Ry
     estimated scf accuracy    <       0.00238477 Ry

     total magnetization       =    -4.06 Bohr mag/cell
     absolute magnetization    =    12.38 Bohr mag/cell

     iteration # 57     ecut=   100.00 Ry     beta= 0.10
     CG style diagonalization

---- Real-time Memory Report at c_bands before calling an iterative solver
           352 MiB given to the printing process from OS
           234 MiB allocation reported by mallinfo(arena+hblkhd)
        121499 MiB available memory on the node where the printing process lives
------------------
     ethr =  5.66E-07,  avg # of iterations =  3.8

     negative rho (up, down):  1.477E-03 2.473E-03

     total cpu time spent up to now is     2978.4 secs

     total energy              =   -3111.38084785 Ry
     estimated scf accuracy    <       0.00269265 Ry

     total magnetization       =    -4.48 Bohr mag/cell
     absolute magnetization    =    12.31 Bohr mag/cell

     iteration # 58     ecut=   100.00 Ry     beta= 0.10
     CG style diagonalization

---- Real-time Memory Report at c_bands before calling an iterative solver
           352 MiB given to the printing process from OS
           234 MiB allocation reported by mallinfo(arena+hblkhd)
        122085 MiB available memory on the node where the printing process lives
------------------
     ethr =  5.66E-07,  avg # of iterations =  4.0

     negative rho (up, down):  1.458E-03 2.586E-03

     total cpu time spent up to now is     3034.5 secs

     total energy              =   -3111.37577566 Ry
     estimated scf accuracy    <       0.00341892 Ry

     total magnetization       =    -3.83 Bohr mag/cell
     absolute magnetization    =    12.54 Bohr mag/cell

     iteration # 59     ecut=   100.00 Ry     beta= 0.10
     CG style diagonalization

---- Real-time Memory Report at c_bands before calling an iterative solver
           352 MiB given to the printing process from OS
           234 MiB allocation reported by mallinfo(arena+hblkhd)
        121352 MiB available memory on the node where the printing process lives
------------------
     ethr =  5.66E-07,  avg # of iterations =  4.7

     negative rho (up, down):  1.453E-03 2.489E-03

     total cpu time spent up to now is     3097.6 secs

     total energy              =   -3111.37966288 Ry
     estimated scf accuracy    <       0.00338270 Ry

     total magnetization       =    -5.15 Bohr mag/cell
     absolute m