
     Program PWSCF v.7.4 starts on 30Oct2025 at 21:13: 3 

     This program is part of the open-source Quantum ESPRESSO suite
     for quantum simulation of materials; please cite
         "P. Giannozzi et al., J. Phys.:Condens. Matter 21 395502 (2009);
         "P. Giannozzi et al., J. Phys.:Condens. Matter 29 465901 (2017);
         "P. Giannozzi et al., J. Chem. Phys. 152 154105 (2020);
          URL http://www.quantum-espresso.org", 
     in publications or presentations arising from this work. More details at
     http://www.quantum-espresso.org/quote

     Parallel version (MPI & OpenMP), running on      16 processor cores
     Number of MPI processes:                16
     Threads/MPI process:                     1

     MPI processes distributed on     1 nodes
     195371 MiB available memory on the printing compute node when the environment starts

     Reading input from TiFe2_hex.in
Warning: card / ignored

     Current dimensions of program PWSCF are:
     Max number of different atomic species (ntypx) = 10
     Max number of k-points (npk) =  40000
     Max angular momentum in pseudopotentials (lmaxx) =  4
     file Fe.pbe-spn-kjpaw_psl.0.2.1.UPF: wavefunction(s)  3D renormalized
     file Fe.pbe-spn-kjpaw_psl.0.2.1.UPF: wavefunction(s)  3D renormalized

     IMPORTANT: XC functional enforced from input :
     Exchange-correlation= PBE
                           (   1   4   3   4   0   0   0)
     Any further DFT definition will be discarded
     Please, verify this is what you really want

     Message from routine setup:
     using ibrav=0 with symmetry is DISCOURAGED, use correct ibrav instead

     R & G space division:  proc/nbgrp/npool/nimage =      16
     Subspace diagonalization in iterative solution of the eigenvalue problem:
     a serial algorithm will be used


     Parallelization info
     --------------------
     sticks:   dense  smooth     PW     G-vecs:    dense   smooth      PW
     Min         289     144     39                25687     9076    1301
     Max         291     150     40                25691     9077    1306
     Sum        4639    2335    637               411019   145217   20881

     Using Slab Decomposition



     bravais-lattice index     =            0
     lattice parameter (alat)  =       9.1568  a.u.
     unit-cell volume          =    1075.5644 (a.u.)^3
     number of atoms/cell      =           12
     number of atomic types    =            3
     number of electrons       =       176.00
     number of Kohn-Sham states=          106
     kinetic-energy cutoff     =     100.0000  Ry
     charge density cutoff     =     800.0000  Ry
     scf convergence threshold =      1.0E-06
     mixing beta               =       0.3000
     number of iterations used =            8  local-TF  mixing
     Exchange-correlation= PBE
                           (   1   4   3   4   0   0   0)

     celldm(1)=   9.156781  celldm(2)=   0.000000  celldm(3)=   0.000000
     celldm(4)=   0.000000  celldm(5)=   0.000000  celldm(6)=   0.000000

     crystal axes: (cart. coord. in units of alat)
               a(1) = (   1.000000   0.000000   0.000000 )  
               a(2) = (  -0.500000   0.866025   0.000000 )  
               a(3) = (   0.000000   0.000000   1.617623 )  

     reciprocal axes: (cart. coord. in units 2 pi/alat)
               b(1) = (  1.000000  0.577350 -0.000000 )  
               b(2) = (  0.000000  1.154701  0.000000 )  
               b(3) = (  0.000000 -0.000000  0.618191 )  


     PseudoPot. # 1 for Fe read from file:
     ../../pseudos/Fe.pbe-spn-kjpaw_psl.0.2.1.UPF
     MD5 check sum: e86618425769142926afa95317d90200
     Pseudo is Projector augmented-wave + core cor, Zval = 16.0
     Generated using "atomic" code by A. Dal Corso  v.5.0.99 svn rev. 10869
     Shape of augmentation charge: PSQ
     Using radial grid of 1191 points,  6 beta functions with: 
                l(1) =   0
                l(2) =   0
                l(3) =   1
                l(4) =   1
                l(5) =   2
                l(6) =   2
     Q(r) pseudized with 0 coefficients 


     PseudoPot. # 2 for Fe read from file:
     ../../pseudos/Fe.pbe-spn-kjpaw_psl.0.2.1.UPF
     MD5 check sum: e86618425769142926afa95317d90200
     Pseudo is Projector augmented-wave + core cor, Zval = 16.0
     Generated using "atomic" code by A. Dal Corso  v.5.0.99 svn rev. 10869
     Shape of augmentation charge: PSQ
     Using radial grid of 1191 points,  6 beta functions with: 
                l(1) =   0
                l(2) =   0
                l(3) =   1
                l(4) =   1
                l(5) =   2
                l(6) =   2
     Q(r) pseudized with 0 coefficients 


     PseudoPot. # 3 for Ti read from file:
     ../../pseudos/ti_pbe_v1.4.uspp.F.UPF
     MD5 check sum: 88a00a6731bd790ddea75d31a80cb452
     Pseudo is Ultrasoft + core correction, Zval = 12.0
     Generated by new atomic code, or converted to UPF format
     Using radial grid of  851 points,  6 beta functions with: 
                l(1) =   0
                l(2) =   0
                l(3) =   1
                l(4) =   1
                l(5) =   2
                l(6) =   2
     Q(r) pseudized with  6 coefficients,  rinner =    1.000   1.000   1.000
                                                       1.000   1.000

     atomic species   valence    mass     pseudopotential
     Fe_up            16.00    55.84500     Fe( 1.00)
     Fe_dn            16.00    55.84500     Fe( 1.00)
     Ti               12.00    47.86700     Ti( 1.00)

     Starting magnetic structure 
     atomic species   magnetization
     Fe_up           0.062
     Fe_dn          -0.062
     Ti              0.000

     24 Sym. Ops., with inversion, found (12 have fractional translation)



   Cartesian axes

     site n.     atom                  positions (alat units)
         1        Fe_dn  tau(   1) = (   0.7465670   0.1463196   0.4044057  )
         2        Fe_dn  tau(   2) = (  -0.2465670   0.7197058   1.2132171  )
         3        Fe_dn  tau(   3) = (  -0.0000000   0.2926392   1.2132171  )
         4        Fe_dn  tau(   4) = (   0.2534330   0.1463196   0.4044057  )
         5        Fe_dn  tau(   5) = (   0.5000000   0.5733862   0.4044057  )
         6        Fe_dn  tau(   6) = (   0.2465670   0.7197058   1.2132171  )
         7        Fe_up  tau(   7) = (   0.0000000   0.0000000   0.0000000  )
         8        Fe_up  tau(   8) = (   0.0000000   0.0000000   0.8088114  )
         9        Ti     tau(   9) = (   0.5000000   0.2886751   1.5200090  )
        10        Ti     tau(  10) = (  -0.0000000   0.5773503   0.7111976  )
        11        Ti     tau(  11) = (  -0.0000000   0.5773503   0.0976138  )
        12        Ti     tau(  12) = (   0.5000000   0.2886751   0.9064252  )

     number of k points=    40  Marzari-Vanderbilt smearing, width (Ry)=  0.0200
                       cart. coord. in units 2pi/alat
        k(    1) = (   0.0000000   0.0000000   0.0000000), wk =   0.0026042
        k(    2) = (   0.0000000   0.0000000   0.1030318), wk =   0.0052083
        k(    3) = (   0.0000000   0.0000000   0.2060637), wk =   0.0052083
        k(    4) = (   0.0000000   0.0000000  -0.3090955), wk =   0.0026042
        k(    5) = (   0.0000000   0.1443376   0.0000000), wk =   0.0156250
        k(    6) = (   0.0000000   0.1443376   0.1030318), wk =   0.0312500
        k(    7) = (   0.0000000   0.1443376   0.2060637), wk =   0.0312500
        k(    8) = (   0.0000000   0.1443376  -0.3090955), wk =   0.0156250
        k(    9) = (   0.0000000   0.2886751   0.0000000), wk =   0.0156250
        k(   10) = (   0.0000000   0.2886751   0.1030318), wk =   0.0312500
        k(   11) = (   0.0000000   0.2886751   0.2060637), wk =   0.0312500
        k(   12) = (   0.0000000   0.2886751  -0.3090955), wk =   0.0156250
        k(   13) = (   0.0000000   0.4330127   0.0000000), wk =   0.0156250
        k(   14) = (   0.0000000   0.4330127   0.1030318), wk =   0.0312500
        k(   15) = (   0.0000000   0.4330127   0.2060637), wk =   0.0312500
        k(   16) = (   0.0000000   0.4330127  -0.3090955), wk =   0.0156250
        k(   17) = (   0.0000000  -0.5773503   0.0000000), wk =   0.0078125
        k(   18) = (   0.0000000  -0.5773503   0.1030318), wk =   0.0156250
        k(   19) = (   0.0000000  -0.5773503   0.2060637), wk =   0.0156250
        k(   20) = (   0.0000000  -0.5773503  -0.3090955), wk =   0.0078125
        k(   21) = (   0.1250000   0.2165064   0.0000000), wk =   0.0156250
        k(   22) = (   0.1250000   0.2165064   0.1030318), wk =   0.0312500
        k(   23) = (   0.1250000   0.2165064   0.2060637), wk =   0.0312500
        k(   24) = (   0.1250000   0.2165064  -0.3090955), wk =   0.0156250
        k(   25) = (   0.1250000   0.3608439   0.0000000), wk =   0.0312500
        k(   26) = (   0.1250000   0.3608439   0.1030318), wk =   0.0625000
        k(   27) = (   0.1250000   0.3608439   0.2060637), wk =   0.0625000
        k(   28) = (   0.1250000   0.3608439  -0.3090955), wk =   0.0312500
        k(   29) = (   0.1250000   0.5051815   0.0000000), wk =   0.0312500
        k(   30) = (   0.1250000   0.5051815   0.1030318), wk =   0.0625000
        k(   31) = (   0.1250000   0.5051815   0.2060637), wk =   0.0625000
        k(   32) = (   0.1250000   0.5051815  -0.3090955), wk =   0.0312500
        k(   33) = (   0.2500000   0.4330127   0.0000000), wk =   0.0156250
        k(   34) = (   0.2500000   0.4330127   0.1030318), wk =   0.0312500
        k(   35) = (   0.2500000   0.4330127   0.2060637), wk =   0.0312500
        k(   36) = (   0.2500000   0.4330127  -0.3090955), wk =   0.0156250
        k(   37) = (   0.2500000   0.5773503   0.0000000), wk =   0.0156250
        k(   38) = (   0.2500000   0.5773503   0.1030318), wk =   0.0312500
        k(   39) = (   0.2500000   0.5773503   0.2060637), wk =   0.0312500
        k(   40) = (   0.2500000   0.5773503  -0.3090955), wk =   0.0156250

     Dense  grid:   411019 G-vectors     FFT dimensions: (  90,  90, 144)

     Smooth grid:   145217 G-vectors     FFT dimensions: (  60,  60,  96)

     Estimated max dynamical RAM per process >     266.61 MB

     Estimated total dynamical RAM >       4.17 GB

     Check: negative core charge=   -0.000014
     Generating pointlists ...
     new r_m :   0.2059 (alat units)  1.8855 (a.u.) for type    1
     new r_m :   0.2034 (alat units)  1.8627 (a.u.) for type    2
     new r_m :   0.2381 (alat units)  2.1799 (a.u.) for type    3

     Initial potential from superposition of free atoms

     starting charge     171.9963, renormalised to     176.0000

     negative rho (up, down):  2.975E-03 2.969E-03
     Starting wfcs are  144 randomized atomic wfcs
     Checking if some PAW data can be deallocated... 

     total cpu time spent up to now is       12.0 secs

     per-process dynamical memory:   296.7 Mb

     Self-consistent Calculation

     iteration #  1     ecut=   100.00 Ry     beta= 0.30
     Davidson diagonalization with overlap
     ethr =  1.00E-02,  avg # of iterations =  2.0

     negative rho (up, down):  1.664E-04 1.629E-04

     total cpu time spent up to now is       35.4 secs

     total energy              =   -3101.02504304 Ry
     estimated scf accuracy    <     116.52019317 Ry

     total magnetization       =    -1.60 Bohr mag/cell
     absolute magnetization    =     4.66 Bohr mag/cell

     iteration #  2     ecut=   100.00 Ry     beta= 0.30
     Davidson diagonalization with overlap
     ethr =  1.00E-02,  avg # of iterations =  5.9

     negative rho (up, down):  4.530E-04 4.467E-04

     total cpu time spent up to now is       65.0 secs

     total energy              =   -3111.46660033 Ry
     estimated scf accuracy    <       8.05300165 Ry

     total magnetization       =    -2.55 Bohr mag/cell
     absolute magnetization    =     5.84 Bohr mag/cell

     iteration #  3     ecut=   100.00 Ry     beta= 0.30
     Davidson diagonalization with overlap
     ethr =  4.58E-03,  avg # of iterations =  1.7

     negative rho (up, down):  3.687E-04 3.578E-04

     total cpu time spent up to now is       84.6 secs

     total energy              =   -3111.76749972 Ry
     estimated scf accuracy    <       2.41454720 Ry

     total magnetization       =    -3.27 Bohr mag/cell
     absolute magnetization    =     6.71 Bohr mag/cell

     iteration #  4     ecut=   100.00 Ry     beta= 0.30
     Davidson diagonalization with overlap
     ethr =  1.37E-03,  avg # of iterations =  5.0

     negative rho (up, down):  2.083E-04 1.985E-04

     total cpu time spent up to now is      108.7 secs

     total energy              =   -3112.13835481 Ry
     estimated scf accuracy    <       2.87965128 Ry

     total magnetization       =    -3.23 Bohr mag/cell
     absolute magnetization    =     6.46 Bohr mag/cell

     iteration #  5     ecut=   100.00 Ry     beta= 0.30
     Davidson diagonalization with overlap
     ethr =  1.37E-03,  avg # of iterations =  2.0

     negative rho (up, down):  1.610E-03 1.779E-03

     total cpu time spent up to now is      128.3 secs

     total energy              =   -3111.08770585 Ry
     estimated scf accuracy    <       4.06879993 Ry

     total magnetization       =    -2.59 Bohr mag/cell
     absolute magnetization    =     5.76 Bohr mag/cell

     iteration #  6     ecut=   100.00 Ry     beta= 0.30
     Davidson diagonalization with overlap
     ethr =  1.37E-03,  avg # of iterations =  2.5

     negative rho (up, down):  2.098E-03 2.318E-03

     total cpu time spent up to now is      153.3 secs

     total energy              =   -3111.24852275 Ry
     estimated scf accuracy    <       3.47633959 Ry

     total magnetization       =    -4.17 Bohr mag/cell
     absolute magnetization    =     8.21 Bohr mag/cell

     iteration #  7     ecut=   100.00 Ry     beta= 0.30
     Davidson diagonalization with overlap
     ethr =  1.37E-03,  avg # of iterations =  1.8

     negative rho (up, down):  2.292E-03 2.468E-03

     total cpu time spent up to now is      173.0 secs

     total energy              =   -3111.38091383 Ry
     estimated scf accuracy    <       0.24911215 Ry

     total magnetization       =    -4.25 Bohr mag/cell
     absolute magnetization    =     9.25 Bohr mag/cell

     iteration #  8     ecut=   100.00 Ry     beta= 0.30
     Davidson diagonalization with overlap
     ethr =  1.42E-04,  avg # of iterations =  6.5

     negative rho (up, down):  2.256E-03 2.539E-03

     total cpu time spent up to now is      206.5 secs

     total energy              =   -3111.45621112 Ry
     estimated scf accuracy    <       0.40293292 Ry

     total magnetization       =    -4.26 Bohr mag/cell
     absolute magnetization    =     9.59 Bohr mag/cell

     iteration #  9     ecut=   100.00 Ry     beta= 0.30
     Davidson diagonalization with overlap
     ethr =  1.42E-04,  avg # of iterations =  1.2

     negative rho (up, down):  1.974E-03 2.515E-03

     total cpu time spent up to now is      225.2 secs

     total energy              =   -3111.47190867 Ry
     estimated scf accuracy    <       1.01846729 Ry

     total magnetization       =    -4.33 Bohr mag/cell
     absolute magnetization    =    10.07 Bohr mag/cell

     iteration # 10     ecut=   100.00 Ry     beta= 0.30
     Davidson diagonalization with overlap
     ethr =  1.42E-04,  avg # of iterations =  1.5

     negative rho (up, down):  1.468E-03 2.316E-03

     total cpu time spent up to now is      244.3 secs

     total energy              =   -3111.40058225 Ry
     estimated scf accuracy    <       1.44533454 Ry

     total magnetization       =    -4.51 Bohr mag/cell
     absolute magnetization    =    10.85 Bohr mag/cell

     iteration # 11     ecut=   100.00 Ry     beta= 0.30
     Davidson diagonalization with overlap
     ethr =  1.42E-04,  avg # of iterations =  1.3

     negative rho (up, down):  1.508E-03 2.363E-03

     total cpu time spent up to now is      263.1 secs

     total energy              =   -3111.42477370 Ry
     estimated scf accuracy    <       0.58777524 Ry

     total magnetization       =    -4.52 Bohr mag/cell
     absolute magnetization    =    11.23 Bohr mag/cell

     iteration # 12     ecut=   100.00 Ry     beta= 0.30
     Davidson diagonalization with overlap
     ethr =  1.42E-04,  avg # of iterations =  1.0

     negative rho (up, down):  1.623E-03 2.392E-03

     total cpu time spent up to now is      281.2 secs

     total energy              =   -3111.43413655 Ry
     estimated scf accuracy    <       0.78768565 Ry

     total magnetization       =    -4.53 Bohr mag/cell
     absolute magnetization    =    11.33 Bohr mag/cell

     iteration # 13     ecut=   100.00 Ry     beta= 0.30
     Davidson diagonalization with overlap
     ethr =  1.42E-04,  avg # of iterations =  1.1

     negative rho (up, down):  1.699E-03 2.544E-03

     total cpu time spent up to now is      299.5 secs

     total energy              =   -3111.42453040 Ry
     estimated scf accuracy    <       0.77493989 Ry

     total magnetization       =    -4.54 Bohr mag/cell
     absolute magnetization    =    11.31 Bohr mag/cell

     iteration # 14     ecut=   100.00 Ry     beta= 0.30
     Davidson diagonalization with overlap
     ethr =  1.42E-04,  avg # of iterations =  1.0

     negative rho (up, down):  1.592E-03 2.527E-03

     total cpu time spent up to now is      317.6 secs

     total energy              =   -3111.35380320 Ry
     estimated scf accuracy    <       0.82278947 Ry

     total magnetization       =    -4.54 Bohr mag/cell
     absolute magnetization    =    11.25 Bohr mag/cell

     iteration # 15     ecut=   100.00 Ry     beta= 0.30
     Davidson diagonalization with overlap
     ethr =  1.42E-04,  avg # of iterations =  2.3

     negative rho (up, down):  1.528E-03 2.519E-03

     total cpu time spent up to now is      338.5 secs

     total energy              =   -3111.37824296 Ry
     estimated scf accuracy    <       0.05145288 Ry

     total magnetization       =    -4.52 Bohr mag/cell
     absolute magnetization    =    10.71 Bohr mag/cell

     iteration # 16     ecut=   100.00 Ry     beta= 0.30
     Davidson diagonalization with overlap
     ethr =  2.92E-05,  avg # of iterations =  5.5

     negative rho (up, down):  1.513E-03 2.501E-03

     total cpu time spent up to now is      365.0 secs

     total energy              =   -3111.38430095 Ry
     estimated scf accuracy    <       0.00472855 Ry

     total magnetization       =    -4.60 Bohr mag/cell
     absolute magnetization    =    10.59 Bohr mag/cell

     iteration # 17     ecut=   100.00 Ry     beta= 0.30
     Davidson diagonalization with overlap
     c_bands:  1 eigenvalues not converged
     c_bands:  1 eigenvalues not converged
     c_bands:  1 eigenvalues not converged
     ethr =  2.69E-06,  avg # of iterations =  6.9

     negative rho (up, down):  1.503E-03 2.495E-03

     total cpu time spent up to now is      395.7 secs

     total energy              =   -3111.38558835 Ry
     estimated scf accuracy    <       0.00344165 Ry

     total magnetization       =    -4.63 Bohr mag/cell
     absolute magnetization    =    10.65 Bohr mag/cell

     iteration # 18     ecut=   100.00 Ry     beta= 0.30
     Davidson diagonalization with overlap
     ethr =  1.96E-06,  avg # of iterations =  2.2

     negative rho (up, down):  1.480E-03 2.562E-03

     total cpu time spent up to now is      415.9 secs

     total energy              =   -3111.38547194 Ry
     estimated scf accuracy    <       0.01127710 Ry

     total magnetization       =    -4.58 Bohr mag/cell
     absolute magnetization    =    10.56 Bohr mag/cell

     iteration # 19     ecut=   100.00 Ry     beta= 0.30
     Davidson diagonalization with overlap
     ethr =  1.96E-06,  avg # of iterations =  2.2

     negative rho (up, down):  1.451E-03 2.576E-03

     total cpu time spent up to now is      436.7 secs

     total energy              =   -3111.38653403 Ry
     estimated scf accuracy    <       0.00366717 Ry

     total magnetization       =    -4.90 Bohr mag/cell
     absolute magnetization    =    10.84 Bohr mag/cell

     iteration # 20     ecut=   100.00 Ry     beta= 0.30
     Davidson diagonalization with overlap
     ethr =  1.96E-06,  avg # of iterations =  1.8

     negative rho (up, down):  1.425E-03 2.521E-03

     total cpu time spent up to now is      456.5 secs

     total energy              =   -3111.38573532 Ry
     estimated scf accuracy    <       0.00308575 Ry

     total magnetization       =    -5.07 Bohr mag/cell
     absolute magnetization    =    10.95 Bohr mag/cell

     iteration # 21     ecut=   100.00 Ry     beta= 0.30
     Davidson diagonalization with overlap
     ethr =  1.75E-06,  avg # of iterations =  2.6

     negative rho (up, down):  1.437E-03 2.502E-03

     total cpu time spent up to now is      479.6 secs

     total energy              =   -3111.38554338 Ry
     estimated scf accuracy    <       0.00367498 Ry

     total magnetization       =    -5.02 Bohr mag/cell
     absolute magnetization    =    11.17 Bohr mag/cell

     iteration # 22     ecut=   100.00 Ry     beta= 0.30
     Davidson diagonalization with overlap
     ethr =  1.75E-06,  avg # of iterations =  1.4

     negative rho (up, down):  1.529E-03 2.573E-03

     total cpu time spent up to now is      498.5 secs

     total energy              =   -3111.38522323 Ry
     estimated scf accuracy    <       0.00242546 Ry

     total magnetization       =    -4.83 Bohr mag/cell
     absolute magnetization    =    11.20 Bohr mag/cell

     iteration # 23     ecut=   100.00 Ry     beta= 0.30
     Davidson diagonalization with overlap
     ethr =  1.38E-06,  avg # of iterations =  4.9

     negative rho (up, down):  1.498E-03 2.543E-03

     total cpu time spent up to now is      527.3 secs

     total energy              =   -3111.38511132 Ry
     estimated scf accuracy    <       0.00252247 Ry

     total magnetization       =    -5.13 Bohr mag/cell
     absolute magnetization    =    10.99 Bohr mag/cell

     iteration # 24     ecut=   100.00 Ry     beta= 0.30
     Davidson diagonalization with overlap
     ethr =  1.38E-06,  avg # of iterations =  4.2

     negative rho (up, down):  1.582E-03 2.577E-03

     total cpu time spent up to now is      551.8 secs

     total energy              =   -3111.38546830 Ry
     estimated scf accuracy    <       0.00574910 Ry

     total magnetization       =    -4.91 Bohr mag/cell
     absolute magnetization    =    10.92 Bohr mag/cell

     iteration # 25     ecut=   100.00 Ry     beta= 0.30
     Davidson diagonalization with overlap
     ethr =  1.38E-06,  avg # of iterations =  5.3

     negative rho (up, down):  1.555E-03 2.561E-03

     total cpu time spent up to now is      583.3 secs

     total energy              =   -3111.38573376 Ry
     estimated scf accuracy    <       0.01249232 Ry

     total magnetization       =    -5.05 Bohr mag/cell
     absolute magnetization    =    11.01 Bohr mag/cell

     iteration # 26     ecut=   100.00 Ry     beta= 0.30
     Davidson diagonalization with overlap
     ethr =  1.38E-06,  avg # of iterations =  2.7

     negative rho (up, down):  1.548E-03 2.591E-03

     total cpu time spent up to now is      604.8 secs

     total energy              =   -3111.38674334 Ry
     estimated scf accuracy    <       0.00310206 Ry

     total magnetization       =    -4.95 Bohr mag/cell
     absolute magnetization    =    10.97 Bohr mag/cell

     iteration # 27     ecut=   100.00 Ry     beta= 0.30
     Davidson diagonalization with overlap
     ethr =  1.38E-06,  avg # of iterations =  3.2

     negative rho (up, down):  1.499E-03 2.487E-03

     total cpu time spent up to now is      627.5 secs

     total energy              =   -3111.37754026 Ry
     estimated scf accuracy    <       0.01874554 Ry

     total magnetization       =    -4.92 Bohr mag/cell
     absolute magnetization    =    11.29 Bohr mag/cell

     iteration # 28     ecut=   100.00 Ry     beta= 0.30
     Davidson diagonalization with overlap
     ethr =  1.38E-06,  avg # of iterations =  5.1

     negative rho (up, down):  1.500E-03 2.456E-03

     total cpu time spent up to now is      660.6 secs

     total energy              =   -3111.37801927 Ry
     estimated scf accuracy    <       0.00059166 Ry

     total magnetization       =    -4.12 Bohr mag/cell
     absolute magnetization    =    11.34 Bohr mag/cell

     iteration # 29     ecut=   100.00 Ry     beta= 0.30
     Davidson diagonalization with overlap
     ethr =  3.36E-07,  avg # of iterations =  6.0

     negative rho (up, down):  1.527E-03 2.448E-03

     total cpu time spent up to now is      697.7 secs

     total energy              =   -3111.38111954 Ry
     estimated scf accuracy    <       0.00399788 Ry

     total magnetization       =    -3.45 Bohr mag/cell
     absolute magnetization    =    11.58 Bohr mag/cell

     iteration # 30     ecut=   100.00 Ry     beta= 0.30
     Davidson diagonalization with overlap
     ethr =  3.36E-07,  avg # of iterations =  5.0

     negative rho (up, down):  1.494E-03 2.489E-03

     total cpu time spent up to now is      726.3 secs

     total energy              =   -3111.37993942 Ry
     estimated scf accuracy    <       0.00430567 Ry

     total magnetization       =    -3.14 Bohr mag/cell
     absolute magnetization    =    11.66 Bohr mag/cell

     iteration # 31     ecut=   100.00 Ry     beta= 0.30
     Davidson diagonalization with overlap
     ethr =  3.36E-07,  avg # of iterations =  5.8

     negative rho (up, down):  1.476E-03 2.512E-03

     total cpu time spent up to now is      759.8 secs

     total energy              =   -3111.38340008 Ry
     estimated scf accuracy    <       0.00039574 Ry

     total magnetization       =    -3.76 Bohr mag/cell
     absolute magnetization    =    11.62 Bohr mag/cell

     iteration # 32     ecut=   100.00 Ry     beta= 0.30
     Davidson diagonalization with overlap
     ethr =  2.25E-07,  avg # of iterations =  4.7

     negative rho (up, down):  1.437E-03 2.531E-03

     total cpu time spent up to now is      787.4 secs

     total energy              =   -3111.38395400 Ry
     estimated scf accuracy    <       0.00027255 Ry

     total magnetization       =    -3.98 Bohr mag/cell
     absolute magnetization    =    11.63 Bohr mag/cell

     iteration # 33     ecut=   100.00 Ry     beta= 0.30
     Davidson diagonalization with overlap
     ethr =  1.55E-07,  avg # of iterations =  4.5

     negative rho (up, down):  1.407E-03 2.550E-03

     total cpu time spent up to now is      814.8 secs

     total energy              =   -3111.38430584 Ry
     estimated scf accuracy    <       0.00026458 Ry

     total magnetization       =    -4.18 Bohr mag/cell
     absolute magnetization    =    11.71 Bohr mag/cell

     iteration # 34     ecut=   100.00 Ry     beta= 0.30
     Davidson diagonalization with overlap
     c_bands:  1 eigenvalues not converged
     ethr =  1.50E-07,  avg # of iterations =  4.8

     negative rho (up, down):  1.431E-03 2.507E-03

     total cpu time spent up to now is      843.6 secs

     total energy              =   -3111.38215337 Ry
     estimated scf accuracy    <       0.00041592 Ry

     total magnetization       =    -4.40 Bohr mag/cell
     absolute magnetization    =    11.72 Bohr mag/cell

     iteration # 35     ecut=   100.00 Ry     beta= 0.30
     Davidson diagonalization with overlap
     ethr =  1.50E-07,  avg # of iterations =  5.1

     negative rho (up, down):  1.477E-03 2.468E-03

     total cpu time spent up to now is      876.0 secs

     total energy              =   -3111.38052436 Ry
     estimated scf accuracy    <       0.00099046 Ry

     total magnetization       =    -3.96 Bohr mag/cell
     absolute magnetization    =    11.82 Bohr mag/cell

     iteration # 36     ecut=   100.00 Ry     beta= 0.30
     Davidson diagonalization with overlap
     ethr =  1.50E-07,  avg # of iterations =  5.7

     negative rho (up, down):  1.390E-03 2.602E-03

     total cpu time spent up to now is      909.9 secs

     total energy              =   -3111.37461499 Ry
     estimated scf accuracy    <       0.00086044 Ry

     total magnetization       =    -3.48 Bohr mag/cell
     absolute magnetization    =    11.87 Bohr mag/cell

     iteration # 37     ecut=   100.00 Ry     beta= 0.30
     Davidson diagonalization with overlap
     ethr =  1.50E-07,  avg # of iterations =  7.9

     negative rho (up, down):  1.248E-03 2.757E-03

     total cpu time spent up to now is      953.9 secs

     total energy              =   -3111.36928299 Ry
     estimated scf accuracy    <       0.00235170 Ry

     total magnetization       =    -4.58 Bohr mag/cell
     absolute magnetization    =    11.85 Bohr mag/cell

     iteration # 38     ecut=   100.00 Ry     beta= 0.30
     Davidson diagonalization with overlap
     ethr =  1.50E-07,  avg # of iterations =  8.8

     negative rho (up, down):  1.377E-03 2.635E-03

     total cpu time spent up to now is     1003.6 secs

     total energy              =   -3111.36599840 Ry
     estimated scf accuracy    <       0.01397575 Ry

     total magnetization       =    -6.26 Bohr mag/cell
     absolute magnetization    =    11.60 Bohr mag/cell

     iteration # 39     ecut=   100.00 Ry     beta= 0.30
     Davidson diagonalization with overlap
     ethr =  1.50E-07,  avg # of iterations =  8.8

     negative rho (up, down):  1.374E-03 2.634E-03

     total cpu time spent up to now is     1051.3 secs

     total energy              =   -3111.38572081 Ry
     estimated scf accuracy    <       0.00121376 Ry

     total magnetization       =    -4.73 Bohr mag/cell
     absolute magnetization    =    11.90 Bohr mag/cell

     iteration # 40     ecut=   100.00 Ry     beta= 0.30
     Davidson diagonalization with overlap
     ethr =  1.50E-07,  avg # of iterations =  2.4

     negative rho (up, down):  1.330E-03 2.693E-03

     total cpu time spent up to now is     1072.4 secs

     total energy              =   -3111.38582664 Ry
     estimated scf accuracy    <       0.00117121 Ry

     total magnetization       =    -4.84 Bohr mag/cell
     absolute magnetization    =    11.84 Bohr mag/cell

     iteration # 41     ecut=   100.00 Ry     beta= 0.30
     Davidson diagonalization with overlap
     ethr =  1.50E-07,  avg # of iterations =  5.0

     negative rho (up, down):  1.425E-03 2.608E-03

     total cpu time spent up to now is     1104.1 secs

     total energy              =   -3111.37474965 Ry
     estimated scf accuracy    <       0.00275357 Ry

     total magnetization       =    -5.16 Bohr mag/cell
     absolute magnetization    =    11.90 Bohr mag/cell

     iteration # 42     ecut=   100.00 Ry     beta= 0.30
     Davidson diagonalization with overlap
     ethr =  1.50E-07,  avg # of iterations =  7.7

     negative rho (up, down):  1.505E-03 2.539E-03

     total cpu time spent up to now is     1146.7 secs

     total energy              =   -3111.37642459 Ry
     estimated scf accuracy    <       0.00139759 Ry

     total magnetization       =    -4.12 Bohr mag/cell
     absolute magnetization    =    12.05 Bohr mag/cell

     iteration # 43     ecut=   100.00 Ry     beta= 0.30
     Davidson diagonalization with overlap
     ethr =  1.50E-07,  avg # of iterations =  7.1

     negative rho (up, down):  1.727E-03 2.393E-03

     total cpu time spent up to now is     1188.3 secs

     total energy              =   -3111.32902256 Ry
     estimated scf accuracy    <       0.00213988 Ry

     total magnetization       =    -3.32 Bohr mag/cell
     absolute magnetization    =    12.08 Bohr mag/cell

     iteration # 44     ecut=   100.00 Ry     beta= 0.30
     Davidson diagonalization with overlap
     c_bands:  1 eigenvalues not converged
     ethr =  1.50E-07,  avg # of iterations =  9.9

     negative rho (up, down):  1.634E-03 2.448E-03

     total cpu time spent up to now is     1245.5 secs

     total energy              =   -3111.37091314 Ry
     estimated scf accuracy    <       0.01931210 Ry

     total magnetization       =    -1.32 Bohr mag/cell
     absolute magnetization    =    12.12 Bohr mag/cell

     iteration # 45     ecut=   100.00 Ry     beta= 0.30
     Davidson diagonalization with overlap
     ethr =  1.50E-07,  avg # of iterations =  7.1

     negative rho (up, down):  1.623E-03 2.460E-03

     total cpu time spent up to now is     1287.0 secs

     total energy              =   -3111.37680127 Ry
     estimated scf accuracy    <       0.00839270 Ry

     total magnetization       =    -2.08 Bohr mag/cell
     absolute magnetization    =    12.14 Bohr mag/cell

     iteration # 46     ecut=   100.00 Ry     beta= 0.30
     Davidson diagonalization with overlap
     ethr =  1.50E-07,  avg # of iterations =  4.4

     negative rho (up, down):  1.629E-03 2.458E-03

     total cpu time spent up to now is     1311.9 secs

     total energy              =   -3111.37668268 Ry
     estimated scf accuracy    <       0.00730158 Ry

     total magnetization       =    -2.19 Bohr mag/cell
     absolute magnetization    =    12.14 Bohr mag/cell

     iteration # 47     ecut=   100.00 Ry     beta= 0.30
     Davidson diagonalization with overlap
     ethr =  1.50E-07,  avg # of iterations =  1.1

     negative rho (up, down):  1.490E-03 2.527E-03

     total cpu time spent up to now is     1330.2 secs

     total energy              =   -3111.36705377 Ry
     estimated scf accuracy    <       0.00768772 Ry

     total magnetization       =    -2.16 Bohr mag/cell
     absolute magnetization    =    12.14 Bohr mag/cell

     iteration # 48     ecut=   100.00 Ry     beta= 0.30
     Davidson diagonalization with overlap
     ethr =  1.50E-07,  avg # of iterations =  8.2

     negative rho (up, down):  1.407E-03 2.605E-03

     total cpu time spent up to now is     1378.2 secs

     total energy              =   -3111.37599798 Ry
     estimated scf accuracy    <       0.00125414 Ry

     total magnetization       =    -3.52 Bohr mag/cell
     absolute magnetization    =    12.03 Bohr mag/cell

     iteration # 49     ecut=   100.00 Ry     beta= 0.30
     Davidson diagonalization with overlap
     ethr =  1.50E-07,  avg # of iterations =  7.8

     negative rho (up, down):  1.308E-03 2.726E-03

     total cpu time spent up to now is     1422.3 secs

     total energy              =   -3111.37671695 Ry
     estimated scf accuracy    <       0.00068142 Ry

     total magnetization       =    -4.54 Bohr mag/cell
     absolute magnetization    =    11.89 Bohr mag/cell

     iteration # 50     ecut=   100.00 Ry     beta= 0.30
     Davidson diagonalization with overlap
     ethr =  1.50E-07,  avg # of iterations =  8.5

     negative rho (up, down):  1.721E-03 2.398E-03

     total cpu time spent up to now is     1468.6 secs

     total energy              =   -3111.18371964 Ry
     estimated scf accuracy    <       0.00492185 Ry

     total magnetization       =    -5.76 Bohr mag/cell
     absolute magnetization    =    11.72 Bohr mag/cell

     iteration # 51     ecut=   100.00 Ry     beta= 0.30
     Davidson diagonalization with overlap
     ethr =  1.50E-07,  avg # of iterations = 12.3

     negative rho (up, down):  1.749E-03 2.382E-03

     total cpu time spent up to now is     1541.3 secs

     total energy              =   -3111.36313829 Ry
     estimated scf accuracy    <       0.01735220 Ry

     total magnetization       =    -1.37 Bohr mag/cell
     absolute magnetization    =    12.11 Bohr mag/cell

     iteration # 52     ecut=   100.00 Ry     beta= 0.30
     Davidson diagonalization with overlap
     ethr =  1.50E-07,  avg # of iterations =  5.1

     negative rho (up, down):  1.672E-03 2.424E-03

     total cpu time spent up to now is     1573.3 secs

     total energy              =   -3111.36910633 Ry
     estimated scf accuracy    <       0.02339581 Ry

     total magnetization       =    -1.07 Bohr mag/cell
     absolute magnetization    =    12.13 Bohr mag/cell

     iteration # 53     ecut=   100.00 Ry     beta= 0.30
     Davidson diagonalization with overlap
     ethr =  1.50E-07,  avg # of iterations =  6.7

     negative rho (up, down):  1.479E-03 2.544E-03

     total cpu time spent up to now is     1612.7 secs

     total energy              =   -3111.35227699 Ry
     estimated scf accuracy    <       0.01169918 Ry

     total magnetization       =    -1.69 Bohr mag/cell
     absolute magnetization    =    12.16 Bohr mag/cell

     iteration # 54     ecut=   100.00 Ry     beta= 0.30
     Davidson diagonalization with overlap
     ethr =  1.50E-07,  avg # of iterations =  9.5

     negative rho (up, down):  1.539E-03 2.505E-03

     total cpu time spent up to now is     1667.3 secs

     total energy              =   -3111.37750233 Ry
     estimated scf accuracy    <       0.00062197 Ry

     total magnetization       =    -3.61 Bohr mag/cell
     absolute magnetization    =    12.09 Bohr mag/cell

     iteration # 55     ecut=   100.00 Ry     beta= 0.30
     Davidson diagonalization with overlap
     ethr =  1.50E-07,  avg # of iterations =  6.3

     negative rho (up, down):  1.523E-03 2.512E-03

     total cpu time spent up to now is     1703.3 secs

     total energy              =   -3111.38130132 Ry
     estimated scf accuracy    <       0.00184893 Ry

     total magnetization       =    -2.99 Bohr mag/cell
     absolute magnetization    =    12.15 Bohr mag/cell

     iteration # 56     ecut=   100.00 Ry     beta= 0.30
     Davidson diagonalization with overlap
     ethr =  1.50E-07,  avg # of iterations =  2.5

     negative rho (up, down):  1.425E-03 2.586E-03

     total cpu time spent up to now is     1724.9 secs

     total energy              =   -3111.37436273 Ry
     estimated scf accuracy    <       0.00133514 Ry

     total magnetization       =    -3.13 Bohr mag/cell
     absolute magnetization    =    12.17 Bohr mag/cell

     iteration # 57     ecut=   100.00 Ry     beta= 0.30
     Davidson diagonalization with overlap
     ethr =  1.50E-07,  avg # of iterations =  7.9

     negative rho (up, down):  1.417E-03 2.594E-03

     total cpu time spent up to now is     1769.0 secs

     total energy              =   -3111.38422826 Ry
     estimated scf accuracy    <       0.00024359 Ry

     total magnetization       =    -4.20 Bohr mag/cell
     absolute magnetization    =    12.10 Bohr mag/cell

     iteration # 58     ecut=   100.00 Ry     beta= 0.30
     Davidson diagonalization with overlap
     ethr =  1.38E-07,  avg # of iterations =  3.7

     negative rho (up, down):  1.425E-03 2.585E-03

     total cpu time spent up to now is     1792.0 secs

     total energy              =   -3111.38404779 Ry
     estimated scf accuracy    <       0.00024103 Ry

     total magnetization       =    -4.29 Bohr mag/cell
     absolute magnetization    =    12.09 Bohr mag/cell

     iteration # 59     ecut=   100.00 Ry     beta= 0.30
     Davidson diagonalization with overlap
     ethr =  1.37E-07,  avg # of iterations =  2.2

     negative rho (up, down):  1.451E-03 2.561E-03

     total cpu time spent up to now is     1812.4 secs

     total energy              =   -3111.38275501 Ry
     estimated scf accuracy    <       0.00026016 Ry

     total magnetization       =    -4.19 Bohr mag/cell
     absolute magnetization    =    12.10 Bohr mag/cell

     iteration # 60     ecut=   100.00 Ry     beta= 0.30
     Davidson diagonalization with overlap
     ethr =  1.37E-07,  avg # of iterations =  5.0

     negative rho (up, down):  1.452E-03 2.561E-03

     total cpu time spent up to now is     1843.6 secs

     total energy              =   -3111.38345373 Ry
     estimated scf accuracy    <       0.00031532 Ry

     total magnetization       =    -3.90 Bohr mag/cell
     absolute magnetization    =    12.13 Bohr mag/cell

     iteration # 61     ecut=   100.00 Ry     beta= 0.30
     Davidson diagonalization with overlap
     ethr =  1.37E-07,  avg # of iterations =  1.0

     negative rho (up, down):  1.445E-03 2.571E-03

     total cpu time spent up to now is     1861.7 secs

     total energy              =   -3111.38359877 Ry
     estimated scf accuracy    <       0.00033534 Ry

     total magnetization       =    -3.88 Bohr mag/cell
     absolute magnetization    =    12.14 Bohr mag/cell

     iteration # 62     ecut=   100.00 Ry     beta= 0.30
     Davidson diagonalization with overlap
     ethr =  1.37E-07,  avg # of iterations =  2.4

     negative rho (up, down):  1.443E-03 2.578E-03

     total cpu time spent up to now is     1883.2 secs

     total energy              =   -3111.38377003 Ry
     estimated scf accuracy    <       0.00030420 Ry

     total magnetization       =    -3.99 Bohr mag/cell
     absolute magnetization    =    12.12 Bohr mag/cell

     iteration # 63     ecut=   100.00 Ry     beta= 0.30
     Davidson diagonalization with overlap
     ethr =  1.37E-07,  avg # of iterations =  2.0

     negative rho (up, down):  1.429E-03 2.594E-03

     total cpu time spent up to now is     1903.4 secs

     total energy              =   -3111.38389107 Ry
     estimated scf accuracy    <       0.00043447 Ry

     total magnetization       =    -4.01 Bohr mag/cell
     absolute magnetization    =    12.11 Bohr mag/cell

     iteration # 64     ecut=   100.00 Ry     beta= 0.30
     Davidson diagonalization with overlap
     ethr =  1.37E-07,  avg # of iterations =  4.5

     negative rho (up, down):  1.434E-03 2.591E-03

     total cpu time spent up to now is     1928.5 secs

     total energy              =   -3111.38395504 Ry
     estimated scf accuracy    <       0.00052422 Ry

     total magnetization       =    -4.12 Bohr mag/cell
     absolute magnetization    =    12.13 Bohr mag/cell

     iteration # 65     ecut=   100.00 Ry     beta= 0.30
     Davidson diagonalization with overlap
     ethr =  1.37E-07,  avg # of iterations =  1.0

     negative rho (up, down):  1.406E-03 2.632E-03

     total cpu time spent up to now is     1946.7 secs

     total energy              =   -3111.38274042 Ry
     estimated scf accuracy    <       0.00052671 Ry

     total magnetization       =    -4.09 Bohr mag/cell
     absolute magnetization    =    12.12 Bohr mag/cell

     iteration # 66     ecut=   100.00 Ry     beta= 0.30
     Davidson diagonalization with overlap
     ethr =  1.37E-07,  avg # of iterations =  5.8

     negative rho (up, down):  1.370E-03 2.664E-03

     total cpu time spent up to now is     1981.1 secs

     total energy              =   -3111.38495801 Ry
     estimated scf accuracy    <       0.00042554 Ry

     total magnetization       =    -4.60 Bohr mag/cell
     absolute magnetization    =    11.96 Bohr mag/cell

     iteration # 67     ecut=   100.00 Ry     beta= 0.30
     Davidson diagonalization with overlap
     ethr =  1.37E-07,  avg # of iterations =  5.1

     negative rho (up, down):  1.593E-03 2.472E-03

     total cpu time spent up to now is     2013.1 secs

     total energy              =   -3111.31960952 Ry
     estimated scf accuracy    <       0.00097577 Ry

     total magnetization       =    -4.95 Bohr mag/cell
     absolute magnetization    =    11.95 Bohr mag/cell

     iteration # 68     ecut=   100.00 Ry     beta= 0.30
     Davidson diagonalization with overlap
     ethr =  1.37E-07,  avg # of iterations = 10.0

     negative rho (up, down):  1.340E-03 2.682E-03

     total cpu time spent up to now is     2070.9 secs

     total energy              =   -3111.32719287 Ry
     estimated scf accuracy    <       0.00437828 Ry

     total magnetization       =    -2.46 Bohr mag/cell
     absolute magnetization    =    12.21 Bohr mag/cell

     iteration # 69     ecut=   100.00 Ry     beta= 0.30
     Davidson diagonalization with overlap
     ethr =  1.37E-07,  avg # of iterations = 10.0

     negative rho (up, down):  1.258E-03 2.770E-03

     total cpu time spent up to now is     2129.7 secs

     total energy              =   -3111.38148908 Ry
     estimated scf accuracy    <       0.00186162 Ry

     total magnetization       =    -5.14 Bohr mag/cell
     absolute magnetization    =    12.00 Bohr mag/cell

     iteration # 70     ecut=   100.00 Ry     beta= 0.30
     Davidson diagonalization with overlap
     ethr =  1.37E-07,  avg # of iterations =  7.7

     negative rho (up, down):  1.261E-03 2.764E-03

     total cpu time spent up to now is     2173.5 secs

     total energy              =   -3111.39076707 Ry
     estimated scf accuracy    <       0.01221471 Ry

     total magnetization       =    -6.23 Bohr mag/cell
     absolute magnetization    =    11.78 Bohr mag/cell

     iteration # 71     ecut=   100.00 Ry     beta= 0.30
     Davidson diagonalization with overlap
     ethr =  1.37E-07,  avg # of iterations =  1.1

     negative rho (up, down):  1.275E-03 2.751E-03

     total cpu time spent up to now is     2191.9 secs

     total energy              =   -3111.38970209 Ry
     estimated scf accuracy    <       0.01072097 Ry

     total magnetization       =    -6.19 Bohr mag/cell
     absolute magnetization    =    11.79 Bohr mag/cell

     iteration # 72     ecut=   100.00 Ry     beta= 0.30
     Davidson diagonalization with overlap
     ethr =  1.37E-07,  avg # of iterations =  3.9

     negative rho (up, down):  1.234E-03 2.797E-03

     total cpu time spent up to now is     2216.8 secs

     total energy              =   -3111.39086991 Ry
     estimated scf accuracy    <       0.00873827 Ry

     total magnetization       =    -6.01 Bohr mag/cell
     absolute magnetization    =    11.82 Bohr mag/cell

     iteration # 73     ecut=   100.00 Ry     beta= 0.30
     Davidson diagonalization with overlap
     ethr =  1.37E-07,  avg # of iterations =  5.3

     negative rho (up, down):  1.245E-03 2.784E-03

     total cpu time spent up to now is     2249.4 secs

     total energy              =   -3111.39171824 Ry
     estimated scf accuracy    <       0.01919029 Ry

     total magnetization       =    -6.48 Bohr mag/cell
     absolute magnetization    =    11.80 Bohr mag/cell

     iteration # 74     ecut=   100.00 Ry     beta= 0.30
     Davidson diagonalization with overlap
     ethr =  1.37E-07,  avg # of iterations =  2.6

     negative rho (up, down):  1.283E-03 2.741E-03

     total cpu time spent up to now is     2271.2 secs

     total energy              =   -3111.38642986 Ry
     estimated scf accuracy    <       0.01531526 Ry

     total magnetization       =    -6.37 Bohr mag/cell
     absolute magnetization    =    11.79 Bohr mag/cell

     iteration # 75     ecut=   100.00 Ry     beta= 0.30
     Davidson diagonalization with overlap
     c_bands:  1 eigenvalues not converged
     ethr =  1.37E-07,  avg # of iterations =  6.0

     negative rho (up, down):  1.348E-03 2.672E-03

     total cpu time spent up to now is     2305.9 secs

     total energy              =   -3111.37883261 Ry
     estimated scf accuracy    <       0.00776666 Ry

     total magnetization       =    -5.78 Bohr mag/cell
     absolute magnetization    =    11.87 Bohr mag/cell

     iteration # 76     ecut=   100.00 Ry     beta= 0.30
     Davidson diagonalization with overlap
     ethr =  1.37E-07,  avg # of iterations =  7.0

     negative rho (up, down):  1.384E-03 2.632E-03

     total cpu time spent up to now is     2347.4 secs

     total energy              =   -3111.38292623 Ry
     estimated scf accuracy    <       0.00288192 Ry

     total magnetization       =    -4.86 Bohr mag/cell
     absolute magnetization    =    12.04 Bohr mag/cell

     iteration # 77     ecut=   100.00 Ry     beta= 0.30
     Davidson diagonalization with overlap
     ethr =  1.37E-07,  avg # of iterations =  5.4

     negative rho (up, down):  1.482E-03 2.546E-03

     total cpu time spent up to now is     2380.8 secs

     total energy              =   -3111.37048009 Ry
     estimated scf accuracy    <       0.00204579 Ry

     total magnetization       =    -4.42 Bohr mag/cell
     absolute magnetization    =    12.11 Bohr mag/cell

     iteration # 78     ecut=   100.00 Ry     beta= 0.30
     Davidson diagonalization with overlap
     ethr =  1.37E-07,  avg # of iterations =  8.2

     negative rho (up, down):  1.535E-03 2.511E-03

     total cpu time spent up to now is     2426.9 secs

     total energy              =   -3111.37661749 Ry
     estimated scf accuracy    <       0.00330715 Ry

     total magnetization       =    -3.30 Bohr mag/cell
     absolute magnetization    =    12.23 Bohr mag/cell

     iteration # 79     ecut=   100.00 Ry     beta= 0.30
     Davidson diagonalization with overlap
     ethr =  1.37E-07,  avg # of iterations =  6.5

     negative rho (up, down):  1.518E-03 2.520E-03

     total cpu time spent up to now is     2465.5 secs

     total energy              =   -3111.38031690 Ry
     estimated scf accuracy    <       0.00640278 Ry

     total magnetization       =    -2.71 Bohr mag/cell
     absolute magnetization    =    12.27 Bohr mag/cell

     iteration # 80     ecut=   100.00 Ry     beta= 0.30
     Davidson diagonalization with overlap
     ethr =  1.37E-07,  avg # of iterations =  4.4

     negative rho (up, down):  1.497E-03 2.531E-03

     total cpu time spent up to now is     2492.8 secs

     total energy              =   -3111.38105955 Ry
     estimated scf accuracy    <       0.00432363 Ry

     total magnetization       =    -2.93 Bohr mag/cell
     absolute magnetization    =    12.25 Bohr mag/cell

     iteration # 81     ecut=   100.00 Ry     beta= 0.30
     Davidson diagonalization with overlap
     ethr =  1.37E-07,  avg # of iterations =  5.0

     negative rho (up, down):  1.508E-03 2.522E-03

     total cpu time spent up to now is     2524.1 secs

     total energy              =   -3111.38151170 Ry
     estimated scf accuracy    <       0.00239338 Ry

     total magnetization       =    -3.22 Bohr mag/cell
     absolute magnetization    =    12.22 Bohr mag/cell

     iteration # 82     ecut=   100.00 Ry     beta= 0.30
     Davidson diagonalization with overlap
     ethr =  1.37E-07,  avg # of iterations =  1.6

     negative rho (up, down):  1.493E-03 2.533E-03

     total cpu time spent up to now is     2543.6 secs

     total energy              =   -3111.38179161 Ry
     estimated scf accuracy    <       0.00199070 Ry

     total magnetization       =    -3.17 Bohr mag/cell
     absolute magnetization    =    12.21 Bohr mag/cell

     iteration # 83     ecut=   100.00 Ry     beta= 0.30
     Davidson diagonalization with overlap
     ethr =  1.37E-07,  avg # of iterations =  2.2

     negative rho (up, down):  1.478E-03 2.542E-03

     total cpu time spent up to now is     2564.8 secs

     total energy              =   -3111.38210706 Ry
     estimated scf accuracy    <       0.00215177 Ry

     total magnetization       =    -3.26 Bohr mag/cell
     absolute magnetization    =    12.21 Bohr mag/cell

     iteration # 84     ecut=   100.00 Ry     beta= 0.30
     Davidson diagonalization with overlap
     ethr =  1.37E-07,  avg # of iterations =  5.0

     negative rho (up, down):  1.444E-03 2.563E-03

     total cpu time spent up to now is     2594.2 secs

     total energy              =   -3111.38190469 Ry
     estimated scf accuracy    <       0.00148271 Ry

     total magnetization       =    -3.47 Bohr mag/cell
     absolute magnetization    =    12.19 Bohr mag/cell

     iteration # 85     ecut=   100.00 Ry     beta= 0.30
     Davidson diagonalization with overlap
     ethr =  1.37E-07,  avg # of iterations =  5.2

     negative rho (up, down):  1.389E-03 2.622E-03

     total cpu time spent up to now is     2627.3 secs

     total energy              =   -3111.38094625 Ry
     estimated scf accuracy    <       0.00067515 Ry

     total magnetization       =    -3.91 Bohr mag/cell
     absolute magnetization    =    12.14 Bohr mag/cell

     iteration # 86     ecut=   100.00 Ry     beta= 0.30
     Davidson diagonalization with overlap
     ethr =  1.37E-07,  avg # of iterations =  6.5

     negative rho (up, down):  1.381E-03 2.630E-03

     total cpu time spent up to now is     2666.6 secs

     total energy              =   -3111.38514374 Ry
     estimated scf accuracy    <       0.00064971 Ry

     total magnetization       =    -4.60 Bohr mag/cell
     absolute magnetization    =    12.05 Bohr mag/cell

     iteration # 87     ecut=   100.00 Ry     beta= 0.30
     Davidson diagonalization with overlap
     ethr =  1.37E-07,  avg # of iterations =  2.6

     negative rho (up, down):  1.428E-03 2.580E-03

     total cpu time spent up to now is     2687.6 secs

     total energy              =   -3111.38139084 Ry
     estimated scf accuracy    <       0.00074866 Ry

     total magnetization       =    -4.67 Bohr mag/cell
     absolute magnetization    =    12.04 Bohr mag/cell

     iteration # 88     ecut=   100.00 Ry     beta= 0.30
     Davidson diagonalization with overlap
     ethr =  1.37E-07,  avg # of iterations =  5.3

     negative rho (up, down):  1.459E-03 2.549E-03

     total cpu time spent up to now is     2720.7 secs

     total energy              =   -3111.38213137 Ry
     estimated scf accuracy    <       0.00064439 Ry

     total magnetization       =    -4.12 Bohr mag/cell
     absolute magnetization    =    12.11 Bohr mag/cell

     iteration # 89     ecut=   100.00 Ry     beta= 0.30
     Davidson diagonalization with overlap
     ethr =  1.37E-07,  avg # of iterations =  5.2

     negative rho (up, down):  1.459E-03 2.549E-03

     total cpu time spent up to now is     2752.9 secs

     total energy              =   -3111.38321093 Ry
     estimated scf accuracy    <       0.00078276 Ry

     total magnetization       =    -3.77 Bohr mag/cell
     absolute magnetization    =    12.14 Bohr mag/cell

     iteration # 90     ecut=   100.00 Ry     beta= 0.30
     Davidson diagonalization with overlap
     ethr =  1.37E-07,  avg # of iterations =  1.0

     negative rho (up, down):  1.236E-03 2.787E-03

     total cpu time spent up to now is     2771.0 secs

     total energy              =   -3111.32951471 Ry
     estimated scf accuracy    <       0.00084960 Ry

     total magnetization       =    -3.76 Bohr mag/cell
     absolute magnetization    =    12.14 Bohr mag/cell

     iteration # 91     ecut=   100.00 Ry     beta= 0.30
     Davidson diagonalization with overlap
     ethr =  1.37E-07,  avg # of iterations =  9.8

     negative rho (up, down):  1.630E-03 2.445E-03

     total cpu time spent up to now is     2828.2 secs

     total energy              =   -3111.16988103 Ry
     estimated scf accuracy    <       0.02013945 Ry

     total magnetization       =    -6.60 Bohr mag/cell
     absolute magnetization    =    11.78 Bohr mag/cell

     iteration # 92     ecut=   100.00 Ry     beta= 0.30
     Davidson diagonalization with overlap
     c_bands:  1 eigenvalues not converged
     ethr =  1.37E-07,  avg # of iterations = 12.7

     negative rho (up, down):  1.457E-03 2.549E-03

     total cpu time spent up to now is     2902.3 secs

     total energy              =   -3111.35408261 Ry
     estimated scf accuracy    <       0.01148920 Ry

     total magnetization       =    -1.93 Bohr mag/cell
     absolute magnetization    =    12.26 Bohr mag/cell

     iteration # 93     ecut=   100.00 Ry     beta= 0.30
     Davidson diagonalization with overlap
     ethr =  1.37E-07,  avg # of iterations =  9.1

     negative rho (up, down):  1.507E-03 2.517E-03

     total cpu time spent up to now is     2954.7 secs

     total energy              =   -3111.37897929 Ry
     estimated scf accuracy    <       0.00060020 Ry

     total magnetization       =    -3.80 Bohr mag/cell
     absolute magnetization    =    12.14 Bohr mag/cell

     iteration # 94     ecut=   100.00 Ry     beta= 0.30
     Davidson diagonalization with overlap
     ethr =  1.37E-07,  avg # of iterations =  5.7

     negative rho (up, down):  1.489E-03 2.527E-03

     total cpu time spent up to now is     2989.1 secs

     total energy              =   -3111.38204271 Ry
     estimated scf accuracy    <       0.00158218 Ry

     total magnetization       =    -3.24 Bohr mag/cell
     absolute magnetization    =    12.18 Bohr mag/cell

     iteration # 95     ecut=   100.00 Ry     beta= 0.30
     Davidson diagonalization with overlap
     ethr =  1.37E-07,  avg # of iterations =  4.3

     negative rho (up, down):  1.453E-03 2.551E-03

     total cpu time spent up to now is     3015.4 secs

     total energy              =   -3111.38171959 Ry
     estimated scf accuracy    <       0.00106402 Ry

     total magnetization       =    -3.45 Bohr mag/cell
     absolute magnetization    =    12.16 Bohr mag/cell

     iteration # 96     ecut=   100.00 Ry     beta= 0.30
     Davidson diagonalization with overlap
     ethr =  1.37E-07,  avg # of iterations =  5.2

     negative rho (up, down):  1.497E-03 2.523E-03

     total cpu time spent up to now is     3048.5 secs

     total energy              =   -3111.37933539 Ry
     estimated scf accuracy    <       0.00039882 Ry

     total magnetization       =    -3.91 Bohr mag/cell
     absolute magnetization    =    12.11 Bohr mag/cell

     iteration # 97     ecut=   100.00 Ry     beta= 0.30
     Davidson diagonalization with overlap
     ethr =  1.37E-07,  avg # of iterations =  5.5

     negative rho (up, down):  1.441E-03 2.564E-03

     total cpu time spent up to now is     3082.5 secs

     total energy              =   -3111.38053544 Ry
     estimated scf accuracy    <       0.00138745 Ry

     total magnetization       =    -3.34 Bohr mag/cell
     absolute magnetization    =    12.18 Bohr mag/cell

     iteration # 98     ecut=   100.00 Ry     beta= 0.30
     Davidson diagonalization with overlap
     ethr =  1.37E-07,  avg # of iterations =  6.0

     negative rho (up, down):  1.403E-03 2.607E-03

     total cpu time spent up to now is     3118.7 secs

     total energy              =   -3111.38273835 Ry
     estimated scf accuracy    <       0.00097938 Ry

     total magnetization       =    -3.93 Bohr mag/cell
     absolute magnetization    =    12.13 Bohr mag/cell

     iteration # 99     ecut=   100.00 Ry     beta= 0.30
     Davidson diagonalization with overlap
     ethr =  1.37E-07,  avg # of iterations =  5.5

     negative rho (up, down):  1.356E-03 2.658E-03

     total cpu time spent up to now is     3152.1 secs

     total energy              =   -3111.38294669 Ry
     estimated scf accuracy    <       0.00098729 Ry

     total magnetization       =    -4.39 Bohr mag/cell
     absolute magnetization    =    12.08 Bohr mag/cell

     iteration #100     ecut=   100.00 Ry     beta= 0.30
     Davidson diagonalization with overlap
     ethr =  1.37E-07,  avg # of iterations =  7.0

     negative rho (up, down):  1.470E-03 2.543E-03

     total cpu time spent up to now is     3189.4 secs

     total energy              =   -3111.36623287 Ry
     estimated scf accuracy    <       0.00182835 Ry

     total magnetization       =    -4.99 Bohr mag/cell
     absolute magnetization    =    11.98 Bohr mag/cell

     iteration #101     ecut=   100.00 Ry     beta= 0.30
     Davidson diagonalization with overlap
     ethr =  1.37E-07,  avg # of iterations =  8.7

     negative rho (up, down):  1.400E-03 2.611E-03

     total cpu time spent up to now is     3236.3 secs

     total energy              =   -3111.37870476 Ry
     estimated scf accuracy    <       0.00104549 Ry

     total magnetization       =    -3.63 Bohr mag/cell
     absolute magnetization    =    12.15 Bohr mag/cell

     iteration #102     ecut=   100.00 Ry     beta= 0.30
     Davidson diagonalization with overlap
     ethr =  1.37E-07,  avg # of iterations =  6.9

     negative rho (up, down):  1.414E-03 2.596E-03

     total cpu time spent up to now is     3276.7 secs

     total energy              =   -3111.38414907 Ry
     estimated scf accuracy    <       0.00091299 Ry

     total magnetization       =    -4.46 Bohr mag/cell
     absolute magnetization    =    12.05 Bohr mag/cell

     iteration #103     ecut=   100.00 Ry     beta= 0.30
     Davidson diagonalization with overlap
     ethr =  1.37E-07,  avg # of iterations =  3.6

     negative rho (up, down):  1.581E-03 2.473E-03

     total cpu time spent up to now is     3300.8 secs

     total energy              =   -3111.34807526 Ry
     estimated scf accuracy    <       0.00087442 Ry

     total magnetization       =    -4.29 Bohr mag/cell
     absolute magnetization    =    12.07 Bohr mag/cell

     iteration #104     ecut=   100.00 Ry     beta= 0.30
     Davidson diagonalization with overlap
     ethr =  1.37E-07,  avg # of iterations =  9.2

     negative rho (up, down):  1.382E-03 2.628E-03

     total cpu time spent up to now is     3353.3 secs

     total energy              =   -3111.34687005 Ry
     estimated scf accuracy    <       0.00574280 Ry

     total magnetization       =    -2.48 Bohr mag/cell
     absolute magnetization    =    12.20 Bohr mag/cell

     iteration #105     ecut=   100.00 Ry     beta= 0.30
     Davidson diagonalization with overlap
     ethr =  1.37E-07,  avg # of iterations =  9.8

     negative rho (up, down):  1.431E-03 2.575E-03

     total cpu time spent up to now is     3407.6 secs

     total energy              =   -3111.38110396 Ry
     estimated scf accuracy    <       0.00069478 Ry

     total magnetization       =    -4.63 Bohr mag/cell
     absolute magnetization    =    12.04 Bohr mag/cell

     iteration #106     ecut=   100.00 Ry     beta= 0.30
     Davidson diagonalization with overlap
     ethr =  1.37E-07,  avg # of iterations =  5.5

     negative rho (up, down):  1.275E-03 2.743E-03

     total cpu time spent up to now is     3441.6 secs

     total energy              =   -3111.35917277 Ry
     estimated scf accuracy    <       0.00059279 Ry

     total magnetization       =    -4.07 Bohr mag/cell
     absolute magnetization    =    12.11 Bohr mag/cell

     iteration #107     ecut=   100.00 Ry     beta= 0.30
     Davidson diagonalization with overlap
     ethr =  1.37E-07,  avg # of iterations =  9.1

     negative rho (up, down):  1.331E-03 2.682E-03

     total cpu time spent up to now is     3492.4 secs

     total energy              =   -3111.38256673 Ry
     estimated scf accuracy    <       0.00792320 Ry

     total magnetization       =    -6.02 Bohr mag/cell
     absolute magnetization    =    11.79 Bohr mag/cell

     iteration #108     ecut=   100.00 Ry     beta= 0.30
     Davidson diagonalization with overlap
     ethr =  1.37E-07,  avg # of iterations =  5.9

     negative rho (up, down):  1.386E-03 2.624E-03

     total cpu time spent up to now is     3528.9 secs

     total energy              =   -3111.38113731 Ry
     estimated scf accuracy    <       0.00216922 Ry

     total magnetization       =    -5.29 Bohr mag/cell
     absolute magnetization    =    11.93 Bohr mag/cell

     iteration #109     ecut=   100.00 Ry     beta= 0.30
     Davidson diagonalization with overlap
     ethr =  1.37E-07,  avg # of iterations =  6.4

     negative rho (up, down):  1.386E-03 2.624E-03

     total cpu time spent up to now is     3567.2 secs

     total energy              =   -3111.38507636 Ry
     estimated scf accuracy    <       0.00068977 Ry

     total magnetization       =    -4.61 Bohr mag/cell
     absolute magnetization    =    12.04 Bohr mag/cell

     iteration #110     ecut=   100.00 Ry     beta= 0.30
     Davidson diagonalization with overlap
     ethr =  1.37E-07,  avg # of iterations =  1.0

     negative rho (up, down):  1.352E-03 2.662E-03

     total cpu time spent up to now is     3585.2 secs

     total energy              =   -3111.38464072 Ry
     estimated scf accuracy    <       0.00068845 Ry

     total magnetization       =    -4.62 Bohr mag/cell
     absolute magnetization    =    12.04 Bohr mag/cell

     iteration #111     ecut=   100.00 Ry     beta= 0.30
     Davidson diagonalization with overlap
     ethr =  1.37E-07,  avg # of iterations =  5.2

     negative rho (up, down):  1.530E-03 2.505E-03

     total cpu time spent up to now is     3617.4 secs

     total energy              =   -3111.34267737 Ry
     estimated scf accuracy    <       0.00134508 Ry

     total magnetization       =    -5.04 Bohr mag/cell
     absolute magnetization    =    11.97 Bohr mag/cell

     iteration #112     ecut=   100.00 Ry     beta= 0.30
     Davidson diagonalization with overlap
     ethr =  1.37E-07,  avg # of iterations =  9.5

     negative rho (up, down):  1.626E-03 2.443E-03

     total cpu time spent up to now is     3670.6 secs

     total energy              =   -3111.36734767 Ry
     estimated scf accuracy    <       0.00252258 Ry

     total magnetization       =    -3.00 Bohr mag/cell
     absolute magnetization    =    12.19 Bohr mag/cell

     iteration #113     ecut=   100.00 Ry     beta= 0.30
     Davidson diagonalization with overlap
     ethr =  1.37E-07,  avg # of iterations =  7.8

     negative rho (up, down):  1.594E-03 2.464E-03

     total cpu time spent up to now is     3714.9 secs

     total energy              =   -3111.37687018 Ry
     estimated scf accuracy    <       0.00726966 Ry

     total magnetization       =    -2.07 Bohr mag/cell
     absolute magnetization    =    12.23 Bohr mag/cell

     iteration #114     ecut=   100.00 Ry     beta= 0.30
     Davidson diagonalization with overlap
     ethr =  1.37E-07,  avg # of iterations =  4.9

     negative rho (up, down):  1.595E-03 2.464E-03

     total cpu time spent up to now is     3745.2 secs

     total energy              =   -3111.37748876 Ry
     estimated scf accuracy    <       0.00606058 Ry

     total magnetization       =    -2.34 Bohr mag/cell
     absolute magnetization    =    12.22 Bohr mag/cell

     iteration #115     ecut=   100.00 Ry     beta= 0.30
     Davidson diagonalization with overlap
     ethr =  1.37E-07,  avg # of iterations =  1.0

     negative rho (up, down):  1.554E-03 2.488E-03

     total cpu time spent up to now is     3763.2 secs

     total energy              =   -3111.37840406 Ry
     estimated scf accuracy    <       0.00615933 Ry

     total magnetization       =    -2.33 Bohr mag/cell
     absolute magnetization    =    12.22 Bohr mag/cell

     iteration #116     ecut=   100.00 Ry     beta= 0.30
     Davidson diagonalization with overlap
     ethr =  1.37E-07,  avg # of iterations =  5.2

     negative rho (up, down):  1.511E-03 2.515E-03

     total cpu time spent up to now is     3795.8 secs

     total energy              =   -3111.37990904 Ry
     estimated scf accuracy    <       0.00372364 Ry

     total magnetization       =    -2.72 Bohr mag/cell
     absolute magnetization    =    12.20 Bohr mag/cell

     iteration #117     ecut=   100.00 Ry     beta= 0.30
     Davidson diagonalization with overlap
     ethr =  1.37E-07,  avg # of iterations =  5.6

     negative rho (up, down):  1.446E-03 2.558E-03

     total cpu time spent up to now is     3829.3 secs

     total energy              =   -3111.37896097 Ry
     estimated scf accuracy    <       0.00209275 Ry

     total magnetization       =    -3.16 Bohr mag/cell
     absolute magnetization    =    12.18 Bohr mag/cell

     iteration #118     ecut=   100.00 Ry     beta= 0.30
     Davidson diagonalization with overlap
     ethr =  1.37E-07,  avg # of iterations =  6.8

     negative rho (up, down):  1.539E-03 2.499E-03

     total cpu time spent up to now is     3869.8 secs

     total energy              =   -3111.37144391 Ry
     estimated scf accuracy    <       0.00064663 Ry

     total magnetization       =    -3.88 Bohr mag/cell
     absolute magnetization    =    12.13 Bohr mag/cell

     iteration #119     ecut=   100.00 Ry     beta= 0.30
     Davidson diagonalization with overlap
     ethr =  1.37E-07,  avg # of iterations =  7.8

     negative rho (up, down):  1.541E-03 2.497E-03

     total cpu time spent up to now is     3912.9 secs

     total energy              =   -3111.38036816 Ry
     estimated scf accuracy    <       0.00264995 Ry

     total magnetization       =    -2.88 Bohr mag/cell
     absolute magnetization    =    12.20 Bohr mag/cell

     iteration #120     ecut=   100.00 Ry     beta= 0.30
     Davidson diagonalization with overlap
     ethr =  1.37E-07,  avg # of iterations =  1.1

     negative rho (up, down):  1.365E-03 2.646E-03

     total cpu time spent up to now is     3931.1 secs

     total energy              =   -3111.35207721 Ry
     estimated scf accuracy    <       0.00286505 Ry

     total magnetization       =    -2.85 Bohr mag/cell
     absolute magnetization    =    12.20 Bohr mag/cell

     iteration #121     ecut=   100.00 Ry     beta= 0.30
     Davidson diagonalization with overlap
     ethr =  1.37E-07,  avg # of iterations =  9.3

     negative rho (up, down):  1.389E-03 2.621E-03

     total cpu time spent up to now is     3983.5 secs

     total energy              =   -3111.38425853 Ry
     estimated scf accuracy    <       0.00098445 Ry

     total magnetization       =    -4.86 Bohr mag/cell
     absolute magnetization    =    12.00 Bohr mag/cell

     iteration #122     ecut=   100.00 Ry     beta= 0.30
     Davidson diagonalization with overlap
     ethr =  1.37E-07,  avg # of iterations =  5.0

     negative rho (up, down):  1.535E-03 2.499E-03

     total cpu time spent up to now is     4013.4 secs

     total energy              =   -3111.35673572 Ry
     estimated scf accuracy    <       0.00064841 Ry

     total magnetization       =    -4.58 Bohr mag/cell
     absolute magnetization    =    12.05 Bohr mag/cell

     iteration #123     ecut=   100.00 Ry     beta= 0.30
     Davidson diagonalization with overlap
     ethr =  1.37E-07,  avg # of iterations =  8.4

     negative rho (up, down):  1.448E-03 2.557E-03

     total cpu time spent up to now is     4063.0 secs

     total energy              =   -3111.37597798 Ry
     estimated scf accuracy    <       0.00246371 Ry

     total magnetization       =    -2.95 Bohr mag/cell
     absolute magnetization    =    12.18 Bohr mag/cell

     iteration #124     ecut=   100.00 Ry     beta= 0.30
     Davidson diagonalization with overlap
     ethr =  1.37E-07,  avg # of iterations =  7.5

     negative rho (up, down):  1.462E-03 2.549E-03

     total cpu time spent up to now is     4105.0 secs

     total energy              =   -3111.38278441 Ry
     estimated scf accuracy    <       0.00072651 Ry

     total magnetization       =    -3.89 Bohr mag/cell
     absolute magnetization    =    12.12 Bohr mag/cell

     iteration #125     ecut=   100.00 Ry     beta= 0.30
     Davidson diagonalization with overlap
     ethr =  1.37E-07,  avg # of iterations =  4.2

     negative rho (up, down):  1.470E-03 2.543E-03

     total cpu time spent up to now is     4130.4 secs

     total energy              =   -3111.38270080 Ry
     estimated scf accuracy    <       0.00091406 Ry

     total magnetization       =    -3.70 Bohr mag/cell
     absolute magnetization    =    12.15 Bohr mag/cell

     iteration #126     ecut=   100.00 Ry     beta= 0.30
     Davidson diagonalization with overlap
     ethr =  1.37E-07,  avg # of iterations =  3.7

     negative rho (up, down):  1.453E-03 2.555E-03

     total cpu time spent up to now is     4153.8 secs

     total energy              =   -3111.38296832 Ry
     estimated scf accuracy    <       0.00103638 Ry

     total magnetization       =    -3.60 Bohr mag/cell
     absolute magnetization    =    12.17 Bohr mag/cell

     iteration #127     ecut=   100.00 Ry     beta= 0.30
     Davidson diagonalization with overlap
     ethr =  1.37E-07,  avg # of iterations =  4.1

     negative rho (up, down):  1.490E-03 2.530E-03

     total cpu time spent up to now is     4178.9 secs

     total energy              =   -3111.38069479 Ry
     estimated scf accuracy    <       0.00084929 Ry

     total magnetization       =    -3.78 Bohr mag/cell
     absolute magnetization    =    12.15 Bohr mag/cell

     iteration #128     ecut=   100.00 Ry     beta= 0.30
     Davidson diagonalization with overlap
     ethr =  1.37E-07,  avg # of iterations =  5.1

     negative rho (up, down):  1.304E-03 2.712E-03

     total cpu time spent up to now is     4211.0 secs

     total energy              =   -3111.34765269 Ry
     estimated scf accuracy    <       0.00152999 Ry

     total magnetization       =    -3.37 Bohr mag/cell
     absolute magnetization    =    12.18 Bohr mag/cell

     iteration #129     ecut=   100.00 Ry     beta= 0.30
     Davidson diagonalization with overlap
     c_bands:  1 eigenvalues not converged
     ethr =  1.37E-07,  avg # of iterations =  9.6

     negative rho (up, down):  1.249E-03 2.771E-03

     total cpu time spent up to now is     4264.7 secs

     total energy              =   -3111.38725698 Ry
     estimated scf accuracy    <       0.00424508 Ry

     total magnetization       =    -5.59 Bohr mag/cell
     absolute magnetization    =    11.89 Bohr mag/cell

     iteration #130     ecut=   100.00 Ry     beta= 0.30
     Davidson diagonalization with overlap
     ethr =  1.37E-07,  avg # of iterations =  6.4

     negative rho (up, down):  1.476E-03 2.539E-03

     total cpu time spent up to now is     4302.9 secs

     total energy              =   -3111.31440270 Ry
     estimated scf accuracy    <       0.01407845 Ry

     total magnetization       =    -6.33 Bohr mag/cell
     absolute magnetization    =    11.75 Bohr mag/cell

     iteration #131     ecut=   100.00 Ry     beta= 0.30
     Davidson diagonalization with overlap
     ethr =  1.37E-07,  avg # of iterations =  9.9

     negative rho (up, down):  1.535E-03 2.502E-03

     total cpu time spent up to now is     4360.2 secs

     total energy              =   -3111.37700098 Ry
     estimated scf accuracy    <       0.00113927 Ry

     total magnetization       =    -3.55 Bohr mag/cell
     absolute magnetization    =    12.16 Bohr mag/cell

     iteration #132     ecut=   100.00 Ry     beta= 0.30
     Davidson diagonalization with overlap
     ethr =  1.37E-07,  avg # of iterations =  6.5

     negative rho (up, down):  1.595E-03 2.464E-03

     total cpu time spent up to now is     4399.1 secs

     total energy              =   -3111.37462400 Ry
     estimated scf accuracy    <       0.00290787 Ry

     total magnetization       =    -2.92 Bohr mag/cell
     absolute magnetization    =    12.20 Bohr mag/cell

     iteration #133     ecut=   100.00 Ry     beta= 0.30
     Davidson diagonalization with overlap
     ethr =  1.37E-07,  avg # of iterations =  6.5

     negative rho (up, down):  1.586E-03 2.469E-03

     total cpu time spent up to now is     4437.5 secs

     total energy              =   -3111.37809157 Ry
     estimated scf accuracy    <       0.00575955 Ry

     total magnetization       =    -2.35 Bohr mag/cell
     absolute magnetization    =    12.22 Bohr mag/cell

     iteration #134     ecut=   100.00 Ry     beta= 0.30
     Davidson diagonalization with overlap
     ethr =  1.37E-07,  avg # of iterations =  2.2

     negative rho (up, down):  1.578E-03 2.474E-03

     total cpu time spent up to now is     4458.0 secs

     total energy              =   -3111.37847583 Ry
     estimated scf accuracy    <       0.00517619 Ry

     total magnetization       =    -2.44 Bohr mag/cell
     absolute magnetization    =    12.22 Bohr mag/cell

     iteration #135     ecut=   100.00 Ry     beta= 0.30
     Davidson diagonalization with overlap
     ethr =  1.37E-07,  avg # of iterations =  2.6

     negative rho (up, down):  1.574E-03 2.477E-03

     total cpu time spent up to now is     4479.1 secs

     total energy              =   -3111.37870050 Ry
     estimated scf accuracy    <       0.00477186 Ry

     total magnetization       =    -2.50 Bohr mag/cell
     absolute magnetization    =    12.22 Bohr mag/cell

     iteration #136     ecut=   100.00 Ry     beta= 0.30
     Davidson diagonalization with overlap
     ethr =  1.37E-07,  avg # of iterations =  1.9

     negative rho (up, down):  1.597E-03 2.462E-03

     total cpu time spent up to now is     4498.8 secs

     total energy              =   -3111.37700840 Ry
     estimated scf accuracy    <       0.00460286 Ry

     total magnetization       =    -2.53 Bohr mag/cell
     absolute magnetization    =    12.22 Bohr mag/cell

     iteration #137     ecut=   100.00 Ry     beta= 0.30
     Davidson diagonalization with overlap
     ethr =  1.37E-07,  avg # of iterations =  4.3

     negative rho (up, down):  1.644E-03 2.430E-03

     total cpu time spent up to now is     4525.2 secs

     total energy              =   -3111.37266799 Ry
     estimated scf accuracy    <       0.00601519 Ry

     total magnetization       =    -2.32 Bohr mag/cell
     absolute magnetization    =    12.23 Bohr mag/cell

     iteration #138     ecut=   100.00 Ry     beta= 0.30
     Davidson diagonalization with overlap
     ethr =  1.37E-07,  avg # of iterations =  5.5

     negative rho (up, down):  1.376E-03 2.634E-03

     total cpu time spent up to now is     4558.5 secs

     total energy              =   -3111.31957390 Ry
     estimated scf accuracy    <       0.00931968 Ry

     total magnetization       =    -1.92 Bohr mag/cell
     absolute magnetization    =    12.23 Bohr mag/cell

     iteration #139     ecut=   100.00 Ry     beta= 0.30
     Davidson diagonalization with overlap
     ethr =  1.37E-07,  avg # of iterations = 10.2

     negative rho (up, down):  1.439E-03 2.566E-03

     total cpu time spent up to now is     4618.5 secs

     total energy              =   -3111.37832959 Ry
     estimated scf accuracy    <       0.00071074 Ry

     total magnetization       =    -4.76 Bohr mag/cell
     absolute magnetization    =    12.03 Bohr mag/cell

     iteration #140     ecut=   100.00 Ry     beta= 0.30
     Davidson diagonalization with overlap
     ethr =  1.37E-07,  avg # of iterations =  6.5

     negative rho (up, down):  1.231E-03 2.790E-03

     total cpu time spent up to now is     4657.9 secs

     total energy              =   -3111.33423366 Ry
     estimated scf accuracy    <       0.00056546 Ry

     total magnetization       =    -3.97 Bohr mag/cell
     absolute magnetization    =    12.13 Bohr mag/cell

     iteration #141     ecut=   100.00 Ry     beta= 0.30
     Davidson diagonalization with overlap
     ethr =  1.37E-07,  avg # of iterations =  9.8

     negative rho (up, down):  1.127E-03 2.902E-03

     total cpu time spent up to now is     4715.3 secs

     total energy              =   -3111.39077242 Ry
     estimated scf accuracy    <       0.02249362 Ry

     total magnetization       =    -6.74 Bohr mag/cell
     absolute magnetization    =    11.84 Bohr mag/cell

     iteration #142     ecut=   100.00 Ry     beta= 0.30
     Davidson diagonalization with overlap
     ethr =  1.37E-07,  avg # of iterations =  8.7

     negative rho (up, down):  1.143E-03 2.886E-03

     total cpu time spent up to now is     4763.3 secs

     total energy              =   -3111.40572772 Ry
     estimated scf accuracy    <       0.09483702 Ry

     total magnetization       =    -8.19 Bohr mag/cell
     absolute magnetization    =    13.42 Bohr mag/cell

     iteration #143     ecut=   100.00 Ry     beta= 0.30
     Davidson diagonalization with overlap
     ethr =  1.37E-07,  avg # of iterations =  3.8

     negative rho (up, down):  1.300E-03 2.716E-03

     total cpu time spent up to now is     4788.0 secs

     total energy              =   -3111.35134116 Ry
     estimated scf accuracy    <       0.08418418 Ry

     total magnetization       =    -8.01 Bohr mag/cell
     absolute magnetization    =    13.19 Bohr mag/cell

     iteration #144     ecut=   100.00 Ry     beta= 0.30
     Davidson diagonalization with overlap
     ethr =  1.37E-07,  avg # of iterations =  9.1

     negative rho (up, down):  1.229E-03 2.793E-03

     total cpu time spent up to now is     4840.5 secs

     total energy              =   -3111.38713746 Ry
     estimated scf accuracy    <       0.00594617 Ry

     total magnetization       =    -5.80 Bohr mag/cell
     absolute magnetization    =    11.81 Bohr mag/cell

     iteration #145     ecut=   100.00 Ry     beta= 0.30
     Davidson diagonalization with overlap
     ethr =  1.37E-07,  avg # of iterations =  6.9

     negative rho (up, down):  1.444E-03 2.561E-03

     total cpu time spent up to now is     4881.3 secs

     total energy              =   -3111.31060377 Ry
     estimated scf accuracy    <       0.02581355 Ry

     total magnetization       =    -6.80 Bohr mag/cell
     absolute magnetization    =    11.87 Bohr mag/cell

     iteration #146     ecut=   100.00 Ry     beta= 0.30
     Davidson diagonalization with overlap
     ethr =  1.37E-07,  avg # of iterations = 10.0

     negative rho (up, down):  1.453E-03 2.554E-03

     total cpu time spent up to now is     4939.1 secs

     total energy              =   -3111.38319175 Ry
     estimated scf accuracy    <       0.00066377 Ry

     total magnetization       =    -3.89 Bohr mag/cell
     absolute magnetization    =    12.14 Bohr mag/cell

     iteration #147     ecut=   100.00 Ry     beta= 0.30
     Davidson diagonalization with overlap
     ethr =  1.37E-07,  avg # of iterations =  2.9

     negative rho (up, down):  1.660E-03 2.423E-03

     total cpu time spent up to now is     4960.6 secs

     total energy              =   -3111.33215538 Ry
     estimated scf accuracy    <       0.00065464 Ry

     total magnetization       =    -3.82 Bohr mag/cell
     absolute magnetization    =    12.14 Bohr mag/cell

     iteration #148     ecut=   100.00 Ry     beta= 0.30
     Davidson diagonalization with overlap
     ethr =  1.37E-07,  avg # of iterations =  9.9

     negative rho (up, down):  1.424E-03 2.582E-03

     total cpu time spent up to now is     5017.9 secs

     total energy              =   -3111.33773852 Ry
     estimated scf accuracy    <       0.01109477 Ry

     total magnetization       =    -1.76 Bohr mag/cell
     absolute magnetization    =    12.23 Bohr mag/cell

     iteration #149     ecut=   100.00 Ry     beta= 0.30
     Davidson diagonalization with overlap
     ethr =  1.37E-07,  avg # of iterations =  9.8

     negative rho (up, down):  1.372E-03 2.638E-03

     total cpu time spent up to now is     5074.9 secs

     total energy              =   -3111.38218593 Ry
     estimated scf accuracy    <       0.00059706 Ry

     total magnetization       =    -4.11 Bohr mag/cell
     absolute magnetization    =    12.12 Bohr mag/cell

     iteration #150     ecut=   100.00 Ry     beta= 0.30
     Davidson diagonalization with overlap
     ethr =  1.37E-07,  avg # of iterations =  6.6

     negative rho (up, down):  1.296E-03 2.719E-03

     total cpu time spent up to now is     5112.3 secs

     total energy              =   -3111.38122459 Ry
     estimated scf accuracy    <       0.00085382 Ry

     total magnetization       =    -4.70 Bohr mag/cell
     absolute magnetization    =    12.05 Bohr mag/cell

     iteration #151     ecut=   100.00 Ry     beta= 0.30
     Davidson diagonalization with overlap
     ethr =  1.37E-07,  avg # of iterations =  7.1

     negative rho (up, down):  1.285E-03 2.730E-03

     total cpu time spent up to now is     5153.9 secs

     total energy              =   -3111.38845693 Ry
     estimated scf accuracy    <       0.00427056 Ry

     total magnetization       =    -5.62 Bohr mag/cell
     absolute magnetization    =    11.90 Bohr mag/cell

     iteration #152     ecut=   100.00 Ry     beta= 0.30
     Davidson diagonalization with overlap
     ethr =  1.37E-07,  avg # of iterations =  3.2

     negative rho (up, down):  1.277E-03 2.740E-03

     total cpu time spent up to now is     5176.0 secs

     total energy              =   -3111.38902543 Ry
     estimated scf accuracy    <       0.00510287 Ry

     total magnetization       =    -5.71 Bohr mag/cell
     absolute magnetization    =    11.89 Bohr mag/cell

     iteration #153     ecut=   100.00 Ry     beta= 0.30
     Davidson diagonalization with overlap
     ethr =  1.37E-07,  avg # of iterations =  5.0

     negative rho (up, down):  1.318E-03 2.696E-03

     total cpu time spent up to now is     5203.3 secs

     total energy              =   -3111.38464941 Ry
     estimated scf accuracy    <       0.00655347 Ry

     total magnetization       =    -5.87 Bohr mag/cell
     absolute magnetization    =    11.86 Bohr mag/cell

     iteration #154     ecut=   100.00 Ry     beta= 0.30
     Davidson diagonalization with overlap
     ethr =  1.37E-07,  avg # of iterations =  5.6

     negative rho (up, down):  1.220E-03 2.800E-03

     total cpu time spent up to now is     5236.6 secs

     total energy              =   -3111.38099995 Ry
     estimated scf accuracy    <       0.00246956 Ry

     total magnetization       =    -5.33 Bohr mag/cell
     absolute magnetization    =    11.96 Bohr mag/cell

     iteration #155     ecut=   100.00 Ry     beta= 0.30
     Davidson diagonalization with overlap
     ethr =  1.37E-07,  avg # of iterations =  7.9

     negative rho (up, down):  1.326E-03 2.687E-03

     total cpu time spent up to now is     5280.6 secs

     total energy              =   -3111.37224357 Ry
     estimated scf accuracy    <       0.01889068 Ry

     total magnetization       =    -6.57 Bohr mag/cell
     absolute magnetization    =    11.82 Bohr mag/cell

     iteration #156     ecut=   100.00 Ry     beta= 0.30
     Davidson diagonalization with overlap
     ethr =  1.37E-07,  avg # of iterations =  8.2

     negative rho (up, down):  1.338E-03 2.674E-03

     total cpu time spent up to now is     5325.4 secs

     total energy              =   -3111.38607096 Ry
     estimated scf accuracy    <       0.00206829 Ry

     total magnetization       =    -5.23 Bohr mag/cell
     absolute magnetization    =    11.98 Bohr mag/cell

     iteration #157     ecut=   100.00 Ry     beta= 0.30
     Davidson diagonalization with overlap
     ethr =  1.37E-07,  avg # of iterations =  4.5

     negative rho (up, down):  1.576E-03 2.472E-03

     total cpu time spent up to now is     5351.1 secs

     total energy              =   -3111.32583025 Ry
     estimated scf accuracy    <       0.00154418 Ry

     total magnetization       =    -5.08 Bohr mag/cell
     absolute magnetization    =    12.01 Bohr mag/cell

     iteration #158     ecut=   100.00 Ry     beta= 0.30
     Davidson diagonalization with overlap
     ethr =  1.37E-07,  avg # of iterations = 10.2

     negative rho (up, down):  1.560E-03 2.481E-03

     total cpu time spent up to now is     5409.9 secs

     total energy              =   -3111.38004255 Ry
     estimated scf accuracy    <       0.00332840 Ry

     total magnetization       =    -2.68 Bohr mag/cell
     absolute magnetization    =    12.17 Bohr mag/cell

     iteration #159     ecut=   100.00 Ry     beta= 0.30
     Davidson diagonalization with overlap
     ethr =  1.37E-07,  avg # of iterations =  4.3

     negative rho (up, down):  1.296E-03 2.720E-03

     total cpu time spent up to now is     5435.3 secs

     total energy              =   -3111.32810263 Ry
     estimated scf accuracy    <       0.00262411 Ry

     total magnetization       =    -2.84 Bohr mag/cell
     absolute magnetization    =    12.15 Bohr mag/cell

     iteration #160     ecut=   100.00 Ry     beta= 0.30
     Davidson diagonalization with overlap
     ethr =  1.37E-07,  avg # of iterations = 10.1

     negative rho (up, down):  1.422E-03 2.584E-03

     total cpu time spent up to now is     5494.2 secs

     total energy              =   -3111.36541701 Ry
     estimated scf accuracy    <       0.00415539 Ry

     total magnetization       =    -5.53 Bohr mag/cell
     absolute magnetization    =    11.91 Bohr mag/cell

     iteration #161     ecut=   100.00 Ry     beta= 0.30
     Davidson diagonalization with overlap
     ethr =  1.37E-07,  avg # of iterations =  8.7

     negative rho (up, down):  1.157E-03 2.871E-03

     total cpu time spent up to now is     5541.8 secs

     total energy              =   -3111.31067279 Ry
     estimated scf accuracy    <       0.00089122 Ry

     total magnetization       =    -4.07 Bohr mag/cell
     absolute magnetization    =    12.10 Bohr mag/cell

     iteration #162     ecut=   100.00 Ry     beta= 0.30
     Davidson diagonalization with overlap
     ethr =  1.37E-07,  avg # of iterations = 10.5

     negative rho (up, down):  1.041E-03 2.996E-03

     total cpu time spent up to now is     5603.5 secs

     total energy              =   -3111.39806031 Ry
     estimated scf accuracy    <       0.05530115 Ry

     total magnetization       =    -7.46 Bohr mag/cell
     absolute magnetization    =    12.57 Bohr mag/cell

     iteration #163     ecut=   100.00 Ry     beta= 0.30
     Davidson diagonalization with overlap
     c_bands:  1 eigenvalues not converged
     ethr =  1.37E-07,  avg # of iterations =  9.3

     negative rho (up, down):  1.284E-03 2.733E-03

     total cpu time spent up to now is     5654.1 secs

     total energy              =   -3111.30874020 Ry
     estimated scf accuracy    <       0.18197475 Ry

     total magnetization       =    -8.99 Bohr mag/cell
     absolute magnetization    =    14.63 Bohr mag/cell

     iteration #164     ecut=   100.00 Ry     beta= 0.30
     Davidson diagonalization with overlap
     ethr =  1.37E-07,  avg # of iterations = 10.4

     negative rho (up, down):  1.629E-03 2.440E-03

     total cpu time spent up to now is     5714.7 secs

     total energy              =   -3111.24426086 Ry
     estimated scf accuracy    <       0.00663557 Ry

     total magnetization       =    -5.80 Bohr mag/cell
     absolute magnetization    =    11.81 Bohr mag/cell

     iteration #165     ecut=   100.00 Ry     beta= 0.30
     Davidson diagonalization with overlap
     ethr =  1.37E-07,  avg # of iterations = 11.9

     negative rho (up, down):  1.224E-03 2.796E-03

     total cpu time spent up to now is     5784.7 secs

     total energy              =   -3111.24095065 Ry
     estimated scf accuracy    <       0.00798930 Ry

     total magnetization       =    -2.08 Bohr mag/cell
     absolute magnetization    =    12.18 Bohr mag/cell

     iteration #166     ecut=   100.00 Ry     beta= 0.30
     Davidson diagonalization with overlap
     ethr =  1.37E-07,  avg # of iterations = 12.3

     negative rho (up, down):  1.242E-03 2.777E-03

     total cpu time spent up to now is     5857.4 secs

     total energy              =   -3111.39020911 Ry
     estimated scf accuracy    <       0.01713469 Ry

     total magnetization       =    -6.52 Bohr mag/cell
     absolute magnetization    =    11.81 Bohr mag/cell

     iteration #167     ecut=   100.00 Ry     beta= 0.30
     Davidson diagonalization with overlap
     ethr =  1.37E-07,  avg # of iterations =  4.8

     negative rho (up, down):  1.188E-03 2.834E-03

     total cpu time spent up to now is     5886.6 secs

     total energy              =   -3111.39178989 Ry
     estimated scf accuracy    <       0.01097673 Ry

     total magnetization       =    -6.21 Bohr mag/cell
     absolute magnetization    =    11.82 Bohr mag/cell

     iteration #168     ecut=   100.00 Ry     beta= 0.30
     Davidson diagonalization with overlap
     ethr =  1.37E-07,  avg # of iterations =  6.5

     negative rho (up, down):  1.023E-03 3.010E-03

     total cpu time spent up to now is     5922.6 secs

     total energy              =   -3111.38331152 Ry
     estimated scf accuracy    <       0.02753259 Ry

     total magnetization       =    -6.89 Bohr mag/cell
     absolute magnetization    =    12.03 Bohr mag/cell

     iteration #169     ecut=   100.00 Ry     beta= 0.30
     Davidson diagonalization with overlap
     c_bands:  1 eigenvalues not converged
     ethr =  1.37E-07,  avg # of iterations =  9.1

     negative rho (up, down):  1.119E-03 2.908E-03

     total cpu time spent up to now is     5975.9 secs

     total energy              =   -3111.39286833 Ry
     estimated scf accuracy    <       0.15569102 Ry

     total magnetization       =    -8.84 Bohr mag/cell
     absolute magnetization    =    14.48 Bohr mag/cell

     iteration #170     ecut=   100.00 Ry     beta= 0.30
     Davidson diagonalization with overlap
     ethr =  1.37E-07,  avg # of iterations =  7.7

     negative rho (up, down):  8.435E-04 3.232E-03

     total cpu time spent up to now is     6019.9 secs

     total energy              =   -3111.35197815 Ry
     estimated scf accuracy    <       0.06625065 Ry

     total magnetization       =    -7.76 Bohr mag/cell
     absolute magnetization    =    12.98 Bohr mag/cell

     iteration #171     ecut=   100.00 Ry     beta= 0.30
     Davidson diagonalization with overlap
     c_bands:  2 eigenvalues not converged
     c_bands:  1 eigenvalues not converged
     c_bands:  2 eigenvalues not converged
     ethr =  1.37E-07,  avg # of iterations = 11.4

     negative rho (up, down):  8.556E-04 3.193E-03

     total cpu time spent up to now is     6086.4 secs

     total energy              =   -3111.43948142 Ry
     estimated scf accuracy    <       0.46984429 Ry

     total magnetization       =   -10.51 Bohr mag/cell
     absolute magnetization    =    17.33 Bohr mag/cell

     iteration #172     ecut=   100.00 Ry     beta= 0.30
     Davidson diagonalization with overlap
     c_bands:  1 eigenvalues not converged
     ethr =  1.37E-07,  avg # of iterations =  5.5

     negative rho (up, down):  8.473E-04 3.215E-03

     total cpu time spent up to now is     6118.1 secs

     total energy              =   -3111.44285062 Ry
     estimated scf accuracy    <       0.40654813 Ry

     total magnetization       =   -10.29 Bohr mag/cell
     absolute magnetization    =    16.90 Bohr mag/cell

     iteration #173     ecut=   100.00 Ry     beta= 0.30
     Davidson diagonalization with overlap
     ethr =  1.37E-07,  avg # of iterations =  4.7

     negative rho (up, down):  8.649E-04 3.254E-03

     total cpu time spent up to now is     6146.5 secs

     total energy              =   -3111.44721153 Ry
     estimated scf accuracy    <       0.44989329 Ry

     total magnetization       =   -10.45 Bohr mag/cell
     absolute magnetization    =    17.18 Bohr mag/cell

     iteration #174     ecut=   100.00 Ry     beta= 0.30
     Davidson diagonalization with overlap
     ethr =  1.37E-07,  avg # of iterations =  6.8

     negative rho (up, down):  1.340E-03 2.675E-03

     total cpu time spent up to now is     6186.7 secs

     total energy              =   -3111.08833519 Ry
     estimated scf accuracy    <       0.56946135 Ry

     total magnetization       =   -10.85 Bohr mag/cell
     absolute magnetization    =    17.90 Bohr mag/cell

     iteration #175     ecut=   100.00 Ry     beta= 0.30
     Davidson diagonalization with overlap
     c_bands:  1 eigenvalues not converged
     c_bands:  1 eigenvalues not converged
     c_bands:  1 eigenvalues not converged
     c_bands:  1 eigenvalues not converged
     c_bands:  2 eigenvalues not converged
     c_bands:  1 eigenvalues not converged
     c_bands:  1 eigenvalues not converged
     c_bands:  1 eigenvalues not converged
     ethr =  1.37E-07,  avg # of iterations = 14.6

     negative rho (up, down):  1.343E-03 2.669E-03

     total cpu time spent up to now is     6274.0 secs

     total energy              =   -3111.38470448 Ry
     estimated scf accuracy    <       0.00176988 Ry

     total magnetization       =    -5.08 Bohr mag/cell
     absolute magnetization    =    11.88 Bohr mag/cell

     iteration #176     ecut=   100.00 Ry     beta= 0.30
     Davidson diagonalization with overlap
     ethr =  1.37E-07,  avg # of iterations =  5.5

     negative rho (up, down):  1.361E-03 2.650E-03

     total cpu time spent up to now is     6305.0 secs

     total energy              =   -3111.38447900 Ry
     estimated scf accuracy    <       0.00112895 Ry

     total magnetization       =    -4.79 Bohr mag/cell
     absolute magnetization    =    11.98 Bohr mag/cell

     iteration #177     ecut=   100.00 Ry     beta= 0.30
     Davidson diagonalization with overlap
     ethr =  1.37E-07,  avg # of iterations =  5.0

     negative rho (up, down):  1.453E-03 2.554E-03

     total cpu time spent up to now is     6333.9 secs

     total energy              =   -3111.37762067 Ry
     estimated scf accuracy    <       0.00071266 Ry

     total magnetization       =    -4.57 Bohr mag/cell
     absolute magnetization    =    12.02 Bohr mag/cell

     iteration #178     ecut=   100.00 Ry     beta= 0.30
     Davidson diagonalization with overlap
     ethr =  1.37E-07,  avg # of iterations =  6.8

     negative rho (up, down):  1.436E-03 2.571E-03

     total cpu time spent up to now is     6374.5 secs

     total energy              =   -3111.38316679 Ry
     estimated scf accuracy    <       0.00064737 Ry

     total magnetization       =    -3.82 Bohr mag/cell
     absolute magnetization    =    12.09 Bohr mag/cell

     iteration #179     ecut=   100.00 Ry     beta= 0.30
     Davidson diagonalization with overlap
     ethr =  1.37E-07,  avg # of iterations =  1.6

     negative rho (up, down):  1.413E-03 2.592E-03

     total cpu time spent up to now is     6393.8 secs

     total energy              =   -3111.38319135 Ry
     estimated scf accuracy    <       0.00082242 Ry

     total magnetization       =    -3.76 Bohr mag/cell
     absolute magnetization    =    12.12 Bohr mag/cell

     iteration #180     ecut=   100.00 Ry     beta= 0.30
     Davidson diagonalization with overlap
     ethr =  1.37E-07,  avg # of iterations =  4.9

     negative rho (up, down):  1.331E-03 2.680E-03

     total cpu time spent up to now is     6423.1 secs

     total energy              =   -3111.37948069 Ry
     estimated scf accuracy    <       0.00056224 Ry

     total magnetization       =    -4.04 Bohr mag/cell
     absolute magnetization    =    12.11 Bohr mag/cell

     iteration #181     ecut=   100.00 Ry     beta= 0.30
     Davidson diagonalization with overlap
     ethr =  1.37E-07,  avg # of iterations =  7.0

     negative rho (up, down):  1.337E-03 2.675E-03

     total cpu time spent up to now is     6464.1 secs

     total energy              =   -3111.38605071 Ry
     estimated scf accuracy    <       0.00095653 Ry

     total magnetization       =    -4.90 Bohr mag/cell
     absolute magnetization    =    12.01 Bohr mag/cell

     iteration #182     ecut=   100.00 Ry     beta= 0.30
     Davidson diagonalization with overlap
     ethr =  1.37E-07,  avg # of iterations =  4.9

     negative rho (up, down):  1.369E-03 2.643E-03

     total cpu time spent up to now is     6492.7 secs

     total energy              =   -3111.38467910 Ry
     estimated scf accuracy    <       0.00118946 Ry

     total magnetization       =    -5.15 Bohr mag/cell
     absolute magnetization    =    11.95 Bohr mag/cell

     iteration #183     ecut=   100.00 Ry     beta= 0.30
     Davidson diagonalization with overlap
     ethr =  1.37E-07,  avg # of iterations =  5.1

     negative rho (up, down):  1.402E-03 2.607E-03

     total cpu time spent up to now is     6523.3 secs

     total energy              =   -3111.38369830 Ry
     estimated scf accuracy    <       0.00074335 Ry

     total magnetization       =    -4.83 Bohr mag/cell
     absolute magnetization    =    12.01 Bohr mag/cell

     iteration #184     ecut=   100.00 Ry     beta= 0.30
     Davidson diagonalization with overlap
     ethr =  1.37E-07,  avg # of iterations =  5.1

     negative rho (up, down):  1.451E-03 2.556E-03

     total cpu time spent up to now is     6555.2 secs

     total energy              =   -3111.37896939 Ry
     estimated scf accuracy    <       0.00067704 Ry

     total magnetization       =    -4.48 Bohr mag/cell
     absolute magnetization    =    12.05 Bohr mag/cell

     iteration #185     ecut=   100.00 Ry     beta= 0.30
     Davidson diagonalization with overlap
     ethr =  1.37E-07,  avg # of iterations =  6.4

     negative rho (up, down):  1.443E-03 2.562E-03

     total cpu time spent up to now is     6593.9 secs

     total energy              =   -3111.38335047 Ry
     estimated scf accuracy    <       0.00128476 Ry

     total magnetization       =    -3.78 Bohr mag/cell
     absolute magnetization    =    12.16 Bohr mag/cell

     iteration #186     ecut=   100.00 Ry     beta= 0.30
     Davidson diagonalization with overlap
     ethr =  1.37E-07,  avg # of iterations =  1.5

     negative rho (up, down):  1.424E-03 2.582E-03

     total cpu time spent up to now is     6613.0 secs

     total energy              =   -3111.38340478 Ry
     estimated scf accuracy    <       0.00124082 Ry

     total magnetization       =    -3.84 Bohr mag/cell
     absolute magnetization    =    12.16 Bohr mag/cell

     iteration #187     ecut=   100.00 Ry     beta= 0.30
     Davidson diagonalization with overlap
     ethr =  1.37E-07,  avg # of iterations =  5.1

     negative rho (up, down):  1.416E-03 2.590E-03

     total cpu time spent up to now is     6642.6 secs

     total energy              =   -3111.38402886 Ry
     estimated scf accuracy    <       0.00112322 Ry

     total magnetization       =    -4.08 Bohr mag/cell
     absolute magnetization    =    12.13 Bohr mag/cell

     iteration #188     ecut=   100.00 Ry     beta= 0.30
     Davidson diagonalization with overlap
     ethr =  1.37E-07,  avg # of iterations =  1.8

     negative rho (up, down):  1.411E-03 2.596E-03

     total cpu time spent up to now is     6662.5 secs

     total energy              =   -3111.38417044 Ry
     estimated scf accuracy    <       0.00109265 Ry

     total magnetization       =    -4.16 Bohr mag/cell
     absolute magnetization    =    12.13 Bohr mag/cell

     iteration #189     ecut=   100.00 Ry     beta= 0.30
     Davidson diagonalization with overlap
     ethr =  1.37E-07,  avg # of iterations =  2.9

     negative rho (up, down):  1.396E-03 2.611E-03

     total cpu time spent up to now is     6684.2 secs

     total energy              =   -3111.38432372 Ry
     estimated scf accuracy    <       0.00114515 Ry

     total magnetization       =    -4.22 Bohr mag/cell
     absolute magnetization    =    12.12 Bohr mag/cell

     iteration #190     ecut=   100.00 Ry     beta= 0.30
     Davidson diagonalization with overlap
     ethr =  1.37E-07,  avg # of iterations =  4.4

     negative rho (up, down):  1.297E-03 2.718E-03

     total cpu time spent up to now is     6708.4 secs

     total energy              =   -3111.37091996 Ry
     estimated scf accuracy    <       0.00120288 Ry

     total magnetization       =    -4.31 Bohr mag/cell
     absolute magnetization    =    12.13 Bohr mag/cell

     iteration #191     ecut=   100.00 Ry     beta= 0.30
     Davidson diagonalization with overlap
     ethr =  1.37E-07,  avg # of iterations =  8.7

     negative rho (up, down):  1.459E-03 2.550E-03

     total cpu time spent up to now is     6757.0 secs

     total energy              =   -3111.34429134 Ry
     estimated scf accuracy    <       0.00713449 Ry

     total magnetization       =    -5.81 Bohr mag/cell
     absolute magnetization    =    11.87 Bohr mag/cell

     iteration #192     ecut=   100.00 Ry     beta= 0.30
     Davidson diagonalization with overlap
     ethr =  1.37E-07,  avg # of iterations =  9.1

     negative rho (up, down):  1.453E-03 2.554E-03

     total cpu time spent up to now is     6809.0 secs

     total energy              =   -3111.38318829 Ry
     estimated scf accuracy    <       0.00147618 Ry

     total magnetization       =    -3.69 Bohr mag/cell
     absolute magnetization    =    12.15 Bohr mag/cell

     iteration #193     ecut=   100.00 Ry     beta= 0.30
     Davidson diagonalization with overlap
     ethr =  1.37E-07,  avg # of iterations =  1.7

     negative rho (up, down):  1.441E-03 2.563E-03

     total cpu time spent up to now is     6828.5 secs

     total energy              =   -3111.38337677 Ry
     estimated scf accuracy    <       0.00141217 Ry

     total magnetization       =    -3.77 Bohr mag/cell
     absolute magnetization    =    12.15 Bohr mag/cell

     iteration #194     ecut=   100.00 Ry     beta= 0.30
     Davidson diagonalization with overlap
     ethr =  1.37E-07,  avg # of iterations =  4.7

     negative rho (up, down):  1.434E-03 2.571E-03

     total cpu time spent up to now is     6854.4 secs

     total energy              =   -3111.38366822 Ry
     estimated scf accuracy    <       0.00128495 Ry

     total magnetization       =    -3.91 Bohr mag/cell
     absolute magnetization    =    12.14 Bohr mag/cell

     iteration #195     ecut=   100.00 Ry     beta= 0.30
     Davidson diagonalization with overlap
     ethr =  1.37E-07,  avg # of iterations =  2.5

     negative rho (up, down):  1.484E-03 2.533E-03

     total cpu time spent up to now is     6875.9 secs

     total energy              =   -3111.37995637 Ry
     estimated scf accuracy    <       0.00117751 Ry

     total magnetization       =    -4.00 Bohr mag/cell
     absolute magnetization    =    12.13 Bohr mag/cell

     iteration #196     ecut=   100.00 Ry     beta= 0.30
     Davidson diagonalization with overlap
     ethr =  1.37E-07,  avg # of iterations =  5.4

     negative rho (up, down):  1.440E-03 2.566E-03

     total cpu time spent up to now is     6909.5 secs

     total energy              =   -3111.38174851 Ry
     estimated scf accuracy    <       0.00187381 Ry

     total magnetization       =    -3.46 Bohr mag/cell
     absolute magnetization    =    12.16 Bohr mag/cell

     iteration #197     ecut=   100.00 Ry     beta= 0.30
     Davidson diagonalization with overlap
     ethr =  1.37E-07,  avg # of iterations =  5.2

     negative rho (up, down):  1.428E-03 2.578E-03

     total cpu time spent up to now is     6942.4 secs

     total energy              =   -3111.38362962 Ry
     estimated scf accuracy    <       0.00123212 Ry

     total magnetization       =    -3.92 Bohr mag/cell
     absolute magnetization    =    12.14 Bohr mag/cell

     iteration #198     ecut=   100.00 Ry     beta= 0.30
     Davidson diagonalization with overlap
     ethr =  1.37E-07,  avg # of iterations =  1.9

     negative rho (up, down):  1.495E-03 2.525E-03

     total cpu time spent up to now is     6962.5 secs

     total energy              =   -3111.37858970 Ry
     estimated scf accuracy    <       0.00127201 Ry

     total magnetization       =    -3.96 Bohr mag/cell
     absolute magnetization    =    12.15 Bohr mag/cell

     iteration #199     ecut=   100.00 Ry     beta= 0.30
     Davidson diagonalization with overlap
     ethr =  1.37E-07,  avg # of iterations =  6.2

     negative rho (up, down):  1.489E-03 2.530E-03

     total cpu time spent up to now is     6999.5 secs

     total energy              =   -3111.38224313 Ry
     estimated scf accuracy    <       0.00207769 Ry

     total magnetization       =    -3.34 Bohr mag/cell
     absolute magnetization    =    12.17 Bohr mag/cell

     iteration #200     ecut=   100.00 Ry     beta= 0.30
     Davidson diagonalization with overlap
     ethr =  1.37E-07,  avg # of iterations =  1.1

     negative rho (up, down):  1.247E-03 2.774E-03

     total cpu time spent up to now is     7017.9 secs

     total energy              =   -3111.33089812 Ry
     estimated scf accuracy    <       0.00197689 Ry

     total magnetization       =    -3.39 Bohr mag/cell
     absolute magnetization    =    12.17 Bohr mag/cell

     End of self-consistent calculation

     convergence NOT achieved after 200 iterations: stopping

     Writing config to output data dir ./TiFe2_hex.save/ :
     XML data file, charge density

     init_run     :     11.01s CPU     11.37s WALL (       1 calls)
     electrons    :   6935.05s CPU   7006.90s WALL (       1 calls)

     Called by init_run:
     wfcinit      :      9.22s CPU      9.44s WALL (       1 calls)
     potinit      :      0.90s CPU      1.00s WALL (       1 calls)
     hinit0       :      0.55s CPU      0.56s WALL (       1 calls)

     Called by electrons:
     c_bands      :   6253.08s CPU   6304.71s WALL (     200 calls)
     sum_band     :    537.10s CPU    546.87s WALL (     200 calls)
     v_of_rho     :     14.67s CPU     15.87s WALL (     201 calls)
     newd         :     48.30s CPU     52.53s WALL (     201 calls)
     PAW_pot      :     76.40s CPU     79.72s WALL (     201 calls)
     mix_rho      :      4.69s CPU      5.28s WALL (     200 calls)

     Called by c_bands:
     init_us_2    :     25.33s CPU     25.53s WALL (   32080 calls)
     cegterg      :   6103.94s CPU   6154.12s WALL (   16000 calls)

     Called by *egterg:
     cdiaghg      :   1319.99s CPU   1325.56s WALL (  106049 calls)
     h_psi        :   2995.83s CPU   3032.11s WALL (  106129 calls)
     s_psi        :    250.87s CPU    252.26s WALL (  106129 calls)
     g_psi        :     15.27s CPU     15.37s WALL (   90049 calls)

     Called by h_psi:
     h_psi:calbec :    409.65s CPU    412.02s WALL (  106129 calls)
     vloc_psi     :   2308.95s CPU   2341.54s WALL (  106129 calls)
     add_vuspsi   :    268.96s CPU    270.24s WALL (  106129 calls)

     General routines
     calbec       :    510.09s CPU    513.05s WALL (  122129 calls)
     fft          :      8.06s CPU      9.49s WALL (    5023 calls)
     ffts         :      2.15s CPU      2.48s WALL (    5058 calls)
     fftw         :   2275.48s CPU   2306.65s WALL (13365216 calls)
     interpolate  :      1.24s CPU      1.42s WALL (     402 calls)
     davcio       :      0.01s CPU      0.08s WALL (      98 calls)

     Parallel routines

     PWSCF        :   6946.45s CPU   7040.91s WALL


   This run was terminated on:  23:10:23  30Oct2025            

=------------------------------------------------------------------------------=
   JOB DONE.
=------------------------------------------------------------------------------=
