
     Program PWSCF v.7.4 starts on 28Oct2025 at 15:10: 9 

     This program is part of the open-source Quantum ESPRESSO suite
     for quantum simulation of materials; please cite
         "P. Giannozzi et al., J. Phys.:Condens. Matter 21 395502 (2009);
         "P. Giannozzi et al., J. Phys.:Condens. Matter 29 465901 (2017);
         "P. Giannozzi et al., J. Chem. Phys. 152 154105 (2020);
          URL http://www.quantum-espresso.org", 
     in publications or presentations arising from this work. More details at
     http://www.quantum-espresso.org/quote

     Parallel version (MPI & OpenMP), running on       8 processor cores
     Number of MPI processes:                 8
     Threads/MPI process:                     1

     MPI processes distributed on     1 nodes
     226660 MiB available memory on the printing compute node when the environment starts

     Reading input from TiFe_15.in

     Current dimensions of program PWSCF are:
     Max number of different atomic species (ntypx) = 10
     Max number of k-points (npk) =  40000
     Max angular momentum in pseudopotentials (lmaxx) =  4
     file Fe.pbe-spn-kjpaw_psl.0.2.1.UPF: wavefunction(s)  3D renormalized

     IMPORTANT: XC functional enforced from input :
     Exchange-correlation= PBE
                           (   1   4   3   4   0   0   0)
     Any further DFT definition will be discarded
     Please, verify this is what you really want

     Message from routine setup:
     using ibrav=0 with symmetry is DISCOURAGED, use correct ibrav instead

     R & G space division:  proc/nbgrp/npool/nimage =       8
     Subspace diagonalization in iterative solution of the eigenvalue problem:
     a serial algorithm will be used


     Parallelization info
     --------------------
     sticks:   dense  smooth     PW     G-vecs:    dense   smooth      PW
     Min         543     154     44                26937     4122     646
     Max         544     155     45                26940     4125     649
     Sum        4349    1237    357               215503    32987    5185

     Using Slab Decomposition



     bravais-lattice index     =            0
     lattice parameter (alat)  =       5.6100  a.u.
     unit-cell volume          =     176.5577 (a.u.)^3
     number of atoms/cell      =            2
     number of atomic types    =            2
     number of electrons       =        28.00
     number of Kohn-Sham states=           18
     kinetic-energy cutoff     =     124.0000  Ry
     charge density cutoff     =    1736.0000  Ry
     scf convergence threshold =      1.0E-08
     mixing beta               =       0.7000
     number of iterations used =            8  plain     mixing
     Exchange-correlation= PBE
                           (   1   4   3   4   0   0   0)

     celldm(1)=   5.609992  celldm(2)=   0.000000  celldm(3)=   0.000000
     celldm(4)=   0.000000  celldm(5)=   0.000000  celldm(6)=   0.000000

     crystal axes: (cart. coord. in units of alat)
               a(1) = (   1.000000   0.000000   0.000000 )  
               a(2) = (   0.000000   1.000000   0.000000 )  
               a(3) = (   0.000000   0.000000   1.000000 )  

     reciprocal axes: (cart. coord. in units 2 pi/alat)
               b(1) = (  1.000000  0.000000  0.000000 )  
               b(2) = (  0.000000  1.000000  0.000000 )  
               b(3) = (  0.000000  0.000000  1.000000 )  


     PseudoPot. # 1 for Fe read from file:
     ../../pseudos/Fe.pbe-spn-kjpaw_psl.0.2.1.UPF
     MD5 check sum: e86618425769142926afa95317d90200
     Pseudo is Projector augmented-wave + core cor, Zval = 16.0
     Generated using "atomic" code by A. Dal Corso  v.5.0.99 svn rev. 10869
     Shape of augmentation charge: PSQ
     Using radial grid of 1191 points,  6 beta functions with: 
                l(1) =   0
                l(2) =   0
                l(3) =   1
                l(4) =   1
                l(5) =   2
                l(6) =   2
     Q(r) pseudized with 0 coefficients 


     PseudoPot. # 2 for Ti read from file:
     ../../pseudos/ti_pbe_v1.4.uspp.F.UPF
     MD5 check sum: 88a00a6731bd790ddea75d31a80cb452
     Pseudo is Ultrasoft + core correction, Zval = 12.0
     Generated by new atomic code, or converted to UPF format
     Using radial grid of  851 points,  6 beta functions with: 
                l(1) =   0
                l(2) =   0
                l(3) =   1
                l(4) =   1
                l(5) =   2
                l(6) =   2
     Q(r) pseudized with  6 coefficients,  rinner =    1.000   1.000   1.000
                                                       1.000   1.000

     atomic species   valence    mass     pseudopotential
     Fe               16.00    55.84500     Fe( 1.00)
     Ti               12.00    47.86700     Ti( 1.00)

     48 Sym. Ops., with inversion, found



   Cartesian axes

     site n.     atom                  positions (alat units)
         1        Fe     tau(   1) = (   0.5000000   0.5000000   0.5000000  )
         2        Ti     tau(   2) = (   0.0000000   0.0000000   0.0000000  )

     number of k points=   120  Marzari-Vanderbilt smearing, width (Ry)=  0.0050

     Number of k-points >= 100: set verbosity='high' to print them.

     Dense  grid:   215503 G-vectors     FFT dimensions: (  75,  75,  75)

     Smooth grid:    32987 G-vectors     FFT dimensions: (  40,  40,  40)

     Estimated max dynamical RAM per process >     122.38 MB

     Estimated total dynamical RAM >     979.06 MB

     Check: negative core charge=   -0.000001

     Initial potential from superposition of free atoms

     starting charge      26.9995, renormalised to      28.0000

     negative rho (up, down):  1.362E-03 0.000E+00
     Starting wfcs are   23 randomized atomic wfcs
     Checking if some PAW data can be deallocated... 

     total cpu time spent up to now is        1.8 secs

     per-process dynamical memory:   144.6 Mb

     Self-consistent Calculation

     iteration #  1     ecut=   124.00 Ry     beta= 0.70
     Davidson diagonalization with overlap
     ethr =  1.00E-02,  avg # of iterations =  2.1

     negative rho (up, down):  9.524E-05 0.000E+00

     total cpu time spent up to now is        3.7 secs

     total energy              =    -434.31807635 Ry
     estimated scf accuracy    <      18.15827556 Ry

     iteration #  2     ecut=   124.00 Ry     beta= 0.70
     Davidson diagonalization with overlap
     ethr =  1.00E-02,  avg # of iterations =  6.1

     negative rho (up, down):  1.916E-05 0.000E+00

     total cpu time spent up to now is        7.0 secs

     total energy              =    -448.44218061 Ry
     estimated scf accuracy    <      68.65169832 Ry

     iteration #  3     ecut=   124.00 Ry     beta= 0.70
     Davidson diagonalization with overlap
     ethr =  1.00E-02,  avg # of iterations =  3.1

     negative rho (up, down):  2.048E-04 0.000E+00

     total cpu time spent up to now is        9.3 secs

     total energy              =    -448.68002818 Ry
     estimated scf accuracy    <      17.32011313 Ry

     iteration #  4     ecut=   124.00 Ry     beta= 0.70
     Davidson diagonalization with overlap
     ethr =  1.00E-02,  avg # of iterations =  2.1

     negative rho (up, down):  2.655E-04 0.000E+00

     total cpu time spent up to now is       11.3 secs

     total energy              =    -449.13707018 Ry
     estimated scf accuracy    <       5.21066210 Ry

     iteration #  5     ecut=   124.00 Ry     beta= 0.70
     Davidson diagonalization with overlap
     ethr =  1.00E-02,  avg # of iterations =  1.0

     negative rho (up, down):  4.776E-04 0.000E+00

     total cpu time spent up to now is       12.9 secs

     total energy              =    -448.96420085 Ry
     estimated scf accuracy    <       4.56624648 Ry

     iteration #  6     ecut=   124.00 Ry     beta= 0.70
     Davidson diagonalization with overlap
     ethr =  1.00E-02,  avg # of iterations =  1.1

     negative rho (up, down):  1.014E-03 0.000E+00

     total cpu time spent up to now is       14.6 secs

     total energy              =    -448.05857077 Ry
     estimated scf accuracy    <       4.33775118 Ry

     iteration #  7     ecut=   124.00 Ry     beta= 0.70
     Davidson diagonalization with overlap
     ethr =  1.00E-02,  avg # of iterations =  2.5

     negative rho (up, down):  1.113E-03 0.000E+00

     total cpu time spent up to now is       16.4 secs

     total energy              =    -448.70968753 Ry
     estimated scf accuracy    <       1.06953136 Ry

     iteration #  8     ecut=   124.00 Ry     beta= 0.70
     Davidson diagonalization with overlap
     ethr =  3.82E-03,  avg # of iterations =  3.2

     negative rho (up, down):  5.551E-04 0.000E+00

     total cpu time spent up to now is       18.2 secs

     total energy              =    -447.81408539 Ry
     estimated scf accuracy    <       5.23482577 Ry

     iteration #  9     ecut=   124.00 Ry     beta= 0.70
     Davidson diagonalization with overlap
     ethr =  3.82E-03,  avg # of iterations =  3.6

     negative rho (up, down):  5.507E-04 0.000E+00

     total cpu time spent up to now is       20.2 secs

     total energy              =    -448.64823752 Ry
     estimated scf accuracy    <       2.73290570 Ry

     iteration # 10     ecut=   124.00 Ry     beta= 0.70
     Davidson diagonalization with overlap
     ethr =  3.82E-03,  avg # of iterations =  1.1

     negative rho (up, down):  9.593E-04 0.000E+00

     total cpu time spent up to now is       21.9 secs

     total energy              =    -448.48216842 Ry
     estimated scf accuracy    <       1.19097486 Ry

     iteration # 11     ecut=   124.00 Ry     beta= 0.70
     Davidson diagonalization with overlap
     ethr =  3.82E-03,  avg # of iterations =  1.7

     negative rho (up, down):  4.405E-04 0.000E+00

     total cpu time spent up to now is       23.6 secs

     total energy              =    -448.56903134 Ry
     estimated scf accuracy    <       0.07154095 Ry

     iteration # 12     ecut=   124.00 Ry     beta= 0.70
     Davidson diagonalization with overlap
     ethr =  2.56E-04,  avg # of iterations =  4.5

     negative rho (up, down):  5.004E-04 0.000E+00

     total cpu time spent up to now is       26.0 secs

     total energy              =    -448.67721177 Ry
     estimated scf accuracy    <       1.37716950 Ry

     iteration # 13     ecut=   124.00 Ry     beta= 0.70
     Davidson diagonalization with overlap
     ethr =  2.56E-04,  avg # of iterations =  1.2

     negative rho (up, down):  3.880E-04 0.000E+00

     total cpu time spent up to now is       27.7 secs

     total energy              =    -448.73901395 Ry
     estimated scf accuracy    <       0.90118073 Ry

     iteration # 14     ecut=   124.00 Ry     beta= 0.70
     Davidson diagonalization with overlap
     ethr =  2.56E-04,  avg # of iterations =  1.1

     negative rho (up, down):  3.668E-04 0.000E+00

     total cpu time spent up to now is       29.3 secs

     total energy              =    -448.76735389 Ry
     estimated scf accuracy    <       1.27036256 Ry

     iteration # 15     ecut=   124.00 Ry     beta= 0.70
     Davidson diagonalization with overlap
     ethr =  2.56E-04,  avg # of iterations =  1.0

     negative rho (up, down):  3.859E-04 0.000E+00

     total cpu time spent up to now is       31.0 secs

     total energy              =    -448.75503620 Ry
     estimated scf accuracy    <       1.47666106 Ry

     iteration # 16     ecut=   124.00 Ry     beta= 0.70
     Davidson diagonalization with overlap
     ethr =  2.56E-04,  avg # of iterations =  1.1

     negative rho (up, down):  5.029E-04 0.000E+00

     total cpu time spent up to now is       32.6 secs

     total energy              =    -448.70711247 Ry
     estimated scf accuracy    <       1.38522482 Ry

     iteration # 17     ecut=   124.00 Ry     beta= 0.70
     Davidson diagonalization with overlap
     ethr =  2.56E-04,  avg # of iterations =  1.0

     negative rho (up, down):  3.810E-04 0.000E+00

     total cpu time spent up to now is       34.3 secs

     total energy              =    -448.76759226 Ry
     estimated scf accuracy    <       1.20089506 Ry

     iteration # 18     ecut=   124.00 Ry     beta= 0.70
     Davidson diagonalization with overlap
     ethr =  2.56E-04,  avg # of iterations =  1.0

     negative rho (up, down):  3.732E-04 0.000E+00

     total cpu time spent up to now is       35.9 secs

     total energy              =    -448.80133160 Ry
     estimated scf accuracy    <       1.59987980 Ry

     iteration # 19     ecut=   124.00 Ry     beta= 0.70
     Davidson diagonalization with overlap
     ethr =  2.56E-04,  avg # of iterations =  1.0

     negative rho (up, down):  6.399E-04 0.000E+00

     total cpu time spent up to now is       37.6 secs

     total energy              =    -448.60777283 Ry
     estimated scf accuracy    <       1.89125183 Ry

     iteration # 20     ecut=   124.00 Ry     beta= 0.70
     Davidson diagonalization with overlap
     ethr =  2.56E-04,  avg # of iterations =  2.9

     negative rho (up, down):  1.218E-03 0.000E+00

     total cpu time spent up to now is       39.7 secs

     total energy              =    -448.48238435 Ry
     estimated scf accuracy    <       0.65310264 Ry

     iteration # 21     ecut=   124.00 Ry     beta= 0.70
     Davidson diagonalization with overlap
     ethr =  2.56E-04,  avg # of iterations =  5.3

     negative rho (up, down):  5.943E-04 0.000E+00

     total cpu time spent up to now is       42.3 secs

     total energy              =    -448.45247115 Ry
     estimated scf accuracy    <       0.78787437 Ry

     iteration # 22     ecut=   124.00 Ry     beta= 0.70
     Davidson diagonalization with overlap
     ethr =  2.56E-04,  avg # of iterations =  5.0

     negative rho (up, down):  8.847E-04 0.000E+00

     total cpu time spent up to now is       44.8 secs

     total energy              =    -448.56465106 Ry
     estimated scf accuracy    <       0.54211557 Ry

     iteration # 23     ecut=   124.00 Ry     beta= 0.70
     Davidson diagonalization with overlap
     ethr =  2.56E-04,  avg # of iterations =  3.5

     negative rho (up, down):  8.136E-04 0.000E+00

     total cpu time spent up to now is       46.8 secs

     total energy              =    -448.59217369 Ry
     estimated scf accuracy    <       0.02394609 Ry

     iteration # 24     ecut=   124.00 Ry     beta= 0.70
     Davidson diagonalization with overlap
     ethr =  8.55E-05,  avg # of iterations =  1.2

     negative rho (up, down):  9.227E-04 0.000E+00

     total cpu time spent up to now is       48.5 secs

     total energy              =    -448.58355798 Ry
     estimated scf accuracy    <       0.07934329 Ry

     iteration # 25     ecut=   124.00 Ry     beta= 0.70
     Davidson diagonalization with overlap
     ethr =  8.55E-05,  avg # of iterations =  1.8

     negative rho (up, down):  1.062E-03 0.000E+00

     total cpu time spent up to now is       50.2 secs

     total energy              =    -448.58399579 Ry
     estimated scf accuracy    <       0.00728453 Ry

     iteration # 26     ecut=   124.00 Ry     beta= 0.70
     Davidson diagonalization with overlap
     ethr =  2.60E-05,  avg # of iterations =  4.8

     negative rho (up, down):  1.047E-03 0.000E+00

     total cpu time spent up to now is       52.7 secs

     total energy              =    -448.58841017 Ry
     estimated scf accuracy    <       0.04439395 Ry

     iteration # 27     ecut=   124.00 Ry     beta= 0.70
     Davidson diagonalization with overlap
     ethr =  2.60E-05,  avg # of iterations =  1.0

     negative rho (up, down):  1.012E-03 0.000E+00

     total cpu time spent up to now is       54.3 secs

     total energy              =    -448.58684574 Ry
     estimated scf accuracy    <       0.02478080 Ry

     iteration # 28     ecut=   124.00 Ry     beta= 0.70
     Davidson diagonalization with overlap
     ethr =  2.60E-05,  avg # of iterations =  1.7

     negative rho (up, down):  1.006E-03 0.000E+00

     total cpu time spent up to now is       56.0 secs

     total energy              =    -448.58714495 Ry
     estimated scf accuracy    <       0.00754022 Ry

     iteration # 29     ecut=   124.00 Ry     beta= 0.70
     Davidson diagonalization with overlap
     ethr =  2.60E-05,  avg # of iterations =  1.0

     negative rho (up, down):  9.396E-04 0.000E+00

     total cpu time spent up to now is       57.7 secs

     total energy              =    -448.58556287 Ry
     estimated scf accuracy    <       0.00681948 Ry

     iteration # 30     ecut=   124.00 Ry     beta= 0.70
     Davidson diagonalization with overlap
     ethr =  2.44E-05,  avg # of iterations =  3.0

     negative rho (up, down):  9.704E-04 0.000E+00

     total cpu time spent up to now is       59.5 secs

     total energy              =    -448.58639304 Ry
     estimated scf accuracy    <       0.00109886 Ry

     iteration # 31     ecut=   124.00 Ry     beta= 0.70
     Davidson diagonalization with overlap
     ethr =  3.92E-06,  avg # of iterations =  3.0

     negative rho (up, down):  9.706E-04 0.000E+00

     total cpu time spent up to now is       61.4 secs

     total energy              =    -448.58661794 Ry
     estimated scf accuracy    <       0.00042465 Ry

     iteration # 32     ecut=   124.00 Ry     beta= 0.70
     Davidson diagonalization with overlap
     ethr =  1.52E-06,  avg # of iterations =  1.2

     negative rho (up, down):  9.648E-04 0.000E+00

     total cpu time spent up to now is       63.1 secs

     total energy              =    -448.58655609 Ry
     estimated scf accuracy    <       0.00034632 Ry

     iteration # 33     ecut=   124.00 Ry     beta= 0.70
     Davidson diagonalization with overlap
     ethr =  1.24E-06,  avg # of iterations =  1.8

     negative rho (up, down):  9.699E-04 0.000E+00

     total cpu time spent up to now is       64.8 secs

     total energy              =    -448.58658987 Ry
     estimated scf accuracy    <       0.00000473 Ry

     iteration # 34     ecut=   124.00 Ry     beta= 0.70
     Davidson diagonalization with overlap
     ethr =  1.69E-08,  avg # of iterations =  4.3

     negative rho (up, down):  9.679E-04 0.000E+00

     total cpu time spent up to now is       67.1 secs

     total energy              =    -448.58658085 Ry
     estimated scf accuracy    <       0.00008109 Ry

     iteration # 35     ecut=   124.00 Ry     beta= 0.70
     Davidson diagonalization with overlap
     ethr =  1.69E-08,  avg # of iterations =  4.8

     negative rho (up, down):  9.676E-04 0.000E+00

     total cpu time spent up to now is       69.5 secs

     total energy              =    -448.58658969 Ry
     estimated scf accuracy    <       0.00000299 Ry

     iteration # 36     ecut=   124.00 Ry     beta= 0.70
     Davidson diagonalization with overlap
     ethr =  1.07E-08,  avg # of iterations =  1.0

     negative rho (up, down):  9.684E-04 0.000E+00

     total cpu time spent up to now is       71.1 secs

     total energy              =    -448.58658936 Ry
     estimated scf accuracy    <       0.00000174 Ry

     iteration # 37     ecut=   124.00 Ry     beta= 0.70
     Davidson diagonalization with overlap
     ethr =  6.22E-09,  avg # of iterations =  3.2

     negative rho (up, down):  9.680E-04 0.000E+00

     total cpu time spent up to now is       73.0 secs

     total energy              =    -448.58658965 Ry
     estimated scf accuracy    <       0.00000270 Ry

     iteration # 38     ecut=   124.00 Ry     beta= 0.70
     Davidson diagonalization with overlap
     ethr =  6.22E-09,  avg # of iterations =  1.0

     negative rho (up, down):  9.675E-04 0.000E+00

     total cpu time spent up to now is       74.7 secs

     total energy              =    -448.58658961 Ry
     estimated scf accuracy    <       0.00000046 Ry

     iteration # 39     ecut=   124.00 Ry     beta= 0.70
     Davidson diagonalization with overlap
     ethr =  1.63E-09,  avg # of iterations =  2.9

     negative rho (up, down):  9.677E-04 0.000E+00

     total cpu time spent up to now is       76.6 secs

     total energy              =    -448.58658968 Ry
     estimated scf accuracy    <       0.00000025 Ry

     iteration # 40     ecut=   124.00 Ry     beta= 0.70
     Davidson diagonalization with overlap
     ethr =  8.83E-10,  avg # of iterations =  1.4

     negative rho (up, down):  9.677E-04 0.000E+00

     total cpu time spent up to now is       78.3 secs

     total energy              =    -448.58658971 Ry
     estimated scf accuracy    <       0.00000001 Ry

     iteration # 41     ecut=   124.00 Ry     beta= 0.70
     Davidson diagonalization with overlap
     ethr =  3.79E-11,  avg # of iterations =  4.9

     negative rho (up, down):  9.677E-04 0.000E+00

     total cpu time spent up to now is       80.5 secs

     total energy              =    -448.58658971 Ry
     estimated scf accuracy    <       0.00000003 Ry

     iteration # 42     ecut=   124.00 Ry     beta= 0.70
     Davidson diagonalization with overlap
     ethr =  3.79E-11,  avg # of iterations =  1.0

     negative rho (up, down):  9.677E-04 0.000E+00

     total cpu time spent up to now is       82.2 secs

     total energy              =    -448.58658971 Ry
     estimated scf accuracy    <       0.00000002 Ry

     iteration # 43     ecut=   124.00 Ry     beta= 0.70
     Davidson diagonalization with overlap
     ethr =  3.79E-11,  avg # of iterations =  1.0

     negative rho (up, down):  9.677E-04 0.000E+00

     total cpu time spent up to now is       83.8 secs

     total energy              =    -448.58658971 Ry
     estimated scf accuracy    <       0.00000002 Ry

     iteration # 44     ecut=   124.00 Ry     beta= 0.70
     Davidson diagonalization with overlap
     ethr =  3.79E-11,  avg # of iterations =  1.0

     negative rho (up, down):  9.677E-04 0.000E+00

     total cpu time spent up to now is       85.5 secs

     total energy              =    -448.58658970 Ry
     estimated scf accuracy    <       0.00000002 Ry

     iteration # 45     ecut=   124.00 Ry     beta= 0.70
     Davidson diagonalization with overlap
     ethr =  3.79E-11,  avg # of iterations =  3.0

     negative rho (up, down):  9.677E-04 0.000E+00

     total cpu time spent up to now is       87.3 secs

     End of self-consistent calculation

     Number of k-points >= 100: set verbosity='high' to print the bands.

     the Fermi energy is    17.0920 ev

!    total energy              =    -448.58658970 Ry
     estimated scf accuracy    <          3.7E-09 Ry
     smearing contrib. (-TS)   =      -0.00002974 Ry
     internal energy E=F+TS    =    -448.58655996 Ry

     The total energy is F=E-TS. E is the sum of the following terms:
     one-electron contribution =    -155.40568566 Ry
     hartree contribution      =      93.00348031 Ry
     xc contribution           =     -52.83617761 Ry
     ewald contribution        =    -257.19508429 Ry
     one-center paw contrib.   =     -76.15309272 Ry

     convergence has been achieved in  45 iterations

     negative rho (up, down):  9.677E-04 0.000E+00

     Forces acting on atoms (cartesian axes, Ry/au):

     atom    1 type  1   force =     0.00000000    0.00000000    0.00000000
     atom    2 type  2   force =     0.00000000    0.00000000    0.00000000

     Total force =     0.000000     Total SCF correction =     0.000000


     Computing stress (Cartesian axis) and pressure


     negative rho (up, down):  9.677E-04 0.000E+00
          total   stress  (Ry/bohr**3)                   (kbar)     P=      -28.80
  -0.00019578   0.00000000   0.00000000          -28.80        0.00        0.00
   0.00000000  -0.00019578   0.00000000            0.00      -28.80        0.00
   0.00000000   0.00000000  -0.00019578            0.00        0.00      -28.80


     Writing all to output data dir ./TiFe.save/ :
     XML data file, charge density, pseudopotentials, collected wavefunctions

     init_run     :      1.50s CPU      1.57s WALL (       1 calls)
     electrons    :     82.78s CPU     85.57s WALL (       1 calls)
     forces       :      0.31s CPU      0.33s WALL (       1 calls)
     stress       :      1.76s CPU      1.81s WALL (       1 calls)

     Called by init_run:
     wfcinit      :      0.68s CPU      0.71s WALL (       1 calls)
     potinit      :      0.38s CPU      0.38s WALL (       1 calls)
     hinit0       :      0.26s CPU      0.26s WALL (       1 calls)

     Called by electrons:
     c_bands      :     57.14s CPU     58.36s WALL (      45 calls)
     sum_band     :     15.89s CPU     16.73s WALL (      45 calls)
     v_of_rho     :      1.10s CPU      1.18s WALL (      46 calls)
     newd         :      6.06s CPU      6.65s WALL (      46 calls)
     PAW_pot      :      2.52s CPU      2.57s WALL (      46 calls)
     mix_rho      :      0.14s CPU      0.15s WALL (      45 calls)

     Called by c_bands:
     init_us_2    :      1.60s CPU      1.64s WALL (   11160 calls)
     cegterg      :     54.00s CPU     55.15s WALL (    5400 calls)

     Called by *egterg:
     cdiaghg      :      5.71s CPU      5.82s WALL (   18127 calls)
     h_psi        :     42.15s CPU     43.09s WALL (   18247 calls)
     s_psi        :      1.03s CPU      1.06s WALL (   18247 calls)
     g_psi        :      0.23s CPU      0.24s WALL (   12727 calls)

     Called by h_psi:
     h_psi:calbec :      1.65s CPU      1.69s WALL (   18247 calls)
     vloc_psi     :     39.26s CPU     40.15s WALL (   18247 calls)
     add_vuspsi   :      1.05s CPU      1.08s WALL (   18247 calls)

     General routines
     calbec       :      2.48s CPU      2.54s WALL (   25687 calls)
     fft          :      0.85s CPU      0.97s WALL (     621 calls)
     ffts         :      0.29s CPU      0.29s WALL (      91 calls)
     fftw         :     37.56s CPU     38.37s WALL (  560142 calls)
     interpolate  :      0.34s CPU      0.36s WALL (      46 calls)

     Parallel routines

     PWSCF        :     86.77s CPU     89.93s WALL


   This run was terminated on:  15:11:39  28Oct2025            

=------------------------------------------------------------------------------=
   JOB DONE.
=------------------------------------------------------------------------------=
