
     Program PWSCF v.7.4 starts on 28Oct2025 at 15:20:37 

     This program is part of the open-source Quantum ESPRESSO suite
     for quantum simulation of materials; please cite
         "P. Giannozzi et al., J. Phys.:Condens. Matter 21 395502 (2009);
         "P. Giannozzi et al., J. Phys.:Condens. Matter 29 465901 (2017);
         "P. Giannozzi et al., J. Chem. Phys. 152 154105 (2020);
          URL http://www.quantum-espresso.org", 
     in publications or presentations arising from this work. More details at
     http://www.quantum-espresso.org/quote

     Parallel version (MPI & OpenMP), running on       8 processor cores
     Number of MPI processes:                 8
     Threads/MPI process:                     1

     MPI processes distributed on     1 nodes
     226591 MiB available memory on the printing compute node when the environment starts

     Reading input from TiFe_22.in

     Current dimensions of program PWSCF are:
     Max number of different atomic species (ntypx) = 10
     Max number of k-points (npk) =  40000
     Max angular momentum in pseudopotentials (lmaxx) =  4
     file Fe.pbe-spn-kjpaw_psl.0.2.1.UPF: wavefunction(s)  3D renormalized

     IMPORTANT: XC functional enforced from input :
     Exchange-correlation= PBE
                           (   1   4   3   4   0   0   0)
     Any further DFT definition will be discarded
     Please, verify this is what you really want

     Message from routine setup:
     using ibrav=0 with symmetry is DISCOURAGED, use correct ibrav instead

     R & G space division:  proc/nbgrp/npool/nimage =       8
     Subspace diagonalization in iterative solution of the eigenvalue problem:
     a serial algorithm will be used


     Parallelization info
     --------------------
     sticks:   dense  smooth     PW     G-vecs:    dense   smooth      PW
     Min         568     163     46                28896     4437     686
     Max         569     164     47                28899     4442     689
     Sum        4545    1305    373               231181    35513    5497

     Using Slab Decomposition



     bravais-lattice index     =            0
     lattice parameter (alat)  =       5.7423  a.u.
     unit-cell volume          =     189.3440 (a.u.)^3
     number of atoms/cell      =            2
     number of atomic types    =            2
     number of electrons       =        28.00
     number of Kohn-Sham states=           18
     kinetic-energy cutoff     =     124.0000  Ry
     charge density cutoff     =    1736.0000  Ry
     scf convergence threshold =      1.0E-08
     mixing beta               =       0.7000
     number of iterations used =            8  plain     mixing
     Exchange-correlation= PBE
                           (   1   4   3   4   0   0   0)

     celldm(1)=   5.742273  celldm(2)=   0.000000  celldm(3)=   0.000000
     celldm(4)=   0.000000  celldm(5)=   0.000000  celldm(6)=   0.000000

     crystal axes: (cart. coord. in units of alat)
               a(1) = (   1.000000   0.000000   0.000000 )  
               a(2) = (   0.000000   1.000000   0.000000 )  
               a(3) = (   0.000000   0.000000   1.000000 )  

     reciprocal axes: (cart. coord. in units 2 pi/alat)
               b(1) = (  1.000000  0.000000  0.000000 )  
               b(2) = (  0.000000  1.000000  0.000000 )  
               b(3) = (  0.000000  0.000000  1.000000 )  


     PseudoPot. # 1 for Fe read from file:
     ../../pseudos/Fe.pbe-spn-kjpaw_psl.0.2.1.UPF
     MD5 check sum: e86618425769142926afa95317d90200
     Pseudo is Projector augmented-wave + core cor, Zval = 16.0
     Generated using "atomic" code by A. Dal Corso  v.5.0.99 svn rev. 10869
     Shape of augmentation charge: PSQ
     Using radial grid of 1191 points,  6 beta functions with: 
                l(1) =   0
                l(2) =   0
                l(3) =   1
                l(4) =   1
                l(5) =   2
                l(6) =   2
     Q(r) pseudized with 0 coefficients 


     PseudoPot. # 2 for Ti read from file:
     ../../pseudos/ti_pbe_v1.4.uspp.F.UPF
     MD5 check sum: 88a00a6731bd790ddea75d31a80cb452
     Pseudo is Ultrasoft + core correction, Zval = 12.0
     Generated by new atomic code, or converted to UPF format
     Using radial grid of  851 points,  6 beta functions with: 
                l(1) =   0
                l(2) =   0
                l(3) =   1
                l(4) =   1
                l(5) =   2
                l(6) =   2
     Q(r) pseudized with  6 coefficients,  rinner =    1.000   1.000   1.000
                                                       1.000   1.000

     atomic species   valence    mass     pseudopotential
     Fe               16.00    55.84500     Fe( 1.00)
     Ti               12.00    47.86700     Ti( 1.00)

     48 Sym. Ops., with inversion, found



   Cartesian axes

     site n.     atom                  positions (alat units)
         1        Fe     tau(   1) = (   0.5000000   0.5000000   0.5000000  )
         2        Ti     tau(   2) = (   0.0000000   0.0000000   0.0000000  )

     number of k points=   120  Marzari-Vanderbilt smearing, width (Ry)=  0.0050

     Number of k-points >= 100: set verbosity='high' to print them.

     Dense  grid:   231181 G-vectors     FFT dimensions: (  80,  80,  80)

     Smooth grid:    35513 G-vectors     FFT dimensions: (  45,  45,  45)

     Estimated max dynamical RAM per process >     131.03 MB

     Estimated total dynamical RAM >       1.02 GB

     Check: negative core charge=   -0.000001

     Initial potential from superposition of free atoms

     starting charge      26.9995, renormalised to      28.0000

     negative rho (up, down):  1.335E-03 0.000E+00
     Starting wfcs are   23 randomized atomic wfcs
     Checking if some PAW data can be deallocated... 

     total cpu time spent up to now is        2.3 secs

     per-process dynamical memory:   147.3 Mb

     Self-consistent Calculation

     iteration #  1     ecut=   124.00 Ry     beta= 0.70
     Davidson diagonalization with overlap
     ethr =  1.00E-02,  avg # of iterations =  2.2

     negative rho (up, down):  9.325E-05 0.000E+00

     total cpu time spent up to now is        5.1 secs

     total energy              =    -432.94551008 Ry
     estimated scf accuracy    <      19.80651748 Ry

     iteration #  2     ecut=   124.00 Ry     beta= 0.70
     Davidson diagonalization with overlap
     ethr =  1.00E-02,  avg # of iterations =  6.1

     negative rho (up, down):  1.173E-05 0.000E+00

     total cpu time spent up to now is        9.8 secs

     total energy              =    -447.88324027 Ry
     estimated scf accuracy    <      76.04877391 Ry

     iteration #  3     ecut=   124.00 Ry     beta= 0.70
     Davidson diagonalization with overlap
     ethr =  1.00E-02,  avg # of iterations =  3.2

     negative rho (up, down):  1.393E-04 0.000E+00

     total cpu time spent up to now is       13.0 secs

     total energy              =    -449.04644338 Ry
     estimated scf accuracy    <      18.52995419 Ry

     iteration #  4     ecut=   124.00 Ry     beta= 0.70
     Davidson diagonalization with overlap
     ethr =  1.00E-02,  avg # of iterations =  2.1

     negative rho (up, down):  2.573E-04 0.000E+00

     total cpu time spent up to now is       15.7 secs

     total energy              =    -449.15647004 Ry
     estimated scf accuracy    <       6.95424473 Ry

     iteration #  5     ecut=   124.00 Ry     beta= 0.70
     Davidson diagonalization with overlap
     ethr =  1.00E-02,  avg # of iterations =  1.0

     negative rho (up, down):  5.041E-04 0.000E+00

     total cpu time spent up to now is       18.0 secs

     total energy              =    -448.84226169 Ry
     estimated scf accuracy    <       5.04761476 Ry

     iteration #  6     ecut=   124.00 Ry     beta= 0.70
     Davidson diagonalization with overlap
     ethr =  1.00E-02,  avg # of iterations =  1.2

     negative rho (up, down):  1.190E-03 0.000E+00

     total cpu time spent up to now is       20.3 secs

     total energy              =    -447.76734147 Ry
     estimated scf accuracy    <       3.80082544 Ry

     iteration #  7     ecut=   124.00 Ry     beta= 0.70
     Davidson diagonalization with overlap
     ethr =  1.00E-02,  avg # of iterations =  3.9

     negative rho (up, down):  4.353E-04 0.000E+00

     total cpu time spent up to now is       23.1 secs

     total energy              =    -446.96984350 Ry
     estimated scf accuracy    <      13.44185654 Ry

     iteration #  8     ecut=   124.00 Ry     beta= 0.70
     Davidson diagonalization with overlap
     ethr =  1.00E-02,  avg # of iterations =  3.4

     negative rho (up, down):  7.323E-04 0.000E+00

     total cpu time spent up to now is       25.8 secs

     total energy              =    -448.42381417 Ry
     estimated scf accuracy    <       3.33152441 Ry

     iteration #  9     ecut=   124.00 Ry     beta= 0.70
     Davidson diagonalization with overlap
     ethr =  1.00E-02,  avg # of iterations =  1.0

     negative rho (up, down):  7.084E-04 0.000E+00

     total cpu time spent up to now is       28.1 secs

     total energy              =    -448.58250537 Ry
     estimated scf accuracy    <       0.12529976 Ry

     iteration # 10     ecut=   124.00 Ry     beta= 0.70
     Davidson diagonalization with overlap
     ethr =  4.47E-04,  avg # of iterations =  3.1

     negative rho (up, down):  7.517E-04 0.000E+00

     total cpu time spent up to now is       30.6 secs

     total energy              =    -448.57538723 Ry
     estimated scf accuracy    <       0.17006914 Ry

     iteration # 11     ecut=   124.00 Ry     beta= 0.70
     Davidson diagonalization with overlap
     ethr =  4.47E-04,  avg # of iterations =  1.5

     negative rho (up, down):  7.450E-04 0.000E+00

     total cpu time spent up to now is       32.9 secs

     total energy              =    -448.58660079 Ry
     estimated scf accuracy    <       0.03296712 Ry

     iteration # 12     ecut=   124.00 Ry     beta= 0.70
     Davidson diagonalization with overlap
     ethr =  1.18E-04,  avg # of iterations =  2.7

     negative rho (up, down):  7.570E-04 0.000E+00

     total cpu time spent up to now is       35.4 secs

     total energy              =    -448.58775801 Ry
     estimated scf accuracy    <       0.03791904 Ry

     iteration # 13     ecut=   124.00 Ry     beta= 0.70
     Davidson diagonalization with overlap
     ethr =  1.18E-04,  avg # of iterations =  1.1

     negative rho (up, down):  7.672E-04 0.000E+00

     total cpu time spent up to now is       37.7 secs

     total energy              =    -448.58941814 Ry
     estimated scf accuracy    <       0.08223090 Ry

     iteration # 14     ecut=   124.00 Ry     beta= 0.70
     Davidson diagonalization with overlap
     ethr =  1.18E-04,  avg # of iterations =  1.0

     negative rho (up, down):  5.875E-04 0.000E+00

     total cpu time spent up to now is       40.0 secs

     total energy              =    -448.61318698 Ry
     estimated scf accuracy    <       0.06437355 Ry

     iteration # 15     ecut=   124.00 Ry     beta= 0.70
     Davidson diagonalization with overlap
     ethr =  1.18E-04,  avg # of iterations =  3.4

     negative rho (up, down):  7.241E-04 0.000E+00

     total cpu time spent up to now is       42.7 secs

     total energy              =    -448.59792857 Ry
     estimated scf accuracy    <       0.39746579 Ry

     iteration # 16     ecut=   124.00 Ry     beta= 0.70
     Davidson diagonalization with overlap
     ethr =  1.18E-04,  avg # of iterations =  1.2

     negative rho (up, down):  8.874E-04 0.000E+00

     total cpu time spent up to now is       45.0 secs

     total energy              =    -448.58535577 Ry
     estimated scf accuracy    <       0.22492247 Ry

     iteration # 17     ecut=   124.00 Ry     beta= 0.70
     Davidson diagonalization with overlap
     ethr =  1.18E-04,  avg # of iterations =  2.1

     negative rho (up, down):  9.652E-04 0.000E+00

     total cpu time spent up to now is       47.5 secs

     total energy              =    -448.57264637 Ry
     estimated scf accuracy    <       0.14387607 Ry

     iteration # 18     ecut=   124.00 Ry     beta= 0.70
     Davidson diagonalization with overlap
     ethr =  1.18E-04,  avg # of iterations =  2.8

     negative rho (up, down):  8.898E-04 0.000E+00

     total cpu time spent up to now is       50.0 secs

     total energy              =    -448.58158397 Ry
     estimated scf accuracy    <       0.00492664 Ry

     iteration # 19     ecut=   124.00 Ry     beta= 0.70
     Davidson diagonalization with overlap
     ethr =  1.76E-05,  avg # of iterations =  3.3

     negative rho (up, down):  9.964E-04 0.000E+00

     total cpu time spent up to now is       52.8 secs

     total energy              =    -448.57248435 Ry
     estimated scf accuracy    <       0.06127376 Ry

     iteration # 20     ecut=   124.00 Ry     beta= 0.70
     Davidson diagonalization with overlap
     ethr =  1.76E-05,  avg # of iterations =  5.2

     negative rho (up, down):  9.883E-04 0.000E+00

     total cpu time spent up to now is       56.3 secs

     total energy              =    -448.57995732 Ry
     estimated scf accuracy    <       0.01129820 Ry

     iteration # 21     ecut=   124.00 Ry     beta= 0.70
     Davidson diagonalization with overlap
     ethr =  1.76E-05,  avg # of iterations =  1.0

     negative rho (up, down):  9.373E-04 0.000E+00

     total cpu time spent up to now is       58.6 secs

     total energy              =    -448.57705080 Ry
     estimated scf accuracy    <       0.01322779 Ry

     iteration # 22     ecut=   124.00 Ry     beta= 0.70
     Davidson diagonalization with overlap
     ethr =  1.76E-05,  avg # of iterations =  4.0

     negative rho (up, down):  9.526E-04 0.000E+00

     total cpu time spent up to now is       61.4 secs

     total energy              =    -448.57782016 Ry
     estimated scf accuracy    <       0.01263305 Ry

     iteration # 23     ecut=   124.00 Ry     beta= 0.70
     Davidson diagonalization with overlap
     ethr =  1.76E-05,  avg # of iterations =  3.4

     negative rho (up, down):  9.289E-04 0.000E+00

     total cpu time spent up to now is       63.9 secs

     total energy              =    -448.57889520 Ry
     estimated scf accuracy    <       0.00347124 Ry

     iteration # 24     ecut=   124.00 Ry     beta= 0.70
     Davidson diagonalization with overlap
     ethr =  1.24E-05,  avg # of iterations =  1.2

     negative rho (up, down):  9.330E-04 0.000E+00

     total cpu time spent up to now is       66.2 secs

     total energy              =    -448.57914971 Ry
     estimated scf accuracy    <       0.00004527 Ry

     iteration # 25     ecut=   124.00 Ry     beta= 0.70
     Davidson diagonalization with overlap
     ethr =  1.62E-07,  avg # of iterations =  4.7

     negative rho (up, down):  9.329E-04 0.000E+00

     total cpu time spent up to now is       69.0 secs

     total energy              =    -448.57916864 Ry
     estimated scf accuracy    <       0.00003408 Ry

     iteration # 26     ecut=   124.00 Ry     beta= 0.70
     Davidson diagonalization with overlap
     ethr =  1.22E-07,  avg # of iterations =  1.0

     negative rho (up, down):  9.330E-04 0.000E+00

     total cpu time spent up to now is       71.3 secs

     total energy              =    -448.57917003 Ry
     estimated scf accuracy    <       0.00000198 Ry

     iteration # 27     ecut=   124.00 Ry     beta= 0.70
     Davidson diagonalization with overlap
     ethr =  7.08E-09,  avg # of iterations =  4.3

     negative rho (up, down):  9.331E-04 0.000E+00

     total cpu time spent up to now is       74.4 secs

     total energy              =    -448.57917068 Ry
     estimated scf accuracy    <       0.00000011 Ry

     iteration # 28     ecut=   124.00 Ry     beta= 0.70
     Davidson diagonalization with overlap
     ethr =  4.08E-10,  avg # of iterations =  5.1

     negative rho (up, down):  9.331E-04 0.000E+00

     total cpu time spent up to now is       77.8 secs

     total energy              =    -448.57917062 Ry
     estimated scf accuracy    <       0.00000190 Ry

     iteration # 29     ecut=   124.00 Ry     beta= 0.70
     Davidson diagonalization with overlap
     ethr =  4.08E-10,  avg # of iterations =  3.8

     negative rho (up, down):  9.331E-04 0.000E+00

     total cpu time spent up to now is       80.6 secs

     total energy              =    -448.57917068 Ry
     estimated scf accuracy    <       0.00000023 Ry

     iteration # 30     ecut=   124.00 Ry     beta= 0.70
     Davidson diagonalization with overlap
     ethr =  4.08E-10,  avg # of iterations =  1.0

     negative rho (up, down):  9.331E-04 0.000E+00

     total cpu time spent up to now is       82.9 secs

     total energy              =    -448.57917066 Ry
     estimated scf accuracy    <       0.00000012 Ry

     iteration # 31     ecut=   124.00 Ry     beta= 0.70
     Davidson diagonalization with overlap
     ethr =  4.08E-10,  avg # of iterations =  1.9

     negative rho (up, down):  9.330E-04 0.000E+00

     total cpu time spent up to now is       85.3 secs

     End of self-consistent calculation

     Number of k-points >= 100: set verbosity='high' to print the bands.

     the Fermi energy is    15.7020 ev

!    total energy              =    -448.57917067 Ry
     estimated scf accuracy    <          2.4E-09 Ry
     smearing contrib. (-TS)   =      -0.00000808 Ry
     internal energy E=F+TS    =    -448.57916259 Ry

     The total energy is F=E-TS. E is the sum of the following terms:
     one-electron contribution =    -164.61072661 Ry
     hartree contribution      =      96.17755698 Ry
     xc contribution           =     -52.72419106 Ry
     ewald contribution        =    -251.27025643 Ry
     one-center paw contrib.   =     -76.15154547 Ry

     convergence has been achieved in  31 iterations

     negative rho (up, down):  9.330E-04 0.000E+00

     Forces acting on atoms (cartesian axes, Ry/au):

     atom    1 type  1   force =     0.00000000    0.00000000    0.00000000
     atom    2 type  2   force =     0.00000000    0.00000000    0.00000000

     Total force =     0.000000     Total SCF correction =     0.000000


     Computing stress (Cartesian axis) and pressure


     negative rho (up, down):  9.330E-04 0.000E+00
          total   stress  (Ry/bohr**3)                   (kbar)     P=     -137.91
  -0.00093748   0.00000000   0.00000000         -137.91        0.00        0.00
   0.00000000  -0.00093748   0.00000000            0.00     -137.91        0.00
   0.00000000   0.00000000  -0.00093748            0.00        0.00     -137.91


     Writing all to output data dir ./TiFe.save/ :
     XML data file, charge density, pseudopotentials, collected wavefunctions

     init_run     :      2.05s CPU      2.11s WALL (       1 calls)
     electrons    :     80.74s CPU     83.04s WALL (       1 calls)
     forces       :      0.34s CPU      0.36s WALL (       1 calls)
     stress       :      1.89s CPU      1.95s WALL (       1 calls)

     Called by init_run:
     wfcinit      :      1.00s CPU      1.03s WALL (       1 calls)
     potinit      :      0.20s CPU      0.21s WALL (       1 calls)
     hinit0       :      0.64s CPU      0.65s WALL (       1 calls)

     Called by electrons:
     c_bands      :     58.99s CPU     60.02s WALL (      31 calls)
     sum_band     :     14.64s CPU     15.34s WALL (      31 calls)
     v_of_rho     :      0.87s CPU      0.94s WALL (      32 calls)
     newd         :      4.51s CPU      4.97s WALL (      32 calls)
     PAW_pot      :      1.75s CPU      1.79s WALL (      32 calls)
     mix_rho      :      0.09s CPU      0.10s WALL (      31 calls)

     Called by c_bands:
     init_us_2    :      1.23s CPU      1.26s WALL (    7800 calls)
     cegterg      :     56.63s CPU     57.61s WALL (    3720 calls)

     Called by *egterg:
     cdiaghg      :      4.28s CPU      4.35s WALL (   13650 calls)
     h_psi        :     47.85s CPU     48.69s WALL (   13770 calls)
     s_psi        :      0.76s CPU      0.77s WALL (   13770 calls)
     g_psi        :      0.18s CPU      0.19s WALL (    9930 calls)

     Called by h_psi:
     h_psi:calbec :      1.32s CPU      1.35s WALL (   13770 calls)
     vloc_psi     :     45.60s CPU     46.40s WALL (   13770 calls)
     add_vuspsi   :      0.78s CPU      0.80s WALL (   13770 calls)

     General routines
     calbec       :      1.96s CPU      2.00s WALL (   19530 calls)
     fft          :      1.04s CPU      1.15s WALL (     439 calls)
     ffts         :      0.12s CPU      0.12s WALL (      63 calls)
     fftw         :     46.85s CPU     47.66s WALL (  393936 calls)
     interpolate  :      0.16s CPU      0.17s WALL (      32 calls)

     Parallel routines

     PWSCF        :     85.42s CPU     88.14s WALL


   This run was terminated on:  15:22: 5  28Oct2025            

=------------------------------------------------------------------------------=
   JOB DONE.
=------------------------------------------------------------------------------=
