
     Program PWSCF v.7.4 starts on 28Oct2025 at 15:19:20 

     This program is part of the open-source Quantum ESPRESSO suite
     for quantum simulation of materials; please cite
         "P. Giannozzi et al., J. Phys.:Condens. Matter 21 395502 (2009);
         "P. Giannozzi et al., J. Phys.:Condens. Matter 29 465901 (2017);
         "P. Giannozzi et al., J. Chem. Phys. 152 154105 (2020);
          URL http://www.quantum-espresso.org", 
     in publications or presentations arising from this work. More details at
     http://www.quantum-espresso.org/quote

     Parallel version (MPI & OpenMP), running on       8 processor cores
     Number of MPI processes:                 8
     Threads/MPI process:                     1

     MPI processes distributed on     1 nodes
     226462 MiB available memory on the printing compute node when the environment starts

     Reading input from TiFe_21.in

     Current dimensions of program PWSCF are:
     Max number of different atomic species (ntypx) = 10
     Max number of k-points (npk) =  40000
     Max angular momentum in pseudopotentials (lmaxx) =  4
     file Fe.pbe-spn-kjpaw_psl.0.2.1.UPF: wavefunction(s)  3D renormalized

     IMPORTANT: XC functional enforced from input :
     Exchange-correlation= PBE
                           (   1   4   3   4   0   0   0)
     Any further DFT definition will be discarded
     Please, verify this is what you really want

     Message from routine setup:
     using ibrav=0 with symmetry is DISCOURAGED, use correct ibrav instead

     R & G space division:  proc/nbgrp/npool/nimage =       8
     Subspace diagonalization in iterative solution of the eigenvalue problem:
     a serial algorithm will be used


     Parallelization info
     --------------------
     sticks:   dense  smooth     PW     G-vecs:    dense   smooth      PW
     Min         563     163     46                28574     4379     680
     Max         565     164     47                28577     4380     683
     Sum        4509    1305    373               228607    35033    5449

     Using Slab Decomposition



     bravais-lattice index     =            0
     lattice parameter (alat)  =       5.7234  a.u.
     unit-cell volume          =     187.4808 (a.u.)^3
     number of atoms/cell      =            2
     number of atomic types    =            2
     number of electrons       =        28.00
     number of Kohn-Sham states=           18
     kinetic-energy cutoff     =     124.0000  Ry
     charge density cutoff     =    1736.0000  Ry
     scf convergence threshold =      1.0E-08
     mixing beta               =       0.7000
     number of iterations used =            8  plain     mixing
     Exchange-correlation= PBE
                           (   1   4   3   4   0   0   0)

     celldm(1)=   5.723376  celldm(2)=   0.000000  celldm(3)=   0.000000
     celldm(4)=   0.000000  celldm(5)=   0.000000  celldm(6)=   0.000000

     crystal axes: (cart. coord. in units of alat)
               a(1) = (   1.000000   0.000000   0.000000 )  
               a(2) = (   0.000000   1.000000   0.000000 )  
               a(3) = (   0.000000   0.000000   1.000000 )  

     reciprocal axes: (cart. coord. in units 2 pi/alat)
               b(1) = (  1.000000  0.000000  0.000000 )  
               b(2) = (  0.000000  1.000000  0.000000 )  
               b(3) = (  0.000000  0.000000  1.000000 )  


     PseudoPot. # 1 for Fe read from file:
     ../../pseudos/Fe.pbe-spn-kjpaw_psl.0.2.1.UPF
     MD5 check sum: e86618425769142926afa95317d90200
     Pseudo is Projector augmented-wave + core cor, Zval = 16.0
     Generated using "atomic" code by A. Dal Corso  v.5.0.99 svn rev. 10869
     Shape of augmentation charge: PSQ
     Using radial grid of 1191 points,  6 beta functions with: 
                l(1) =   0
                l(2) =   0
                l(3) =   1
                l(4) =   1
                l(5) =   2
                l(6) =   2
     Q(r) pseudized with 0 coefficients 


     PseudoPot. # 2 for Ti read from file:
     ../../pseudos/ti_pbe_v1.4.uspp.F.UPF
     MD5 check sum: 88a00a6731bd790ddea75d31a80cb452
     Pseudo is Ultrasoft + core correction, Zval = 12.0
     Generated by new atomic code, or converted to UPF format
     Using radial grid of  851 points,  6 beta functions with: 
                l(1) =   0
                l(2) =   0
                l(3) =   1
                l(4) =   1
                l(5) =   2
                l(6) =   2
     Q(r) pseudized with  6 coefficients,  rinner =    1.000   1.000   1.000
                                                       1.000   1.000

     atomic species   valence    mass     pseudopotential
     Fe               16.00    55.84500     Fe( 1.00)
     Ti               12.00    47.86700     Ti( 1.00)

     48 Sym. Ops., with inversion, found



   Cartesian axes

     site n.     atom                  positions (alat units)
         1        Fe     tau(   1) = (   0.5000000   0.5000000   0.5000000  )
         2        Ti     tau(   2) = (   0.0000000   0.0000000   0.0000000  )

     number of k points=   120  Marzari-Vanderbilt smearing, width (Ry)=  0.0050

     Number of k-points >= 100: set verbosity='high' to print them.

     Dense  grid:   228607 G-vectors     FFT dimensions: (  75,  75,  75)

     Smooth grid:    35033 G-vectors     FFT dimensions: (  45,  45,  45)

     Estimated max dynamical RAM per process >     129.20 MB

     Estimated total dynamical RAM >       1.01 GB

     Check: negative core charge=   -0.000001

     Initial potential from superposition of free atoms

     starting charge      26.9995, renormalised to      28.0000

     negative rho (up, down):  1.383E-03 0.000E+00
     Starting wfcs are   23 randomized atomic wfcs
     Checking if some PAW data can be deallocated... 

     total cpu time spent up to now is        1.9 secs

     per-process dynamical memory:   146.7 Mb

     Self-consistent Calculation

     iteration #  1     ecut=   124.00 Ry     beta= 0.70
     Davidson diagonalization with overlap
     ethr =  1.00E-02,  avg # of iterations =  2.2

     negative rho (up, down):  1.241E-04 0.000E+00

     total cpu time spent up to now is        4.6 secs

     total energy              =    -433.14089994 Ry
     estimated scf accuracy    <      19.57247437 Ry

     iteration #  2     ecut=   124.00 Ry     beta= 0.70
     Davidson diagonalization with overlap
     ethr =  1.00E-02,  avg # of iterations =  6.1

     negative rho (up, down):  1.497E-05 0.000E+00

     total cpu time spent up to now is        9.3 secs

     total energy              =    -448.00048085 Ry
     estimated scf accuracy    <      74.86069701 Ry

     iteration #  3     ecut=   124.00 Ry     beta= 0.70
     Davidson diagonalization with overlap
     ethr =  1.00E-02,  avg # of iterations =  3.2

     negative rho (up, down):  1.562E-04 0.000E+00

     total cpu time spent up to now is       12.5 secs

     total energy              =    -448.97609063 Ry
     estimated scf accuracy    <      18.36105810 Ry

     iteration #  4     ecut=   124.00 Ry     beta= 0.70
     Davidson diagonalization with overlap
     ethr =  1.00E-02,  avg # of iterations =  2.1

     negative rho (up, down):  2.329E-04 0.000E+00

     total cpu time spent up to now is       15.2 secs

     total energy              =    -449.15878515 Ry
     estimated scf accuracy    <       6.64029721 Ry

     iteration #  5     ecut=   124.00 Ry     beta= 0.70
     Davidson diagonalization with overlap
     ethr =  1.00E-02,  avg # of iterations =  1.1

     negative rho (up, down):  5.273E-04 0.000E+00

     total cpu time spent up to now is       17.5 secs

     total energy              =    -448.83082795 Ry
     estimated scf accuracy    <       4.98629811 Ry

     iteration #  6     ecut=   124.00 Ry     beta= 0.70
     Davidson diagonalization with overlap
     ethr =  1.00E-02,  avg # of iterations =  1.2

     negative rho (up, down):  1.092E-03 0.000E+00

     total cpu time spent up to now is       19.7 secs

     total energy              =    -447.94857926 Ry
     estimated scf accuracy    <       3.72602798 Ry

     iteration #  7     ecut=   124.00 Ry     beta= 0.70
     Davidson diagonalization with overlap
     ethr =  1.00E-02,  avg # of iterations =  3.4

     negative rho (up, down):  6.044E-04 0.000E+00

     total cpu time spent up to now is       22.4 secs

     total energy              =    -447.94003320 Ry
     estimated scf accuracy    <       5.72911954 Ry

     iteration #  8     ecut=   124.00 Ry     beta= 0.70
     Davidson diagonalization with overlap
     ethr =  1.00E-02,  avg # of iterations =  2.2

     negative rho (up, down):  7.982E-04 0.000E+00

     total cpu time spent up to now is       24.8 secs

     total energy              =    -448.63747866 Ry
     estimated scf accuracy    <       1.17679970 Ry

     iteration #  9     ecut=   124.00 Ry     beta= 0.70
     Davidson diagonalization with overlap
     ethr =  4.20E-03,  avg # of iterations =  1.1

     negative rho (up, down):  1.020E-03 0.000E+00

     total cpu time spent up to now is       27.1 secs

     total energy              =    -448.52726701 Ry
     estimated scf accuracy    <       1.02308274 Ry

     iteration # 10     ecut=   124.00 Ry     beta= 0.70
     Davidson diagonalization with overlap
     ethr =  3.65E-03,  avg # of iterations =  1.1

     negative rho (up, down):  9.076E-04 0.000E+00

     total cpu time spent up to now is       29.3 secs

     total energy              =    -448.58142644 Ry
     estimated scf accuracy    <       0.01107341 Ry

     iteration # 11     ecut=   124.00 Ry     beta= 0.70
     Davidson diagonalization with overlap
     ethr =  3.95E-05,  avg # of iterations =  5.7

     negative rho (up, down):  9.071E-04 0.000E+00

     total cpu time spent up to now is       32.8 secs

     total energy              =    -448.60326913 Ry
     estimated scf accuracy    <       0.28348317 Ry

     iteration # 12     ecut=   124.00 Ry     beta= 0.70
     Davidson diagonalization with overlap
     ethr =  3.95E-05,  avg # of iterations =  1.2

     negative rho (up, down):  1.060E-03 0.000E+00

     total cpu time spent up to now is       35.1 secs

     total energy              =    -448.55368031 Ry
     estimated scf accuracy    <       0.40274372 Ry

     iteration # 13     ecut=   124.00 Ry     beta= 0.70
     Davidson diagonalization with overlap
     ethr =  3.95E-05,  avg # of iterations =  5.4

     negative rho (up, down):  1.099E-03 0.000E+00

     total cpu time spent up to now is       38.6 secs

     total energy              =    -448.58944183 Ry
     estimated scf accuracy    <       0.03514593 Ry

     iteration # 14     ecut=   124.00 Ry     beta= 0.70
     Davidson diagonalization with overlap
     ethr =  3.95E-05,  avg # of iterations =  2.0

     negative rho (up, down):  7.934E-04 0.000E+00

     total cpu time spent up to now is       41.0 secs

     total energy              =    -448.55726895 Ry
     estimated scf accuracy    <       0.09332417 Ry

     iteration # 15     ecut=   124.00 Ry     beta= 0.70
     Davidson diagonalization with overlap
     ethr =  3.95E-05,  avg # of iterations =  5.6

     negative rho (up, down):  7.821E-04 0.000E+00

     total cpu time spent up to now is       44.8 secs

     total energy              =    -448.60220647 Ry
     estimated scf accuracy    <       0.15970948 Ry

     iteration # 16     ecut=   124.00 Ry     beta= 0.70
     Davidson diagonalization with overlap
     ethr =  3.95E-05,  avg # of iterations =  1.8

     negative rho (up, down):  9.159E-04 0.000E+00

     total cpu time spent up to now is       47.2 secs

     total energy              =    -448.57318446 Ry
     estimated scf accuracy    <       0.26440236 Ry

     iteration # 17     ecut=   124.00 Ry     beta= 0.70
     Davidson diagonalization with overlap
     ethr =  3.95E-05,  avg # of iterations =  4.1

     negative rho (up, down):  8.926E-04 0.000E+00

     total cpu time spent up to now is       50.4 secs

     total energy              =    -448.58380184 Ry
     estimated scf accuracy    <       0.02975900 Ry

     iteration # 18     ecut=   124.00 Ry     beta= 0.70
     Davidson diagonalization with overlap
     ethr =  3.95E-05,  avg # of iterations =  1.0

     negative rho (up, down):  9.850E-04 0.000E+00

     total cpu time spent up to now is       52.6 secs

     total energy              =    -448.57707712 Ry
     estimated scf accuracy    <       0.05389253 Ry

     iteration # 19     ecut=   124.00 Ry     beta= 0.70
     Davidson diagonalization with overlap
     ethr =  3.95E-05,  avg # of iterations =  3.2

     negative rho (up, down):  9.797E-04 0.000E+00

     total cpu time spent up to now is       55.2 secs

     total energy              =    -448.58066770 Ry
     estimated scf accuracy    <       0.00054325 Ry

     iteration # 20     ecut=   124.00 Ry     beta= 0.70
     Davidson diagonalization with overlap
     ethr =  1.94E-06,  avg # of iterations =  4.0

     negative rho (up, down):  9.776E-04 0.000E+00

     total cpu time spent up to now is       58.1 secs

     total energy              =    -448.58080803 Ry
     estimated scf accuracy    <       0.00005278 Ry

     iteration # 21     ecut=   124.00 Ry     beta= 0.70
     Davidson diagonalization with overlap
     ethr =  1.89E-07,  avg # of iterations =  3.2

     negative rho (up, down):  9.757E-04 0.000E+00

     total cpu time spent up to now is       60.7 secs

     total energy              =    -448.58081597 Ry
     estimated scf accuracy    <       0.00000776 Ry

     iteration # 22     ecut=   124.00 Ry     beta= 0.70
     Davidson diagonalization with overlap
     ethr =  2.77E-08,  avg # of iterations =  3.0

     negative rho (up, down):  9.753E-04 0.000E+00

     total cpu time spent up to now is       63.3 secs

     total energy              =    -448.58081673 Ry
     estimated scf accuracy    <       0.00000491 Ry

     iteration # 23     ecut=   124.00 Ry     beta= 0.70
     Davidson diagonalization with overlap
     ethr =  1.75E-08,  avg # of iterations =  1.0

     negative rho (up, down):  9.740E-04 0.000E+00

     total cpu time spent up to now is       65.6 secs

     total energy              =    -448.58081649 Ry
     estimated scf accuracy    <       0.00000337 Ry

     iteration # 24     ecut=   124.00 Ry     beta= 0.70
     Davidson diagonalization with overlap
     ethr =  1.20E-08,  avg # of iterations =  1.4

     negative rho (up, down):  9.738E-04 0.000E+00

     total cpu time spent up to now is       67.9 secs

     total energy              =    -448.58081668 Ry
     estimated scf accuracy    <       0.00000009 Ry

     iteration # 25     ecut=   124.00 Ry     beta= 0.70
     Davidson diagonalization with overlap
     ethr =  3.05E-10,  avg # of iterations =  5.2

     negative rho (up, down):  9.738E-04 0.000E+00

     total cpu time spent up to now is       71.5 secs

     total energy              =    -448.58081679 Ry
     estimated scf accuracy    <       0.00000002 Ry

     iteration # 26     ecut=   124.00 Ry     beta= 0.70
     Davidson diagonalization with overlap
     ethr =  5.61E-11,  avg # of iterations =  1.8

     negative rho (up, down):  9.738E-04 0.000E+00

     total cpu time spent up to now is       73.9 secs

     End of self-consistent calculation

     Number of k-points >= 100: set verbosity='high' to print the bands.

     the Fermi energy is    15.8934 ev

!    total energy              =    -448.58081678 Ry
     estimated scf accuracy    <          5.8E-09 Ry
     smearing contrib. (-TS)   =      -0.00001095 Ry
     internal energy E=F+TS    =    -448.58080583 Ry

     The total energy is F=E-TS. E is the sum of the following terms:
     one-electron contribution =    -163.31792178 Ry
     hartree contribution      =      95.72819041 Ry
     xc contribution           =     -52.73941200 Ry
     ewald contribution        =    -252.09989263 Ry
     one-center paw contrib.   =     -76.15176984 Ry

     convergence has been achieved in  26 iterations

     negative rho (up, down):  9.738E-04 0.000E+00

     Forces acting on atoms (cartesian axes, Ry/au):

     atom    1 type  1   force =     0.00000000    0.00000000    0.00000000
     atom    2 type  2   force =     0.00000000    0.00000000    0.00000000

     Total force =     0.000000     Total SCF correction =     0.000000


     Computing stress (Cartesian axis) and pressure


     negative rho (up, down):  9.738E-04 0.000E+00
          total   stress  (Ry/bohr**3)                   (kbar)     P=     -124.30
  -0.00084498   0.00000000   0.00000000         -124.30        0.00        0.00
   0.00000000  -0.00084498   0.00000000            0.00     -124.30        0.00
   0.00000000   0.00000000  -0.00084498            0.00        0.00     -124.30


     Writing all to output data dir ./TiFe.save/ :
     XML data file, charge density, pseudopotentials, collected wavefunctions

     init_run     :      1.65s CPU      1.72s WALL (       1 calls)
     electrons    :     70.05s CPU     71.97s WALL (       1 calls)
     forces       :      0.33s CPU      0.35s WALL (       1 calls)
     stress       :      1.86s CPU      1.92s WALL (       1 calls)

     Called by init_run:
     wfcinit      :      0.99s CPU      1.02s WALL (       1 calls)
     potinit      :      0.20s CPU      0.21s WALL (       1 calls)
     hinit0       :      0.25s CPU      0.26s WALL (       1 calls)

     Called by electrons:
     c_bands      :     51.70s CPU     52.60s WALL (      26 calls)
     sum_band     :     12.49s CPU     13.05s WALL (      26 calls)
     v_of_rho     :      0.65s CPU      0.70s WALL (      27 calls)
     newd         :      3.81s CPU      4.16s WALL (      27 calls)
     PAW_pot      :      1.47s CPU      1.51s WALL (      27 calls)
     mix_rho      :      0.08s CPU      0.09s WALL (      26 calls)

     Called by c_bands:
     init_us_2    :      1.06s CPU      1.08s WALL (    6600 calls)
     cegterg      :     49.73s CPU     50.58s WALL (    3120 calls)

     Called by *egterg:
     cdiaghg      :      3.85s CPU      3.92s WALL (   11909 calls)
     h_psi        :     41.82s CPU     42.56s WALL (   12029 calls)
     s_psi        :      0.68s CPU      0.70s WALL (   12029 calls)
     g_psi        :      0.17s CPU      0.17s WALL (    8789 calls)

     Called by h_psi:
     h_psi:calbec :      1.13s CPU      1.15s WALL (   12029 calls)
     vloc_psi     :     39.86s CPU     40.57s WALL (   12029 calls)
     add_vuspsi   :      0.69s CPU      0.71s WALL (   12029 calls)

     General routines
     calbec       :      1.69s CPU      1.72s WALL (   17189 calls)
     fft          :      0.56s CPU      0.65s WALL (     374 calls)
     ffts         :      0.12s CPU      0.12s WALL (      53 calls)
     fftw         :     40.54s CPU     41.23s WALL (  346710 calls)
     interpolate  :      0.14s CPU      0.16s WALL (      27 calls)

     Parallel routines

     PWSCF        :     74.30s CPU     76.62s WALL


   This run was terminated on:  15:20:36  28Oct2025            

=------------------------------------------------------------------------------=
   JOB DONE.
=------------------------------------------------------------------------------=
