
     Program PWSCF v.7.4 starts on 28Oct2025 at 15:16:10 

     This program is part of the open-source Quantum ESPRESSO suite
     for quantum simulation of materials; please cite
         "P. Giannozzi et al., J. Phys.:Condens. Matter 21 395502 (2009);
         "P. Giannozzi et al., J. Phys.:Condens. Matter 29 465901 (2017);
         "P. Giannozzi et al., J. Chem. Phys. 152 154105 (2020);
          URL http://www.quantum-espresso.org", 
     in publications or presentations arising from this work. More details at
     http://www.quantum-espresso.org/quote

     Parallel version (MPI & OpenMP), running on       8 processor cores
     Number of MPI processes:                 8
     Threads/MPI process:                     1

     MPI processes distributed on     1 nodes
     226547 MiB available memory on the printing compute node when the environment starts

     Reading input from TiFe_19.in

     Current dimensions of program PWSCF are:
     Max number of different atomic species (ntypx) = 10
     Max number of k-points (npk) =  40000
     Max angular momentum in pseudopotentials (lmaxx) =  4
     file Fe.pbe-spn-kjpaw_psl.0.2.1.UPF: wavefunction(s)  3D renormalized

     IMPORTANT: XC functional enforced from input :
     Exchange-correlation= PBE
                           (   1   4   3   4   0   0   0)
     Any further DFT definition will be discarded
     Please, verify this is what you really want

     Message from routine setup:
     using ibrav=0 with symmetry is DISCOURAGED, use correct ibrav instead

     R & G space division:  proc/nbgrp/npool/nimage =       8
     Subspace diagonalization in iterative solution of the eigenvalue problem:
     a serial algorithm will be used


     Parallelization info
     --------------------
     sticks:   dense  smooth     PW     G-vecs:    dense   smooth      PW
     Min         559     160     46                28095     4306     680
     Max         560     161     47                28097     4309     683
     Sum        4477    1281    373               224767    34457    5449

     Using Slab Decomposition



     bravais-lattice index     =            0
     lattice parameter (alat)  =       5.6856  a.u.
     unit-cell volume          =     183.7912 (a.u.)^3
     number of atoms/cell      =            2
     number of atomic types    =            2
     number of electrons       =        28.00
     number of Kohn-Sham states=           18
     kinetic-energy cutoff     =     124.0000  Ry
     charge density cutoff     =    1736.0000  Ry
     scf convergence threshold =      1.0E-08
     mixing beta               =       0.7000
     number of iterations used =            8  plain     mixing
     Exchange-correlation= PBE
                           (   1   4   3   4   0   0   0)

     celldm(1)=   5.685581  celldm(2)=   0.000000  celldm(3)=   0.000000
     celldm(4)=   0.000000  celldm(5)=   0.000000  celldm(6)=   0.000000

     crystal axes: (cart. coord. in units of alat)
               a(1) = (   1.000000   0.000000   0.000000 )  
               a(2) = (   0.000000   1.000000   0.000000 )  
               a(3) = (   0.000000   0.000000   1.000000 )  

     reciprocal axes: (cart. coord. in units 2 pi/alat)
               b(1) = (  1.000000  0.000000  0.000000 )  
               b(2) = (  0.000000  1.000000  0.000000 )  
               b(3) = (  0.000000  0.000000  1.000000 )  


     PseudoPot. # 1 for Fe read from file:
     ../../pseudos/Fe.pbe-spn-kjpaw_psl.0.2.1.UPF
     MD5 check sum: e86618425769142926afa95317d90200
     Pseudo is Projector augmented-wave + core cor, Zval = 16.0
     Generated using "atomic" code by A. Dal Corso  v.5.0.99 svn rev. 10869
     Shape of augmentation charge: PSQ
     Using radial grid of 1191 points,  6 beta functions with: 
                l(1) =   0
                l(2) =   0
                l(3) =   1
                l(4) =   1
                l(5) =   2
                l(6) =   2
     Q(r) pseudized with 0 coefficients 


     PseudoPot. # 2 for Ti read from file:
     ../../pseudos/ti_pbe_v1.4.uspp.F.UPF
     MD5 check sum: 88a00a6731bd790ddea75d31a80cb452
     Pseudo is Ultrasoft + core correction, Zval = 12.0
     Generated by new atomic code, or converted to UPF format
     Using radial grid of  851 points,  6 beta functions with: 
                l(1) =   0
                l(2) =   0
                l(3) =   1
                l(4) =   1
                l(5) =   2
                l(6) =   2
     Q(r) pseudized with  6 coefficients,  rinner =    1.000   1.000   1.000
                                                       1.000   1.000

     atomic species   valence    mass     pseudopotential
     Fe               16.00    55.84500     Fe( 1.00)
     Ti               12.00    47.86700     Ti( 1.00)

     48 Sym. Ops., with inversion, found



   Cartesian axes

     site n.     atom                  positions (alat units)
         1        Fe     tau(   1) = (   0.5000000   0.5000000   0.5000000  )
         2        Ti     tau(   2) = (   0.0000000   0.0000000   0.0000000  )

     number of k points=   120  Marzari-Vanderbilt smearing, width (Ry)=  0.0050

     Number of k-points >= 100: set verbosity='high' to print them.

     Dense  grid:   224767 G-vectors     FFT dimensions: (  75,  75,  75)

     Smooth grid:    34457 G-vectors     FFT dimensions: (  45,  45,  45)

     Estimated max dynamical RAM per process >     127.15 MB

     Estimated total dynamical RAM >    1017.20 MB

     Check: negative core charge=   -0.000002

     Initial potential from superposition of free atoms

     starting charge      26.9995, renormalised to      28.0000

     negative rho (up, down):  1.375E-03 0.000E+00
     Starting wfcs are   23 randomized atomic wfcs
     Checking if some PAW data can be deallocated... 

     total cpu time spent up to now is        1.9 secs

     per-process dynamical memory:   146.0 Mb

     Self-consistent Calculation

     iteration #  1     ecut=   124.00 Ry     beta= 0.70
     Davidson diagonalization with overlap
     ethr =  1.00E-02,  avg # of iterations =  2.1

     negative rho (up, down):  1.159E-04 0.000E+00

     total cpu time spent up to now is        4.6 secs

     total energy              =    -433.51674207 Ry
     estimated scf accuracy    <      19.12133317 Ry

     iteration #  2     ecut=   124.00 Ry     beta= 0.70
     Davidson diagonalization with overlap
     ethr =  1.00E-02,  avg # of iterations =  6.2

     negative rho (up, down):  1.641E-05 0.000E+00

     total cpu time spent up to now is        9.3 secs

     WARNING: integrated charge=    28.00001182, expected=    28.00000000

     total energy              =    -448.19226147 Ry
     estimated scf accuracy    <      72.69127335 Ry

     iteration #  3     ecut=   124.00 Ry     beta= 0.70
     Davidson diagonalization with overlap
     ethr =  1.00E-02,  avg # of iterations =  3.2

     negative rho (up, down):  1.662E-04 0.000E+00

     total cpu time spent up to now is       12.6 secs

     total energy              =    -448.85766774 Ry
     estimated scf accuracy    <      18.03642224 Ry

     iteration #  4     ecut=   124.00 Ry     beta= 0.70
     Davidson diagonalization with overlap
     ethr =  1.00E-02,  avg # of iterations =  2.1

     negative rho (up, down):  2.442E-04 0.000E+00

     total cpu time spent up to now is       15.2 secs

     total energy              =    -449.15766256 Ry
     estimated scf accuracy    <       6.09751597 Ry

     iteration #  5     ecut=   124.00 Ry     beta= 0.70
     Davidson diagonalization with overlap
     ethr =  1.00E-02,  avg # of iterations =  1.0

     negative rho (up, down):  5.449E-04 0.000E+00

     total cpu time spent up to now is       17.5 secs

     total energy              =    -448.83224330 Ry
     estimated scf accuracy    <       4.85297657 Ry

     iteration #  6     ecut=   124.00 Ry     beta= 0.70
     Davidson diagonalization with overlap
     ethr =  1.00E-02,  avg # of iterations =  1.2

     negative rho (up, down):  9.809E-04 0.000E+00

     total cpu time spent up to now is       19.8 secs

     total energy              =    -448.10793611 Ry
     estimated scf accuracy    <       3.72045698 Ry

     iteration #  7     ecut=   124.00 Ry     beta= 0.70
     Davidson diagonalization with overlap
     ethr =  1.00E-02,  avg # of iterations =  2.4

     negative rho (up, down):  1.145E-03 0.000E+00

     total cpu time spent up to now is       22.3 secs

     total energy              =    -448.75990524 Ry
     estimated scf accuracy    <       1.22163291 Ry

     iteration #  8     ecut=   124.00 Ry     beta= 0.70
     Davidson diagonalization with overlap
     ethr =  4.36E-03,  avg # of iterations =  3.6

     negative rho (up, down):  4.034E-04 0.000E+00

     total cpu time spent up to now is       24.9 secs

     total energy              =    -447.20300851 Ry
     estimated scf accuracy    <       8.75393177 Ry

     iteration #  9     ecut=   124.00 Ry     beta= 0.70
     Davidson diagonalization with overlap
     ethr =  4.36E-03,  avg # of iterations =  4.0

     negative rho (up, down):  6.048E-04 0.000E+00

     total cpu time spent up to now is       27.8 secs

     total energy              =    -448.36052248 Ry
     estimated scf accuracy    <       4.72339974 Ry

     iteration # 10     ecut=   124.00 Ry     beta= 0.70
     Davidson diagonalization with overlap
     ethr =  4.36E-03,  avg # of iterations =  1.9

     negative rho (up, down):  6.495E-04 0.000E+00

     total cpu time spent up to now is       30.2 secs

     total energy              =    -448.58655180 Ry
     estimated scf accuracy    <       0.18479872 Ry

     iteration # 11     ecut=   124.00 Ry     beta= 0.70
     Davidson diagonalization with overlap
     ethr =  6.60E-04,  avg # of iterations =  3.2

     negative rho (up, down):  7.608E-04 0.000E+00

     total cpu time spent up to now is       32.7 secs

     total energy              =    -448.59184159 Ry
     estimated scf accuracy    <       0.07347832 Ry

     iteration # 12     ecut=   124.00 Ry     beta= 0.70
     Davidson diagonalization with overlap
     ethr =  2.62E-04,  avg # of iterations =  4.2

     negative rho (up, down):  6.509E-04 0.000E+00

     total cpu time spent up to now is       35.4 secs

     total energy              =    -448.52312881 Ry
     estimated scf accuracy    <       0.43602036 Ry

     iteration # 13     ecut=   124.00 Ry     beta= 0.70
     Davidson diagonalization with overlap
     ethr =  2.62E-04,  avg # of iterations =  4.3

     negative rho (up, down):  1.258E-03 0.000E+00

     total cpu time spent up to now is       38.4 secs

     total energy              =    -448.49164423 Ry
     estimated scf accuracy    <       0.73250770 Ry

     iteration # 14     ecut=   124.00 Ry     beta= 0.70
     Davidson diagonalization with overlap
     ethr =  2.62E-04,  avg # of iterations =  5.2

     negative rho (up, down):  6.089E-04 0.000E+00

     total cpu time spent up to now is       41.8 secs

     total energy              =    -448.48970532 Ry
     estimated scf accuracy    <       0.46058954 Ry

     iteration # 15     ecut=   124.00 Ry     beta= 0.70
     Davidson diagonalization with overlap
     ethr =  2.62E-04,  avg # of iterations =  4.7

     negative rho (up, down):  5.426E-04 0.000E+00

     total cpu time spent up to now is       45.2 secs

     total energy              =    -448.66379796 Ry
     estimated scf accuracy    <       0.51390501 Ry

     iteration # 16     ecut=   124.00 Ry     beta= 0.70
     Davidson diagonalization with overlap
     ethr =  2.62E-04,  avg # of iterations =  1.1

     negative rho (up, down):  6.040E-04 0.000E+00

     total cpu time spent up to now is       47.5 secs

     total energy              =    -448.63673575 Ry
     estimated scf accuracy    <       0.70786268 Ry

     iteration # 17     ecut=   124.00 Ry     beta= 0.70
     Davidson diagonalization with overlap
     ethr =  2.62E-04,  avg # of iterations =  1.0

     negative rho (up, down):  6.856E-04 0.000E+00

     total cpu time spent up to now is       49.8 secs

     total energy              =    -448.65101911 Ry
     estimated scf accuracy    <       0.51950474 Ry

     iteration # 18     ecut=   124.00 Ry     beta= 0.70
     Davidson diagonalization with overlap
     ethr =  2.62E-04,  avg # of iterations =  2.0

     negative rho (up, down):  9.113E-04 0.000E+00

     total cpu time spent up to now is       52.3 secs

     total energy              =    -448.54552590 Ry
     estimated scf accuracy    <       1.02661738 Ry

     iteration # 19     ecut=   124.00 Ry     beta= 0.70
     Davidson diagonalization with overlap
     ethr =  2.62E-04,  avg # of iterations =  3.4

     negative rho (up, down):  8.078E-04 0.000E+00

     total cpu time spent up to now is       54.9 secs

     total energy              =    -448.59040894 Ry
     estimated scf accuracy    <       0.03353501 Ry

     iteration # 20     ecut=   124.00 Ry     beta= 0.70
     Davidson diagonalization with overlap
     ethr =  1.20E-04,  avg # of iterations =  1.0

     negative rho (up, down):  9.988E-04 0.000E+00

     total cpu time spent up to now is       57.2 secs

     total energy              =    -448.57705694 Ry
     estimated scf accuracy    <       0.08316482 Ry

     iteration # 21     ecut=   124.00 Ry     beta= 0.70
     Davidson diagonalization with overlap
     ethr =  1.20E-04,  avg # of iterations =  2.2

     negative rho (up, down):  9.749E-04 0.000E+00

     total cpu time spent up to now is       59.7 secs

     total energy              =    -448.58294184 Ry
     estimated scf accuracy    <       0.00050743 Ry

     iteration # 22     ecut=   124.00 Ry     beta= 0.70
     Davidson diagonalization with overlap
     c_bands:  1 eigenvalues not converged
     c_bands:  1 eigenvalues not converged
     ethr =  1.81E-06,  avg # of iterations =  6.5

     negative rho (up, down):  9.506E-04 0.000E+00

     total cpu time spent up to now is       63.9 secs

     total energy              =    -448.58357380 Ry
     estimated scf accuracy    <       0.00064213 Ry

     iteration # 23     ecut=   124.00 Ry     beta= 0.70
     Davidson diagonalization with overlap
     ethr =  1.81E-06,  avg # of iterations =  2.3

     negative rho (up, down):  9.887E-04 0.000E+00

     total cpu time spent up to now is       66.5 secs

     total energy              =    -448.58329565 Ry
     estimated scf accuracy    <       0.00186093 Ry

     iteration # 24     ecut=   124.00 Ry     beta= 0.70
     Davidson diagonalization with overlap
     ethr =  1.81E-06,  avg # of iterations =  3.8

     negative rho (up, down):  9.719E-04 0.000E+00

     total cpu time spent up to now is       69.4 secs

     total energy              =    -448.58346907 Ry
     estimated scf accuracy    <       0.00118041 Ry

     iteration # 25     ecut=   124.00 Ry     beta= 0.70
     Davidson diagonalization with overlap
     ethr =  1.81E-06,  avg # of iterations =  2.3

     negative rho (up, down):  9.723E-04 0.000E+00

     total cpu time spent up to now is       71.9 secs

     total energy              =    -448.58354334 Ry
     estimated scf accuracy    <       0.00000290 Ry

     iteration # 26     ecut=   124.00 Ry     beta= 0.70
     Davidson diagonalization with overlap
     ethr =  1.04E-08,  avg # of iterations =  4.9

     negative rho (up, down):  9.727E-04 0.000E+00

     total cpu time spent up to now is       75.2 secs

     total energy              =    -448.58354797 Ry
     estimated scf accuracy    <       0.00000018 Ry

     iteration # 27     ecut=   124.00 Ry     beta= 0.70
     Davidson diagonalization with overlap
     ethr =  6.41E-10,  avg # of iterations =  4.0

     negative rho (up, down):  9.730E-04 0.000E+00

     total cpu time spent up to now is       78.3 secs

     total energy              =    -448.58354809 Ry
     estimated scf accuracy    <       0.00000046 Ry

     iteration # 28     ecut=   124.00 Ry     beta= 0.70
     Davidson diagonalization with overlap
     ethr =  6.41E-10,  avg # of iterations =  1.1

     negative rho (up, down):  9.730E-04 0.000E+00

     total cpu time spent up to now is       80.6 secs

     total energy              =    -448.58354806 Ry
     estimated scf accuracy    <       0.00000044 Ry

     iteration # 29     ecut=   124.00 Ry     beta= 0.70
     Davidson diagonalization with overlap
     ethr =  6.41E-10,  avg # of iterations =  1.0

     negative rho (up, down):  9.730E-04 0.000E+00

     total cpu time spent up to now is       82.9 secs

     total energy              =    -448.58354807 Ry
     estimated scf accuracy    <       0.00000019 Ry

     iteration # 30     ecut=   124.00 Ry     beta= 0.70
     Davidson diagonalization with overlap
     ethr =  6.41E-10,  avg # of iterations =  1.0

     negative rho (up, down):  9.729E-04 0.000E+00

     total cpu time spent up to now is       85.1 secs

     total energy              =    -448.58354805 Ry
     estimated scf accuracy    <       0.00000021 Ry

     iteration # 31     ecut=   124.00 Ry     beta= 0.70
     Davidson diagonalization with overlap
     ethr =  6.41E-10,  avg # of iterations =  1.0

     negative rho (up, down):  9.728E-04 0.000E+00

     total cpu time spent up to now is       87.4 secs

     total energy              =    -448.58354805 Ry
     estimated scf accuracy    <       0.00000007 Ry

     iteration # 32     ecut=   124.00 Ry     beta= 0.70
     Davidson diagonalization with overlap
     ethr =  2.64E-10,  avg # of iterations =  1.4

     negative rho (up, down):  9.728E-04 0.000E+00

     total cpu time spent up to now is       89.7 secs

     total energy              =    -448.58354805 Ry
     estimated scf accuracy    <       0.00000003 Ry

     iteration # 33     ecut=   124.00 Ry     beta= 0.70
     Davidson diagonalization with overlap
     ethr =  1.07E-10,  avg # of iterations =  1.3

     negative rho (up, down):  9.728E-04 0.000E+00

     total cpu time spent up to now is       92.0 secs

     total energy              =    -448.58354805 Ry
     estimated scf accuracy    <       0.00000003 Ry

     iteration # 34     ecut=   124.00 Ry     beta= 0.70
     Davidson diagonalization with overlap
     ethr =  9.43E-11,  avg # of iterations =  2.3

     negative rho (up, down):  9.728E-04 0.000E+00

     total cpu time spent up to now is       94.5 secs

     End of self-consistent calculation

     Number of k-points >= 100: set verbosity='high' to print the bands.

     the Fermi energy is    16.2838 ev

!    total energy              =    -448.58354805 Ry
     estimated scf accuracy    <          3.6E-10 Ry
     smearing contrib. (-TS)   =      -0.00002036 Ry
     internal energy E=F+TS    =    -448.58352770 Ry

     The total energy is F=E-TS. E is the sum of the following terms:
     one-electron contribution =    -160.70774047 Ry
     hartree contribution      =      94.82239025 Ry
     xc contribution           =     -52.77025119 Ry
     ewald contribution        =    -253.77570988 Ry
     one-center paw contrib.   =     -76.15221640 Ry

     convergence has been achieved in  34 iterations

     negative rho (up, down):  9.728E-04 0.000E+00

     Forces acting on atoms (cartesian axes, Ry/au):

     atom    1 type  1   force =     0.00000000    0.00000000    0.00000000
     atom    2 type  2   force =     0.00000000    0.00000000    0.00000000

     Total force =     0.000000     Total SCF correction =     0.000000


     Computing stress (Cartesian axis) and pressure


     negative rho (up, down):  9.728E-04 0.000E+00
          total   stress  (Ry/bohr**3)                   (kbar)     P=      -95.45
  -0.00064883   0.00000000   0.00000000          -95.45        0.00        0.00
   0.00000000  -0.00064883   0.00000000            0.00      -95.45        0.00
   0.00000000   0.00000000  -0.00064883            0.00        0.00      -95.45


     Writing all to output data dir ./TiFe.save/ :
     XML data file, charge density, pseudopotentials, collected wavefunctions

     init_run     :      1.67s CPU      1.72s WALL (       1 calls)
     electrons    :     90.10s CPU     92.56s WALL (       1 calls)
     forces       :      0.32s CPU      0.34s WALL (       1 calls)
     stress       :      1.83s CPU      1.89s WALL (       1 calls)

     Called by init_run:
     wfcinit      :      1.01s CPU      1.02s WALL (       1 calls)
     potinit      :      0.20s CPU      0.21s WALL (       1 calls)
     hinit0       :      0.26s CPU      0.27s WALL (       1 calls)

     Called by electrons:
     c_bands      :     66.32s CPU     67.47s WALL (      34 calls)
     sum_band     :     16.19s CPU     16.93s WALL (      34 calls)
     v_of_rho     :      0.82s CPU      0.90s WALL (      35 calls)
     newd         :      4.87s CPU      5.30s WALL (      35 calls)
     PAW_pot      :      1.90s CPU      1.96s WALL (      35 calls)
     mix_rho      :      0.10s CPU      0.12s WALL (      34 calls)

     Called by c_bands:
     init_us_2    :      1.34s CPU      1.37s WALL (    8520 calls)
     cegterg      :     63.80s CPU     64.89s WALL (    4080 calls)

     Called by *egterg:
     cdiaghg      :      4.87s CPU      4.95s WALL (   15245 calls)
     h_psi        :     53.67s CPU     54.60s WALL (   15365 calls)
     s_psi        :      0.85s CPU      0.86s WALL (   15365 calls)
     g_psi        :      0.21s CPU      0.21s WALL (   11165 calls)

     Called by h_psi:
     h_psi:calbec :      1.48s CPU      1.51s WALL (   15365 calls)
     vloc_psi     :     51.16s CPU     52.05s WALL (   15365 calls)
     add_vuspsi   :      0.86s CPU      0.88s WALL (   15365 calls)

     General routines
     calbec       :      2.12s CPU      2.16s WALL (   21485 calls)
     fft          :      0.65s CPU      0.78s WALL (     478 calls)
     ffts         :      0.12s CPU      0.12s WALL (      69 calls)
     fftw         :     52.89s CPU     53.78s WALL (  441372 calls)
     interpolate  :      0.16s CPU      0.17s WALL (      35 calls)

     Parallel routines

     PWSCF        :     94.32s CPU     97.17s WALL


   This run was terminated on:  15:17:47  28Oct2025            

=------------------------------------------------------------------------------=
   JOB DONE.
=------------------------------------------------------------------------------=
