
     Program PWSCF v.7.4 starts on 28Oct2025 at 15:23:26 

     This program is part of the open-source Quantum ESPRESSO suite
     for quantum simulation of materials; please cite
         "P. Giannozzi et al., J. Phys.:Condens. Matter 21 395502 (2009);
         "P. Giannozzi et al., J. Phys.:Condens. Matter 29 465901 (2017);
         "P. Giannozzi et al., J. Chem. Phys. 152 154105 (2020);
          URL http://www.quantum-espresso.org", 
     in publications or presentations arising from this work. More details at
     http://www.quantum-espresso.org/quote

     Parallel version (MPI & OpenMP), running on       8 processor cores
     Number of MPI processes:                 8
     Threads/MPI process:                     1

     MPI processes distributed on     1 nodes
     226377 MiB available memory on the printing compute node when the environment starts

     Reading input from TiFe_24.in

     Current dimensions of program PWSCF are:
     Max number of different atomic species (ntypx) = 10
     Max number of k-points (npk) =  40000
     Max angular momentum in pseudopotentials (lmaxx) =  4
     file Fe.pbe-spn-kjpaw_psl.0.2.1.UPF: wavefunction(s)  3D renormalized

     IMPORTANT: XC functional enforced from input :
     Exchange-correlation= PBE
                           (   1   4   3   4   0   0   0)
     Any further DFT definition will be discarded
     Please, verify this is what you really want

     Message from routine setup:
     using ibrav=0 with symmetry is DISCOURAGED, use correct ibrav instead

     R & G space division:  proc/nbgrp/npool/nimage =       8
     Subspace diagonalization in iterative solution of the eigenvalue problem:
     a serial algorithm will be used


     Parallelization info
     --------------------
     sticks:   dense  smooth     PW     G-vecs:    dense   smooth      PW
     Min         579     164     48                29521     4504     711
     Max         581     165     49                29522     4508     712
     Sum        4637    1313    385               236169    36041    5695

     Using Slab Decomposition



     bravais-lattice index     =            0
     lattice parameter (alat)  =       5.7801  a.u.
     unit-cell volume          =     193.1073 (a.u.)^3
     number of atoms/cell      =            2
     number of atomic types    =            2
     number of electrons       =        28.00
     number of Kohn-Sham states=           18
     kinetic-energy cutoff     =     124.0000  Ry
     charge density cutoff     =    1736.0000  Ry
     scf convergence threshold =      1.0E-08
     mixing beta               =       0.7000
     number of iterations used =            8  plain     mixing
     Exchange-correlation= PBE
                           (   1   4   3   4   0   0   0)

     celldm(1)=   5.780068  celldm(2)=   0.000000  celldm(3)=   0.000000
     celldm(4)=   0.000000  celldm(5)=   0.000000  celldm(6)=   0.000000

     crystal axes: (cart. coord. in units of alat)
               a(1) = (   1.000000   0.000000   0.000000 )  
               a(2) = (   0.000000   1.000000   0.000000 )  
               a(3) = (   0.000000   0.000000   1.000000 )  

     reciprocal axes: (cart. coord. in units 2 pi/alat)
               b(1) = (  1.000000  0.000000  0.000000 )  
               b(2) = (  0.000000  1.000000  0.000000 )  
               b(3) = (  0.000000  0.000000  1.000000 )  


     PseudoPot. # 1 for Fe read from file:
     ../../pseudos/Fe.pbe-spn-kjpaw_psl.0.2.1.UPF
     MD5 check sum: e86618425769142926afa95317d90200
     Pseudo is Projector augmented-wave + core cor, Zval = 16.0
     Generated using "atomic" code by A. Dal Corso  v.5.0.99 svn rev. 10869
     Shape of augmentation charge: PSQ
     Using radial grid of 1191 points,  6 beta functions with: 
                l(1) =   0
                l(2) =   0
                l(3) =   1
                l(4) =   1
                l(5) =   2
                l(6) =   2
     Q(r) pseudized with 0 coefficients 


     PseudoPot. # 2 for Ti read from file:
     ../../pseudos/ti_pbe_v1.4.uspp.F.UPF
     MD5 check sum: 88a00a6731bd790ddea75d31a80cb452
     Pseudo is Ultrasoft + core correction, Zval = 12.0
     Generated by new atomic code, or converted to UPF format
     Using radial grid of  851 points,  6 beta functions with: 
                l(1) =   0
                l(2) =   0
                l(3) =   1
                l(4) =   1
                l(5) =   2
                l(6) =   2
     Q(r) pseudized with  6 coefficients,  rinner =    1.000   1.000   1.000
                                                       1.000   1.000

     atomic species   valence    mass     pseudopotential
     Fe               16.00    55.84500     Fe( 1.00)
     Ti               12.00    47.86700     Ti( 1.00)

     48 Sym. Ops., with inversion, found



   Cartesian axes

     site n.     atom                  positions (alat units)
         1        Fe     tau(   1) = (   0.5000000   0.5000000   0.5000000  )
         2        Ti     tau(   2) = (   0.0000000   0.0000000   0.0000000  )

     number of k points=   120  Marzari-Vanderbilt smearing, width (Ry)=  0.0050

     Number of k-points >= 100: set verbosity='high' to print them.

     Dense  grid:   236169 G-vectors     FFT dimensions: (  80,  80,  80)

     Smooth grid:    36041 G-vectors     FFT dimensions: (  45,  45,  45)

     Estimated max dynamical RAM per process >     133.59 MB

     Estimated total dynamical RAM >       1.04 GB

     Check: negative core charge=   -0.000001

     Initial potential from superposition of free atoms

     starting charge      26.9995, renormalised to      28.0000

     negative rho (up, down):  1.345E-03 0.000E+00
     Starting wfcs are   23 randomized atomic wfcs
     Checking if some PAW data can be deallocated... 

     total cpu time spent up to now is        2.3 secs

     per-process dynamical memory:   147.7 Mb

     Self-consistent Calculation

     iteration #  1     ecut=   124.00 Ry     beta= 0.70
     Davidson diagonalization with overlap
     ethr =  1.00E-02,  avg # of iterations =  2.2

     negative rho (up, down):  1.004E-04 0.000E+00

     total cpu time spent up to now is        5.1 secs

     total energy              =    -432.55902041 Ry
     estimated scf accuracy    <      20.26838222 Ry

     iteration #  2     ecut=   124.00 Ry     beta= 0.70
     Davidson diagonalization with overlap
     ethr =  1.00E-02,  avg # of iterations =  6.2

     negative rho (up, down):  1.028E-05 0.000E+00

     total cpu time spent up to now is       10.0 secs

     total energy              =    -447.47420594 Ry
     estimated scf accuracy    <      79.05764217 Ry

     iteration #  3     ecut=   124.00 Ry     beta= 0.70
     Davidson diagonalization with overlap
     ethr =  1.00E-02,  avg # of iterations =  3.2

     negative rho (up, down):  1.261E-04 0.000E+00

     total cpu time spent up to now is       13.3 secs

     total energy              =    -449.22991153 Ry
     estimated scf accuracy    <      18.80721264 Ry

     iteration #  4     ecut=   124.00 Ry     beta= 0.70
     Davidson diagonalization with overlap
     ethr =  1.00E-02,  avg # of iterations =  2.1

     negative rho (up, down):  2.481E-04 0.000E+00

     total cpu time spent up to now is       16.0 secs

     total energy              =    -449.14513377 Ry
     estimated scf accuracy    <       7.69990010 Ry

     iteration #  5     ecut=   124.00 Ry     beta= 0.70
     Davidson diagonalization with overlap
     ethr =  1.00E-02,  avg # of iterations =  1.1

     negative rho (up, down):  4.629E-04 0.000E+00

     total cpu time spent up to now is       18.3 secs

     total energy              =    -448.87093949 Ry
     estimated scf accuracy    <       5.14966199 Ry

     iteration #  6     ecut=   124.00 Ry     beta= 0.70
     Davidson diagonalization with overlap
     ethr =  1.00E-02,  avg # of iterations =  1.2

     negative rho (up, down):  1.414E-03 0.000E+00

     total cpu time spent up to now is       20.6 secs

     total energy              =    -447.51603766 Ry
     estimated scf accuracy    <       3.99028640 Ry

     iteration #  7     ecut=   124.00 Ry     beta= 0.70
     Davidson diagonalization with overlap
     ethr =  1.00E-02,  avg # of iterations =  4.6

     negative rho (up, down):  1.043E-03 0.000E+00

     total cpu time spent up to now is       23.8 secs

     total energy              =    -448.77219208 Ry
     estimated scf accuracy    <      23.94058908 Ry

     iteration #  8     ecut=   124.00 Ry     beta= 0.70
     Davidson diagonalization with overlap
     ethr =  1.00E-02,  avg # of iterations =  1.2

     negative rho (up, down):  4.917E-04 0.000E+00

     total cpu time spent up to now is       26.1 secs

     total energy              =    -447.16840600 Ry
     estimated scf accuracy    <      10.80674853 Ry

     iteration #  9     ecut=   124.00 Ry     beta= 0.70
     Davidson diagonalization with overlap
     ethr =  1.00E-02,  avg # of iterations =  2.9

     negative rho (up, down):  6.304E-04 0.000E+00

     total cpu time spent up to now is       28.9 secs

     total energy              =    -448.59623203 Ry
     estimated scf accuracy    <       3.92690563 Ry

     iteration # 10     ecut=   124.00 Ry     beta= 0.70
     Davidson diagonalization with overlap
     ethr =  1.00E-02,  avg # of iterations =  1.0

     negative rho (up, down):  6.762E-04 0.000E+00

     total cpu time spent up to now is       31.2 secs

     total energy              =    -448.60012651 Ry
     estimated scf accuracy    <       1.25751951 Ry

     iteration # 11     ecut=   124.00 Ry     beta= 0.70
     Davidson diagonalization with overlap
     ethr =  4.49E-03,  avg # of iterations =  1.0

     negative rho (up, down):  8.658E-04 0.000E+00

     total cpu time spent up to now is       33.5 secs

     total energy              =    -448.49564103 Ry
     estimated scf accuracy    <       0.58697134 Ry

     iteration # 12     ecut=   124.00 Ry     beta= 0.70
     Davidson diagonalization with overlap
     ethr =  2.10E-03,  avg # of iterations =  2.8

     negative rho (up, down):  7.397E-04 0.000E+00

     total cpu time spent up to now is       36.0 secs

     total energy              =    -448.51217731 Ry
     estimated scf accuracy    <       0.56877052 Ry

     iteration # 13     ecut=   124.00 Ry     beta= 0.70
     Davidson diagonalization with overlap
     ethr =  2.03E-03,  avg # of iterations =  1.9

     negative rho (up, down):  6.055E-04 0.000E+00

     total cpu time spent up to now is       38.4 secs

     total energy              =    -448.65963291 Ry
     estimated scf accuracy    <       0.39802311 Ry

     iteration # 14     ecut=   124.00 Ry     beta= 0.70
     Davidson diagonalization with overlap
     ethr =  1.42E-03,  avg # of iterations =  1.2

     negative rho (up, down):  5.228E-04 0.000E+00

     total cpu time spent up to now is       40.8 secs

     total energy              =    -448.64753028 Ry
     estimated scf accuracy    <       0.89552482 Ry

     iteration # 15     ecut=   124.00 Ry     beta= 0.70
     Davidson diagonalization with overlap
     ethr =  1.42E-03,  avg # of iterations =  1.0

     negative rho (up, down):  1.825E-04 0.000E+00

     total cpu time spent up to now is       43.1 secs

     total energy              =    -448.67256993 Ry
     estimated scf accuracy    <       0.58927138 Ry

     iteration # 16     ecut=   124.00 Ry     beta= 0.70
     Davidson diagonalization with overlap
     ethr =  1.42E-03,  avg # of iterations =  1.0

     negative rho (up, down):  6.341E-04 0.000E+00

     total cpu time spent up to now is       45.4 secs

     WARNING: integrated charge=    27.99984374, expected=    28.00000000

     total energy              =    -448.59892888 Ry
     estimated scf accuracy    <       0.40939066 Ry

     iteration # 17     ecut=   124.00 Ry     beta= 0.70
     Davidson diagonalization with overlap
     ethr =  1.42E-03,  avg # of iterations =  1.1

     negative rho (up, down):  9.874E-04 0.000E+00

     total cpu time spent up to now is       47.8 secs

     WARNING: integrated charge=    28.00034668, expected=    28.00000000

     total energy              =    -448.57798487 Ry
     estimated scf accuracy    <       0.45328499 Ry

     iteration # 18     ecut=   124.00 Ry     beta= 0.70
     Davidson diagonalization with overlap
     ethr =  1.42E-03,  avg # of iterations =  1.2

     negative rho (up, down):  1.038E-03 0.000E+00

     total cpu time spent up to now is       50.1 secs

     WARNING: integrated charge=    28.00036088, expected=    28.00000000

     total energy              =    -448.56987953 Ry
     estimated scf accuracy    <       0.34074900 Ry

     iteration # 19     ecut=   124.00 Ry     beta= 0.70
     Davidson diagonalization with overlap
     ethr =  1.22E-03,  avg # of iterations =  1.1

     negative rho (up, down):  1.091E-03 0.000E+00

     total cpu time spent up to now is       52.4 secs

     WARNING: integrated charge=    28.00027358, expected=    28.00000000

     total energy              =    -448.56873181 Ry
     estimated scf accuracy    <       0.08265864 Ry

     iteration # 20     ecut=   124.00 Ry     beta= 0.70
     Davidson diagonalization with overlap
     ethr =  2.95E-04,  avg # of iterations =  1.9

     negative rho (up, down):  1.090E-03 0.000E+00

     total cpu time spent up to now is       54.9 secs

     WARNING: integrated charge=    28.00046602, expected=    28.00000000

     total energy              =    -448.57504381 Ry
     estimated scf accuracy    <       0.00578911 Ry

     iteration # 21     ecut=   124.00 Ry     beta= 0.70
     Davidson diagonalization with overlap
     ethr =  2.07E-05,  avg # of iterations =  4.7

     negative rho (up, down):  9.382E-04 0.000E+00

     total cpu time spent up to now is       57.9 secs

     WARNING: integrated charge=    28.00009361, expected=    28.00000000

     total energy              =    -448.57507313 Ry
     estimated scf accuracy    <       0.00718802 Ry

     iteration # 22     ecut=   124.00 Ry     beta= 0.70
     Davidson diagonalization with overlap
     ethr =  2.07E-05,  avg # of iterations =  4.4

     negative rho (up, down):  6.887E-04 0.000E+00

     total cpu time spent up to now is       61.2 secs

     WARNING: integrated charge=    27.99995618, expected=    28.00000000

     total energy              =    -448.60297097 Ry
     estimated scf accuracy    <       0.11240784 Ry

     iteration # 23     ecut=   124.00 Ry     beta= 0.70
     Davidson diagonalization with overlap
     ethr =  2.07E-05,  avg # of iterations =  5.3

     negative rho (up, down):  7.355E-04 0.000E+00

     total cpu time spent up to now is       65.0 secs

     WARNING: integrated charge=    28.00050898, expected=    28.00000000

     total energy              =    -448.60646036 Ry
     estimated scf accuracy    <       0.61443367 Ry

     iteration # 24     ecut=   124.00 Ry     beta= 0.70
     Davidson diagonalization with overlap
     ethr =  2.07E-05,  avg # of iterations =  1.4

     negative rho (up, down):  9.982E-04 0.000E+00

     total cpu time spent up to now is       67.4 secs

     WARNING: integrated charge=    28.00004503, expected=    28.00000000

     total energy              =    -448.54473129 Ry
     estimated scf accuracy    <       0.51846783 Ry

     iteration # 25     ecut=   124.00 Ry     beta= 0.70
     Davidson diagonalization with overlap
     ethr =  2.07E-05,  avg # of iterations =  5.6

     negative rho (up, down):  1.185E-03 0.000E+00

     total cpu time spent up to now is       71.3 secs

     WARNING: integrated charge=    28.00047054, expected=    28.00000000

     total energy              =    -448.58216544 Ry
     estimated scf accuracy    <       0.00572749 Ry

     iteration # 26     ecut=   124.00 Ry     beta= 0.70
     Davidson diagonalization with overlap
     ethr =  2.05E-05,  avg # of iterations =  5.9

     negative rho (up, down):  8.992E-04 0.000E+00

     total cpu time spent up to now is       75.1 secs

     WARNING: integrated charge=    28.00030725, expected=    28.00000000

     total energy              =    -448.55136147 Ry
     estimated scf accuracy    <       0.79777045 Ry

     iteration # 27     ecut=   124.00 Ry     beta= 0.70
     Davidson diagonalization with overlap
     ethr =  2.05E-05,  avg # of iterations =  5.5

     negative rho (up, down):  7.138E-04 0.000E+00

     total cpu time spent up to now is       79.0 secs

     WARNING: integrated charge=    28.00042096, expected=    28.00000000

     total energy              =    -448.57518493 Ry
     estimated scf accuracy    <       0.04831131 Ry

     iteration # 28     ecut=   124.00 Ry     beta= 0.70
     Davidson diagonalization with overlap
     ethr =  2.05E-05,  avg # of iterations =  5.4

     negative rho (up, down):  9.019E-04 0.000E+00

     total cpu time spent up to now is       82.7 secs

     WARNING: integrated charge=    28.00023449, expected=    28.00000000

     total energy              =    -448.56466559 Ry
     estimated scf accuracy    <       0.13285684 Ry

     iteration # 29     ecut=   124.00 Ry     beta= 0.70
     Davidson diagonalization with overlap
     ethr =  2.05E-05,  avg # of iterations =  5.2

     negative rho (up, down):  1.023E-03 0.000E+00

     total cpu time spent up to now is       86.4 secs

     WARNING: integrated charge=    28.00008462, expected=    28.00000000

     total energy              =    -448.57714853 Ry
     estimated scf accuracy    <       0.01725055 Ry

     iteration # 30     ecut=   124.00 Ry     beta= 0.70
     Davidson diagonalization with overlap
     ethr =  2.05E-05,  avg # of iterations =  4.2

     negative rho (up, down):  9.871E-04 0.000E+00

     total cpu time spent up to now is       89.8 secs

     WARNING: integrated charge=    27.99981394, expected=    28.00000000

     total energy              =    -448.57288060 Ry
     estimated scf accuracy    <       0.12985814 Ry

     iteration # 31     ecut=   124.00 Ry     beta= 0.70
     Davidson diagonalization with overlap
     ethr =  2.05E-05,  avg # of iterations =  3.9

     negative rho (up, down):  9.478E-04 0.000E+00

     total cpu time spent up to now is       92.5 secs

     WARNING: integrated charge=    27.99998409, expected=    28.00000000

     total energy              =    -448.57502764 Ry
     estimated scf accuracy    <       0.00916524 Ry

     iteration # 32     ecut=   124.00 Ry     beta= 0.70
     Davidson diagonalization with overlap
     ethr =  2.05E-05,  avg # of iterations =  1.5

     negative rho (up, down):  9.321E-04 0.000E+00

     total cpu time spent up to now is       94.9 secs

     WARNING: integrated charge=    27.99999538, expected=    28.00000000

     total energy              =    -448.57511564 Ry
     estimated scf accuracy    <       0.00156178 Ry

     iteration # 33     ecut=   124.00 Ry     beta= 0.70
     Davidson diagonalization with overlap
     ethr =  5.58E-06,  avg # of iterations =  3.1

     negative rho (up, down):  9.352E-04 0.000E+00

     total cpu time spent up to now is       97.5 secs

     WARNING: integrated charge=    27.99999630, expected=    28.00000000

     total energy              =    -448.57532979 Ry
     estimated scf accuracy    <       0.00010404 Ry

     iteration # 34     ecut=   124.00 Ry     beta= 0.70
     Davidson diagonalization with overlap
     ethr =  3.72E-07,  avg # of iterations =  2.6

     negative rho (up, down):  9.361E-04 0.000E+00

     total cpu time spent up to now is      100.1 secs

     WARNING: integrated charge=    27.99999587, expected=    28.00000000

     total energy              =    -448.57534650 Ry
     estimated scf accuracy    <       0.00000041 Ry

     iteration # 35     ecut=   124.00 Ry     beta= 0.70
     Davidson diagonalization with overlap
     ethr =  1.48E-09,  avg # of iterations =  6.7

     negative rho (up, down):  9.347E-04 0.000E+00

     total cpu time spent up to now is      104.6 secs

     total energy              =    -448.57534840 Ry
     estimated scf accuracy    <       0.00000262 Ry

     iteration # 36     ecut=   124.00 Ry     beta= 0.70
     Davidson diagonalization with overlap
     ethr =  1.48E-09,  avg # of iterations =  4.7

     negative rho (up, down):  9.352E-04 0.000E+00

     total cpu time spent up to now is      107.9 secs

     total energy              =    -448.57534934 Ry
     estimated scf accuracy    <       0.00000873 Ry

     iteration # 37     ecut=   124.00 Ry     beta= 0.70
     Davidson diagonalization with overlap
     ethr =  1.48E-09,  avg # of iterations =  3.6

     negative rho (up, down):  9.354E-04 0.000E+00

     total cpu time spent up to now is      110.8 secs

     total energy              =    -448.57534796 Ry
     estimated scf accuracy    <       0.00000523 Ry

     iteration # 38     ecut=   124.00 Ry     beta= 0.70
     Davidson diagonalization with overlap
     ethr =  1.48E-09,  avg # of iterations =  5.6

     negative rho (up, down):  9.348E-04 0.000E+00

     total cpu time spent up to now is      114.7 secs

     total energy              =    -448.57534787 Ry
     estimated scf accuracy    <       0.00001008 Ry

     iteration # 39     ecut=   124.00 Ry     beta= 0.70
     Davidson diagonalization with overlap
     ethr =  1.48E-09,  avg # of iterations =  4.6

     negative rho (up, down):  9.347E-04 0.000E+00

     total cpu time spent up to now is      118.3 secs

     total energy              =    -448.57534856 Ry
     estimated scf accuracy    <       0.00000054 Ry

     iteration # 40     ecut=   124.00 Ry     beta= 0.70
     Davidson diagonalization with overlap
     ethr =  1.48E-09,  avg # of iterations =  2.0

     negative rho (up, down):  9.346E-04 0.000E+00

     total cpu time spent up to now is      120.8 secs

     End of self-consistent calculation

     Number of k-points >= 100: set verbosity='high' to print the bands.

     the Fermi energy is    15.3276 ev

!    total energy              =    -448.57534860 Ry
     estimated scf accuracy    <          4.4E-09 Ry
     smearing contrib. (-TS)   =      -0.00000692 Ry
     internal energy E=F+TS    =    -448.57534168 Ry

     The total energy is F=E-TS. E is the sum of the following terms:
     one-electron contribution =    -167.17802648 Ry
     hartree contribution      =      97.07596321 Ry
     xc contribution           =     -52.69491849 Ry
     ewald contribution        =    -249.62725843 Ry
     one-center paw contrib.   =     -76.15110149 Ry

     convergence has been achieved in  40 iterations

     negative rho (up, down):  9.346E-04 0.000E+00

     Forces acting on atoms (cartesian axes, Ry/au):

     atom    1 type  1   force =     0.00000000    0.00000000    0.00000000
     atom    2 type  2   force =     0.00000000    0.00000000    0.00000000

     Total force =     0.000000     Total SCF correction =     0.000000


     Computing stress (Cartesian axis) and pressure


     negative rho (up, down):  9.346E-04 0.000E+00
          total   stress  (Ry/bohr**3)                   (kbar)     P=     -162.79
  -0.00110665   0.00000000   0.00000000         -162.79        0.00        0.00
   0.00000000  -0.00110665   0.00000000            0.00     -162.79        0.00
   0.00000000   0.00000000  -0.00110665            0.00        0.00     -162.79


     Writing all to output data dir ./TiFe.save/ :
     XML data file, charge density, pseudopotentials, collected wavefunctions

     init_run     :      2.07s CPU      2.14s WALL (       1 calls)
     electrons    :    115.40s CPU    118.53s WALL (       1 calls)
     forces       :      0.35s CPU      0.37s WALL (       1 calls)
     stress       :      1.94s CPU      2.00s WALL (       1 calls)

     Called by init_run:
     wfcinit      :      1.01s CPU      1.04s WALL (       1 calls)
     potinit      :      0.20s CPU      0.21s WALL (       1 calls)
     hinit0       :      0.64s CPU      0.65s WALL (       1 calls)

     Called by electrons:
     c_bands      :     86.52s CPU     87.98s WALL (      40 calls)
     sum_band     :     19.60s CPU     20.48s WALL (      40 calls)
     v_of_rho     :      1.12s CPU      1.21s WALL (      41 calls)
     newd         :      5.90s CPU      6.49s WALL (      41 calls)
     PAW_pot      :      2.24s CPU      2.31s WALL (      41 calls)
     mix_rho      :      0.12s CPU      0.14s WALL (      40 calls)

     Called by c_bands:
     init_us_2    :      1.61s CPU      1.64s WALL (    9960 calls)
     cegterg      :     83.44s CPU     84.83s WALL (    4800 calls)

     Called by *egterg:
     cdiaghg      :      6.58s CPU      6.70s WALL (   19903 calls)
     h_psi        :     69.29s CPU     70.46s WALL (   20023 calls)
     s_psi        :      1.12s CPU      1.14s WALL (   20023 calls)
     g_psi        :      0.29s CPU      0.29s WALL (   15103 calls)

     Called by h_psi:
     h_psi:calbec :      1.99s CPU      2.02s WALL (   20023 calls)
     vloc_psi     :     65.95s CPU     67.06s WALL (   20023 calls)
     add_vuspsi   :      1.14s CPU      1.17s WALL (   20023 calls)

     General routines
     calbec       :      2.75s CPU      2.80s WALL (   26863 calls)
     fft          :      1.20s CPU      1.33s WALL (     556 calls)
     ffts         :      0.13s CPU      0.13s WALL (      81 calls)
     fftw         :     66.72s CPU     67.81s WALL (  555190 calls)
     interpolate  :      0.17s CPU      0.18s WALL (      41 calls)

     Parallel routines

     PWSCF        :    120.18s CPU    123.68s WALL


   This run was terminated on:  15:25:30  28Oct2025            

=------------------------------------------------------------------------------=
   JOB DONE.
=------------------------------------------------------------------------------=
