
     Program PWSCF v.7.4 starts on 28Oct2025 at 14:56:14 

     This program is part of the open-source Quantum ESPRESSO suite
     for quantum simulation of materials; please cite
         "P. Giannozzi et al., J. Phys.:Condens. Matter 21 395502 (2009);
         "P. Giannozzi et al., J. Phys.:Condens. Matter 29 465901 (2017);
         "P. Giannozzi et al., J. Chem. Phys. 152 154105 (2020);
          URL http://www.quantum-espresso.org", 
     in publications or presentations arising from this work. More details at
     http://www.quantum-espresso.org/quote

     Parallel version (MPI & OpenMP), running on       8 processor cores
     Number of MPI processes:                 8
     Threads/MPI process:                     1

     MPI processes distributed on     1 nodes
     226436 MiB available memory on the printing compute node when the environment starts

     Reading input from TiFe_1.in

     Current dimensions of program PWSCF are:
     Max number of different atomic species (ntypx) = 10
     Max number of k-points (npk) =  40000
     Max angular momentum in pseudopotentials (lmaxx) =  4
     file Fe.pbe-spn-kjpaw_psl.0.2.1.UPF: wavefunction(s)  3D renormalized

     IMPORTANT: XC functional enforced from input :
     Exchange-correlation= PBE
                           (   1   4   3   4   0   0   0)
     Any further DFT definition will be discarded
     Please, verify this is what you really want

     Message from routine setup:
     using ibrav=0 with symmetry is DISCOURAGED, use correct ibrav instead

     R & G space division:  proc/nbgrp/npool/nimage =       8
     Subspace diagonalization in iterative solution of the eigenvalue problem:
     a serial algorithm will be used


     Parallelization info
     --------------------
     sticks:   dense  smooth     PW     G-vecs:    dense   smooth      PW
     Min         493     139     41                23327     3551     567
     Max         495     140     42                23330     3554     570
     Sum        3953    1117    333               186623    28425    4553

     Using Slab Decomposition



     bravais-lattice index     =            0
     lattice parameter (alat)  =       5.3454  a.u.
     unit-cell volume          =     152.7383 (a.u.)^3
     number of atoms/cell      =            2
     number of atomic types    =            2
     number of electrons       =        28.00
     number of Kohn-Sham states=           18
     kinetic-energy cutoff     =     124.0000  Ry
     charge density cutoff     =    1736.0000  Ry
     scf convergence threshold =      1.0E-08
     mixing beta               =       0.7000
     number of iterations used =            8  plain     mixing
     Exchange-correlation= PBE
                           (   1   4   3   4   0   0   0)

     celldm(1)=   5.345430  celldm(2)=   0.000000  celldm(3)=   0.000000
     celldm(4)=   0.000000  celldm(5)=   0.000000  celldm(6)=   0.000000

     crystal axes: (cart. coord. in units of alat)
               a(1) = (   1.000000   0.000000   0.000000 )  
               a(2) = (   0.000000   1.000000   0.000000 )  
               a(3) = (   0.000000   0.000000   1.000000 )  

     reciprocal axes: (cart. coord. in units 2 pi/alat)
               b(1) = (  1.000000  0.000000  0.000000 )  
               b(2) = (  0.000000  1.000000  0.000000 )  
               b(3) = (  0.000000  0.000000  1.000000 )  


     PseudoPot. # 1 for Fe read from file:
     ../../pseudos/Fe.pbe-spn-kjpaw_psl.0.2.1.UPF
     MD5 check sum: e86618425769142926afa95317d90200
     Pseudo is Projector augmented-wave + core cor, Zval = 16.0
     Generated using "atomic" code by A. Dal Corso  v.5.0.99 svn rev. 10869
     Shape of augmentation charge: PSQ
     Using radial grid of 1191 points,  6 beta functions with: 
                l(1) =   0
                l(2) =   0
                l(3) =   1
                l(4) =   1
                l(5) =   2
                l(6) =   2
     Q(r) pseudized with 0 coefficients 


     PseudoPot. # 2 for Ti read from file:
     ../../pseudos/ti_pbe_v1.4.uspp.F.UPF
     MD5 check sum: 88a00a6731bd790ddea75d31a80cb452
     Pseudo is Ultrasoft + core correction, Zval = 12.0
     Generated by new atomic code, or converted to UPF format
     Using radial grid of  851 points,  6 beta functions with: 
                l(1) =   0
                l(2) =   0
                l(3) =   1
                l(4) =   1
                l(5) =   2
                l(6) =   2
     Q(r) pseudized with  6 coefficients,  rinner =    1.000   1.000   1.000
                                                       1.000   1.000

     atomic species   valence    mass     pseudopotential
     Fe               16.00    55.84500     Fe( 1.00)
     Ti               12.00    47.86700     Ti( 1.00)

     48 Sym. Ops., with inversion, found



   Cartesian axes

     site n.     atom                  positions (alat units)
         1        Fe     tau(   1) = (   0.5000000   0.5000000   0.5000000  )
         2        Ti     tau(   2) = (   0.0000000   0.0000000   0.0000000  )

     number of k points=   120  Marzari-Vanderbilt smearing, width (Ry)=  0.0050

     Number of k-points >= 100: set verbosity='high' to print them.

     Dense  grid:   186623 G-vectors     FFT dimensions: (  72,  72,  72)

     Smooth grid:    28425 G-vectors     FFT dimensions: (  40,  40,  40)

     Estimated max dynamical RAM per process >     106.73 MB

     Estimated total dynamical RAM >     853.81 MB

     Check: negative core charge=   -0.000002

     Initial potential from superposition of free atoms

     starting charge      26.9995, renormalised to      28.0000

     negative rho (up, down):  1.324E-03 0.000E+00
     Starting wfcs are   23 randomized atomic wfcs
     Checking if some PAW data can be deallocated... 

     total cpu time spent up to now is        2.1 secs

     per-process dynamical memory:   140.8 Mb

     Self-consistent Calculation

     iteration #  1     ecut=   124.00 Ry     beta= 0.70
     Davidson diagonalization with overlap
     ethr =  1.00E-02,  avg # of iterations =  2.1

     negative rho (up, down):  5.497E-05 0.000E+00

     total cpu time spent up to now is        3.9 secs

     total energy              =    -436.89976126 Ry
     estimated scf accuracy    <      14.99915632 Ry

     iteration #  2     ecut=   124.00 Ry     beta= 0.70
     Davidson diagonalization with overlap
     ethr =  1.00E-02,  avg # of iterations =  6.0

     negative rho (up, down):  7.113E-05 0.000E+00

     total cpu time spent up to now is        6.8 secs

     total energy              =    -448.38496002 Ry
     estimated scf accuracy    <      58.18926751 Ry

     iteration #  3     ecut=   124.00 Ry     beta= 0.70
     Davidson diagonalization with overlap
     ethr =  1.00E-02,  avg # of iterations =  3.0

     negative rho (up, down):  3.132E-04 0.000E+00

     total cpu time spent up to now is        9.0 secs

     total energy              =    -448.44285614 Ry
     estimated scf accuracy    <      14.56792024 Ry

     iteration #  4     ecut=   124.00 Ry     beta= 0.70
     Davidson diagonalization with overlap
     ethr =  1.00E-02,  avg # of iterations =  2.1

     negative rho (up, down):  2.956E-04 0.000E+00

     total cpu time spent up to now is       10.8 secs

     total energy              =    -448.99140064 Ry
     estimated scf accuracy    <       3.61242964 Ry

     iteration #  5     ecut=   124.00 Ry     beta= 0.70
     Davidson diagonalization with overlap
     ethr =  1.00E-02,  avg # of iterations =  1.0

     negative rho (up, down):  4.523E-04 0.000E+00

     total cpu time spent up to now is       12.3 secs

     total energy              =    -448.57540193 Ry
     estimated scf accuracy    <       3.35148672 Ry

     iteration #  6     ecut=   124.00 Ry     beta= 0.70
     Davidson diagonalization with overlap
     ethr =  1.00E-02,  avg # of iterations =  1.1

     negative rho (up, down):  4.635E-04 0.000E+00

     total cpu time spent up to now is       13.8 secs

     total energy              =    -448.70427972 Ry
     estimated scf accuracy    <       0.74481152 Ry

     iteration #  7     ecut=   124.00 Ry     beta= 0.70
     Davidson diagonalization with overlap
     ethr =  2.66E-03,  avg # of iterations =  1.3

     negative rho (up, down):  6.811E-04 0.000E+00

     total cpu time spent up to now is       15.4 secs

     total energy              =    -448.60222571 Ry
     estimated scf accuracy    <       0.81625450 Ry

     iteration #  8     ecut=   124.00 Ry     beta= 0.70
     Davidson diagonalization with overlap
     ethr =  2.66E-03,  avg # of iterations =  1.4

     negative rho (up, down):  1.095E-03 0.000E+00

     total cpu time spent up to now is       16.9 secs

     total energy              =    -448.50519192 Ry
     estimated scf accuracy    <       0.25698579 Ry

     iteration #  9     ecut=   124.00 Ry     beta= 0.70
     Davidson diagonalization with overlap
     ethr =  9.18E-04,  avg # of iterations =  4.2

     negative rho (up, down):  1.065E-03 0.000E+00

     total cpu time spent up to now is       18.9 secs

     total energy              =    -448.59722088 Ry
     estimated scf accuracy    <       0.67180515 Ry

     iteration # 10     ecut=   124.00 Ry     beta= 0.70
     Davidson diagonalization with overlap
     ethr =  9.18E-04,  avg # of iterations =  1.0

     negative rho (up, down):  8.048E-04 0.000E+00

     total cpu time spent up to now is       20.5 secs

     total energy              =    -448.58370602 Ry
     estimated scf accuracy    <       0.53192297 Ry

     iteration # 11     ecut=   124.00 Ry     beta= 0.70
     Davidson diagonalization with overlap
     ethr =  9.18E-04,  avg # of iterations =  1.0

     negative rho (up, down):  7.452E-04 0.000E+00

     total cpu time spent up to now is       22.0 secs

     total energy              =    -448.58911162 Ry
     estimated scf accuracy    <       0.36093342 Ry

     iteration # 12     ecut=   124.00 Ry     beta= 0.70
     Davidson diagonalization with overlap
     ethr =  9.18E-04,  avg # of iterations =  1.0

     negative rho (up, down):  7.417E-04 0.000E+00

     total cpu time spent up to now is       23.5 secs

     total energy              =    -448.51879150 Ry
     estimated scf accuracy    <       0.32285053 Ry

     iteration # 13     ecut=   124.00 Ry     beta= 0.70
     Davidson diagonalization with overlap
     ethr =  9.18E-04,  avg # of iterations =  3.1

     negative rho (up, down):  8.144E-04 0.000E+00

     total cpu time spent up to now is       25.2 secs

     total energy              =    -448.57340603 Ry
     estimated scf accuracy    <       0.27095742 Ry

     iteration # 14     ecut=   124.00 Ry     beta= 0.70
     Davidson diagonalization with overlap
     ethr =  9.18E-04,  avg # of iterations =  1.0

     negative rho (up, down):  9.478E-04 0.000E+00

     total cpu time spent up to now is       26.8 secs

     total energy              =    -448.55868594 Ry
     estimated scf accuracy    <       0.11973871 Ry

     iteration # 15     ecut=   124.00 Ry     beta= 0.70
     Davidson diagonalization with overlap
     ethr =  4.28E-04,  avg # of iterations =  1.5

     negative rho (up, down):  9.401E-04 0.000E+00

     total cpu time spent up to now is       28.3 secs

     total energy              =    -448.56514326 Ry
     estimated scf accuracy    <       0.00421500 Ry

     iteration # 16     ecut=   124.00 Ry     beta= 0.70
     Davidson diagonalization with overlap
     ethr =  1.51E-05,  avg # of iterations =  3.6

     negative rho (up, down):  9.648E-04 0.000E+00

     total cpu time spent up to now is       30.1 secs

     total energy              =    -448.56523666 Ry
     estimated scf accuracy    <       0.00145209 Ry

     iteration # 17     ecut=   124.00 Ry     beta= 0.70
     Davidson diagonalization with overlap
     ethr =  5.19E-06,  avg # of iterations =  3.1

     negative rho (up, down):  9.557E-04 0.000E+00

     total cpu time spent up to now is       32.0 secs

     total energy              =    -448.56549402 Ry
     estimated scf accuracy    <       0.00008639 Ry

     iteration # 18     ecut=   124.00 Ry     beta= 0.70
     Davidson diagonalization with overlap
     ethr =  3.09E-07,  avg # of iterations =  4.6

     negative rho (up, down):  9.655E-04 0.000E+00

     total cpu time spent up to now is       34.1 secs

     total energy              =    -448.56552906 Ry
     estimated scf accuracy    <       0.00001104 Ry

     iteration # 19     ecut=   124.00 Ry     beta= 0.70
     Davidson diagonalization with overlap
     ethr =  3.94E-08,  avg # of iterations =  4.7

     negative rho (up, down):  9.597E-04 0.000E+00

     total cpu time spent up to now is       36.4 secs

     total energy              =    -448.56552085 Ry
     estimated scf accuracy    <       0.00019571 Ry

     iteration # 20     ecut=   124.00 Ry     beta= 0.70
     Davidson diagonalization with overlap
     ethr =  3.94E-08,  avg # of iterations =  4.2

     negative rho (up, down):  9.610E-04 0.000E+00

     total cpu time spent up to now is       38.5 secs

     total energy              =    -448.56553337 Ry
     estimated scf accuracy    <       0.00000185 Ry

     iteration # 21     ecut=   124.00 Ry     beta= 0.70
     Davidson diagonalization with overlap
     ethr =  6.61E-09,  avg # of iterations =  3.0

     negative rho (up, down):  9.590E-04 0.000E+00

     total cpu time spent up to now is       40.2 secs

     total energy              =    -448.56553115 Ry
     estimated scf accuracy    <       0.00001569 Ry

     iteration # 22     ecut=   124.00 Ry     beta= 0.70
     Davidson diagonalization with overlap
     ethr =  6.61E-09,  avg # of iterations =  3.8

     negative rho (up, down):  9.593E-04 0.000E+00

     total cpu time spent up to now is       42.2 secs

     total energy              =    -448.56553259 Ry
     estimated scf accuracy    <       0.00000084 Ry

     iteration # 23     ecut=   124.00 Ry     beta= 0.70
     Davidson diagonalization with overlap
     ethr =  2.99E-09,  avg # of iterations =  1.7

     negative rho (up, down):  9.592E-04 0.000E+00

     total cpu time spent up to now is       43.7 secs

     End of self-consistent calculation

     Number of k-points >= 100: set verbosity='high' to print the bands.

     the Fermi energy is    20.1576 ev

!    total energy              =    -448.56553267 Ry
     estimated scf accuracy    <          6.6E-09 Ry
     smearing contrib. (-TS)   =       0.00002737 Ry
     internal energy E=F+TS    =    -448.56556004 Ry

     The total energy is F=E-TS. E is the sum of the following terms:
     one-electron contribution =    -135.87112488 Ry
     hartree contribution      =      86.49251750 Ry
     xc contribution           =     -53.10626381 Ry
     ewald contribution        =    -269.92445339 Ry
     one-center paw contrib.   =     -76.15623545 Ry

     convergence has been achieved in  23 iterations

     negative rho (up, down):  9.592E-04 0.000E+00

     Forces acting on atoms (cartesian axes, Ry/au):

     atom    1 type  1   force =     0.00000000    0.00000000    0.00000000
     atom    2 type  2   force =     0.00000000    0.00000000    0.00000000

     Total force =     0.000000     Total SCF correction =     0.000000


     Computing stress (Cartesian axis) and pressure


     negative rho (up, down):  9.592E-04 0.000E+00
          total   stress  (Ry/bohr**3)                   (kbar)     P=      328.73
   0.00223468   0.00000000   0.00000000          328.73        0.00        0.00
   0.00000000   0.00223468   0.00000000            0.00      328.73        0.00
   0.00000000   0.00000000   0.00223468            0.00        0.00      328.73


     Writing all to output data dir ./TiFe.save/ :
     XML data file, charge density, pseudopotentials, collected wavefunctions

     init_run     :      1.82s CPU      1.87s WALL (       1 calls)
     electrons    :     40.03s CPU     41.68s WALL (       1 calls)
     forces       :      0.27s CPU      0.29s WALL (       1 calls)
     stress       :      1.54s CPU      1.59s WALL (       1 calls)

     Called by init_run:
     wfcinit      :      0.64s CPU      0.65s WALL (       1 calls)
     potinit      :      0.36s CPU      0.38s WALL (       1 calls)
     hinit0       :      0.65s CPU      0.66s WALL (       1 calls)

     Called by electrons:
     c_bands      :     28.24s CPU     28.95s WALL (      23 calls)
     sum_band     :      7.40s CPU      7.84s WALL (      23 calls)
     v_of_rho     :      0.46s CPU      0.51s WALL (      24 calls)
     newd         :      2.69s CPU      3.01s WALL (      24 calls)
     PAW_pot      :      1.33s CPU      1.45s WALL (      24 calls)
     mix_rho      :      0.05s CPU      0.06s WALL (      23 calls)

     Called by c_bands:
     init_us_2    :      0.74s CPU      0.76s WALL (    5880 calls)
     cegterg      :     26.86s CPU     27.53s WALL (    2760 calls)

     Called by *egterg:
     cdiaghg      :      3.11s CPU      3.18s WALL (    9895 calls)
     h_psi        :     21.07s CPU     21.61s WALL (   10015 calls)
     s_psi        :      0.47s CPU      0.48s WALL (   10015 calls)
     g_psi        :      0.11s CPU      0.11s WALL (    7135 calls)

     Called by h_psi:
     h_psi:calbec :      0.78s CPU      0.80s WALL (   10015 calls)
     vloc_psi     :     19.72s CPU     20.23s WALL (   10015 calls)
     add_vuspsi   :      0.48s CPU      0.49s WALL (   10015 calls)

     General routines
     calbec       :      1.24s CPU      1.27s WALL (   14815 calls)
     fft          :      0.79s CPU      0.87s WALL (     335 calls)
     ffts         :      0.28s CPU      0.29s WALL (      47 calls)
     fftw         :     19.41s CPU     19.89s WALL (  296532 calls)
     interpolate  :      0.30s CPU      0.31s WALL (      24 calls)

     Parallel routines

     PWSCF        :     44.05s CPU     46.07s WALL


   This run was terminated on:  14:57: 0  28Oct2025            

=------------------------------------------------------------------------------=
   JOB DONE.
=------------------------------------------------------------------------------=
