
     Program PWSCF v.7.4 starts on 28Oct2025 at 15: 7:35 

     This program is part of the open-source Quantum ESPRESSO suite
     for quantum simulation of materials; please cite
         "P. Giannozzi et al., J. Phys.:Condens. Matter 21 395502 (2009);
         "P. Giannozzi et al., J. Phys.:Condens. Matter 29 465901 (2017);
         "P. Giannozzi et al., J. Chem. Phys. 152 154105 (2020);
          URL http://www.quantum-espresso.org", 
     in publications or presentations arising from this work. More details at
     http://www.quantum-espresso.org/quote

     Parallel version (MPI & OpenMP), running on       8 processor cores
     Number of MPI processes:                 8
     Threads/MPI process:                     1

     MPI processes distributed on     1 nodes
     226520 MiB available memory on the printing compute node when the environment starts

     Reading input from TiFe_13.in

     Current dimensions of program PWSCF are:
     Max number of different atomic species (ntypx) = 10
     Max number of k-points (npk) =  40000
     Max angular momentum in pseudopotentials (lmaxx) =  4
     file Fe.pbe-spn-kjpaw_psl.0.2.1.UPF: wavefunction(s)  3D renormalized

     IMPORTANT: XC functional enforced from input :
     Exchange-correlation= PBE
                           (   1   4   3   4   0   0   0)
     Any further DFT definition will be discarded
     Please, verify this is what you really want

     Message from routine setup:
     using ibrav=0 with symmetry is DISCOURAGED, use correct ibrav instead

     R & G space division:  proc/nbgrp/npool/nimage =       8
     Subspace diagonalization in iterative solution of the eigenvalue problem:
     a serial algorithm will be used


     Parallelization info
     --------------------
     sticks:   dense  smooth     PW     G-vecs:    dense   smooth      PW
     Min         535     153     44                26429     4051     640
     Max         536     154     45                26434     4054     643
     Sum        4281    1225    357               211441    32423    5137

     Using Slab Decomposition



     bravais-lattice index     =            0
     lattice parameter (alat)  =       5.5722  a.u.
     unit-cell volume          =     173.0133 (a.u.)^3
     number of atoms/cell      =            2
     number of atomic types    =            2
     number of electrons       =        28.00
     number of Kohn-Sham states=           18
     kinetic-energy cutoff     =     124.0000  Ry
     charge density cutoff     =    1736.0000  Ry
     scf convergence threshold =      1.0E-08
     mixing beta               =       0.7000
     number of iterations used =            8  plain     mixing
     Exchange-correlation= PBE
                           (   1   4   3   4   0   0   0)

     celldm(1)=   5.572198  celldm(2)=   0.000000  celldm(3)=   0.000000
     celldm(4)=   0.000000  celldm(5)=   0.000000  celldm(6)=   0.000000

     crystal axes: (cart. coord. in units of alat)
               a(1) = (   1.000000   0.000000   0.000000 )  
               a(2) = (   0.000000   1.000000   0.000000 )  
               a(3) = (   0.000000   0.000000   1.000000 )  

     reciprocal axes: (cart. coord. in units 2 pi/alat)
               b(1) = (  1.000000  0.000000  0.000000 )  
               b(2) = (  0.000000  1.000000  0.000000 )  
               b(3) = (  0.000000  0.000000  1.000000 )  


     PseudoPot. # 1 for Fe read from file:
     ../../pseudos/Fe.pbe-spn-kjpaw_psl.0.2.1.UPF
     MD5 check sum: e86618425769142926afa95317d90200
     Pseudo is Projector augmented-wave + core cor, Zval = 16.0
     Generated using "atomic" code by A. Dal Corso  v.5.0.99 svn rev. 10869
     Shape of augmentation charge: PSQ
     Using radial grid of 1191 points,  6 beta functions with: 
                l(1) =   0
                l(2) =   0
                l(3) =   1
                l(4) =   1
                l(5) =   2
                l(6) =   2
     Q(r) pseudized with 0 coefficients 


     PseudoPot. # 2 for Ti read from file:
     ../../pseudos/ti_pbe_v1.4.uspp.F.UPF
     MD5 check sum: 88a00a6731bd790ddea75d31a80cb452
     Pseudo is Ultrasoft + core correction, Zval = 12.0
     Generated by new atomic code, or converted to UPF format
     Using radial grid of  851 points,  6 beta functions with: 
                l(1) =   0
                l(2) =   0
                l(3) =   1
                l(4) =   1
                l(5) =   2
                l(6) =   2
     Q(r) pseudized with  6 coefficients,  rinner =    1.000   1.000   1.000
                                                       1.000   1.000

     atomic species   valence    mass     pseudopotential
     Fe               16.00    55.84500     Fe( 1.00)
     Ti               12.00    47.86700     Ti( 1.00)

     48 Sym. Ops., with inversion, found



   Cartesian axes

     site n.     atom                  positions (alat units)
         1        Fe     tau(   1) = (   0.5000000   0.5000000   0.5000000  )
         2        Ti     tau(   2) = (   0.0000000   0.0000000   0.0000000  )

     number of k points=   120  Marzari-Vanderbilt smearing, width (Ry)=  0.0050

     Number of k-points >= 100: set verbosity='high' to print them.

     Dense  grid:   211441 G-vectors     FFT dimensions: (  75,  75,  75)

     Smooth grid:    32423 G-vectors     FFT dimensions: (  40,  40,  40)

     Estimated max dynamical RAM per process >     120.26 MB

     Estimated total dynamical RAM >     962.08 MB

     Check: negative core charge=   -0.000002

     Initial potential from superposition of free atoms

     starting charge      26.9995, renormalised to      28.0000

     negative rho (up, down):  1.352E-03 0.000E+00
     Starting wfcs are   23 randomized atomic wfcs
     Checking if some PAW data can be deallocated... 

     total cpu time spent up to now is        1.8 secs

     per-process dynamical memory:   144.5 Mb

     Self-consistent Calculation

     iteration #  1     ecut=   124.00 Ry     beta= 0.70
     Davidson diagonalization with overlap
     ethr =  1.00E-02,  avg # of iterations =  2.2

     negative rho (up, down):  8.449E-05 0.000E+00

     total cpu time spent up to now is        3.7 secs

     total energy              =    -434.70212342 Ry
     estimated scf accuracy    <      17.69415890 Ry

     iteration #  2     ecut=   124.00 Ry     beta= 0.70
     Davidson diagonalization with overlap
     ethr =  1.00E-02,  avg # of iterations =  6.1

     negative rho (up, down):  2.029E-05 0.000E+00

     total cpu time spent up to now is        6.9 secs

     total energy              =    -448.50101390 Ry
     estimated scf accuracy    <      66.90311388 Ry

     iteration #  3     ecut=   124.00 Ry     beta= 0.70
     Davidson diagonalization with overlap
     ethr =  1.00E-02,  avg # of iterations =  3.1

     negative rho (up, down):  2.288E-04 0.000E+00

     total cpu time spent up to now is        9.2 secs

     total energy              =    -448.61952830 Ry
     estimated scf accuracy    <      16.95455597 Ry

     iteration #  4     ecut=   124.00 Ry     beta= 0.70
     Davidson diagonalization with overlap
     ethr =  1.00E-02,  avg # of iterations =  2.1

     negative rho (up, down):  2.739E-04 0.000E+00

     total cpu time spent up to now is       11.1 secs

     total energy              =    -449.12150491 Ry
     estimated scf accuracy    <       4.86993902 Ry

     iteration #  5     ecut=   124.00 Ry     beta= 0.70
     Davidson diagonalization with overlap
     ethr =  1.00E-02,  avg # of iterations =  1.0

     negative rho (up, down):  3.736E-04 0.000E+00

     total cpu time spent up to now is       12.8 secs

     total energy              =    -449.08453675 Ry
     estimated scf accuracy    <       4.39160855 Ry

     iteration #  6     ecut=   124.00 Ry     beta= 0.70
     Davidson diagonalization with overlap
     ethr =  1.00E-02,  avg # of iterations =  1.0

     negative rho (up, down):  1.078E-03 0.000E+00

     total cpu time spent up to now is       14.4 secs

     total energy              =    -447.93760451 Ry
     estimated scf accuracy    <       4.61502105 Ry

     iteration #  7     ecut=   124.00 Ry     beta= 0.70
     Davidson diagonalization with overlap
     ethr =  1.00E-02,  avg # of iterations =  3.1

     negative rho (up, down):  1.085E-03 0.000E+00

     total cpu time spent up to now is       16.3 secs

     total energy              =    -448.72825933 Ry
     estimated scf accuracy    <       2.69251882 Ry

     iteration #  8     ecut=   124.00 Ry     beta= 0.70
     Davidson diagonalization with overlap
     ethr =  9.62E-03,  avg # of iterations =  1.0

     negative rho (up, down):  8.383E-04 0.000E+00

     total cpu time spent up to now is       17.9 secs

     total energy              =    -448.47205584 Ry
     estimated scf accuracy    <       3.38040570 Ry

     iteration #  9     ecut=   124.00 Ry     beta= 0.70
     Davidson diagonalization with overlap
     ethr =  9.62E-03,  avg # of iterations =  1.0

     negative rho (up, down):  9.468E-04 0.000E+00

     total cpu time spent up to now is       19.6 secs

     total energy              =    -448.57824461 Ry
     estimated scf accuracy    <       0.20281018 Ry

     iteration # 10     ecut=   124.00 Ry     beta= 0.70
     Davidson diagonalization with overlap
     ethr =  7.24E-04,  avg # of iterations =  2.7

     negative rho (up, down):  4.344E-04 0.000E+00

     total cpu time spent up to now is       21.3 secs

     total energy              =    -448.62267155 Ry
     estimated scf accuracy    <       0.05140329 Ry

     iteration # 11     ecut=   124.00 Ry     beta= 0.70
     Davidson diagonalization with overlap
     ethr =  1.84E-04,  avg # of iterations =  3.2

     negative rho (up, down):  4.521E-04 0.000E+00

     total cpu time spent up to now is       23.4 secs

     total energy              =    -448.61712935 Ry
     estimated scf accuracy    <       0.42069740 Ry

     iteration # 12     ecut=   124.00 Ry     beta= 0.70
     Davidson diagonalization with overlap
     ethr =  1.84E-04,  avg # of iterations =  1.2

     negative rho (up, down):  2.689E-04 0.000E+00

     total cpu time spent up to now is       25.0 secs

     total energy              =    -448.57789226 Ry
     estimated scf accuracy    <       0.19520862 Ry

     iteration # 13     ecut=   124.00 Ry     beta= 0.70
     Davidson diagonalization with overlap
     ethr =  1.84E-04,  avg # of iterations =  5.0

     negative rho (up, down):  2.427E-04 0.000E+00

     total cpu time spent up to now is       27.4 secs

     total energy              =    -448.71975703 Ry
     estimated scf accuracy    <       1.66126442 Ry

     iteration # 14     ecut=   124.00 Ry     beta= 0.70
     Davidson diagonalization with overlap
     ethr =  1.84E-04,  avg # of iterations =  1.1

     negative rho (up, down):  1.138E-03 0.000E+00

     total cpu time spent up to now is       29.1 secs

     total energy              =    -448.46032356 Ry
     estimated scf accuracy    <       1.29499306 Ry

     iteration # 15     ecut=   124.00 Ry     beta= 0.70
     Davidson diagonalization with overlap
     ethr =  1.84E-04,  avg # of iterations =  5.4

     negative rho (up, down):  4.956E-04 0.000E+00

     total cpu time spent up to now is       31.7 secs

     total energy              =    -448.55284891 Ry
     estimated scf accuracy    <       0.15511225 Ry

     iteration # 16     ecut=   124.00 Ry     beta= 0.70
     Davidson diagonalization with overlap
     ethr =  1.84E-04,  avg # of iterations =  4.2

     negative rho (up, down):  6.172E-04 0.000E+00

     total cpu time spent up to now is       34.1 secs

     total energy              =    -448.59670626 Ry
     estimated scf accuracy    <       0.36245950 Ry

     iteration # 17     ecut=   124.00 Ry     beta= 0.70
     Davidson diagonalization with overlap
     ethr =  1.84E-04,  avg # of iterations =  1.1

     negative rho (up, down):  7.661E-04 0.000E+00

     total cpu time spent up to now is       35.7 secs

     total energy              =    -448.59419352 Ry
     estimated scf accuracy    <       0.13427402 Ry

     iteration # 18     ecut=   124.00 Ry     beta= 0.70
     Davidson diagonalization with overlap
     ethr =  1.84E-04,  avg # of iterations =  2.1

     negative rho (up, down):  8.286E-04 0.000E+00

     total cpu time spent up to now is       37.5 secs

     total energy              =    -448.59447899 Ry
     estimated scf accuracy    <       0.05019387 Ry

     iteration # 19     ecut=   124.00 Ry     beta= 0.70
     Davidson diagonalization with overlap
     ethr =  1.79E-04,  avg # of iterations =  1.0

     negative rho (up, down):  1.079E-03 0.000E+00

     total cpu time spent up to now is       39.1 secs

     total energy              =    -448.57000035 Ry
     estimated scf accuracy    <       0.04635207 Ry

     iteration # 20     ecut=   124.00 Ry     beta= 0.70
     Davidson diagonalization with overlap
     ethr =  1.66E-04,  avg # of iterations =  4.1

     negative rho (up, down):  8.833E-04 0.000E+00

     total cpu time spent up to now is       41.4 secs

     total energy              =    -448.56201984 Ry
     estimated scf accuracy    <       0.24554607 Ry

     iteration # 21     ecut=   124.00 Ry     beta= 0.70
     Davidson diagonalization with overlap
     ethr =  1.66E-04,  avg # of iterations =  3.8

     negative rho (up, down):  9.213E-04 0.000E+00

     total cpu time spent up to now is       43.4 secs

     total energy              =    -448.58708858 Ry
     estimated scf accuracy    <       0.02447949 Ry

     iteration # 22     ecut=   124.00 Ry     beta= 0.70
     Davidson diagonalization with overlap
     ethr =  8.74E-05,  avg # of iterations =  1.0

     negative rho (up, down):  9.348E-04 0.000E+00

     total cpu time spent up to now is       45.0 secs

     total energy              =    -448.58692757 Ry
     estimated scf accuracy    <       0.00919136 Ry

     iteration # 23     ecut=   124.00 Ry     beta= 0.70
     Davidson diagonalization with overlap
     ethr =  3.28E-05,  avg # of iterations =  1.1

     negative rho (up, down):  9.358E-04 0.000E+00

     total cpu time spent up to now is       46.6 secs

     total energy              =    -448.58705559 Ry
     estimated scf accuracy    <       0.00428113 Ry

     iteration # 24     ecut=   124.00 Ry     beta= 0.70
     Davidson diagonalization with overlap
     ethr =  1.53E-05,  avg # of iterations =  1.0

     negative rho (up, down):  9.701E-04 0.000E+00

     total cpu time spent up to now is       48.3 secs

     total energy              =    -448.58629857 Ry
     estimated scf accuracy    <       0.00415996 Ry

     iteration # 25     ecut=   124.00 Ry     beta= 0.70
     Davidson diagonalization with overlap
     ethr =  1.49E-05,  avg # of iterations =  2.2

     negative rho (up, down):  9.644E-04 0.000E+00

     total cpu time spent up to now is       50.0 secs

     total energy              =    -448.58675300 Ry
     estimated scf accuracy    <       0.00019639 Ry

     iteration # 26     ecut=   124.00 Ry     beta= 0.70
     Davidson diagonalization with overlap
     ethr =  7.01E-07,  avg # of iterations =  2.4

     negative rho (up, down):  9.697E-04 0.000E+00

     total cpu time spent up to now is       51.8 secs

     total energy              =    -448.58678540 Ry
     estimated scf accuracy    <       0.00003260 Ry

     iteration # 27     ecut=   124.00 Ry     beta= 0.70
     Davidson diagonalization with overlap
     ethr =  1.16E-07,  avg # of iterations =  4.0

     negative rho (up, down):  9.672E-04 0.000E+00

     total cpu time spent up to now is       53.9 secs

     total energy              =    -448.58679370 Ry
     estimated scf accuracy    <       0.00009536 Ry

     iteration # 28     ecut=   124.00 Ry     beta= 0.70
     Davidson diagonalization with overlap
     ethr =  1.16E-07,  avg # of iterations =  1.2

     negative rho (up, down):  9.661E-04 0.000E+00

     total cpu time spent up to now is       55.5 secs

     total energy              =    -448.58679397 Ry
     estimated scf accuracy    <       0.00002807 Ry

     iteration # 29     ecut=   124.00 Ry     beta= 0.70
     Davidson diagonalization with overlap
     ethr =  1.00E-07,  avg # of iterations =  1.0

     negative rho (up, down):  9.639E-04 0.000E+00

     total cpu time spent up to now is       57.1 secs

     total energy              =    -448.58679284 Ry
     estimated scf accuracy    <       0.00001218 Ry

     iteration # 30     ecut=   124.00 Ry     beta= 0.70
     Davidson diagonalization with overlap
     ethr =  4.35E-08,  avg # of iterations =  2.8

     negative rho (up, down):  9.634E-04 0.000E+00

     total cpu time spent up to now is       58.9 secs

     total energy              =    -448.58679372 Ry
     estimated scf accuracy    <       0.00000037 Ry

     iteration # 31     ecut=   124.00 Ry     beta= 0.70
     Davidson diagonalization with overlap
     ethr =  1.33E-09,  avg # of iterations =  4.8

     negative rho (up, down):  9.637E-04 0.000E+00

     total cpu time spent up to now is       61.2 secs

     total energy              =    -448.58679397 Ry
     estimated scf accuracy    <       0.00000008 Ry

     iteration # 32     ecut=   124.00 Ry     beta= 0.70
     Davidson diagonalization with overlap
     ethr =  2.73E-10,  avg # of iterations =  2.1

     negative rho (up, down):  9.636E-04 0.000E+00

     total cpu time spent up to now is       63.0 secs

     End of self-consistent calculation

     Number of k-points >= 100: set verbosity='high' to print the bands.

     the Fermi energy is    17.5098 ev

!    total energy              =    -448.58679398 Ry
     estimated scf accuracy    <          3.9E-09 Ry
     smearing contrib. (-TS)   =      -0.00002298 Ry
     internal energy E=F+TS    =    -448.58677100 Ry

     The total energy is F=E-TS. E is the sum of the following terms:
     one-electron contribution =    -152.70942442 Ry
     hartree contribution      =      92.08663468 Ry
     xc contribution           =     -52.87089779 Ry
     ewald contribution        =    -258.93956035 Ry
     one-center paw contrib.   =     -76.15352312 Ry

     convergence has been achieved in  32 iterations

     negative rho (up, down):  9.636E-04 0.000E+00

     Forces acting on atoms (cartesian axes, Ry/au):

     atom    1 type  1   force =     0.00000000    0.00000000    0.00000000
     atom    2 type  2   force =     0.00000000    0.00000000    0.00000000

     Total force =     0.000000     Total SCF correction =     0.000000


     Computing stress (Cartesian axis) and pressure


     negative rho (up, down):  9.636E-04 0.000E+00
          total   stress  (Ry/bohr**3)                   (kbar)     P=        9.58
   0.00006513   0.00000000   0.00000000            9.58        0.00        0.00
   0.00000000   0.00006513   0.00000000            0.00        9.58        0.00
   0.00000000   0.00000000   0.00006513            0.00        0.00        9.58


     Writing all to output data dir ./TiFe.save/ :
     XML data file, charge density, pseudopotentials, collected wavefunctions

     init_run     :      1.49s CPU      1.55s WALL (       1 calls)
     electrons    :     59.16s CPU     61.26s WALL (       1 calls)
     forces       :      0.30s CPU      0.33s WALL (       1 calls)
     stress       :      1.73s CPU      1.78s WALL (       1 calls)

     Called by init_run:
     wfcinit      :      0.68s CPU      0.70s WALL (       1 calls)
     potinit      :      0.37s CPU      0.38s WALL (       1 calls)
     hinit0       :      0.26s CPU      0.26s WALL (       1 calls)

     Called by electrons:
     c_bands      :     41.13s CPU     42.08s WALL (      32 calls)
     sum_band     :     11.15s CPU     11.77s WALL (      32 calls)
     v_of_rho     :      0.78s CPU      0.84s WALL (      33 calls)
     newd         :      4.30s CPU      4.72s WALL (      33 calls)
     PAW_pot      :      1.82s CPU      1.85s WALL (      33 calls)
     mix_rho      :      0.09s CPU      0.11s WALL (      32 calls)

     Called by c_bands:
     init_us_2    :      1.18s CPU      1.21s WALL (    8040 calls)
     cegterg      :     38.95s CPU     39.85s WALL (    3840 calls)

     Called by *egterg:
     cdiaghg      :      4.25s CPU      4.34s WALL (   13327 calls)
     h_psi        :     30.35s CPU     31.08s WALL (   13447 calls)
     s_psi        :      0.74s CPU      0.76s WALL (   13447 calls)
     g_psi        :      0.17s CPU      0.18s WALL (    9487 calls)

     Called by h_psi:
     h_psi:calbec :      1.17s CPU      1.21s WALL (   13447 calls)
     vloc_psi     :     28.28s CPU     28.96s WALL (   13447 calls)
     add_vuspsi   :      0.76s CPU      0.78s WALL (   13447 calls)

     General routines
     calbec       :      1.82s CPU      1.87s WALL (   19327 calls)
     fft          :      0.64s CPU      0.74s WALL (     452 calls)
     ffts         :      0.29s CPU      0.29s WALL (      65 calls)
     fftw         :     26.87s CPU     27.48s WALL (  407818 calls)
     interpolate  :      0.32s CPU      0.33s WALL (      33 calls)

     Parallel routines

     PWSCF        :     63.09s CPU     65.56s WALL


   This run was terminated on:  15: 8:41  28Oct2025            

=------------------------------------------------------------------------------=
   JOB DONE.
=------------------------------------------------------------------------------=
