
     Program PWSCF v.7.4 starts on 28Oct2025 at 14:59:45 

     This program is part of the open-source Quantum ESPRESSO suite
     for quantum simulation of materials; please cite
         "P. Giannozzi et al., J. Phys.:Condens. Matter 21 395502 (2009);
         "P. Giannozzi et al., J. Phys.:Condens. Matter 29 465901 (2017);
         "P. Giannozzi et al., J. Chem. Phys. 152 154105 (2020);
          URL http://www.quantum-espresso.org", 
     in publications or presentations arising from this work. More details at
     http://www.quantum-espresso.org/quote

     Parallel version (MPI & OpenMP), running on       8 processor cores
     Number of MPI processes:                 8
     Threads/MPI process:                     1

     MPI processes distributed on     1 nodes
     226579 MiB available memory on the printing compute node when the environment starts

     Reading input from TiFe_5.in

     Current dimensions of program PWSCF are:
     Max number of different atomic species (ntypx) = 10
     Max number of k-points (npk) =  40000
     Max angular momentum in pseudopotentials (lmaxx) =  4
     file Fe.pbe-spn-kjpaw_psl.0.2.1.UPF: wavefunction(s)  3D renormalized

     IMPORTANT: XC functional enforced from input :
     Exchange-correlation= PBE
                           (   1   4   3   4   0   0   0)
     Any further DFT definition will be discarded
     Please, verify this is what you really want

     Message from routine setup:
     using ibrav=0 with symmetry is DISCOURAGED, use correct ibrav instead

     R & G space division:  proc/nbgrp/npool/nimage =       8
     Subspace diagonalization in iterative solution of the eigenvalue problem:
     a serial algorithm will be used


     Parallelization info
     --------------------
     sticks:   dense  smooth     PW     G-vecs:    dense   smooth      PW
     Min         506     144     42                24316     3713     590
     Max         507     146     43                24319     3717     593
     Sum        4049    1161    341               194543    29711    4729

     Using Slab Decomposition



     bravais-lattice index     =            0
     lattice parameter (alat)  =       5.4210  a.u.
     unit-cell volume          =     159.3100 (a.u.)^3
     number of atoms/cell      =            2
     number of atomic types    =            2
     number of electrons       =        28.00
     number of Kohn-Sham states=           18
     kinetic-energy cutoff     =     124.0000  Ry
     charge density cutoff     =    1736.0000  Ry
     scf convergence threshold =      1.0E-08
     mixing beta               =       0.7000
     number of iterations used =            8  plain     mixing
     Exchange-correlation= PBE
                           (   1   4   3   4   0   0   0)

     celldm(1)=   5.421020  celldm(2)=   0.000000  celldm(3)=   0.000000
     celldm(4)=   0.000000  celldm(5)=   0.000000  celldm(6)=   0.000000

     crystal axes: (cart. coord. in units of alat)
               a(1) = (   1.000000   0.000000   0.000000 )  
               a(2) = (   0.000000   1.000000   0.000000 )  
               a(3) = (   0.000000   0.000000   1.000000 )  

     reciprocal axes: (cart. coord. in units 2 pi/alat)
               b(1) = (  1.000000  0.000000  0.000000 )  
               b(2) = (  0.000000  1.000000  0.000000 )  
               b(3) = (  0.000000  0.000000  1.000000 )  


     PseudoPot. # 1 for Fe read from file:
     ../../pseudos/Fe.pbe-spn-kjpaw_psl.0.2.1.UPF
     MD5 check sum: e86618425769142926afa95317d90200
     Pseudo is Projector augmented-wave + core cor, Zval = 16.0
     Generated using "atomic" code by A. Dal Corso  v.5.0.99 svn rev. 10869
     Shape of augmentation charge: PSQ
     Using radial grid of 1191 points,  6 beta functions with: 
                l(1) =   0
                l(2) =   0
                l(3) =   1
                l(4) =   1
                l(5) =   2
                l(6) =   2
     Q(r) pseudized with 0 coefficients 


     PseudoPot. # 2 for Ti read from file:
     ../../pseudos/ti_pbe_v1.4.uspp.F.UPF
     MD5 check sum: 88a00a6731bd790ddea75d31a80cb452
     Pseudo is Ultrasoft + core correction, Zval = 12.0
     Generated by new atomic code, or converted to UPF format
     Using radial grid of  851 points,  6 beta functions with: 
                l(1) =   0
                l(2) =   0
                l(3) =   1
                l(4) =   1
                l(5) =   2
                l(6) =   2
     Q(r) pseudized with  6 coefficients,  rinner =    1.000   1.000   1.000
                                                       1.000   1.000

     atomic species   valence    mass     pseudopotential
     Fe               16.00    55.84500     Fe( 1.00)
     Ti               12.00    47.86700     Ti( 1.00)

     48 Sym. Ops., with inversion, found



   Cartesian axes

     site n.     atom                  positions (alat units)
         1        Fe     tau(   1) = (   0.5000000   0.5000000   0.5000000  )
         2        Ti     tau(   2) = (   0.0000000   0.0000000   0.0000000  )

     number of k points=   120  Marzari-Vanderbilt smearing, width (Ry)=  0.0050

     Number of k-points >= 100: set verbosity='high' to print them.

     Dense  grid:   194543 G-vectors     FFT dimensions: (  72,  72,  72)

     Smooth grid:    29711 G-vectors     FFT dimensions: (  40,  40,  40)

     Estimated max dynamical RAM per process >     110.84 MB

     Estimated total dynamical RAM >     886.72 MB

     Check: negative core charge=   -0.000002

     Initial potential from superposition of free atoms

     starting charge      26.9995, renormalised to      28.0000

     negative rho (up, down):  1.342E-03 0.000E+00
     Starting wfcs are   23 randomized atomic wfcs
     Checking if some PAW data can be deallocated... 

     total cpu time spent up to now is        2.1 secs

     per-process dynamical memory:   141.8 Mb

     Self-consistent Calculation

     iteration #  1     ecut=   124.00 Ry     beta= 0.70
     Davidson diagonalization with overlap
     ethr =  1.00E-02,  avg # of iterations =  2.1

     negative rho (up, down):  5.824E-05 0.000E+00

     total cpu time spent up to now is        3.9 secs

     total energy              =    -436.21952230 Ry
     estimated scf accuracy    <      15.84342421 Ry

     iteration #  2     ecut=   124.00 Ry     beta= 0.70
     Davidson diagonalization with overlap
     ethr =  1.00E-02,  avg # of iterations =  6.1

     negative rho (up, down):  5.455E-05 0.000E+00

     total cpu time spent up to now is        7.0 secs

     total energy              =    -448.48533111 Ry
     estimated scf accuracy    <      60.74450622 Ry

     iteration #  3     ecut=   124.00 Ry     beta= 0.70
     Davidson diagonalization with overlap
     ethr =  1.00E-02,  avg # of iterations =  3.0

     negative rho (up, down):  2.854E-04 0.000E+00

     total cpu time spent up to now is        9.1 secs

     total energy              =    -448.47659736 Ry
     estimated scf accuracy    <      15.37376173 Ry

     iteration #  4     ecut=   124.00 Ry     beta= 0.70
     Davidson diagonalization with overlap
     ethr =  1.00E-02,  avg # of iterations =  2.1

     negative rho (up, down):  2.862E-04 0.000E+00

     total cpu time spent up to now is       11.0 secs

     total energy              =    -449.03713870 Ry
     estimated scf accuracy    <       3.90207961 Ry

     iteration #  5     ecut=   124.00 Ry     beta= 0.70
     Davidson diagonalization with overlap
     ethr =  1.00E-02,  avg # of iterations =  1.0

     negative rho (up, down):  3.520E-04 0.000E+00

     total cpu time spent up to now is       12.6 secs

     total energy              =    -448.77254177 Ry
     estimated scf accuracy    <       3.65166345 Ry

     iteration #  6     ecut=   124.00 Ry     beta= 0.70
     Davidson diagonalization with overlap
     ethr =  1.00E-02,  avg # of iterations =  1.0

     negative rho (up, down):  3.938E-04 0.000E+00

     total cpu time spent up to now is       14.1 secs

     total energy              =    -448.71922795 Ry
     estimated scf accuracy    <       1.57117918 Ry

     iteration #  7     ecut=   124.00 Ry     beta= 0.70
     Davidson diagonalization with overlap
     ethr =  5.61E-03,  avg # of iterations =  1.1

     negative rho (up, down):  8.198E-04 0.000E+00

     total cpu time spent up to now is       15.7 secs

     total energy              =    -448.44568391 Ry
     estimated scf accuracy    <       0.83233305 Ry

     iteration #  8     ecut=   124.00 Ry     beta= 0.70
     Davidson diagonalization with overlap
     ethr =  2.97E-03,  avg # of iterations =  4.6

     negative rho (up, down):  6.195E-04 0.000E+00

     total cpu time spent up to now is       17.7 secs

     total energy              =    -448.19986559 Ry
     estimated scf accuracy    <       5.01176715 Ry

     iteration #  9     ecut=   124.00 Ry     beta= 0.70
     Davidson diagonalization with overlap
     ethr =  2.97E-03,  avg # of iterations =  3.6

     negative rho (up, down):  1.037E-03 0.000E+00

     total cpu time spent up to now is       19.6 secs

     total energy              =    -448.85409195 Ry
     estimated scf accuracy    <       0.86720065 Ry

     iteration # 10     ecut=   124.00 Ry     beta= 0.70
     Davidson diagonalization with overlap
     ethr =  2.97E-03,  avg # of iterations =  1.1

     negative rho (up, down):  1.066E-03 0.000E+00

     total cpu time spent up to now is       21.1 secs

     total energy              =    -448.97299452 Ry
     estimated scf accuracy    <       1.87252947 Ry

     iteration # 11     ecut=   124.00 Ry     beta= 0.70
     Davidson diagonalization with overlap
     ethr =  2.97E-03,  avg # of iterations =  1.1

     negative rho (up, down):  4.878E-04 0.000E+00

     total cpu time spent up to now is       22.7 secs

     total energy              =    -448.30641622 Ry
     estimated scf accuracy    <       2.91463794 Ry

     iteration # 12     ecut=   124.00 Ry     beta= 0.70
     Davidson diagonalization with overlap
     ethr =  2.97E-03,  avg # of iterations =  2.7

     negative rho (up, down):  1.852E-03 0.000E+00

     total cpu time spent up to now is       24.5 secs

     total energy              =    -448.60552739 Ry
     estimated scf accuracy    <       0.63853690 Ry

     iteration # 13     ecut=   124.00 Ry     beta= 0.70
     Davidson diagonalization with overlap
     ethr =  2.28E-03,  avg # of iterations =  3.8

     negative rho (up, down):  1.691E-04 0.000E+00

     total cpu time spent up to now is       26.6 secs

     total energy              =    -448.20704706 Ry
     estimated scf accuracy    <      10.72359520 Ry

     iteration # 14     ecut=   124.00 Ry     beta= 0.70
     Davidson diagonalization with overlap
     ethr =  2.28E-03,  avg # of iterations =  3.0

     negative rho (up, down):  7.013E-04 0.000E+00

     total cpu time spent up to now is       28.6 secs

     total energy              =    -448.44281024 Ry
     estimated scf accuracy    <       1.72023270 Ry

     iteration # 15     ecut=   124.00 Ry     beta= 0.70
     Davidson diagonalization with overlap
     ethr =  2.28E-03,  avg # of iterations =  2.9

     negative rho (up, down):  7.691E-04 0.000E+00

     total cpu time spent up to now is       30.3 secs

     total energy              =    -448.56230549 Ry
     estimated scf accuracy    <       0.28954374 Ry

     iteration # 16     ecut=   124.00 Ry     beta= 0.70
     Davidson diagonalization with overlap
     ethr =  1.03E-03,  avg # of iterations =  2.4

     negative rho (up, down):  6.958E-04 0.000E+00

     total cpu time spent up to now is       32.0 secs

     total energy              =    -448.67064004 Ry
     estimated scf accuracy    <       0.47356739 Ry

     iteration # 17     ecut=   124.00 Ry     beta= 0.70
     Davidson diagonalization with overlap
     ethr =  1.03E-03,  avg # of iterations =  1.2

     negative rho (up, down):  9.493E-04 0.000E+00

     total cpu time spent up to now is       33.6 secs

     total energy              =    -448.55429485 Ry
     estimated scf accuracy    <       0.91575150 Ry

     iteration # 18     ecut=   124.00 Ry     beta= 0.70
     Davidson diagonalization with overlap
     ethr =  1.03E-03,  avg # of iterations =  1.4

     negative rho (up, down):  9.582E-04 0.000E+00

     total cpu time spent up to now is       35.2 secs

     total energy              =    -448.58319821 Ry
     estimated scf accuracy    <       0.09096360 Ry

     iteration # 19     ecut=   124.00 Ry     beta= 0.70
     Davidson diagonalization with overlap
     ethr =  3.25E-04,  avg # of iterations =  2.2

     negative rho (up, down):  8.406E-04 0.000E+00

     total cpu time spent up to now is       36.8 secs

     total energy              =    -448.60709495 Ry
     estimated scf accuracy    <       0.03841771 Ry

     iteration # 20     ecut=   124.00 Ry     beta= 0.70
     Davidson diagonalization with overlap
     ethr =  1.37E-04,  avg # of iterations =  3.8

     negative rho (up, down):  9.876E-04 0.000E+00

     total cpu time spent up to now is       38.8 secs

     total energy              =    -448.52646181 Ry
     estimated scf accuracy    <       1.02236917 Ry

     iteration # 21     ecut=   124.00 Ry     beta= 0.70
     Davidson diagonalization with overlap
     ethr =  1.37E-04,  avg # of iterations =  4.5

     negative rho (up, down):  9.806E-04 0.000E+00

     total cpu time spent up to now is       40.9 secs

     total energy              =    -448.57751586 Ry
     estimated scf accuracy    <       0.01101205 Ry

     iteration # 22     ecut=   124.00 Ry     beta= 0.70
     Davidson diagonalization with overlap
     ethr =  3.93E-05,  avg # of iterations =  1.6

     negative rho (up, down):  9.847E-04 0.000E+00

     total cpu time spent up to now is       42.5 secs

     total energy              =    -448.57750023 Ry
     estimated scf accuracy    <       0.00963081 Ry

     iteration # 23     ecut=   124.00 Ry     beta= 0.70
     Davidson diagonalization with overlap
     ethr =  3.44E-05,  avg # of iterations =  1.0

     negative rho (up, down):  9.523E-04 0.000E+00

     total cpu time spent up to now is       44.1 secs

     total energy              =    -448.57729708 Ry
     estimated scf accuracy    <       0.00609885 Ry

     iteration # 24     ecut=   124.00 Ry     beta= 0.70
     Davidson diagonalization with overlap
     ethr =  2.18E-05,  avg # of iterations =  1.2

     negative rho (up, down):  9.758E-04 0.000E+00

     total cpu time spent up to now is       45.7 secs

     total energy              =    -448.57705718 Ry
     estimated scf accuracy    <       0.00165402 Ry

     iteration # 25     ecut=   124.00 Ry     beta= 0.70
     Davidson diagonalization with overlap
     ethr =  5.91E-06,  avg # of iterations =  4.4

     negative rho (up, down):  9.669E-04 0.000E+00

     total cpu time spent up to now is       47.7 secs

     total energy              =    -448.57732582 Ry
     estimated scf accuracy    <       0.00021135 Ry

     iteration # 26     ecut=   124.00 Ry     beta= 0.70
     Davidson diagonalization with overlap
     ethr =  7.55E-07,  avg # of iterations =  3.3

     negative rho (up, down):  9.712E-04 0.000E+00

     total cpu time spent up to now is       49.5 secs

     total energy              =    -448.57736095 Ry
     estimated scf accuracy    <       0.00031262 Ry

     iteration # 27     ecut=   124.00 Ry     beta= 0.70
     Davidson diagonalization with overlap
     ethr =  7.55E-07,  avg # of iterations =  1.7

     negative rho (up, down):  9.709E-04 0.000E+00

     total cpu time spent up to now is       51.1 secs

     total energy              =    -448.57738331 Ry
     estimated scf accuracy    <       0.00000053 Ry

     iteration # 28     ecut=   124.00 Ry     beta= 0.70
     Davidson diagonalization with overlap
     ethr =  1.88E-09,  avg # of iterations =  7.1

     negative rho (up, down):  9.705E-04 0.000E+00

     total cpu time spent up to now is       54.5 secs

     total energy              =    -448.57738678 Ry
     estimated scf accuracy    <       0.00000356 Ry

     iteration # 29     ecut=   124.00 Ry     beta= 0.70
     Davidson diagonalization with overlap
     ethr =  1.88E-09,  avg # of iterations =  3.5

     negative rho (up, down):  9.705E-04 0.000E+00

     total cpu time spent up to now is       56.3 secs

     total energy              =    -448.57738697 Ry
     estimated scf accuracy    <       0.00000009 Ry

     iteration # 30     ecut=   124.00 Ry     beta= 0.70
     Davidson diagonalization with overlap
     ethr =  3.09E-10,  avg # of iterations =  1.9

     negative rho (up, down):  9.705E-04 0.000E+00

     total cpu time spent up to now is       57.9 secs

     total energy              =    -448.57738697 Ry
     estimated scf accuracy    <       0.00000005 Ry

     iteration # 31     ecut=   124.00 Ry     beta= 0.70
     Davidson diagonalization with overlap
     ethr =  1.61E-10,  avg # of iterations =  1.1

     negative rho (up, down):  9.705E-04 0.000E+00

     total cpu time spent up to now is       59.5 secs

     total energy              =    -448.57738697 Ry
     estimated scf accuracy    <       0.00000002 Ry

     iteration # 32     ecut=   124.00 Ry     beta= 0.70
     Davidson diagonalization with overlap
     ethr =  7.17E-11,  avg # of iterations =  2.1

     negative rho (up, down):  9.705E-04 0.000E+00

     total cpu time spent up to now is       61.2 secs

     End of self-consistent calculation

     Number of k-points >= 100: set verbosity='high' to print the bands.

     the Fermi energy is    19.2429 ev

!    total energy              =    -448.57738697 Ry
     estimated scf accuracy    <          8.1E-10 Ry
     smearing contrib. (-TS)   =       0.00001609 Ry
     internal energy E=F+TS    =    -448.57740306 Ry

     The total energy is F=E-TS. E is the sum of the following terms:
     one-electron contribution =    -141.61587268 Ry
     hartree contribution      =      88.37704223 Ry
     xc contribution           =     -53.02256110 Ry
     ewald contribution        =    -266.16070904 Ry
     one-center paw contrib.   =     -76.15530247 Ry

     convergence has been achieved in  32 iterations

     negative rho (up, down):  9.705E-04 0.000E+00

     Forces acting on atoms (cartesian axes, Ry/au):

     atom    1 type  1   force =     0.00000000    0.00000000    0.00000000
     atom    2 type  2   force =     0.00000000    0.00000000    0.00000000

     Total force =     0.000000     Total SCF correction =     0.000000


     Computing stress (Cartesian axis) and pressure


     negative rho (up, down):  9.705E-04 0.000E+00
          total   stress  (Ry/bohr**3)                   (kbar)     P=      202.83
   0.00137882   0.00000000   0.00000000          202.83        0.00        0.00
   0.00000000   0.00137882   0.00000000            0.00      202.83        0.00
   0.00000000   0.00000000   0.00137882            0.00        0.00      202.83


     Writing all to output data dir ./TiFe.save/ :
     XML data file, charge density, pseudopotentials, collected wavefunctions

     init_run     :      1.83s CPU      1.89s WALL (       1 calls)
     electrons    :     57.05s CPU     59.10s WALL (       1 calls)
     forces       :      0.28s CPU      0.30s WALL (       1 calls)
     stress       :      1.59s CPU      1.64s WALL (       1 calls)

     Called by init_run:
     wfcinit      :      0.65s CPU      0.66s WALL (       1 calls)
     potinit      :      0.36s CPU      0.38s WALL (       1 calls)
     hinit0       :      0.64s CPU      0.65s WALL (       1 calls)

     Called by electrons:
     c_bands      :     40.00s CPU     40.91s WALL (      32 calls)
     sum_band     :     10.58s CPU     11.19s WALL (      32 calls)
     v_of_rho     :      0.64s CPU      0.70s WALL (      33 calls)
     newd         :      3.94s CPU      4.34s WALL (      33 calls)
     PAW_pot      :      1.94s CPU      1.98s WALL (      33 calls)
     mix_rho      :      0.07s CPU      0.08s WALL (      32 calls)

     Called by c_bands:
     init_us_2    :      1.06s CPU      1.08s WALL (    8040 calls)
     cegterg      :     38.01s CPU     38.87s WALL (    3840 calls)

     Called by *egterg:
     cdiaghg      :      4.31s CPU      4.40s WALL (   13848 calls)
     h_psi        :     29.53s CPU     30.23s WALL (   13968 calls)
     s_psi        :      0.68s CPU      0.70s WALL (   13968 calls)
     g_psi        :      0.16s CPU      0.16s WALL (   10008 calls)

     Called by h_psi:
     h_psi:calbec :      1.16s CPU      1.19s WALL (   13968 calls)
     vloc_psi     :     27.53s CPU     28.19s WALL (   13968 calls)
     add_vuspsi   :      0.70s CPU      0.72s WALL (   13968 calls)

     General routines
     calbec       :      1.74s CPU      1.78s WALL (   19848 calls)
     fft          :      0.92s CPU      1.02s WALL (     452 calls)
     ffts         :      0.29s CPU      0.29s WALL (      65 calls)
     fftw         :     27.14s CPU     27.77s WALL (  410836 calls)
     interpolate  :      0.31s CPU      0.33s WALL (      33 calls)

     Parallel routines

     PWSCF        :     61.15s CPU     63.58s WALL


   This run was terminated on:  15: 0:49  28Oct2025            

=------------------------------------------------------------------------------=
   JOB DONE.
=------------------------------------------------------------------------------=
