
     Program PWSCF v.7.4 starts on 28Oct2025 at 15:17:47 

     This program is part of the open-source Quantum ESPRESSO suite
     for quantum simulation of materials; please cite
         "P. Giannozzi et al., J. Phys.:Condens. Matter 21 395502 (2009);
         "P. Giannozzi et al., J. Phys.:Condens. Matter 29 465901 (2017);
         "P. Giannozzi et al., J. Chem. Phys. 152 154105 (2020);
          URL http://www.quantum-espresso.org", 
     in publications or presentations arising from this work. More details at
     http://www.quantum-espresso.org/quote

     Parallel version (MPI & OpenMP), running on       8 processor cores
     Number of MPI processes:                 8
     Threads/MPI process:                     1

     MPI processes distributed on     1 nodes
     226517 MiB available memory on the printing compute node when the environment starts

     Reading input from TiFe_20.in

     Current dimensions of program PWSCF are:
     Max number of different atomic species (ntypx) = 10
     Max number of k-points (npk) =  40000
     Max angular momentum in pseudopotentials (lmaxx) =  4
     file Fe.pbe-spn-kjpaw_psl.0.2.1.UPF: wavefunction(s)  3D renormalized

     IMPORTANT: XC functional enforced from input :
     Exchange-correlation= PBE
                           (   1   4   3   4   0   0   0)
     Any further DFT definition will be discarded
     Please, verify this is what you really want

     Message from routine setup:
     using ibrav=0 with symmetry is DISCOURAGED, use correct ibrav instead

     R & G space division:  proc/nbgrp/npool/nimage =       8
     Subspace diagonalization in iterative solution of the eigenvalue problem:
     a serial algorithm will be used


     Parallelization info
     --------------------
     sticks:   dense  smooth     PW     G-vecs:    dense   smooth      PW
     Min         561     160     46                28377     4312     680
     Max         562     161     47                28380     4315     683
     Sum        4493    1281    373               227023    34505    5449

     Using Slab Decomposition



     bravais-lattice index     =            0
     lattice parameter (alat)  =       5.7045  a.u.
     unit-cell volume          =     185.6299 (a.u.)^3
     number of atoms/cell      =            2
     number of atomic types    =            2
     number of electrons       =        28.00
     number of Kohn-Sham states=           18
     kinetic-energy cutoff     =     124.0000  Ry
     charge density cutoff     =    1736.0000  Ry
     scf convergence threshold =      1.0E-08
     mixing beta               =       0.7000
     number of iterations used =            8  plain     mixing
     Exchange-correlation= PBE
                           (   1   4   3   4   0   0   0)

     celldm(1)=   5.704478  celldm(2)=   0.000000  celldm(3)=   0.000000
     celldm(4)=   0.000000  celldm(5)=   0.000000  celldm(6)=   0.000000

     crystal axes: (cart. coord. in units of alat)
               a(1) = (   1.000000   0.000000   0.000000 )  
               a(2) = (   0.000000   1.000000   0.000000 )  
               a(3) = (   0.000000   0.000000   1.000000 )  

     reciprocal axes: (cart. coord. in units 2 pi/alat)
               b(1) = (  1.000000  0.000000  0.000000 )  
               b(2) = (  0.000000  1.000000  0.000000 )  
               b(3) = (  0.000000  0.000000  1.000000 )  


     PseudoPot. # 1 for Fe read from file:
     ../../pseudos/Fe.pbe-spn-kjpaw_psl.0.2.1.UPF
     MD5 check sum: e86618425769142926afa95317d90200
     Pseudo is Projector augmented-wave + core cor, Zval = 16.0
     Generated using "atomic" code by A. Dal Corso  v.5.0.99 svn rev. 10869
     Shape of augmentation charge: PSQ
     Using radial grid of 1191 points,  6 beta functions with: 
                l(1) =   0
                l(2) =   0
                l(3) =   1
                l(4) =   1
                l(5) =   2
                l(6) =   2
     Q(r) pseudized with 0 coefficients 


     PseudoPot. # 2 for Ti read from file:
     ../../pseudos/ti_pbe_v1.4.uspp.F.UPF
     MD5 check sum: 88a00a6731bd790ddea75d31a80cb452
     Pseudo is Ultrasoft + core correction, Zval = 12.0
     Generated by new atomic code, or converted to UPF format
     Using radial grid of  851 points,  6 beta functions with: 
                l(1) =   0
                l(2) =   0
                l(3) =   1
                l(4) =   1
                l(5) =   2
                l(6) =   2
     Q(r) pseudized with  6 coefficients,  rinner =    1.000   1.000   1.000
                                                       1.000   1.000

     atomic species   valence    mass     pseudopotential
     Fe               16.00    55.84500     Fe( 1.00)
     Ti               12.00    47.86700     Ti( 1.00)

     48 Sym. Ops., with inversion, found



   Cartesian axes

     site n.     atom                  positions (alat units)
         1        Fe     tau(   1) = (   0.5000000   0.5000000   0.5000000  )
         2        Ti     tau(   2) = (   0.0000000   0.0000000   0.0000000  )

     number of k points=   120  Marzari-Vanderbilt smearing, width (Ry)=  0.0050

     Number of k-points >= 100: set verbosity='high' to print them.

     Dense  grid:   227023 G-vectors     FFT dimensions: (  75,  75,  75)

     Smooth grid:    34505 G-vectors     FFT dimensions: (  45,  45,  45)

     Estimated max dynamical RAM per process >     128.34 MB

     Estimated total dynamical RAM >       1.00 GB

     Check: negative core charge=   -0.000001

     Initial potential from superposition of free atoms

     starting charge      26.9995, renormalised to      28.0000

     negative rho (up, down):  1.378E-03 0.000E+00
     Starting wfcs are   23 randomized atomic wfcs
     Checking if some PAW data can be deallocated... 

     total cpu time spent up to now is        1.9 secs

     per-process dynamical memory:   146.3 Mb

     Self-consistent Calculation

     iteration #  1     ecut=   124.00 Ry     beta= 0.70
     Davidson diagonalization with overlap
     ethr =  1.00E-02,  avg # of iterations =  2.2

     negative rho (up, down):  1.197E-04 0.000E+00

     total cpu time spent up to now is        4.7 secs

     WARNING: integrated charge=    27.99923452, expected=    28.00000000

     total energy              =    -433.32869746 Ry
     estimated scf accuracy    <      19.34894319 Ry

     iteration #  2     ecut=   124.00 Ry     beta= 0.70
     Davidson diagonalization with overlap
     ethr =  1.00E-02,  avg # of iterations =  6.1

     negative rho (up, down):  1.575E-05 0.000E+00

     total cpu time spent up to now is        9.3 secs

     WARNING: integrated charge=    27.99986088, expected=    28.00000000

     total energy              =    -448.10271997 Ry
     estimated scf accuracy    <      73.75451750 Ry

     iteration #  3     ecut=   124.00 Ry     beta= 0.70
     Davidson diagonalization with overlap
     ethr =  1.00E-02,  avg # of iterations =  3.2

     negative rho (up, down):  1.617E-04 0.000E+00

     total cpu time spent up to now is       12.6 secs

     WARNING: integrated charge=    27.99960988, expected=    28.00000000

     total energy              =    -448.91165512 Ry
     estimated scf accuracy    <      18.19994437 Ry

     iteration #  4     ecut=   124.00 Ry     beta= 0.70
     Davidson diagonalization with overlap
     ethr =  1.00E-02,  avg # of iterations =  2.1

     negative rho (up, down):  2.388E-04 0.000E+00

     total cpu time spent up to now is       15.3 secs

     WARNING: integrated charge=    27.99962714, expected=    28.00000000

     total energy              =    -449.15998153 Ry
     estimated scf accuracy    <       6.35194606 Ry

     iteration #  5     ecut=   124.00 Ry     beta= 0.70
     Davidson diagonalization with overlap
     ethr =  1.00E-02,  avg # of iterations =  1.1

     negative rho (up, down):  5.426E-04 0.000E+00

     total cpu time spent up to now is       17.5 secs

     WARNING: integrated charge=    27.99972842, expected=    28.00000000

     total energy              =    -448.81902193 Ry
     estimated scf accuracy    <       4.92658902 Ry

     iteration #  6     ecut=   124.00 Ry     beta= 0.70
     Davidson diagonalization with overlap
     ethr =  1.00E-02,  avg # of iterations =  1.2

     negative rho (up, down):  9.813E-04 0.000E+00

     total cpu time spent up to now is       19.8 secs

     WARNING: integrated charge=    27.99975807, expected=    28.00000000

     total energy              =    -448.11442419 Ry
     estimated scf accuracy    <       3.62802920 Ry

     iteration #  7     ecut=   124.00 Ry     beta= 0.70
     Davidson diagonalization with overlap
     ethr =  1.00E-02,  avg # of iterations =  2.4

     negative rho (up, down):  1.153E-03 0.000E+00

     total cpu time spent up to now is       22.3 secs

     WARNING: integrated charge=    27.99973079, expected=    28.00000000

     total energy              =    -448.77047958 Ry
     estimated scf accuracy    <       1.26615133 Ry

     iteration #  8     ecut=   124.00 Ry     beta= 0.70
     Davidson diagonalization with overlap
     ethr =  4.52E-03,  avg # of iterations =  3.7

     negative rho (up, down):  3.535E-04 0.000E+00

     total cpu time spent up to now is       25.0 secs

     WARNING: integrated charge=    27.99994699, expected=    28.00000000

     total energy              =    -447.02173733 Ry
     estimated scf accuracy    <       9.52296564 Ry

     iteration #  9     ecut=   124.00 Ry     beta= 0.70
     Davidson diagonalization with overlap
     ethr =  4.52E-03,  avg # of iterations =  4.1

     negative rho (up, down):  6.019E-04 0.000E+00

     total cpu time spent up to now is       27.9 secs

     WARNING: integrated charge=    27.99997820, expected=    28.00000000

     total energy              =    -448.33434188 Ry
     estimated scf accuracy    <       5.36327272 Ry

     iteration # 10     ecut=   124.00 Ry     beta= 0.70
     Davidson diagonalization with overlap
     ethr =  4.52E-03,  avg # of iterations =  2.0

     negative rho (up, down):  6.292E-04 0.000E+00

     total cpu time spent up to now is       30.3 secs

     WARNING: integrated charge=    27.99996616, expected=    28.00000000

     total energy              =    -448.58634106 Ry
     estimated scf accuracy    <       0.22788625 Ry

     iteration # 11     ecut=   124.00 Ry     beta= 0.70
     Davidson diagonalization with overlap
     ethr =  8.14E-04,  avg # of iterations =  3.1
     Minimization algorithm failed to find Fermi energy: reverting to bisection
     Possible cause: smearing is larger than the electronic band-gap.

     negative rho (up, down):  7.758E-04 0.000E+00

     total cpu time spent up to now is       32.8 secs

     WARNING: integrated charge=    27.99995580, expected=    28.00000000

     total energy              =    -448.58331452 Ry
     estimated scf accuracy    <       0.09117551 Ry

     iteration # 12     ecut=   124.00 Ry     beta= 0.70
     Davidson diagonalization with overlap
     ethr =  3.26E-04,  avg # of iterations =  4.2

     negative rho (up, down):  6.323E-04 0.000E+00

     total cpu time spent up to now is       35.6 secs

     WARNING: integrated charge=    27.99994172, expected=    28.00000000

     total energy              =    -448.49649196 Ry
     estimated scf accuracy    <       0.60796317 Ry

     iteration # 13     ecut=   124.00 Ry     beta= 0.70
     Davidson diagonalization with overlap
     ethr =  3.26E-04,  avg # of iterations =  4.4

     negative rho (up, down):  1.231E-03 0.000E+00

     total cpu time spent up to now is       38.6 secs

     WARNING: integrated charge=    27.99994752, expected=    28.00000000

     total energy              =    -448.48764485 Ry
     estimated scf accuracy    <       0.85405815 Ry

     iteration # 14     ecut=   124.00 Ry     beta= 0.70
     Davidson diagonalization with overlap
     ethr =  3.26E-04,  avg # of iterations =  4.9

     negative rho (up, down):  5.613E-04 0.000E+00

     total cpu time spent up to now is       41.9 secs

     WARNING: integrated charge=    27.99994692, expected=    28.00000000

     total energy              =    -448.50193079 Ry
     estimated scf accuracy    <       0.31954883 Ry

     iteration # 15     ecut=   124.00 Ry     beta= 0.70
     Davidson diagonalization with overlap
     ethr =  3.26E-04,  avg # of iterations =  4.4

     negative rho (up, down):  5.467E-04 0.000E+00

     total cpu time spent up to now is       45.3 secs

     WARNING: integrated charge=    27.99994830, expected=    28.00000000

     total energy              =    -448.66368774 Ry
     estimated scf accuracy    <       0.68710044 Ry

     iteration # 16     ecut=   124.00 Ry     beta= 0.70
     Davidson diagonalization with overlap
     ethr =  3.26E-04,  avg # of iterations =  1.0

     negative rho (up, down):  5.481E-04 0.000E+00

     total cpu time spent up to now is       47.5 secs

     WARNING: integrated charge=    27.99994761, expected=    28.00000000

     total energy              =    -448.66344915 Ry
     estimated scf accuracy    <       0.73344416 Ry

     iteration # 17     ecut=   124.00 Ry     beta= 0.70
     Davidson diagonalization with overlap
     ethr =  3.26E-04,  avg # of iterations =  1.0

     negative rho (up, down):  6.630E-04 0.000E+00

     total cpu time spent up to now is       49.8 secs

     WARNING: integrated charge=    27.99996076, expected=    28.00000000

     total energy              =    -448.66305628 Ry
     estimated scf accuracy    <       0.73571049 Ry

     iteration # 18     ecut=   124.00 Ry     beta= 0.70
     Davidson diagonalization with overlap
     ethr =  3.26E-04,  avg # of iterations =  1.7

     negative rho (up, down):  9.374E-04 0.000E+00

     total cpu time spent up to now is       52.2 secs

     WARNING: integrated charge=    27.99997643, expected=    28.00000000

     total energy              =    -448.54350641 Ry
     estimated scf accuracy    <       1.14141874 Ry

     iteration # 19     ecut=   124.00 Ry     beta= 0.70
     Davidson diagonalization with overlap
     ethr =  3.26E-04,  avg # of iterations =  3.2

     negative rho (up, down):  1.027E-03 0.000E+00

     total cpu time spent up to now is       54.8 secs

     WARNING: integrated charge=    27.99997912, expected=    28.00000000

     total energy              =    -448.57774648 Ry
     estimated scf accuracy    <       0.05260500 Ry

     iteration # 20     ecut=   124.00 Ry     beta= 0.70
     Davidson diagonalization with overlap
     ethr =  1.88E-04,  avg # of iterations =  1.8

     negative rho (up, down):  9.585E-04 0.000E+00

     total cpu time spent up to now is       57.2 secs

     WARNING: integrated charge=    27.99998564, expected=    28.00000000

     total energy              =    -448.58067567 Ry
     estimated scf accuracy    <       0.01078298 Ry

     iteration # 21     ecut=   124.00 Ry     beta= 0.70
     Davidson diagonalization with overlap
     ethr =  3.85E-05,  avg # of iterations =  3.5

     negative rho (up, down):  7.653E-04 0.000E+00

     total cpu time spent up to now is       60.0 secs

     WARNING: integrated charge=    27.99999633, expected=    28.00000000

     total energy              =    -448.58231816 Ry
     estimated scf accuracy    <       0.00095870 Ry

     iteration # 22     ecut=   124.00 Ry     beta= 0.70
     Davidson diagonalization with overlap
     ethr =  3.42E-06,  avg # of iterations =  5.8

     negative rho (up, down):  8.033E-04 0.000E+00

     total cpu time spent up to now is       64.1 secs

     total energy              =    -448.58538822 Ry
     estimated scf accuracy    <       0.09795864 Ry

     iteration # 23     ecut=   124.00 Ry     beta= 0.70
     Davidson diagonalization with overlap
     ethr =  3.42E-06,  avg # of iterations =  2.8

     negative rho (up, down):  8.942E-04 0.000E+00

     total cpu time spent up to now is       66.6 secs

     total energy              =    -448.58319103 Ry
     estimated scf accuracy    <       0.06065772 Ry

     iteration # 24     ecut=   124.00 Ry     beta= 0.70
     Davidson diagonalization with overlap
     ethr =  3.42E-06,  avg # of iterations =  3.9

     negative rho (up, down):  9.635E-04 0.000E+00

     total cpu time spent up to now is       69.5 secs

     WARNING: integrated charge=    28.00000437, expected=    28.00000000

     total energy              =    -448.58241725 Ry
     estimated scf accuracy    <       0.02624803 Ry

     iteration # 25     ecut=   124.00 Ry     beta= 0.70
     Davidson diagonalization with overlap
     ethr =  3.42E-06,  avg # of iterations =  3.9

     negative rho (up, down):  9.870E-04 0.000E+00

     total cpu time spent up to now is       72.5 secs

     total energy              =    -448.58131894 Ry
     estimated scf accuracy    <       0.00826461 Ry

     iteration # 26     ecut=   124.00 Ry     beta= 0.70
     Davidson diagonalization with overlap
     ethr =  3.42E-06,  avg # of iterations =  4.8

     negative rho (up, down):  9.702E-04 0.000E+00

     total cpu time spent up to now is       75.8 secs

     total energy              =    -448.58216579 Ry
     estimated scf accuracy    <       0.00176916 Ry

     iteration # 27     ecut=   124.00 Ry     beta= 0.70
     Davidson diagonalization with overlap
     ethr =  3.42E-06,  avg # of iterations =  1.6

     negative rho (up, down):  9.712E-04 0.000E+00

     total cpu time spent up to now is       78.2 secs

     total energy              =    -448.58226716 Ry
     estimated scf accuracy    <       0.00000986 Ry

     iteration # 28     ecut=   124.00 Ry     beta= 0.70
     Davidson diagonalization with overlap
     ethr =  3.52E-08,  avg # of iterations =  4.8

     negative rho (up, down):  9.730E-04 0.000E+00

     total cpu time spent up to now is       81.4 secs

     total energy              =    -448.58227730 Ry
     estimated scf accuracy    <       0.00001713 Ry

     iteration # 29     ecut=   124.00 Ry     beta= 0.70
     Davidson diagonalization with overlap
     ethr =  3.52E-08,  avg # of iterations =  1.1

     negative rho (up, down):  9.735E-04 0.000E+00

     total cpu time spent up to now is       83.7 secs

     total energy              =    -448.58227789 Ry
     estimated scf accuracy    <       0.00000090 Ry

     iteration # 30     ecut=   124.00 Ry     beta= 0.70
     Davidson diagonalization with overlap
     ethr =  3.20E-09,  avg # of iterations =  4.1

     negative rho (up, down):  9.735E-04 0.000E+00

     total cpu time spent up to now is       86.5 secs

     total energy              =    -448.58227812 Ry
     estimated scf accuracy    <       0.00000020 Ry

     iteration # 31     ecut=   124.00 Ry     beta= 0.70
     Davidson diagonalization with overlap
     ethr =  7.16E-10,  avg # of iterations =  2.8

     negative rho (up, down):  9.733E-04 0.000E+00

     total cpu time spent up to now is       89.1 secs

     End of self-consistent calculation

     Number of k-points >= 100: set verbosity='high' to print the bands.

     the Fermi energy is    16.0874 ev

!    total energy              =    -448.58227814 Ry
     estimated scf accuracy    <          9.8E-09 Ry
     smearing contrib. (-TS)   =      -0.00001529 Ry
     internal energy E=F+TS    =    -448.58226285 Ry

     The total energy is F=E-TS. E is the sum of the following terms:
     one-electron contribution =    -162.01509651 Ry
     hartree contribution      =      95.27438991 Ry
     xc contribution           =     -52.75453432 Ry
     ewald contribution        =    -252.93502551 Ry
     one-center paw contrib.   =     -76.15199642 Ry

     convergence has been achieved in  31 iterations

     negative rho (up, down):  9.733E-04 0.000E+00

     Forces acting on atoms (cartesian axes, Ry/au):

     atom    1 type  1   force =     0.00000000    0.00000000    0.00000000
     atom    2 type  2   force =     0.00000000    0.00000000    0.00000000

     Total force =     0.000000     Total SCF correction =     0.000000


     Computing stress (Cartesian axis) and pressure


     negative rho (up, down):  9.733E-04 0.000E+00
          total   stress  (Ry/bohr**3)                   (kbar)     P=     -110.09
  -0.00074837   0.00000000   0.00000000         -110.09        0.00        0.00
   0.00000000  -0.00074837   0.00000000            0.00     -110.09        0.00
   0.00000000   0.00000000  -0.00074837            0.00        0.00     -110.09


     Writing all to output data dir ./TiFe.save/ :
     XML data file, charge density, pseudopotentials, collected wavefunctions

     init_run     :      1.66s CPU      1.74s WALL (       1 calls)
     electrons    :     84.76s CPU     87.14s WALL (       1 calls)
     forces       :      0.33s CPU      0.35s WALL (       1 calls)
     stress       :      1.85s CPU      1.91s WALL (       1 calls)

     Called by init_run:
     wfcinit      :      1.00s CPU      1.04s WALL (       1 calls)
     potinit      :      0.20s CPU      0.21s WALL (       1 calls)
     hinit0       :      0.26s CPU      0.26s WALL (       1 calls)

     Called by electrons:
     c_bands      :     63.10s CPU     64.17s WALL (      31 calls)
     sum_band     :     14.76s CPU     15.46s WALL (      31 calls)
     v_of_rho     :      0.76s CPU      0.83s WALL (      32 calls)
     newd         :      4.42s CPU      4.91s WALL (      32 calls)
     PAW_pot      :      1.74s CPU      1.79s WALL (      32 calls)
     mix_rho      :      0.10s CPU      0.11s WALL (      31 calls)

     Called by c_bands:
     init_us_2    :      1.21s CPU      1.24s WALL (    7800 calls)
     cegterg      :     60.79s CPU     61.80s WALL (    3720 calls)

     Called by *egterg:
     cdiaghg      :      4.93s CPU      5.01s WALL (   15347 calls)
     h_psi        :     50.68s CPU     51.57s WALL (   15467 calls)
     s_psi        :      0.82s CPU      0.83s WALL (   15467 calls)
     g_psi        :      0.20s CPU      0.20s WALL (   11627 calls)

     Called by h_psi:
     h_psi:calbec :      1.42s CPU      1.44s WALL (   15467 calls)
     vloc_psi     :     48.27s CPU     49.11s WALL (   15467 calls)
     add_vuspsi   :      0.84s CPU      0.86s WALL (   15467 calls)

     General routines
     calbec       :      2.10s CPU      2.13s WALL (   21227 calls)
     fft          :      0.63s CPU      0.73s WALL (     439 calls)
     ffts         :      0.12s CPU      0.12s WALL (      63 calls)
     fftw         :     49.09s CPU     49.91s WALL (  414154 calls)
     interpolate  :      0.15s CPU      0.17s WALL (      32 calls)

     Parallel routines

     PWSCF        :     89.01s CPU     91.78s WALL


   This run was terminated on:  15:19:19  28Oct2025            

=------------------------------------------------------------------------------=
   JOB DONE.
=------------------------------------------------------------------------------=
