
     Program PWSCF v.7.4 starts on 28Oct2025 at 15: 5:31 

     This program is part of the open-source Quantum ESPRESSO suite
     for quantum simulation of materials; please cite
         "P. Giannozzi et al., J. Phys.:Condens. Matter 21 395502 (2009);
         "P. Giannozzi et al., J. Phys.:Condens. Matter 29 465901 (2017);
         "P. Giannozzi et al., J. Chem. Phys. 152 154105 (2020);
          URL http://www.quantum-espresso.org", 
     in publications or presentations arising from this work. More details at
     http://www.quantum-espresso.org/quote

     Parallel version (MPI & OpenMP), running on       8 processor cores
     Number of MPI processes:                 8
     Threads/MPI process:                     1

     MPI processes distributed on     1 nodes
     226557 MiB available memory on the printing compute node when the environment starts

     Reading input from TiFe_11.in

     Current dimensions of program PWSCF are:
     Max number of different atomic species (ntypx) = 10
     Max number of k-points (npk) =  40000
     Max angular momentum in pseudopotentials (lmaxx) =  4
     file Fe.pbe-spn-kjpaw_psl.0.2.1.UPF: wavefunction(s)  3D renormalized

     IMPORTANT: XC functional enforced from input :
     Exchange-correlation= PBE
                           (   1   4   3   4   0   0   0)
     Any further DFT definition will be discarded
     Please, verify this is what you really want

     Message from routine setup:
     using ibrav=0 with symmetry is DISCOURAGED, use correct ibrav instead

     R & G space division:  proc/nbgrp/npool/nimage =       8
     Subspace diagonalization in iterative solution of the eigenvalue problem:
     a serial algorithm will be used


     Parallelization info
     --------------------
     sticks:   dense  smooth     PW     G-vecs:    dense   smooth      PW
     Min         528     150     43                25846     3932     617
     Max         529     151     44                25847     3937     620
     Sum        4229    1201    349               206773    31463    4945

     Using Slab Decomposition



     bravais-lattice index     =            0
     lattice parameter (alat)  =       5.5344  a.u.
     unit-cell volume          =     169.5167 (a.u.)^3
     number of atoms/cell      =            2
     number of atomic types    =            2
     number of electrons       =        28.00
     number of Kohn-Sham states=           18
     kinetic-energy cutoff     =     124.0000  Ry
     charge density cutoff     =    1736.0000  Ry
     scf convergence threshold =      1.0E-08
     mixing beta               =       0.7000
     number of iterations used =            8  plain     mixing
     Exchange-correlation= PBE
                           (   1   4   3   4   0   0   0)

     celldm(1)=   5.534403  celldm(2)=   0.000000  celldm(3)=   0.000000
     celldm(4)=   0.000000  celldm(5)=   0.000000  celldm(6)=   0.000000

     crystal axes: (cart. coord. in units of alat)
               a(1) = (   1.000000   0.000000   0.000000 )  
               a(2) = (   0.000000   1.000000   0.000000 )  
               a(3) = (   0.000000   0.000000   1.000000 )  

     reciprocal axes: (cart. coord. in units 2 pi/alat)
               b(1) = (  1.000000  0.000000  0.000000 )  
               b(2) = (  0.000000  1.000000  0.000000 )  
               b(3) = (  0.000000  0.000000  1.000000 )  


     PseudoPot. # 1 for Fe read from file:
     ../../pseudos/Fe.pbe-spn-kjpaw_psl.0.2.1.UPF
     MD5 check sum: e86618425769142926afa95317d90200
     Pseudo is Projector augmented-wave + core cor, Zval = 16.0
     Generated using "atomic" code by A. Dal Corso  v.5.0.99 svn rev. 10869
     Shape of augmentation charge: PSQ
     Using radial grid of 1191 points,  6 beta functions with: 
                l(1) =   0
                l(2) =   0
                l(3) =   1
                l(4) =   1
                l(5) =   2
                l(6) =   2
     Q(r) pseudized with 0 coefficients 


     PseudoPot. # 2 for Ti read from file:
     ../../pseudos/ti_pbe_v1.4.uspp.F.UPF
     MD5 check sum: 88a00a6731bd790ddea75d31a80cb452
     Pseudo is Ultrasoft + core correction, Zval = 12.0
     Generated by new atomic code, or converted to UPF format
     Using radial grid of  851 points,  6 beta functions with: 
                l(1) =   0
                l(2) =   0
                l(3) =   1
                l(4) =   1
                l(5) =   2
                l(6) =   2
     Q(r) pseudized with  6 coefficients,  rinner =    1.000   1.000   1.000
                                                       1.000   1.000

     atomic species   valence    mass     pseudopotential
     Fe               16.00    55.84500     Fe( 1.00)
     Ti               12.00    47.86700     Ti( 1.00)

     48 Sym. Ops., with inversion, found



   Cartesian axes

     site n.     atom                  positions (alat units)
         1        Fe     tau(   1) = (   0.5000000   0.5000000   0.5000000  )
         2        Ti     tau(   2) = (   0.0000000   0.0000000   0.0000000  )

     number of k points=   120  Marzari-Vanderbilt smearing, width (Ry)=  0.0050

     Number of k-points >= 100: set verbosity='high' to print them.

     Dense  grid:   206773 G-vectors     FFT dimensions: (  75,  75,  75)

     Smooth grid:    31463 G-vectors     FFT dimensions: (  40,  40,  40)

     Estimated max dynamical RAM per process >     117.87 MB

     Estimated total dynamical RAM >     942.99 MB

     Check: negative core charge=   -0.000002

     Initial potential from superposition of free atoms

     starting charge      26.9995, renormalised to      28.0000

     negative rho (up, down):  1.343E-03 0.000E+00
     Starting wfcs are   23 randomized atomic wfcs
     Checking if some PAW data can be deallocated... 

     total cpu time spent up to now is        1.8 secs

     per-process dynamical memory:   144.1 Mb

     Self-consistent Calculation

     iteration #  1     ecut=   124.00 Ry     beta= 0.70
     Davidson diagonalization with overlap
     ethr =  1.00E-02,  avg # of iterations =  2.1

     negative rho (up, down):  7.472E-05 0.000E+00

     total cpu time spent up to now is        3.7 secs

     total energy              =    -435.07830747 Ry
     estimated scf accuracy    <      17.23734045 Ry

     iteration #  2     ecut=   124.00 Ry     beta= 0.70
     Davidson diagonalization with overlap
     ethr =  1.00E-02,  avg # of iterations =  6.1

     negative rho (up, down):  2.897E-05 0.000E+00

     total cpu time spent up to now is        6.9 secs

     total energy              =    -448.52872815 Ry
     estimated scf accuracy    <      65.27846480 Ry

     iteration #  3     ecut=   124.00 Ry     beta= 0.70
     Davidson diagonalization with overlap
     ethr =  1.00E-02,  avg # of iterations =  3.1

     negative rho (up, down):  2.486E-04 0.000E+00

     total cpu time spent up to now is        9.2 secs

     total energy              =    -448.57071884 Ry
     estimated scf accuracy    <      16.58156066 Ry

     iteration #  4     ecut=   124.00 Ry     beta= 0.70
     Davidson diagonalization with overlap
     ethr =  1.00E-02,  avg # of iterations =  2.1

     negative rho (up, down):  2.809E-04 0.000E+00

     total cpu time spent up to now is       11.1 secs

     total energy              =    -449.10254064 Ry
     estimated scf accuracy    <       4.56888501 Ry

     iteration #  5     ecut=   124.00 Ry     beta= 0.70
     Davidson diagonalization with overlap
     ethr =  1.00E-02,  avg # of iterations =  1.0

     negative rho (up, down):  2.920E-04 0.000E+00

     total cpu time spent up to now is       12.7 secs

     total energy              =    -449.12323859 Ry
     estimated scf accuracy    <       4.20521670 Ry

     iteration #  6     ecut=   124.00 Ry     beta= 0.70
     Davidson diagonalization with overlap
     ethr =  1.00E-02,  avg # of iterations =  1.0

     negative rho (up, down):  5.832E-04 0.000E+00

     total cpu time spent up to now is       14.3 secs

     total energy              =    -448.53491723 Ry
     estimated scf accuracy    <       4.25371355 Ry

     iteration #  7     ecut=   124.00 Ry     beta= 0.70
     Davidson diagonalization with overlap
     ethr =  1.00E-02,  avg # of iterations =  1.1

     negative rho (up, down):  6.851E-04 0.000E+00

     total cpu time spent up to now is       16.0 secs

     total energy              =    -448.65987468 Ry
     estimated scf accuracy    <       0.80885709 Ry

     iteration #  8     ecut=   124.00 Ry     beta= 0.70
     Davidson diagonalization with overlap
     ethr =  2.89E-03,  avg # of iterations =  1.6

     negative rho (up, down):  1.277E-03 0.000E+00

     total cpu time spent up to now is       17.6 secs

     total energy              =    -448.42092217 Ry
     estimated scf accuracy    <       1.16959855 Ry

     iteration #  9     ecut=   124.00 Ry     beta= 0.70
     Davidson diagonalization with overlap
     ethr =  2.89E-03,  avg # of iterations =  3.5

     negative rho (up, down):  1.140E-03 0.000E+00

     total cpu time spent up to now is       19.6 secs

     total energy              =    -448.60798550 Ry
     estimated scf accuracy    <       0.51802711 Ry

     iteration # 10     ecut=   124.00 Ry     beta= 0.70
     Davidson diagonalization with overlap
     ethr =  1.85E-03,  avg # of iterations =  1.0

     negative rho (up, down):  8.318E-04 0.000E+00

     total cpu time spent up to now is       21.2 secs

     total energy              =    -448.59358124 Ry
     estimated scf accuracy    <       0.33961892 Ry

     iteration # 11     ecut=   124.00 Ry     beta= 0.70
     Davidson diagonalization with overlap
     ethr =  1.21E-03,  avg # of iterations =  1.1

     negative rho (up, down):  8.949E-04 0.000E+00

     total cpu time spent up to now is       22.8 secs

     total energy              =    -448.60537074 Ry
     estimated scf accuracy    <       0.26486405 Ry

     iteration # 12     ecut=   124.00 Ry     beta= 0.70
     Davidson diagonalization with overlap
     ethr =  9.46E-04,  avg # of iterations =  1.1

     negative rho (up, down):  7.984E-04 0.000E+00

     total cpu time spent up to now is       24.5 secs

     total energy              =    -448.55898717 Ry
     estimated scf accuracy    <       0.41891969 Ry

     iteration # 13     ecut=   124.00 Ry     beta= 0.70
     Davidson diagonalization with overlap
     ethr =  9.46E-04,  avg # of iterations =  1.6

     negative rho (up, down):  8.182E-04 0.000E+00

     total cpu time spent up to now is       26.1 secs

     total energy              =    -448.58567251 Ry
     estimated scf accuracy    <       0.00528490 Ry

     iteration # 14     ecut=   124.00 Ry     beta= 0.70
     Davidson diagonalization with overlap
     ethr =  1.89E-05,  avg # of iterations =  5.2

     negative rho (up, down):  1.218E-03 0.000E+00

     total cpu time spent up to now is       28.3 secs

     total energy              =    -448.58172514 Ry
     estimated scf accuracy    <       0.00823838 Ry

     iteration # 15     ecut=   124.00 Ry     beta= 0.70
     Davidson diagonalization with overlap
     ethr =  1.89E-05,  avg # of iterations =  6.2

     negative rho (up, down):  1.019E-03 0.000E+00

     total cpu time spent up to now is       31.3 secs

     total energy              =    -448.55471729 Ry
     estimated scf accuracy    <       0.51237114 Ry

     iteration # 16     ecut=   124.00 Ry     beta= 0.70
     Davidson diagonalization with overlap
     ethr =  1.89E-05,  avg # of iterations =  5.3

     negative rho (up, down):  9.407E-04 0.000E+00

     total cpu time spent up to now is       33.9 secs

     total energy              =    -448.58528255 Ry
     estimated scf accuracy    <       0.00713191 Ry

     iteration # 17     ecut=   124.00 Ry     beta= 0.70
     Davidson diagonalization with overlap
     ethr =  1.89E-05,  avg # of iterations =  3.0

     negative rho (up, down):  9.493E-04 0.000E+00

     total cpu time spent up to now is       36.0 secs

     total energy              =    -448.58643411 Ry
     estimated scf accuracy    <       0.00628036 Ry

     iteration # 18     ecut=   124.00 Ry     beta= 0.70
     Davidson diagonalization with overlap
     ethr =  1.89E-05,  avg # of iterations =  1.0

     negative rho (up, down):  9.538E-04 0.000E+00

     total cpu time spent up to now is       37.6 secs

     total energy              =    -448.58640396 Ry
     estimated scf accuracy    <       0.00488467 Ry

     iteration # 19     ecut=   124.00 Ry     beta= 0.70
     Davidson diagonalization with overlap
     ethr =  1.74E-05,  avg # of iterations =  1.0

     negative rho (up, down):  9.566E-04 0.000E+00

     total cpu time spent up to now is       39.2 secs

     total energy              =    -448.58608315 Ry
     estimated scf accuracy    <       0.00419381 Ry

     iteration # 20     ecut=   124.00 Ry     beta= 0.70
     Davidson diagonalization with overlap
     ethr =  1.50E-05,  avg # of iterations =  1.0

     negative rho (up, down):  9.476E-04 0.000E+00

     total cpu time spent up to now is       40.8 secs

     total energy              =    -448.58597544 Ry
     estimated scf accuracy    <       0.00201747 Ry

     iteration # 21     ecut=   124.00 Ry     beta= 0.70
     Davidson diagonalization with overlap
     ethr =  7.21E-06,  avg # of iterations =  1.1

     negative rho (up, down):  9.587E-04 0.000E+00

     total cpu time spent up to now is       42.4 secs

     total energy              =    -448.58599357 Ry
     estimated scf accuracy    <       0.00020540 Ry

     iteration # 22     ecut=   124.00 Ry     beta= 0.70
     Davidson diagonalization with overlap
     ethr =  7.34E-07,  avg # of iterations =  4.0

     negative rho (up, down):  9.599E-04 0.000E+00

     total cpu time spent up to now is       44.4 secs

     total energy              =    -448.58604053 Ry
     estimated scf accuracy    <       0.00001752 Ry

     iteration # 23     ecut=   124.00 Ry     beta= 0.70
     Davidson diagonalization with overlap
     ethr =  6.26E-08,  avg # of iterations =  2.0

     negative rho (up, down):  9.587E-04 0.000E+00

     total cpu time spent up to now is       46.2 secs

     total energy              =    -448.58604205 Ry
     estimated scf accuracy    <       0.00000059 Ry

     iteration # 24     ecut=   124.00 Ry     beta= 0.70
     Davidson diagonalization with overlap
     ethr =  2.11E-09,  avg # of iterations =  4.6

     negative rho (up, down):  9.588E-04 0.000E+00

     total cpu time spent up to now is       48.5 secs

     total energy              =    -448.58604244 Ry
     estimated scf accuracy    <       0.00000018 Ry

     iteration # 25     ecut=   124.00 Ry     beta= 0.70
     Davidson diagonalization with overlap
     ethr =  6.47E-10,  avg # of iterations =  1.9

     negative rho (up, down):  9.589E-04 0.000E+00

     total cpu time spent up to now is       50.3 secs

     total energy              =    -448.58604244 Ry
     estimated scf accuracy    <       0.00000002 Ry

     iteration # 26     ecut=   124.00 Ry     beta= 0.70
     Davidson diagonalization with overlap
     ethr =  8.63E-11,  avg # of iterations =  3.8

     negative rho (up, down):  9.589E-04 0.000E+00

     total cpu time spent up to now is       52.4 secs

     End of self-consistent calculation

     Number of k-points >= 100: set verbosity='high' to print the bands.

     the Fermi energy is    17.9363 ev

!    total energy              =    -448.58604245 Ry
     estimated scf accuracy    <          7.1E-11 Ry
     smearing contrib. (-TS)   =      -0.00001171 Ry
     internal energy E=F+TS    =    -448.58603074 Ry

     The total energy is F=E-TS. E is the sum of the following terms:
     one-electron contribution =    -149.98446217 Ry
     hartree contribution      =      91.16730707 Ry
     xc contribution           =     -52.90705821 Ry
     ewald contribution        =    -260.70786252 Ry
     one-center paw contrib.   =     -76.15395491 Ry

     convergence has been achieved in  26 iterations

     negative rho (up, down):  9.589E-04 0.000E+00

     Forces acting on atoms (cartesian axes, Ry/au):

     atom    1 type  1   force =     0.00000000    0.00000000    0.00000000
     atom    2 type  2   force =     0.00000000    0.00000000    0.00000000

     Total force =     0.000000     Total SCF correction =     0.000000


     Computing stress (Cartesian axis) and pressure


     negative rho (up, down):  9.589E-04 0.000E+00
          total   stress  (Ry/bohr**3)                   (kbar)     P=       51.31
   0.00034882   0.00000000   0.00000000           51.31        0.00        0.00
   0.00000000   0.00034882   0.00000000            0.00       51.31        0.00
   0.00000000   0.00000000   0.00034882            0.00        0.00       51.31


     Writing all to output data dir ./TiFe.save/ :
     XML data file, charge density, pseudopotentials, collected wavefunctions

     init_run     :      1.50s CPU      1.55s WALL (       1 calls)
     electrons    :     48.95s CPU     50.63s WALL (       1 calls)
     forces       :      0.31s CPU      0.32s WALL (       1 calls)
     stress       :      1.69s CPU      1.75s WALL (       1 calls)

     Called by init_run:
     wfcinit      :      0.68s CPU      0.70s WALL (       1 calls)
     potinit      :      0.37s CPU      0.38s WALL (       1 calls)
     hinit0       :      0.26s CPU      0.27s WALL (       1 calls)

     Called by electrons:
     c_bands      :     34.56s CPU     35.32s WALL (      26 calls)
     sum_band     :      8.93s CPU      9.42s WALL (      26 calls)
     v_of_rho     :      0.63s CPU      0.68s WALL (      27 calls)
     newd         :      3.42s CPU      3.75s WALL (      27 calls)
     PAW_pot      :      1.48s CPU      1.51s WALL (      27 calls)
     mix_rho      :      0.08s CPU      0.08s WALL (      26 calls)

     Called by c_bands:
     init_us_2    :      0.94s CPU      0.97s WALL (    6600 calls)
     cegterg      :     32.82s CPU     33.53s WALL (    3120 calls)

     Called by *egterg:
     cdiaghg      :      3.58s CPU      3.66s WALL (   11086 calls)
     h_psi        :     25.75s CPU     26.34s WALL (   11206 calls)
     s_psi        :      0.62s CPU      0.64s WALL (   11206 calls)
     g_psi        :      0.15s CPU      0.15s WALL (    7966 calls)

     Called by h_psi:
     h_psi:calbec :      0.98s CPU      1.00s WALL (   11206 calls)
     vloc_psi     :     24.03s CPU     24.58s WALL (   11206 calls)
     add_vuspsi   :      0.63s CPU      0.65s WALL (   11206 calls)

     General routines
     calbec       :      1.53s CPU      1.57s WALL (   16366 calls)
     fft          :      0.53s CPU      0.62s WALL (     374 calls)
     ffts         :      0.29s CPU      0.29s WALL (      53 calls)
     fftw         :     22.69s CPU     23.20s WALL (  340692 calls)
     interpolate  :      0.31s CPU      0.32s WALL (      27 calls)

     Parallel routines

     PWSCF        :     52.86s CPU     54.89s WALL


   This run was terminated on:  15: 6:26  28Oct2025            

=------------------------------------------------------------------------------=
   JOB DONE.
=------------------------------------------------------------------------------=
