
     Program PWSCF v.7.4 starts on 28Oct2025 at 15:11:39 

     This program is part of the open-source Quantum ESPRESSO suite
     for quantum simulation of materials; please cite
         "P. Giannozzi et al., J. Phys.:Condens. Matter 21 395502 (2009);
         "P. Giannozzi et al., J. Phys.:Condens. Matter 29 465901 (2017);
         "P. Giannozzi et al., J. Chem. Phys. 152 154105 (2020);
          URL http://www.quantum-espresso.org", 
     in publications or presentations arising from this work. More details at
     http://www.quantum-espresso.org/quote

     Parallel version (MPI & OpenMP), running on       8 processor cores
     Number of MPI processes:                 8
     Threads/MPI process:                     1

     MPI processes distributed on     1 nodes
     226417 MiB available memory on the printing compute node when the environment starts

     Reading input from TiFe_16.in

     Current dimensions of program PWSCF are:
     Max number of different atomic species (ntypx) = 10
     Max number of k-points (npk) =  40000
     Max angular momentum in pseudopotentials (lmaxx) =  4
     file Fe.pbe-spn-kjpaw_psl.0.2.1.UPF: wavefunction(s)  3D renormalized

     IMPORTANT: XC functional enforced from input :
     Exchange-correlation= PBE
                           (   1   4   3   4   0   0   0)
     Any further DFT definition will be discarded
     Please, verify this is what you really want

     Message from routine setup:
     using ibrav=0 with symmetry is DISCOURAGED, use correct ibrav instead

     R & G space division:  proc/nbgrp/npool/nimage =       8
     Subspace diagonalization in iterative solution of the eigenvalue problem:
     a serial algorithm will be used


     Parallelization info
     --------------------
     sticks:   dense  smooth     PW     G-vecs:    dense   smooth      PW
     Min         546     155     45                27206     4169     657
     Max         547     156     47                27209     4172     658
     Sum        4373    1245    365               217663    33371    5257

     Using Slab Decomposition



     bravais-lattice index     =            0
     lattice parameter (alat)  =       5.6289  a.u.
     unit-cell volume          =     178.3480 (a.u.)^3
     number of atoms/cell      =            2
     number of atomic types    =            2
     number of electrons       =        28.00
     number of Kohn-Sham states=           18
     kinetic-energy cutoff     =     124.0000  Ry
     charge density cutoff     =    1736.0000  Ry
     scf convergence threshold =      1.0E-08
     mixing beta               =       0.7000
     number of iterations used =            8  plain     mixing
     Exchange-correlation= PBE
                           (   1   4   3   4   0   0   0)

     celldm(1)=   5.628889  celldm(2)=   0.000000  celldm(3)=   0.000000
     celldm(4)=   0.000000  celldm(5)=   0.000000  celldm(6)=   0.000000

     crystal axes: (cart. coord. in units of alat)
               a(1) = (   1.000000   0.000000   0.000000 )  
               a(2) = (   0.000000   1.000000   0.000000 )  
               a(3) = (   0.000000   0.000000   1.000000 )  

     reciprocal axes: (cart. coord. in units 2 pi/alat)
               b(1) = (  1.000000  0.000000  0.000000 )  
               b(2) = (  0.000000  1.000000  0.000000 )  
               b(3) = (  0.000000  0.000000  1.000000 )  


     PseudoPot. # 1 for Fe read from file:
     ../../pseudos/Fe.pbe-spn-kjpaw_psl.0.2.1.UPF
     MD5 check sum: e86618425769142926afa95317d90200
     Pseudo is Projector augmented-wave + core cor, Zval = 16.0
     Generated using "atomic" code by A. Dal Corso  v.5.0.99 svn rev. 10869
     Shape of augmentation charge: PSQ
     Using radial grid of 1191 points,  6 beta functions with: 
                l(1) =   0
                l(2) =   0
                l(3) =   1
                l(4) =   1
                l(5) =   2
                l(6) =   2
     Q(r) pseudized with 0 coefficients 


     PseudoPot. # 2 for Ti read from file:
     ../../pseudos/ti_pbe_v1.4.uspp.F.UPF
     MD5 check sum: 88a00a6731bd790ddea75d31a80cb452
     Pseudo is Ultrasoft + core correction, Zval = 12.0
     Generated by new atomic code, or converted to UPF format
     Using radial grid of  851 points,  6 beta functions with: 
                l(1) =   0
                l(2) =   0
                l(3) =   1
                l(4) =   1
                l(5) =   2
                l(6) =   2
     Q(r) pseudized with  6 coefficients,  rinner =    1.000   1.000   1.000
                                                       1.000   1.000

     atomic species   valence    mass     pseudopotential
     Fe               16.00    55.84500     Fe( 1.00)
     Ti               12.00    47.86700     Ti( 1.00)

     48 Sym. Ops., with inversion, found



   Cartesian axes

     site n.     atom                  positions (alat units)
         1        Fe     tau(   1) = (   0.5000000   0.5000000   0.5000000  )
         2        Ti     tau(   2) = (   0.0000000   0.0000000   0.0000000  )

     number of k points=   120  Marzari-Vanderbilt smearing, width (Ry)=  0.0050

     Number of k-points >= 100: set verbosity='high' to print them.

     Dense  grid:   217663 G-vectors     FFT dimensions: (  75,  75,  75)

     Smooth grid:    33371 G-vectors     FFT dimensions: (  40,  40,  40)

     Estimated max dynamical RAM per process >     123.48 MB

     Estimated total dynamical RAM >     987.88 MB

     Check: negative core charge=   -0.000001

     Initial potential from superposition of free atoms

     starting charge      26.9995, renormalised to      28.0000

     negative rho (up, down):  1.366E-03 0.000E+00
     Starting wfcs are   23 randomized atomic wfcs
     Checking if some PAW data can be deallocated... 

     total cpu time spent up to now is        1.8 secs

     per-process dynamical memory:   145.4 Mb

     Self-consistent Calculation

     iteration #  1     ecut=   124.00 Ry     beta= 0.70
     Davidson diagonalization with overlap
     ethr =  1.00E-02,  avg # of iterations =  2.2

     negative rho (up, down):  1.007E-04 0.000E+00

     total cpu time spent up to now is        3.8 secs

     total energy              =    -434.10918026 Ry
     estimated scf accuracy    <      18.40950381 Ry

     iteration #  2     ecut=   124.00 Ry     beta= 0.70
     Davidson diagonalization with overlap
     ethr =  1.00E-02,  avg # of iterations =  6.1

     negative rho (up, down):  1.847E-05 0.000E+00

     total cpu time spent up to now is        7.1 secs

     total energy              =    -448.39536609 Ry
     estimated scf accuracy    <      69.63124599 Ry

     iteration #  3     ecut=   124.00 Ry     beta= 0.70
     Davidson diagonalization with overlap
     ethr =  1.00E-02,  avg # of iterations =  3.1

     negative rho (up, down):  1.903E-04 0.000E+00

     total cpu time spent up to now is        9.4 secs

     total energy              =    -448.71699605 Ry
     estimated scf accuracy    <      17.50917948 Ry

     iteration #  4     ecut=   124.00 Ry     beta= 0.70
     Davidson diagonalization with overlap
     ethr =  1.00E-02,  avg # of iterations =  2.2

     negative rho (up, down):  2.605E-04 0.000E+00

     total cpu time spent up to now is       11.4 secs

     total energy              =    -449.14303211 Ry
     estimated scf accuracy    <       5.42006658 Ry

     iteration #  5     ecut=   124.00 Ry     beta= 0.70
     Davidson diagonalization with overlap
     ethr =  1.00E-02,  avg # of iterations =  1.0

     negative rho (up, down):  5.155E-04 0.000E+00

     total cpu time spent up to now is       13.0 secs

     total energy              =    -448.90416990 Ry
     estimated scf accuracy    <       4.64460691 Ry

     iteration #  6     ecut=   124.00 Ry     beta= 0.70
     Davidson diagonalization with overlap
     ethr =  1.00E-02,  avg # of iterations =  1.1

     negative rho (up, down):  9.783E-04 0.000E+00

     total cpu time spent up to now is       14.7 secs

     total energy              =    -448.11959059 Ry
     estimated scf accuracy    <       4.05688974 Ry

     iteration #  7     ecut=   124.00 Ry     beta= 0.70
     Davidson diagonalization with overlap
     ethr =  1.00E-02,  avg # of iterations =  2.2

     negative rho (up, down):  1.106E-03 0.000E+00

     total cpu time spent up to now is       16.5 secs

     total energy              =    -448.67684973 Ry
     estimated scf accuracy    <       0.65984886 Ry

     iteration #  8     ecut=   124.00 Ry     beta= 0.70
     Davidson diagonalization with overlap
     ethr =  2.36E-03,  avg # of iterations =  4.4

     negative rho (up, down):  5.530E-04 0.000E+00

     total cpu time spent up to now is       18.6 secs

     total energy              =    -447.79562924 Ry
     estimated scf accuracy    <       5.83960486 Ry

     iteration #  9     ecut=   124.00 Ry     beta= 0.70
     Davidson diagonalization with overlap
     ethr =  2.36E-03,  avg # of iterations =  4.2

     negative rho (up, down):  5.527E-04 0.000E+00

     total cpu time spent up to now is       20.8 secs

     total energy              =    -448.60991256 Ry
     estimated scf accuracy    <       2.61181539 Ry

     iteration # 10     ecut=   124.00 Ry     beta= 0.70
     Davidson diagonalization with overlap
     ethr =  2.36E-03,  avg # of iterations =  1.0

     negative rho (up, down):  9.314E-04 0.000E+00

     total cpu time spent up to now is       22.4 secs

     total energy              =    -448.53439637 Ry
     estimated scf accuracy    <       0.84967646 Ry

     iteration # 11     ecut=   124.00 Ry     beta= 0.70
     Davidson diagonalization with overlap
     ethr =  2.36E-03,  avg # of iterations =  1.8

     negative rho (up, down):  4.136E-04 0.000E+00

     total cpu time spent up to now is       24.2 secs

     total energy              =    -448.62904417 Ry
     estimated scf accuracy    <       0.02022963 Ry

     iteration # 12     ecut=   124.00 Ry     beta= 0.70
     Davidson diagonalization with overlap
     ethr =  7.22E-05,  avg # of iterations =  5.7

     negative rho (up, down):  3.872E-04 0.000E+00

     total cpu time spent up to now is       27.0 secs

     total energy              =    -448.75097201 Ry
     estimated scf accuracy    <       1.14749279 Ry

     iteration # 13     ecut=   124.00 Ry     beta= 0.70
     Davidson diagonalization with overlap
     ethr =  7.22E-05,  avg # of iterations =  1.1

     negative rho (up, down):  2.879E-04 0.000E+00

     total cpu time spent up to now is       28.6 secs

     total energy              =    -448.81692363 Ry
     estimated scf accuracy    <       1.37822395 Ry

     iteration # 14     ecut=   124.00 Ry     beta= 0.70
     Davidson diagonalization with overlap
     ethr =  7.22E-05,  avg # of iterations =  2.1

     negative rho (up, down):  7.818E-05 0.000E+00

     total cpu time spent up to now is       30.5 secs

     total energy              =    -449.10663970 Ry
     estimated scf accuracy    <       1.78804850 Ry

     iteration # 15     ecut=   124.00 Ry     beta= 0.70
     Davidson diagonalization with overlap
     ethr =  7.22E-05,  avg # of iterations =  5.8

     negative rho (up, down):  1.067E-03 0.000E+00

     total cpu time spent up to now is       33.3 secs

     total energy              =    -448.21139673 Ry
     estimated scf accuracy    <       3.47078490 Ry

     iteration # 16     ecut=   124.00 Ry     beta= 0.70
     Davidson diagonalization with overlap
     ethr =  7.22E-05,  avg # of iterations =  7.6

     negative rho (up, down):  6.460E-04 0.000E+00

     total cpu time spent up to now is       37.0 secs

     total energy              =    -448.49764180 Ry
     estimated scf accuracy    <       0.58328767 Ry

     iteration # 17     ecut=   124.00 Ry     beta= 0.70
     Davidson diagonalization with overlap
     ethr =  7.22E-05,  avg # of iterations =  5.3

     negative rho (up, down):  6.986E-04 0.000E+00

     total cpu time spent up to now is       39.7 secs

     total energy              =    -448.62463666 Ry
     estimated scf accuracy    <       0.45614142 Ry

     iteration # 18     ecut=   124.00 Ry     beta= 0.70
     Davidson diagonalization with overlap
     ethr =  7.22E-05,  avg # of iterations =  1.0

     negative rho (up, down):  8.100E-04 0.000E+00

     total cpu time spent up to now is       41.4 secs

     total energy              =    -448.58983704 Ry
     estimated scf accuracy    <       0.45789036 Ry

     iteration # 19     ecut=   124.00 Ry     beta= 0.70
     Davidson diagonalization with overlap
     ethr =  7.22E-05,  avg # of iterations =  3.3

     negative rho (up, down):  7.688E-04 0.000E+00

     total cpu time spent up to now is       43.4 secs

     total energy              =    -448.59934855 Ry
     estimated scf accuracy    <       0.15423653 Ry

     iteration # 20     ecut=   124.00 Ry     beta= 0.70
     Davidson diagonalization with overlap
     ethr =  7.22E-05,  avg # of iterations =  1.0

     negative rho (up, down):  8.615E-04 0.000E+00

     total cpu time spent up to now is       45.1 secs

     total energy              =    -448.59007645 Ry
     estimated scf accuracy    <       0.17940118 Ry

     iteration # 21     ecut=   124.00 Ry     beta= 0.70
     Davidson diagonalization with overlap
     ethr =  7.22E-05,  avg # of iterations =  1.2

     negative rho (up, down):  9.238E-04 0.000E+00

     total cpu time spent up to now is       46.8 secs

     total energy              =    -448.58484207 Ry
     estimated scf accuracy    <       0.08954717 Ry

     iteration # 22     ecut=   124.00 Ry     beta= 0.70
     Davidson diagonalization with overlap
     ethr =  7.22E-05,  avg # of iterations =  2.0

     negative rho (up, down):  9.407E-04 0.000E+00

     total cpu time spent up to now is       48.5 secs

     total energy              =    -448.58614387 Ry
     estimated scf accuracy    <       0.01703487 Ry

     iteration # 23     ecut=   124.00 Ry     beta= 0.70
     Davidson diagonalization with overlap
     ethr =  6.08E-05,  avg # of iterations =  1.0

     negative rho (up, down):  9.676E-04 0.000E+00

     total cpu time spent up to now is       50.2 secs

     total energy              =    -448.58563891 Ry
     estimated scf accuracy    <       0.00716061 Ry

     iteration # 24     ecut=   124.00 Ry     beta= 0.70
     Davidson diagonalization with overlap
     ethr =  2.56E-05,  avg # of iterations =  1.8

     negative rho (up, down):  9.727E-04 0.000E+00

     total cpu time spent up to now is       52.0 secs

     total energy              =    -448.58599568 Ry
     estimated scf accuracy    <       0.00035789 Ry

     iteration # 25     ecut=   124.00 Ry     beta= 0.70
     Davidson diagonalization with overlap
     ethr =  1.28E-06,  avg # of iterations =  5.3

     negative rho (up, down):  9.724E-04 0.000E+00

     total cpu time spent up to now is       54.4 secs

     total energy              =    -448.58615516 Ry
     estimated scf accuracy    <       0.00010075 Ry

     iteration # 26     ecut=   124.00 Ry     beta= 0.70
     Davidson diagonalization with overlap
     ethr =  3.60E-07,  avg # of iterations =  1.2

     negative rho (up, down):  9.725E-04 0.000E+00

     total cpu time spent up to now is       56.0 secs

     total energy              =    -448.58615552 Ry
     estimated scf accuracy    <       0.00009507 Ry

     iteration # 27     ecut=   124.00 Ry     beta= 0.70
     Davidson diagonalization with overlap
     ethr =  3.40E-07,  avg # of iterations =  1.0

     negative rho (up, down):  9.702E-04 0.000E+00

     total cpu time spent up to now is       57.7 secs

     total energy              =    -448.58614330 Ry
     estimated scf accuracy    <       0.00008778 Ry

     iteration # 28     ecut=   124.00 Ry     beta= 0.70
     Davidson diagonalization with overlap
     ethr =  3.14E-07,  avg # of iterations =  1.0

     negative rho (up, down):  9.702E-04 0.000E+00

     total cpu time spent up to now is       59.3 secs

     total energy              =    -448.58614782 Ry
     estimated scf accuracy    <       0.00000387 Ry

     iteration # 29     ecut=   124.00 Ry     beta= 0.70
     Davidson diagonalization with overlap
     ethr =  1.38E-08,  avg # of iterations =  3.8

     negative rho (up, down):  9.704E-04 0.000E+00

     total cpu time spent up to now is       61.4 secs

     total energy              =    -448.58614899 Ry
     estimated scf accuracy    <       0.00000252 Ry

     iteration # 30     ecut=   124.00 Ry     beta= 0.70
     Davidson diagonalization with overlap
     ethr =  9.02E-09,  avg # of iterations =  1.7

     negative rho (up, down):  9.698E-04 0.000E+00

     total cpu time spent up to now is       63.1 secs

     total energy              =    -448.58614842 Ry
     estimated scf accuracy    <       0.00001162 Ry

     iteration # 31     ecut=   124.00 Ry     beta= 0.70
     Davidson diagonalization with overlap
     ethr =  9.02E-09,  avg # of iterations =  1.0

     negative rho (up, down):  9.692E-04 0.000E+00

     total cpu time spent up to now is       64.8 secs

     total energy              =    -448.58614772 Ry
     estimated scf accuracy    <       0.00000474 Ry

     iteration # 32     ecut=   124.00 Ry     beta= 0.70
     Davidson diagonalization with overlap
     ethr =  9.02E-09,  avg # of iterations =  2.7

     negative rho (up, down):  9.693E-04 0.000E+00

     total cpu time spent up to now is       66.6 secs

     total energy              =    -448.58614821 Ry
     estimated scf accuracy    <       0.00000023 Ry

     iteration # 33     ecut=   124.00 Ry     beta= 0.70
     Davidson diagonalization with overlap
     ethr =  8.26E-10,  avg # of iterations =  2.6

     negative rho (up, down):  9.693E-04 0.000E+00

     total cpu time spent up to now is       68.5 secs

     total energy              =    -448.58614823 Ry
     estimated scf accuracy    <       0.00000003 Ry

     iteration # 34     ecut=   124.00 Ry     beta= 0.70
     Davidson diagonalization with overlap
     ethr =  1.08E-10,  avg # of iterations =  3.3

     negative rho (up, down):  9.693E-04 0.000E+00

     total cpu time spent up to now is       70.4 secs

     End of self-consistent calculation

     Number of k-points >= 100: set verbosity='high' to print the bands.

     the Fermi energy is    16.8866 ev

!    total energy              =    -448.58614824 Ry
     estimated scf accuracy    <          4.1E-10 Ry
     smearing contrib. (-TS)   =      -0.00003027 Ry
     internal energy E=F+TS    =    -448.58611796 Ry

     The total energy is F=E-TS. E is the sum of the following terms:
     one-electron contribution =    -156.74167651 Ry
     hartree contribution      =      93.45923042 Ry
     xc contribution           =     -52.81916542 Ry
     ewald contribution        =    -256.33163106 Ry
     one-center paw contrib.   =     -76.15287540 Ry

     convergence has been achieved in  34 iterations

     negative rho (up, down):  9.693E-04 0.000E+00

     Forces acting on atoms (cartesian axes, Ry/au):

     atom    1 type  1   force =     0.00000000    0.00000000    0.00000000
     atom    2 type  2   force =     0.00000000    0.00000000    0.00000000

     Total force =     0.000000     Total SCF correction =     0.000000


     Computing stress (Cartesian axis) and pressure


     negative rho (up, down):  9.693E-04 0.000E+00
          total   stress  (Ry/bohr**3)                   (kbar)     P=      -46.66
  -0.00031719   0.00000000   0.00000000          -46.66        0.00        0.00
   0.00000000  -0.00031719   0.00000000            0.00      -46.66        0.00
   0.00000000   0.00000000  -0.00031719            0.00        0.00      -46.66


     Writing all to output data dir ./TiFe.save/ :
     XML data file, charge density, pseudopotentials, collected wavefunctions

     init_run     :      1.51s CPU      1.57s WALL (       1 calls)
     electrons    :     66.35s CPU     68.64s WALL (       1 calls)
     forces       :      0.31s CPU      0.34s WALL (       1 calls)
     stress       :      1.80s CPU      1.84s WALL (       1 calls)

     Called by init_run:
     wfcinit      :      0.68s CPU      0.71s WALL (       1 calls)
     potinit      :      0.37s CPU      0.38s WALL (       1 calls)
     hinit0       :      0.26s CPU      0.26s WALL (       1 calls)

     Called by electrons:
     c_bands      :     46.79s CPU     47.81s WALL (      34 calls)
     sum_band     :     12.18s CPU     12.86s WALL (      34 calls)
     v_of_rho     :      0.82s CPU      0.89s WALL (      35 calls)
     newd         :      4.67s CPU      5.13s WALL (      35 calls)
     PAW_pot      :      1.90s CPU      1.95s WALL (      35 calls)
     mix_rho      :      0.11s CPU      0.12s WALL (      34 calls)

     Called by c_bands:
     init_us_2    :      1.30s CPU      1.34s WALL (    8520 calls)
     cegterg      :     44.36s CPU     45.31s WALL (    4080 calls)

     Called by *egterg:
     cdiaghg      :      4.82s CPU      4.92s WALL (   15123 calls)
     h_psi        :     34.34s CPU     35.12s WALL (   15243 calls)
     s_psi        :      0.85s CPU      0.87s WALL (   15243 calls)
     g_psi        :      0.21s CPU      0.21s WALL (   11043 calls)

     Called by h_psi:
     h_psi:calbec :      1.38s CPU      1.42s WALL (   15243 calls)
     vloc_psi     :     31.95s CPU     32.67s WALL (   15243 calls)
     add_vuspsi   :      0.86s CPU      0.88s WALL (   15243 calls)

     General routines
     calbec       :      2.10s CPU      2.14s WALL (   21363 calls)
     fft          :      0.68s CPU      0.79s WALL (     478 calls)
     ffts         :      0.29s CPU      0.29s WALL (      69 calls)
     fftw         :     30.87s CPU     31.53s WALL (  449188 calls)
     interpolate  :      0.33s CPU      0.34s WALL (      35 calls)

     Parallel routines

     PWSCF        :     70.38s CPU     73.05s WALL


   This run was terminated on:  15:12:52  28Oct2025            

=------------------------------------------------------------------------------=
   JOB DONE.
=------------------------------------------------------------------------------=
