
     Program PWSCF v.7.4 starts on 28Oct2025 at 15:14:32 

     This program is part of the open-source Quantum ESPRESSO suite
     for quantum simulation of materials; please cite
         "P. Giannozzi et al., J. Phys.:Condens. Matter 21 395502 (2009);
         "P. Giannozzi et al., J. Phys.:Condens. Matter 29 465901 (2017);
         "P. Giannozzi et al., J. Chem. Phys. 152 154105 (2020);
          URL http://www.quantum-espresso.org", 
     in publications or presentations arising from this work. More details at
     http://www.quantum-espresso.org/quote

     Parallel version (MPI & OpenMP), running on       8 processor cores
     Number of MPI processes:                 8
     Threads/MPI process:                     1

     MPI processes distributed on     1 nodes
     226438 MiB available memory on the printing compute node when the environment starts

     Reading input from TiFe_18.in

     Current dimensions of program PWSCF are:
     Max number of different atomic species (ntypx) = 10
     Max number of k-points (npk) =  40000
     Max angular momentum in pseudopotentials (lmaxx) =  4
     file Fe.pbe-spn-kjpaw_psl.0.2.1.UPF: wavefunction(s)  3D renormalized

     IMPORTANT: XC functional enforced from input :
     Exchange-correlation= PBE
                           (   1   4   3   4   0   0   0)
     Any further DFT definition will be discarded
     Please, verify this is what you really want

     Message from routine setup:
     using ibrav=0 with symmetry is DISCOURAGED, use correct ibrav instead

     R & G space division:  proc/nbgrp/npool/nimage =       8
     Subspace diagonalization in iterative solution of the eigenvalue problem:
     a serial algorithm will be used


     Parallelization info
     --------------------
     sticks:   dense  smooth     PW     G-vecs:    dense   smooth      PW
     Min         554     158     46                27780     4234     672
     Max         555     159     48                27782     4237     673
     Sum        4437    1265    373               222247    33881    5377

     Using Slab Decomposition



     bravais-lattice index     =            0
     lattice parameter (alat)  =       5.6667  a.u.
     unit-cell volume          =     181.9646 (a.u.)^3
     number of atoms/cell      =            2
     number of atomic types    =            2
     number of electrons       =        28.00
     number of Kohn-Sham states=           18
     kinetic-energy cutoff     =     124.0000  Ry
     charge density cutoff     =    1736.0000  Ry
     scf convergence threshold =      1.0E-08
     mixing beta               =       0.7000
     number of iterations used =            8  plain     mixing
     Exchange-correlation= PBE
                           (   1   4   3   4   0   0   0)

     celldm(1)=   5.666684  celldm(2)=   0.000000  celldm(3)=   0.000000
     celldm(4)=   0.000000  celldm(5)=   0.000000  celldm(6)=   0.000000

     crystal axes: (cart. coord. in units of alat)
               a(1) = (   1.000000   0.000000   0.000000 )  
               a(2) = (   0.000000   1.000000   0.000000 )  
               a(3) = (   0.000000   0.000000   1.000000 )  

     reciprocal axes: (cart. coord. in units 2 pi/alat)
               b(1) = (  1.000000  0.000000  0.000000 )  
               b(2) = (  0.000000  1.000000  0.000000 )  
               b(3) = (  0.000000  0.000000  1.000000 )  


     PseudoPot. # 1 for Fe read from file:
     ../../pseudos/Fe.pbe-spn-kjpaw_psl.0.2.1.UPF
     MD5 check sum: e86618425769142926afa95317d90200
     Pseudo is Projector augmented-wave + core cor, Zval = 16.0
     Generated using "atomic" code by A. Dal Corso  v.5.0.99 svn rev. 10869
     Shape of augmentation charge: PSQ
     Using radial grid of 1191 points,  6 beta functions with: 
                l(1) =   0
                l(2) =   0
                l(3) =   1
                l(4) =   1
                l(5) =   2
                l(6) =   2
     Q(r) pseudized with 0 coefficients 


     PseudoPot. # 2 for Ti read from file:
     ../../pseudos/ti_pbe_v1.4.uspp.F.UPF
     MD5 check sum: 88a00a6731bd790ddea75d31a80cb452
     Pseudo is Ultrasoft + core correction, Zval = 12.0
     Generated by new atomic code, or converted to UPF format
     Using radial grid of  851 points,  6 beta functions with: 
                l(1) =   0
                l(2) =   0
                l(3) =   1
                l(4) =   1
                l(5) =   2
                l(6) =   2
     Q(r) pseudized with  6 coefficients,  rinner =    1.000   1.000   1.000
                                                       1.000   1.000

     atomic species   valence    mass     pseudopotential
     Fe               16.00    55.84500     Fe( 1.00)
     Ti               12.00    47.86700     Ti( 1.00)

     48 Sym. Ops., with inversion, found



   Cartesian axes

     site n.     atom                  positions (alat units)
         1        Fe     tau(   1) = (   0.5000000   0.5000000   0.5000000  )
         2        Ti     tau(   2) = (   0.0000000   0.0000000   0.0000000  )

     number of k points=   120  Marzari-Vanderbilt smearing, width (Ry)=  0.0050

     Number of k-points >= 100: set verbosity='high' to print them.

     Dense  grid:   222247 G-vectors     FFT dimensions: (  75,  75,  75)

     Smooth grid:    33881 G-vectors     FFT dimensions: (  45,  45,  45)

     Estimated max dynamical RAM per process >     125.88 MB

     Estimated total dynamical RAM >    1007.01 MB

     Check: negative core charge=   -0.000001

     Initial potential from superposition of free atoms

     starting charge      26.9995, renormalised to      28.0000

     negative rho (up, down):  1.372E-03 0.000E+00
     Starting wfcs are   23 randomized atomic wfcs
     Checking if some PAW data can be deallocated... 

     total cpu time spent up to now is        1.9 secs

     per-process dynamical memory:   146.0 Mb

     Self-consistent Calculation

     iteration #  1     ecut=   124.00 Ry     beta= 0.70
     Davidson diagonalization with overlap
     ethr =  1.00E-02,  avg # of iterations =  2.2

     negative rho (up, down):  1.109E-04 0.000E+00

     total cpu time spent up to now is        4.6 secs

     total energy              =    -433.71218543 Ry
     estimated scf accuracy    <      18.88683206 Ry

     iteration #  2     ecut=   124.00 Ry     beta= 0.70
     Davidson diagonalization with overlap
     ethr =  1.00E-02,  avg # of iterations =  6.2

     negative rho (up, down):  1.712E-05 0.000E+00

     total cpu time spent up to now is        9.3 secs

     total energy              =    -448.26336267 Ry
     estimated scf accuracy    <      71.66844080 Ry

     iteration #  3     ecut=   124.00 Ry     beta= 0.70
     Davidson diagonalization with overlap
     ethr =  1.00E-02,  avg # of iterations =  3.1

     negative rho (up, down):  1.709E-04 0.000E+00

     total cpu time spent up to now is       12.6 secs

     total energy              =    -448.80631534 Ry
     estimated scf accuracy    <      17.85807299 Ry

     iteration #  4     ecut=   124.00 Ry     beta= 0.70
     Davidson diagonalization with overlap
     ethr =  1.00E-02,  avg # of iterations =  2.1

     negative rho (up, down):  2.498E-04 0.000E+00

     total cpu time spent up to now is       15.2 secs

     total energy              =    -449.15493592 Ry
     estimated scf accuracy    <       5.85582645 Ry

     iteration #  5     ecut=   124.00 Ry     beta= 0.70
     Davidson diagonalization with overlap
     ethr =  1.00E-02,  avg # of iterations =  1.0

     negative rho (up, down):  5.493E-04 0.000E+00

     total cpu time spent up to now is       17.5 secs

     total energy              =    -448.83381939 Ry
     estimated scf accuracy    <       4.79164142 Ry

     iteration #  6     ecut=   124.00 Ry     beta= 0.70
     Davidson diagonalization with overlap
     ethr =  1.00E-02,  avg # of iterations =  1.2

     negative rho (up, down):  9.404E-04 0.000E+00

     total cpu time spent up to now is       19.8 secs

     total energy              =    -448.18202743 Ry
     estimated scf accuracy    <       3.69687961 Ry

     iteration #  7     ecut=   124.00 Ry     beta= 0.70
     Davidson diagonalization with overlap
     ethr =  1.00E-02,  avg # of iterations =  2.0

     negative rho (up, down):  1.097E-03 0.000E+00

     total cpu time spent up to now is       22.2 secs

     total energy              =    -448.65320870 Ry
     estimated scf accuracy    <       0.43669995 Ry

     iteration #  8     ecut=   124.00 Ry     beta= 0.70
     Davidson diagonalization with overlap
     ethr =  1.56E-03,  avg # of iterations =  5.1

     negative rho (up, down):  5.083E-04 0.000E+00

     total cpu time spent up to now is       25.3 secs

     total energy              =    -447.69619516 Ry
     estimated scf accuracy    <       6.48537616 Ry

     iteration #  9     ecut=   124.00 Ry     beta= 0.70
     Davidson diagonalization with overlap
     ethr =  1.56E-03,  avg # of iterations =  4.6

     negative rho (up, down):  5.732E-04 0.000E+00

     total cpu time spent up to now is       28.5 secs

     total energy              =    -448.49541996 Ry
     estimated scf accuracy    <       3.04128493 Ry

     iteration # 10     ecut=   124.00 Ry     beta= 0.70
     Davidson diagonalization with overlap
     ethr =  1.56E-03,  avg # of iterations =  2.4

     negative rho (up, down):  8.248E-04 0.000E+00

     total cpu time spent up to now is       30.9 secs

     total energy              =    -448.54776577 Ry
     estimated scf accuracy    <       0.26600068 Ry

     iteration # 11     ecut=   124.00 Ry     beta= 0.70
     Davidson diagonalization with overlap
     ethr =  9.50E-04,  avg # of iterations =  3.4

     negative rho (up, down):  8.057E-04 0.000E+00

     total cpu time spent up to now is       33.5 secs

     total energy              =    -448.65257978 Ry
     estimated scf accuracy    <       0.31226307 Ry

     iteration # 12     ecut=   124.00 Ry     beta= 0.70
     Davidson diagonalization with overlap
     ethr =  9.50E-04,  avg # of iterations =  1.8

     negative rho (up, down):  2.382E-04 0.000E+00

     total cpu time spent up to now is       35.9 secs

     total energy              =    -448.32775983 Ry
     estimated scf accuracy    <       1.64536923 Ry

     iteration # 13     ecut=   124.00 Ry     beta= 0.70
     Davidson diagonalization with overlap
     ethr =  9.50E-04,  avg # of iterations =  4.1

     negative rho (up, down):  1.188E-04 0.000E+00

     total cpu time spent up to now is       39.0 secs

     total energy              =    -449.03849560 Ry
     estimated scf accuracy    <       1.95596391 Ry

     iteration # 14     ecut=   124.00 Ry     beta= 0.70
     Davidson diagonalization with overlap
     ethr =  9.50E-04,  avg # of iterations =  1.6

     negative rho (up, down):  7.019E-04 0.000E+00

     total cpu time spent up to now is       41.4 secs

     total energy              =    -448.51004244 Ry
     estimated scf accuracy    <       2.97426928 Ry

     iteration # 15     ecut=   124.00 Ry     beta= 0.70
     Davidson diagonalization with overlap
     ethr =  9.50E-04,  avg # of iterations =  3.4

     negative rho (up, down):  5.252E-04 0.000E+00

     total cpu time spent up to now is       44.4 secs

     total energy              =    -448.66729041 Ry
     estimated scf accuracy    <       0.39886290 Ry

     iteration # 16     ecut=   124.00 Ry     beta= 0.70
     Davidson diagonalization with overlap
     ethr =  9.50E-04,  avg # of iterations =  1.0

     negative rho (up, down):  9.079E-04 0.000E+00

     total cpu time spent up to now is       46.6 secs

     total energy              =    -448.53965093 Ry
     estimated scf accuracy    <       0.78045555 Ry

     iteration # 17     ecut=   124.00 Ry     beta= 0.70
     Davidson diagonalization with overlap
     ethr =  9.50E-04,  avg # of iterations =  1.9

     negative rho (up, down):  1.277E-03 0.000E+00

     total cpu time spent up to now is       49.1 secs

     total energy              =    -448.56668923 Ry
     estimated scf accuracy    <       0.02471320 Ry

     iteration # 18     ecut=   124.00 Ry     beta= 0.70
     Davidson diagonalization with overlap
     ethr =  8.83E-05,  avg # of iterations =  5.5

     negative rho (up, down):  1.429E-03 0.000E+00

     total cpu time spent up to now is       52.8 secs

     total energy              =    -448.72337681 Ry
     estimated scf accuracy    <       1.26281079 Ry

     iteration # 19     ecut=   124.00 Ry     beta= 0.70
     Davidson diagonalization with overlap
     ethr =  8.83E-05,  avg # of iterations =  5.0

     negative rho (up, down):  4.278E-04 0.000E+00

     total cpu time spent up to now is       55.9 secs

     total energy              =    -448.09336295 Ry
     estimated scf accuracy    <       4.29641138 Ry

     iteration # 20     ecut=   124.00 Ry     beta= 0.70
     Davidson diagonalization with overlap
     ethr =  8.83E-05,  avg # of iterations =  6.7

     negative rho (up, down):  6.745E-04 0.000E+00

     total cpu time spent up to now is       60.3 secs

     total energy              =    -448.59057236 Ry
     estimated scf accuracy    <       0.73646264 Ry

     iteration # 21     ecut=   124.00 Ry     beta= 0.70
     Davidson diagonalization with overlap
     ethr =  8.83E-05,  avg # of iterations =  4.5

     negative rho (up, down):  8.018E-04 0.000E+00

     total cpu time spent up to now is       63.6 secs

     total energy              =    -448.58595587 Ry
     estimated scf accuracy    <       0.23249086 Ry

     iteration # 22     ecut=   124.00 Ry     beta= 0.70
     Davidson diagonalization with overlap
     ethr =  8.83E-05,  avg # of iterations =  2.2

     negative rho (up, down):  9.926E-04 0.000E+00

     total cpu time spent up to now is       66.2 secs

     total energy              =    -448.57393365 Ry
     estimated scf accuracy    <       0.07878404 Ry

     iteration # 23     ecut=   124.00 Ry     beta= 0.70
     Davidson diagonalization with overlap
     ethr =  8.83E-05,  avg # of iterations =  4.0

     negative rho (up, down):  8.809E-04 0.000E+00

     total cpu time spent up to now is       69.2 secs

     total energy              =    -448.58095572 Ry
     estimated scf accuracy    <       0.02265091 Ry

     iteration # 24     ecut=   124.00 Ry     beta= 0.70
     Davidson diagonalization with overlap
     ethr =  8.09E-05,  avg # of iterations =  3.0

     negative rho (up, down):  9.310E-04 0.000E+00

     total cpu time spent up to now is       71.7 secs

     total energy              =    -448.58408631 Ry
     estimated scf accuracy    <       0.02302684 Ry

     iteration # 25     ecut=   124.00 Ry     beta= 0.70
     Davidson diagonalization with overlap
     ethr =  8.09E-05,  avg # of iterations =  1.0

     negative rho (up, down):  9.672E-04 0.000E+00

     total cpu time spent up to now is       73.9 secs

     total energy              =    -448.58426480 Ry
     estimated scf accuracy    <       0.00289046 Ry

     iteration # 26     ecut=   124.00 Ry     beta= 0.70
     Davidson diagonalization with overlap
     ethr =  1.03E-05,  avg # of iterations =  2.9

     negative rho (up, down):  9.994E-04 0.000E+00

     total cpu time spent up to now is       76.5 secs

     total energy              =    -448.58463321 Ry
     estimated scf accuracy    <       0.00012723 Ry

     iteration # 27     ecut=   124.00 Ry     beta= 0.70
     Davidson diagonalization with overlap
     ethr =  4.54E-07,  avg # of iterations =  5.1

     negative rho (up, down):  9.866E-04 0.000E+00

     total cpu time spent up to now is       80.1 secs

     total energy              =    -448.58463752 Ry
     estimated scf accuracy    <       0.00135145 Ry

     iteration # 28     ecut=   124.00 Ry     beta= 0.70
     Davidson diagonalization with overlap
     ethr =  4.54E-07,  avg # of iterations =  2.6

     negative rho (up, down):  9.693E-04 0.000E+00

     total cpu time spent up to now is       82.6 secs

     total energy              =    -448.58457270 Ry
     estimated scf accuracy    <       0.00040489 Ry

     iteration # 29     ecut=   124.00 Ry     beta= 0.70
     Davidson diagonalization with overlap
     ethr =  4.54E-07,  avg # of iterations =  4.1

     negative rho (up, down):  9.706E-04 0.000E+00

     total cpu time spent up to now is       85.6 secs

     total energy              =    -448.58462024 Ry
     estimated scf accuracy    <       0.00000157 Ry

     iteration # 30     ecut=   124.00 Ry     beta= 0.70
     Davidson diagonalization with overlap
     ethr =  5.59E-09,  avg # of iterations =  4.8

     negative rho (up, down):  9.718E-04 0.000E+00

     total cpu time spent up to now is       88.8 secs

     total energy              =    -448.58462024 Ry
     estimated scf accuracy    <       0.00000444 Ry

     iteration # 31     ecut=   124.00 Ry     beta= 0.70
     Davidson diagonalization with overlap
     ethr =  5.59E-09,  avg # of iterations =  2.5

     negative rho (up, down):  9.719E-04 0.000E+00

     total cpu time spent up to now is       91.4 secs

     total energy              =    -448.58462061 Ry
     estimated scf accuracy    <       0.00000011 Ry

     iteration # 32     ecut=   124.00 Ry     beta= 0.70
     Davidson diagonalization with overlap
     ethr =  3.77E-10,  avg # of iterations =  4.1

     negative rho (up, down):  9.720E-04 0.000E+00

     total cpu time spent up to now is       94.3 secs

     End of self-consistent calculation

     Number of k-points >= 100: set verbosity='high' to print the bands.

     the Fermi energy is    16.4825 ev

!    total energy              =    -448.58462064 Ry
     estimated scf accuracy    <          1.8E-09 Ry
     smearing contrib. (-TS)   =      -0.00002514 Ry
     internal energy E=F+TS    =    -448.58459550 Ry

     The total energy is F=E-TS. E is the sum of the following terms:
     one-electron contribution =    -159.39292855 Ry
     hartree contribution      =      94.36899142 Ry
     xc contribution           =     -52.78622033 Ry
     ewald contribution        =    -254.62200129 Ry
     one-center paw contrib.   =     -76.15243675 Ry

     convergence has been achieved in  32 iterations

     negative rho (up, down):  9.720E-04 0.000E+00

     Forces acting on atoms (cartesian axes, Ry/au):

     atom    1 type  1   force =     0.00000000    0.00000000    0.00000000
     atom    2 type  2   force =     0.00000000    0.00000000    0.00000000

     Total force =     0.000000     Total SCF correction =     0.000000


     Computing stress (Cartesian axis) and pressure


     negative rho (up, down):  9.720E-04 0.000E+00
          total   stress  (Ry/bohr**3)                   (kbar)     P=      -80.16
  -0.00054494   0.00000000   0.00000000          -80.16        0.00        0.00
   0.00000000  -0.00054494   0.00000000            0.00      -80.16        0.00
   0.00000000   0.00000000  -0.00054494            0.00        0.00      -80.16


     Writing all to output data dir ./TiFe.save/ :
     XML data file, charge density, pseudopotentials, collected wavefunctions

     init_run     :      1.65s CPU      1.71s WALL (       1 calls)
     electrons    :     89.87s CPU     92.35s WALL (       1 calls)
     forces       :      0.32s CPU      0.34s WALL (       1 calls)
     stress       :      1.81s CPU      1.87s WALL (       1 calls)

     Called by init_run:
     wfcinit      :      0.99s CPU      1.02s WALL (       1 calls)
     potinit      :      0.20s CPU      0.21s WALL (       1 calls)
     hinit0       :      0.25s CPU      0.26s WALL (       1 calls)

     Called by electrons:
     c_bands      :     67.60s CPU     68.75s WALL (      32 calls)
     sum_band     :     15.22s CPU     15.94s WALL (      32 calls)
     v_of_rho     :      0.79s CPU      0.85s WALL (      33 calls)
     newd         :      4.47s CPU      4.96s WALL (      33 calls)
     PAW_pot      :      1.82s CPU      1.86s WALL (      33 calls)
     mix_rho      :      0.10s CPU      0.11s WALL (      32 calls)

     Called by c_bands:
     init_us_2    :      1.28s CPU      1.31s WALL (    8040 calls)
     cegterg      :     65.25s CPU     66.34s WALL (    3840 calls)

     Called by *egterg:
     cdiaghg      :      5.38s CPU      5.48s WALL (   16483 calls)
     h_psi        :     54.33s CPU     55.26s WALL (   16603 calls)
     s_psi        :      0.88s CPU      0.90s WALL (   16603 calls)
     g_psi        :      0.22s CPU      0.22s WALL (   12643 calls)

     Called by h_psi:
     h_psi:calbec :      1.50s CPU      1.53s WALL (   16603 calls)
     vloc_psi     :     51.77s CPU     52.64s WALL (   16603 calls)
     add_vuspsi   :      0.90s CPU      0.92s WALL (   16603 calls)

     General routines
     calbec       :      2.11s CPU      2.15s WALL (   22483 calls)
     fft          :      0.63s CPU      0.74s WALL (     452 calls)
     ffts         :      0.12s CPU      0.12s WALL (      65 calls)
     fftw         :     52.94s CPU     53.82s WALL (  440346 calls)
     interpolate  :      0.15s CPU      0.17s WALL (      33 calls)

     Parallel routines

     PWSCF        :     94.05s CPU     96.90s WALL


   This run was terminated on:  15:16: 9  28Oct2025            

=------------------------------------------------------------------------------=
   JOB DONE.
=------------------------------------------------------------------------------=
