
     Program PWSCF v.7.4 starts on 28Oct2025 at 15: 2:36 

     This program is part of the open-source Quantum ESPRESSO suite
     for quantum simulation of materials; please cite
         "P. Giannozzi et al., J. Phys.:Condens. Matter 21 395502 (2009);
         "P. Giannozzi et al., J. Phys.:Condens. Matter 29 465901 (2017);
         "P. Giannozzi et al., J. Chem. Phys. 152 154105 (2020);
          URL http://www.quantum-espresso.org", 
     in publications or presentations arising from this work. More details at
     http://www.quantum-espresso.org/quote

     Parallel version (MPI & OpenMP), running on       8 processor cores
     Number of MPI processes:                 8
     Threads/MPI process:                     1

     MPI processes distributed on     1 nodes
     226581 MiB available memory on the printing compute node when the environment starts

     Reading input from TiFe_8.in

     Current dimensions of program PWSCF are:
     Max number of different atomic species (ntypx) = 10
     Max number of k-points (npk) =  40000
     Max angular momentum in pseudopotentials (lmaxx) =  4
     file Fe.pbe-spn-kjpaw_psl.0.2.1.UPF: wavefunction(s)  3D renormalized

     IMPORTANT: XC functional enforced from input :
     Exchange-correlation= PBE
                           (   1   4   3   4   0   0   0)
     Any further DFT definition will be discarded
     Please, verify this is what you really want

     Message from routine setup:
     using ibrav=0 with symmetry is DISCOURAGED, use correct ibrav instead

     R & G space division:  proc/nbgrp/npool/nimage =       8
     Subspace diagonalization in iterative solution of the eigenvalue problem:
     a serial algorithm will be used


     Parallelization info
     --------------------
     sticks:   dense  smooth     PW     G-vecs:    dense   smooth      PW
     Min         518     148     43                25072     3830     617
     Max         519     149     44                25077     3833     620
     Sum        4149    1185    349               200597    30647    4945

     Using Slab Decomposition



     bravais-lattice index     =            0
     lattice parameter (alat)  =       5.4777  a.u.
     unit-cell volume          =     164.3605 (a.u.)^3
     number of atoms/cell      =            2
     number of atomic types    =            2
     number of electrons       =        28.00
     number of Kohn-Sham states=           18
     kinetic-energy cutoff     =     124.0000  Ry
     charge density cutoff     =    1736.0000  Ry
     scf convergence threshold =      1.0E-08
     mixing beta               =       0.7000
     number of iterations used =            8  plain     mixing
     Exchange-correlation= PBE
                           (   1   4   3   4   0   0   0)

     celldm(1)=   5.477711  celldm(2)=   0.000000  celldm(3)=   0.000000
     celldm(4)=   0.000000  celldm(5)=   0.000000  celldm(6)=   0.000000

     crystal axes: (cart. coord. in units of alat)
               a(1) = (   1.000000   0.000000   0.000000 )  
               a(2) = (   0.000000   1.000000   0.000000 )  
               a(3) = (   0.000000   0.000000   1.000000 )  

     reciprocal axes: (cart. coord. in units 2 pi/alat)
               b(1) = (  1.000000  0.000000  0.000000 )  
               b(2) = (  0.000000  1.000000  0.000000 )  
               b(3) = (  0.000000  0.000000  1.000000 )  


     PseudoPot. # 1 for Fe read from file:
     ../../pseudos/Fe.pbe-spn-kjpaw_psl.0.2.1.UPF
     MD5 check sum: e86618425769142926afa95317d90200
     Pseudo is Projector augmented-wave + core cor, Zval = 16.0
     Generated using "atomic" code by A. Dal Corso  v.5.0.99 svn rev. 10869
     Shape of augmentation charge: PSQ
     Using radial grid of 1191 points,  6 beta functions with: 
                l(1) =   0
                l(2) =   0
                l(3) =   1
                l(4) =   1
                l(5) =   2
                l(6) =   2
     Q(r) pseudized with 0 coefficients 


     PseudoPot. # 2 for Ti read from file:
     ../../pseudos/ti_pbe_v1.4.uspp.F.UPF
     MD5 check sum: 88a00a6731bd790ddea75d31a80cb452
     Pseudo is Ultrasoft + core correction, Zval = 12.0
     Generated by new atomic code, or converted to UPF format
     Using radial grid of  851 points,  6 beta functions with: 
                l(1) =   0
                l(2) =   0
                l(3) =   1
                l(4) =   1
                l(5) =   2
                l(6) =   2
     Q(r) pseudized with  6 coefficients,  rinner =    1.000   1.000   1.000
                                                       1.000   1.000

     atomic species   valence    mass     pseudopotential
     Fe               16.00    55.84500     Fe( 1.00)
     Ti               12.00    47.86700     Ti( 1.00)

     48 Sym. Ops., with inversion, found



   Cartesian axes

     site n.     atom                  positions (alat units)
         1        Fe     tau(   1) = (   0.5000000   0.5000000   0.5000000  )
         2        Ti     tau(   2) = (   0.0000000   0.0000000   0.0000000  )

     number of k points=   120  Marzari-Vanderbilt smearing, width (Ry)=  0.0050

     Number of k-points >= 100: set verbosity='high' to print them.

     Dense  grid:   200597 G-vectors     FFT dimensions: (  75,  75,  75)

     Smooth grid:    30647 G-vectors     FFT dimensions: (  40,  40,  40)

     Estimated max dynamical RAM per process >     114.67 MB

     Estimated total dynamical RAM >     917.34 MB

     Check: negative core charge=   -0.000002

     Initial potential from superposition of free atoms

     starting charge      26.9995, renormalised to      28.0000

     negative rho (up, down):  1.329E-03 0.000E+00
     Starting wfcs are   23 randomized atomic wfcs
     Checking if some PAW data can be deallocated... 

     total cpu time spent up to now is        1.7 secs

     per-process dynamical memory:   143.5 Mb

     Self-consistent Calculation

     iteration #  1     ecut=   124.00 Ry     beta= 0.70
     Davidson diagonalization with overlap
     ethr =  1.00E-02,  avg # of iterations =  2.1

     negative rho (up, down):  6.058E-05 0.000E+00

     total cpu time spent up to now is        3.7 secs

     total energy              =    -435.66606888 Ry
     estimated scf accuracy    <      16.52223215 Ry

     iteration #  2     ecut=   124.00 Ry     beta= 0.70
     Davidson diagonalization with overlap
     ethr =  1.00E-02,  avg # of iterations =  6.1

     negative rho (up, down):  4.390E-05 0.000E+00

     total cpu time spent up to now is        6.9 secs

     total energy              =    -448.52779768 Ry
     estimated scf accuracy    <      62.88956149 Ry

     iteration #  3     ecut=   124.00 Ry     beta= 0.70
     Davidson diagonalization with overlap
     ethr =  1.00E-02,  avg # of iterations =  3.1

     negative rho (up, down):  2.755E-04 0.000E+00

     total cpu time spent up to now is        9.1 secs

     total energy              =    -448.51525817 Ry
     estimated scf accuracy    <      15.97825747 Ry

     iteration #  4     ecut=   124.00 Ry     beta= 0.70
     Davidson diagonalization with overlap
     ethr =  1.00E-02,  avg # of iterations =  2.1

     negative rho (up, down):  2.905E-04 0.000E+00

     total cpu time spent up to now is       11.0 secs

     total energy              =    -449.07109431 Ry
     estimated scf accuracy    <       4.18527081 Ry

     iteration #  5     ecut=   124.00 Ry     beta= 0.70
     Davidson diagonalization with overlap
     ethr =  1.00E-02,  avg # of iterations =  1.0

     negative rho (up, down):  2.870E-04 0.000E+00

     total cpu time spent up to now is       12.7 secs

     total energy              =    -448.97776981 Ry
     estimated scf accuracy    <       3.91422662 Ry

     iteration #  6     ecut=   124.00 Ry     beta= 0.70
     Davidson diagonalization with overlap
     ethr =  1.00E-02,  avg # of iterations =  1.0

     negative rho (up, down):  7.307E-04 0.000E+00

     total cpu time spent up to now is       14.3 secs

     total energy              =    -448.27028456 Ry
     estimated scf accuracy    <       2.77052280 Ry

     iteration #  7     ecut=   124.00 Ry     beta= 0.70
     Davidson diagonalization with overlap
     ethr =  9.89E-03,  avg # of iterations =  2.0

     negative rho (up, down):  8.948E-04 0.000E+00

     total cpu time spent up to now is       16.0 secs

     total energy              =    -448.60711787 Ry
     estimated scf accuracy    <       0.51692792 Ry

     iteration #  8     ecut=   124.00 Ry     beta= 0.70
     Davidson diagonalization with overlap
     ethr =  1.85E-03,  avg # of iterations =  2.5

     negative rho (up, down):  9.610E-04 0.000E+00

     total cpu time spent up to now is       17.8 secs

     total energy              =    -448.52798154 Ry
     estimated scf accuracy    <       0.96348281 Ry

     iteration #  9     ecut=   124.00 Ry     beta= 0.70
     Davidson diagonalization with overlap
     ethr =  1.85E-03,  avg # of iterations =  2.1

     negative rho (up, down):  1.027E-03 0.000E+00

     total cpu time spent up to now is       19.6 secs

     total energy              =    -448.61384587 Ry
     estimated scf accuracy    <       0.06611290 Ry

     iteration # 10     ecut=   124.00 Ry     beta= 0.70
     Davidson diagonalization with overlap
     ethr =  2.36E-04,  avg # of iterations =  2.9

     negative rho (up, down):  1.087E-03 0.000E+00

     total cpu time spent up to now is       21.4 secs

     total energy              =    -448.65968746 Ry
     estimated scf accuracy    <       0.17108978 Ry

     iteration # 11     ecut=   124.00 Ry     beta= 0.70
     Davidson diagonalization with overlap
     ethr =  2.36E-04,  avg # of iterations =  3.5

     negative rho (up, down):  7.564E-04 0.000E+00

     total cpu time spent up to now is       23.3 secs

     total energy              =    -448.45684236 Ry
     estimated scf accuracy    <       1.04313822 Ry

     iteration # 12     ecut=   124.00 Ry     beta= 0.70
     Davidson diagonalization with overlap
     ethr =  2.36E-04,  avg # of iterations =  4.7

     negative rho (up, down):  8.161E-04 0.000E+00

     total cpu time spent up to now is       25.6 secs

     total energy              =    -448.58571640 Ry
     estimated scf accuracy    <       0.23489654 Ry

     iteration # 13     ecut=   124.00 Ry     beta= 0.70
     Davidson diagonalization with overlap
     ethr =  2.36E-04,  avg # of iterations =  1.0

     negative rho (up, down):  8.341E-04 0.000E+00

     total cpu time spent up to now is       27.3 secs

     total energy              =    -448.58273413 Ry
     estimated scf accuracy    <       0.08479274 Ry

     iteration # 14     ecut=   124.00 Ry     beta= 0.70
     Davidson diagonalization with overlap
     ethr =  2.36E-04,  avg # of iterations =  1.1

     negative rho (up, down):  1.164E-03 0.000E+00

     total cpu time spent up to now is       28.9 secs

     total energy              =    -448.57743497 Ry
     estimated scf accuracy    <       0.02071012 Ry

     iteration # 15     ecut=   124.00 Ry     beta= 0.70
     Davidson diagonalization with overlap
     ethr =  7.40E-05,  avg # of iterations =  4.2

     negative rho (up, down):  1.177E-03 0.000E+00

     total cpu time spent up to now is       31.1 secs

     total energy              =    -448.58753643 Ry
     estimated scf accuracy    <       0.10309192 Ry

     iteration # 16     ecut=   124.00 Ry     beta= 0.70
     Davidson diagonalization with overlap
     ethr =  7.40E-05,  avg # of iterations =  1.0

     negative rho (up, down):  1.225E-03 0.000E+00

     total cpu time spent up to now is       32.8 secs

     total energy              =    -448.59210151 Ry
     estimated scf accuracy    <       0.05491824 Ry

     iteration # 17     ecut=   124.00 Ry     beta= 0.70
     Davidson diagonalization with overlap
     ethr =  7.40E-05,  avg # of iterations =  1.0

     negative rho (up, down):  1.212E-03 0.000E+00

     total cpu time spent up to now is       34.4 secs

     total energy              =    -448.59129684 Ry
     estimated scf accuracy    <       0.09684444 Ry

     iteration # 18     ecut=   124.00 Ry     beta= 0.70
     Davidson diagonalization with overlap
     ethr =  7.40E-05,  avg # of iterations =  1.0

     negative rho (up, down):  1.272E-03 0.000E+00

     total cpu time spent up to now is       36.0 secs

     total energy              =    -448.59795226 Ry
     estimated scf accuracy    <       0.08906191 Ry

     iteration # 19     ecut=   124.00 Ry     beta= 0.70
     Davidson diagonalization with overlap
     ethr =  7.40E-05,  avg # of iterations =  1.0

     negative rho (up, down):  9.315E-04 0.000E+00

     total cpu time spent up to now is       37.6 secs

     total energy              =    -448.58397884 Ry
     estimated scf accuracy    <       0.15634808 Ry

     iteration # 20     ecut=   124.00 Ry     beta= 0.70
     Davidson diagonalization with overlap
     ethr =  7.40E-05,  avg # of iterations =  2.0

     negative rho (up, down):  1.009E-03 0.000E+00

     total cpu time spent up to now is       39.4 secs

     total energy              =    -448.58227873 Ry
     estimated scf accuracy    <       0.05963980 Ry

     iteration # 21     ecut=   124.00 Ry     beta= 0.70
     Davidson diagonalization with overlap
     ethr =  7.40E-05,  avg # of iterations =  1.8

     negative rho (up, down):  9.636E-04 0.000E+00

     total cpu time spent up to now is       41.1 secs

     total energy              =    -448.58156479 Ry
     estimated scf accuracy    <       0.01144711 Ry

     iteration # 22     ecut=   124.00 Ry     beta= 0.70
     Davidson diagonalization with overlap
     ethr =  4.09E-05,  avg # of iterations =  3.3

     negative rho (up, down):  9.464E-04 0.000E+00

     total cpu time spent up to now is       43.0 secs

     total energy              =    -448.58290990 Ry
     estimated scf accuracy    <       0.00007974 Ry

     iteration # 23     ecut=   124.00 Ry     beta= 0.70
     Davidson diagonalization with overlap
     ethr =  2.85E-07,  avg # of iterations =  5.7

     negative rho (up, down):  9.505E-04 0.000E+00

     total cpu time spent up to now is       45.7 secs

     total energy              =    -448.58296922 Ry
     estimated scf accuracy    <       0.00009977 Ry

     iteration # 24     ecut=   124.00 Ry     beta= 0.70
     Davidson diagonalization with overlap
     ethr =  2.85E-07,  avg # of iterations =  2.1

     negative rho (up, down):  9.501E-04 0.000E+00

     total cpu time spent up to now is       47.5 secs

     total energy              =    -448.58298189 Ry
     estimated scf accuracy    <       0.00000139 Ry

     iteration # 25     ecut=   124.00 Ry     beta= 0.70
     Davidson diagonalization with overlap
     ethr =  4.97E-09,  avg # of iterations =  4.6

     negative rho (up, down):  9.499E-04 0.000E+00

     total cpu time spent up to now is       49.7 secs

     total energy              =    -448.58298240 Ry
     estimated scf accuracy    <       0.00000053 Ry

     iteration # 26     ecut=   124.00 Ry     beta= 0.70
     Davidson diagonalization with overlap
     ethr =  1.89E-09,  avg # of iterations =  4.0

     negative rho (up, down):  9.506E-04 0.000E+00

     total cpu time spent up to now is       52.0 secs

     total energy              =    -448.58298244 Ry
     estimated scf accuracy    <       0.00000154 Ry

     iteration # 27     ecut=   124.00 Ry     beta= 0.70
     Davidson diagonalization with overlap
     ethr =  1.89E-09,  avg # of iterations =  3.5

     negative rho (up, down):  9.507E-04 0.000E+00

     total cpu time spent up to now is       53.9 secs

     End of self-consistent calculation

     Number of k-points >= 100: set verbosity='high' to print the bands.

     the Fermi energy is    18.5861 ev

!    total energy              =    -448.58298259 Ry
     estimated scf accuracy    <          1.3E-09 Ry
     smearing contrib. (-TS)   =       0.00000749 Ry
     internal energy E=F+TS    =    -448.58299008 Ry

     The total energy is F=E-TS. E is the sum of the following terms:
     one-electron contribution =    -145.83639119 Ry
     hartree contribution      =      89.77744607 Ry
     xc contribution           =     -52.96335803 Ry
     ewald contribution        =    -263.40606856 Ry
     one-center paw contrib.   =     -76.15461837 Ry

     convergence has been achieved in  27 iterations

     negative rho (up, down):  9.507E-04 0.000E+00

     Forces acting on atoms (cartesian axes, Ry/au):

     atom    1 type  1   force =     0.00000000    0.00000000    0.00000000
     atom    2 type  2   force =     0.00000000    0.00000000    0.00000000

     Total force =     0.000000     Total SCF correction =     0.000000


     Computing stress (Cartesian axis) and pressure


     negative rho (up, down):  9.507E-04 0.000E+00
          total   stress  (Ry/bohr**3)                   (kbar)     P=      121.67
   0.00082707   0.00000000   0.00000000          121.67        0.00        0.00
   0.00000000   0.00082707   0.00000000            0.00      121.67        0.00
   0.00000000   0.00000000   0.00082707            0.00        0.00      121.67


     Writing all to output data dir ./TiFe.save/ :
     XML data file, charge density, pseudopotentials, collected wavefunctions

     init_run     :      1.50s CPU      1.54s WALL (       1 calls)
     electrons    :     50.47s CPU     52.18s WALL (       1 calls)
     forces       :      0.29s CPU      0.31s WALL (       1 calls)
     stress       :      1.65s CPU      1.70s WALL (       1 calls)

     Called by init_run:
     wfcinit      :      0.68s CPU      0.70s WALL (       1 calls)
     potinit      :      0.37s CPU      0.38s WALL (       1 calls)
     hinit0       :      0.26s CPU      0.26s WALL (       1 calls)

     Called by electrons:
     c_bands      :     35.63s CPU     36.43s WALL (      27 calls)
     sum_band     :      9.28s CPU      9.73s WALL (      27 calls)
     v_of_rho     :      0.64s CPU      0.71s WALL (      28 calls)
     newd         :      3.45s CPU      3.79s WALL (      28 calls)
     PAW_pot      :      1.52s CPU      1.56s WALL (      28 calls)
     mix_rho      :      0.08s CPU      0.09s WALL (      27 calls)

     Called by c_bands:
     init_us_2    :      0.93s CPU      0.95s WALL (    6840 calls)
     cegterg      :     33.88s CPU     34.64s WALL (    3240 calls)

     Called by *egterg:
     cdiaghg      :      3.68s CPU      3.76s WALL (   11691 calls)
     h_psi        :     26.65s CPU     27.26s WALL (   11811 calls)
     s_psi        :      0.60s CPU      0.62s WALL (   11811 calls)
     g_psi        :      0.14s CPU      0.15s WALL (    8451 calls)

     Called by h_psi:
     h_psi:calbec :      1.00s CPU      1.02s WALL (   11811 calls)
     vloc_psi     :     24.93s CPU     25.50s WALL (   11811 calls)
     add_vuspsi   :      0.61s CPU      0.63s WALL (   11811 calls)

     General routines
     calbec       :      1.56s CPU      1.60s WALL (   17091 calls)
     fft          :      0.56s CPU      0.65s WALL (     387 calls)
     ffts         :      0.29s CPU      0.29s WALL (      55 calls)
     fftw         :     24.36s CPU     24.88s WALL (  350754 calls)
     interpolate  :      0.32s CPU      0.32s WALL (      28 calls)

     Parallel routines

     PWSCF        :     54.32s CPU     56.39s WALL


   This run was terminated on:  15: 3:32  28Oct2025            

=------------------------------------------------------------------------------=
   JOB DONE.
=------------------------------------------------------------------------------=
