
     Program PWSCF v.7.4 starts on 28Oct2025 at 14:55:24 

     This program is part of the open-source Quantum ESPRESSO suite
     for quantum simulation of materials; please cite
         "P. Giannozzi et al., J. Phys.:Condens. Matter 21 395502 (2009);
         "P. Giannozzi et al., J. Phys.:Condens. Matter 29 465901 (2017);
         "P. Giannozzi et al., J. Chem. Phys. 152 154105 (2020);
          URL http://www.quantum-espresso.org", 
     in publications or presentations arising from this work. More details at
     http://www.quantum-espresso.org/quote

     Parallel version (MPI & OpenMP), running on       8 processor cores
     Number of MPI processes:                 8
     Threads/MPI process:                     1

     MPI processes distributed on     1 nodes
     226535 MiB available memory on the printing compute node when the environment starts

     Reading input from TiFe_0.in

     Current dimensions of program PWSCF are:
     Max number of different atomic species (ntypx) = 10
     Max number of k-points (npk) =  40000
     Max angular momentum in pseudopotentials (lmaxx) =  4
     file Fe.pbe-spn-kjpaw_psl.0.2.1.UPF: wavefunction(s)  3D renormalized

     IMPORTANT: XC functional enforced from input :
     Exchange-correlation= PBE
                           (   1   4   3   4   0   0   0)
     Any further DFT definition will be discarded
     Please, verify this is what you really want

     Message from routine setup:
     using ibrav=0 with symmetry is DISCOURAGED, use correct ibrav instead

     R & G space division:  proc/nbgrp/npool/nimage =       8
     Subspace diagonalization in iterative solution of the eigenvalue problem:
     a serial algorithm will be used


     Parallelization info
     --------------------
     sticks:   dense  smooth     PW     G-vecs:    dense   smooth      PW
     Min         488     139     41                23036     3531     567
     Max         489     140     42                23041     3533     570
     Sum        3909    1117    333               184307    28257    4553

     Using Slab Decomposition



     bravais-lattice index     =            0
     lattice parameter (alat)  =       5.3265  a.u.
     unit-cell volume          =     151.1242 (a.u.)^3
     number of atoms/cell      =            2
     number of atomic types    =            2
     number of electrons       =        28.00
     number of Kohn-Sham states=           18
     kinetic-energy cutoff     =     124.0000  Ry
     charge density cutoff     =    1736.0000  Ry
     scf convergence threshold =      1.0E-08
     mixing beta               =       0.7000
     number of iterations used =            8  plain     mixing
     Exchange-correlation= PBE
                           (   1   4   3   4   0   0   0)

     celldm(1)=   5.326533  celldm(2)=   0.000000  celldm(3)=   0.000000
     celldm(4)=   0.000000  celldm(5)=   0.000000  celldm(6)=   0.000000

     crystal axes: (cart. coord. in units of alat)
               a(1) = (   1.000000   0.000000   0.000000 )  
               a(2) = (   0.000000   1.000000   0.000000 )  
               a(3) = (   0.000000   0.000000   1.000000 )  

     reciprocal axes: (cart. coord. in units 2 pi/alat)
               b(1) = (  1.000000  0.000000  0.000000 )  
               b(2) = (  0.000000  1.000000  0.000000 )  
               b(3) = (  0.000000  0.000000  1.000000 )  


     PseudoPot. # 1 for Fe read from file:
     ../../pseudos/Fe.pbe-spn-kjpaw_psl.0.2.1.UPF
     MD5 check sum: e86618425769142926afa95317d90200
     Pseudo is Projector augmented-wave + core cor, Zval = 16.0
     Generated using "atomic" code by A. Dal Corso  v.5.0.99 svn rev. 10869
     Shape of augmentation charge: PSQ
     Using radial grid of 1191 points,  6 beta functions with: 
                l(1) =   0
                l(2) =   0
                l(3) =   1
                l(4) =   1
                l(5) =   2
                l(6) =   2
     Q(r) pseudized with 0 coefficients 


     PseudoPot. # 2 for Ti read from file:
     ../../pseudos/ti_pbe_v1.4.uspp.F.UPF
     MD5 check sum: 88a00a6731bd790ddea75d31a80cb452
     Pseudo is Ultrasoft + core correction, Zval = 12.0
     Generated by new atomic code, or converted to UPF format
     Using radial grid of  851 points,  6 beta functions with: 
                l(1) =   0
                l(2) =   0
                l(3) =   1
                l(4) =   1
                l(5) =   2
                l(6) =   2
     Q(r) pseudized with  6 coefficients,  rinner =    1.000   1.000   1.000
                                                       1.000   1.000

     atomic species   valence    mass     pseudopotential
     Fe               16.00    55.84500     Fe( 1.00)
     Ti               12.00    47.86700     Ti( 1.00)

     48 Sym. Ops., with inversion, found



   Cartesian axes

     site n.     atom                  positions (alat units)
         1        Fe     tau(   1) = (   0.5000000   0.5000000   0.5000000  )
         2        Ti     tau(   2) = (   0.0000000   0.0000000   0.0000000  )

     number of k points=   120  Marzari-Vanderbilt smearing, width (Ry)=  0.0050

     Number of k-points >= 100: set verbosity='high' to print them.

     Dense  grid:   184307 G-vectors     FFT dimensions: (  72,  72,  72)

     Smooth grid:    28257 G-vectors     FFT dimensions: (  40,  40,  40)

     Estimated max dynamical RAM per process >     105.55 MB

     Estimated total dynamical RAM >     844.41 MB

     Check: negative core charge=   -0.000002

     Initial potential from superposition of free atoms

     starting charge      26.9995, renormalised to      28.0000

     negative rho (up, down):  1.320E-03 0.000E+00
     Starting wfcs are   23 randomized atomic wfcs
     Checking if some PAW data can be deallocated... 

     total cpu time spent up to now is        2.3 secs

     per-process dynamical memory:   140.6 Mb

     Self-consistent Calculation

     iteration #  1     ecut=   124.00 Ry     beta= 0.70
     Davidson diagonalization with overlap
     ethr =  1.00E-02,  avg # of iterations =  2.1

     negative rho (up, down):  5.422E-05 0.000E+00

     total cpu time spent up to now is        4.2 secs

     total energy              =    -437.06712778 Ry
     estimated scf accuracy    <      14.78995626 Ry

     iteration #  2     ecut=   124.00 Ry     beta= 0.70
     Davidson diagonalization with overlap
     ethr =  1.00E-02,  avg # of iterations =  6.0

     negative rho (up, down):  7.486E-05 0.000E+00

     total cpu time spent up to now is        7.1 secs

     total energy              =    -448.35582084 Ry
     estimated scf accuracy    <      57.56470055 Ry

     iteration #  3     ecut=   124.00 Ry     beta= 0.70
     Davidson diagonalization with overlap
     ethr =  1.00E-02,  avg # of iterations =  3.0

     negative rho (up, down):  3.191E-04 0.000E+00

     total cpu time spent up to now is        9.2 secs

     total energy              =    -448.43657685 Ry
     estimated scf accuracy    <      14.36139000 Ry

     iteration #  4     ecut=   124.00 Ry     beta= 0.70
     Davidson diagonalization with overlap
     ethr =  1.00E-02,  avg # of iterations =  2.1

     negative rho (up, down):  2.972E-04 0.000E+00

     total cpu time spent up to now is       11.0 secs

     total energy              =    -448.97979305 Ry
     estimated scf accuracy    <       3.55026579 Ry

     iteration #  5     ecut=   124.00 Ry     beta= 0.70
     Davidson diagonalization with overlap
     ethr =  1.00E-02,  avg # of iterations =  1.0

     negative rho (up, down):  4.710E-04 0.000E+00

     total cpu time spent up to now is       12.5 secs

     total energy              =    -448.54162917 Ry
     estimated scf accuracy    <       3.28413610 Ry

     iteration #  6     ecut=   124.00 Ry     beta= 0.70
     Davidson diagonalization with overlap
     ethr =  1.00E-02,  avg # of iterations =  1.2

     negative rho (up, down):  4.902E-04 0.000E+00

     total cpu time spent up to now is       14.0 secs

     total energy              =    -448.67842321 Ry
     estimated scf accuracy    <       0.62940166 Ry

     iteration #  7     ecut=   124.00 Ry     beta= 0.70
     Davidson diagonalization with overlap
     ethr =  2.25E-03,  avg # of iterations =  1.5

     negative rho (up, down):  9.943E-04 0.000E+00

     total cpu time spent up to now is       15.6 secs

     total energy              =    -448.49139059 Ry
     estimated scf accuracy    <       0.70636970 Ry

     iteration #  8     ecut=   124.00 Ry     beta= 0.70
     Davidson diagonalization with overlap
     ethr =  2.25E-03,  avg # of iterations =  2.4

     negative rho (up, down):  1.134E-03 0.000E+00

     total cpu time spent up to now is       17.3 secs

     total energy              =    -448.56256124 Ry
     estimated scf accuracy    <       0.06637154 Ry

     iteration #  9     ecut=   124.00 Ry     beta= 0.70
     Davidson diagonalization with overlap
     ethr =  2.37E-04,  avg # of iterations =  5.1

     negative rho (up, down):  1.125E-03 0.000E+00

     total cpu time spent up to now is       19.6 secs

     total energy              =    -448.60537019 Ry
     estimated scf accuracy    <       0.71005216 Ry

     iteration # 10     ecut=   124.00 Ry     beta= 0.70
     Davidson diagonalization with overlap
     ethr =  2.37E-04,  avg # of iterations =  1.0

     negative rho (up, down):  1.038E-03 0.000E+00

     total cpu time spent up to now is       21.1 secs

     total energy              =    -448.61694233 Ry
     estimated scf accuracy    <       0.68554144 Ry

     iteration # 11     ecut=   124.00 Ry     beta= 0.70
     Davidson diagonalization with overlap
     ethr =  2.37E-04,  avg # of iterations =  1.0

     negative rho (up, down):  7.557E-04 0.000E+00

     total cpu time spent up to now is       22.6 secs

     total energy              =    -448.54069593 Ry
     estimated scf accuracy    <       0.94507600 Ry

     iteration # 12     ecut=   124.00 Ry     beta= 0.70
     Davidson diagonalization with overlap
     ethr =  2.37E-04,  avg # of iterations =  3.6

     negative rho (up, down):  6.304E-04 0.000E+00

     total cpu time spent up to now is       24.5 secs

     total energy              =    -448.53730966 Ry
     estimated scf accuracy    <       0.12060443 Ry

     iteration # 13     ecut=   124.00 Ry     beta= 0.70
     Davidson diagonalization with overlap
     ethr =  2.37E-04,  avg # of iterations =  4.1

     negative rho (up, down):  7.793E-04 0.000E+00

     total cpu time spent up to now is       26.5 secs

     total energy              =    -448.55680050 Ry
     estimated scf accuracy    <       0.64432895 Ry

     iteration # 14     ecut=   124.00 Ry     beta= 0.70
     Davidson diagonalization with overlap
     ethr =  2.37E-04,  avg # of iterations =  2.8

     negative rho (up, down):  8.740E-04 0.000E+00

     total cpu time spent up to now is       28.2 secs

     total energy              =    -448.56018371 Ry
     estimated scf accuracy    <       0.12051010 Ry

     iteration # 15     ecut=   124.00 Ry     beta= 0.70
     Davidson diagonalization with overlap
     ethr =  2.37E-04,  avg # of iterations =  1.5

     negative rho (up, down):  9.389E-04 0.000E+00

     total cpu time spent up to now is       29.8 secs

     total energy              =    -448.56049270 Ry
     estimated scf accuracy    <       0.02856554 Ry

     iteration # 16     ecut=   124.00 Ry     beta= 0.70
     Davidson diagonalization with overlap
     ethr =  1.02E-04,  avg # of iterations =  2.2

     negative rho (up, down):  9.966E-04 0.000E+00

     total cpu time spent up to now is       31.4 secs

     total energy              =    -448.56051921 Ry
     estimated scf accuracy    <       0.00640813 Ry

     iteration # 17     ecut=   124.00 Ry     beta= 0.70
     Davidson diagonalization with overlap
     ethr =  2.29E-05,  avg # of iterations =  3.7

     negative rho (up, down):  9.777E-04 0.000E+00

     total cpu time spent up to now is       33.2 secs

     total energy              =    -448.56172269 Ry
     estimated scf accuracy    <       0.00114767 Ry

     iteration # 18     ecut=   124.00 Ry     beta= 0.70
     Davidson diagonalization with overlap
     ethr =  4.10E-06,  avg # of iterations =  1.8

     negative rho (up, down):  9.725E-04 0.000E+00

     total cpu time spent up to now is       34.8 secs

     total energy              =    -448.56177573 Ry
     estimated scf accuracy    <       0.00054301 Ry

     iteration # 19     ecut=   124.00 Ry     beta= 0.70
     Davidson diagonalization with overlap
     ethr =  1.94E-06,  avg # of iterations =  1.2

     negative rho (up, down):  9.590E-04 0.000E+00

     total cpu time spent up to now is       36.4 secs

     total energy              =    -448.56168208 Ry
     estimated scf accuracy    <       0.00083121 Ry

     iteration # 20     ecut=   124.00 Ry     beta= 0.70
     Davidson diagonalization with overlap
     ethr =  1.94E-06,  avg # of iterations =  1.2

     negative rho (up, down):  9.569E-04 0.000E+00

     total cpu time spent up to now is       37.9 secs

     total energy              =    -448.56170803 Ry
     estimated scf accuracy    <       0.00010365 Ry

     iteration # 21     ecut=   124.00 Ry     beta= 0.70
     Davidson diagonalization with overlap
     ethr =  3.70E-07,  avg # of iterations =  2.7

     negative rho (up, down):  9.555E-04 0.000E+00

     total cpu time spent up to now is       39.6 secs

     total energy              =    -448.56171393 Ry
     estimated scf accuracy    <       0.00001050 Ry

     iteration # 22     ecut=   124.00 Ry     beta= 0.70
     Davidson diagonalization with overlap
     ethr =  3.75E-08,  avg # of iterations =  4.7

     negative rho (up, down):  9.562E-04 0.000E+00

     total cpu time spent up to now is       41.6 secs

     total energy              =    -448.56171772 Ry
     estimated scf accuracy    <       0.00000104 Ry

     iteration # 23     ecut=   124.00 Ry     beta= 0.70
     Davidson diagonalization with overlap
     ethr =  3.73E-09,  avg # of iterations =  3.4

     negative rho (up, down):  9.562E-04 0.000E+00

     total cpu time spent up to now is       43.5 secs

     total energy              =    -448.56171805 Ry
     estimated scf accuracy    <       0.00000046 Ry

     iteration # 24     ecut=   124.00 Ry     beta= 0.70
     Davidson diagonalization with overlap
     ethr =  1.65E-09,  avg # of iterations =  3.0

     negative rho (up, down):  9.557E-04 0.000E+00

     total cpu time spent up to now is       45.4 secs

     total energy              =    -448.56171778 Ry
     estimated scf accuracy    <       0.00000234 Ry

     iteration # 25     ecut=   124.00 Ry     beta= 0.70
     Davidson diagonalization with overlap
     ethr =  1.65E-09,  avg # of iterations =  3.2

     negative rho (up, down):  9.557E-04 0.000E+00

     total cpu time spent up to now is       47.1 secs

     End of self-consistent calculation

     Number of k-points >= 100: set verbosity='high' to print the bands.

     the Fermi energy is    20.3979 ev

!    total energy              =    -448.56171790 Ry
     estimated scf accuracy    <          7.6E-09 Ry
     smearing contrib. (-TS)   =       0.00002583 Ry
     internal energy E=F+TS    =    -448.56174373 Ry

     The total energy is F=E-TS. E is the sum of the following terms:
     one-electron contribution =    -134.41446782 Ry
     hartree contribution      =      86.01948358 Ry
     xc contribution           =     -53.12822634 Ry
     ewald contribution        =    -270.88208055 Ry
     one-center paw contrib.   =     -76.15645260 Ry

     convergence has been achieved in  25 iterations

     negative rho (up, down):  9.557E-04 0.000E+00

     Forces acting on atoms (cartesian axes, Ry/au):

     atom    1 type  1   force =     0.00000000    0.00000000    0.00000000
     atom    2 type  2   force =     0.00000000    0.00000000    0.00000000

     Total force =     0.000000     Total SCF correction =     0.000000


     Computing stress (Cartesian axis) and pressure


     negative rho (up, down):  9.557E-04 0.000E+00
          total   stress  (Ry/bohr**3)                   (kbar)     P=      363.25
   0.00246930   0.00000000   0.00000000          363.25        0.00        0.00
   0.00000000   0.00246930   0.00000000            0.00      363.25        0.00
   0.00000000   0.00000000   0.00246930            0.00        0.00      363.25


     Writing all to output data dir ./TiFe.save/ :
     XML data file, charge density, pseudopotentials, collected wavefunctions

     init_run     :      1.81s CPU      1.90s WALL (       1 calls)
     electrons    :     43.22s CPU     44.83s WALL (       1 calls)
     forces       :      0.27s CPU      0.29s WALL (       1 calls)
     stress       :      1.52s CPU      1.56s WALL (       1 calls)

     Called by init_run:
     wfcinit      :      0.63s CPU      0.66s WALL (       1 calls)
     potinit      :      0.37s CPU      0.40s WALL (       1 calls)
     hinit0       :      0.65s CPU      0.66s WALL (       1 calls)

     Called by electrons:
     c_bands      :     30.38s CPU     31.06s WALL (      25 calls)
     sum_band     :      8.05s CPU      8.45s WALL (      25 calls)
     v_of_rho     :      0.51s CPU      0.56s WALL (      26 calls)
     newd         :      2.91s CPU      3.21s WALL (      26 calls)
     PAW_pot      :      1.44s CPU      1.60s WALL (      26 calls)
     mix_rho      :      0.06s CPU      0.06s WALL (      25 calls)

     Called by c_bands:
     init_us_2    :      0.81s CPU      0.83s WALL (    6360 calls)
     cegterg      :     28.89s CPU     29.54s WALL (    3000 calls)

     Called by *egterg:
     cdiaghg      :      3.32s CPU      3.39s WALL (   10850 calls)
     h_psi        :     22.60s CPU     23.13s WALL (   10970 calls)
     s_psi        :      0.51s CPU      0.52s WALL (   10970 calls)
     g_psi        :      0.12s CPU      0.12s WALL (    7850 calls)

     Called by h_psi:
     h_psi:calbec :      0.82s CPU      0.85s WALL (   10970 calls)
     vloc_psi     :     21.15s CPU     21.64s WALL (   10970 calls)
     add_vuspsi   :      0.52s CPU      0.54s WALL (   10970 calls)

     General routines
     calbec       :      1.34s CPU      1.37s WALL (   16010 calls)
     fft          :      0.83s CPU      0.91s WALL (     361 calls)
     ffts         :      0.29s CPU      0.29s WALL (      51 calls)
     fftw         :     20.55s CPU     21.00s WALL (  318504 calls)
     interpolate  :      0.30s CPU      0.31s WALL (      26 calls)

     Parallel routines

     PWSCF        :     47.21s CPU     49.54s WALL


   This run was terminated on:  14:56:13  28Oct2025            

=------------------------------------------------------------------------------=
   JOB DONE.
=------------------------------------------------------------------------------=
