
     Program PWSCF v.7.4 starts on 28Oct2025 at 15: 1:39 

     This program is part of the open-source Quantum ESPRESSO suite
     for quantum simulation of materials; please cite
         "P. Giannozzi et al., J. Phys.:Condens. Matter 21 395502 (2009);
         "P. Giannozzi et al., J. Phys.:Condens. Matter 29 465901 (2017);
         "P. Giannozzi et al., J. Chem. Phys. 152 154105 (2020);
          URL http://www.quantum-espresso.org", 
     in publications or presentations arising from this work. More details at
     http://www.quantum-espresso.org/quote

     Parallel version (MPI & OpenMP), running on       8 processor cores
     Number of MPI processes:                 8
     Threads/MPI process:                     1

     MPI processes distributed on     1 nodes
     226692 MiB available memory on the printing compute node when the environment starts

     Reading input from TiFe_7.in

     Current dimensions of program PWSCF are:
     Max number of different atomic species (ntypx) = 10
     Max number of k-points (npk) =  40000
     Max angular momentum in pseudopotentials (lmaxx) =  4
     file Fe.pbe-spn-kjpaw_psl.0.2.1.UPF: wavefunction(s)  3D renormalized

     IMPORTANT: XC functional enforced from input :
     Exchange-correlation= PBE
                           (   1   4   3   4   0   0   0)
     Any further DFT definition will be discarded
     Please, verify this is what you really want

     Message from routine setup:
     using ibrav=0 with symmetry is DISCOURAGED, use correct ibrav instead

     R & G space division:  proc/nbgrp/npool/nimage =       8
     Subspace diagonalization in iterative solution of the eigenvalue problem:
     a serial algorithm will be used


     Parallelization info
     --------------------
     sticks:   dense  smooth     PW     G-vecs:    dense   smooth      PW
     Min         514     148     43                24858     3818     599
     Max         515     149     44                24863     3821     601
     Sum        4117    1185    349               198893    30551    4801

     Using Slab Decomposition



     bravais-lattice index     =            0
     lattice parameter (alat)  =       5.4588  a.u.
     unit-cell volume          =     162.6653 (a.u.)^3
     number of atoms/cell      =            2
     number of atomic types    =            2
     number of electrons       =        28.00
     number of Kohn-Sham states=           18
     kinetic-energy cutoff     =     124.0000  Ry
     charge density cutoff     =    1736.0000  Ry
     scf convergence threshold =      1.0E-08
     mixing beta               =       0.7000
     number of iterations used =            8  plain     mixing
     Exchange-correlation= PBE
                           (   1   4   3   4   0   0   0)

     celldm(1)=   5.458814  celldm(2)=   0.000000  celldm(3)=   0.000000
     celldm(4)=   0.000000  celldm(5)=   0.000000  celldm(6)=   0.000000

     crystal axes: (cart. coord. in units of alat)
               a(1) = (   1.000000   0.000000   0.000000 )  
               a(2) = (   0.000000   1.000000   0.000000 )  
               a(3) = (   0.000000   0.000000   1.000000 )  

     reciprocal axes: (cart. coord. in units 2 pi/alat)
               b(1) = (  1.000000  0.000000  0.000000 )  
               b(2) = (  0.000000  1.000000  0.000000 )  
               b(3) = (  0.000000  0.000000  1.000000 )  


     PseudoPot. # 1 for Fe read from file:
     ../../pseudos/Fe.pbe-spn-kjpaw_psl.0.2.1.UPF
     MD5 check sum: e86618425769142926afa95317d90200
     Pseudo is Projector augmented-wave + core cor, Zval = 16.0
     Generated using "atomic" code by A. Dal Corso  v.5.0.99 svn rev. 10869
     Shape of augmentation charge: PSQ
     Using radial grid of 1191 points,  6 beta functions with: 
                l(1) =   0
                l(2) =   0
                l(3) =   1
                l(4) =   1
                l(5) =   2
                l(6) =   2
     Q(r) pseudized with 0 coefficients 


     PseudoPot. # 2 for Ti read from file:
     ../../pseudos/ti_pbe_v1.4.uspp.F.UPF
     MD5 check sum: 88a00a6731bd790ddea75d31a80cb452
     Pseudo is Ultrasoft + core correction, Zval = 12.0
     Generated by new atomic code, or converted to UPF format
     Using radial grid of  851 points,  6 beta functions with: 
                l(1) =   0
                l(2) =   0
                l(3) =   1
                l(4) =   1
                l(5) =   2
                l(6) =   2
     Q(r) pseudized with  6 coefficients,  rinner =    1.000   1.000   1.000
                                                       1.000   1.000

     atomic species   valence    mass     pseudopotential
     Fe               16.00    55.84500     Fe( 1.00)
     Ti               12.00    47.86700     Ti( 1.00)

     48 Sym. Ops., with inversion, found



   Cartesian axes

     site n.     atom                  positions (alat units)
         1        Fe     tau(   1) = (   0.5000000   0.5000000   0.5000000  )
         2        Ti     tau(   2) = (   0.0000000   0.0000000   0.0000000  )

     number of k points=   120  Marzari-Vanderbilt smearing, width (Ry)=  0.0050

     Number of k-points >= 100: set verbosity='high' to print them.

     Dense  grid:   198893 G-vectors     FFT dimensions: (  75,  75,  75)

     Smooth grid:    30551 G-vectors     FFT dimensions: (  40,  40,  40)

     Estimated max dynamical RAM per process >     113.74 MB

     Estimated total dynamical RAM >     909.90 MB

     Check: negative core charge=   -0.000002

     Initial potential from superposition of free atoms

     starting charge      26.9995, renormalised to      28.0000

     negative rho (up, down):  1.323E-03 0.000E+00
     Starting wfcs are   23 randomized atomic wfcs
     Checking if some PAW data can be deallocated... 

     total cpu time spent up to now is        1.7 secs

     per-process dynamical memory:   143.1 Mb

     Self-consistent Calculation

     iteration #  1     ecut=   124.00 Ry     beta= 0.70
     Davidson diagonalization with overlap
     ethr =  1.00E-02,  avg # of iterations =  2.1

     negative rho (up, down):  5.610E-05 0.000E+00

     total cpu time spent up to now is        3.6 secs

     total energy              =    -435.85421669 Ry
     estimated scf accuracy    <      16.29196694 Ry

     iteration #  2     ecut=   124.00 Ry     beta= 0.70
     Davidson diagonalization with overlap
     ethr =  1.00E-02,  avg # of iterations =  6.1

     negative rho (up, down):  4.856E-05 0.000E+00

     total cpu time spent up to now is        6.8 secs

     total energy              =    -448.51181729 Ry
     estimated scf accuracy    <      62.17739623 Ry

     iteration #  3     ecut=   124.00 Ry     beta= 0.70
     Davidson diagonalization with overlap
     ethr =  1.00E-02,  avg # of iterations =  3.0

     negative rho (up, down):  2.831E-04 0.000E+00

     total cpu time spent up to now is        9.0 secs

     total energy              =    -448.50524204 Ry
     estimated scf accuracy    <      15.77090783 Ry

     iteration #  4     ecut=   124.00 Ry     beta= 0.70
     Davidson diagonalization with overlap
     ethr =  1.00E-02,  avg # of iterations =  2.1

     negative rho (up, down):  2.930E-04 0.000E+00

     total cpu time spent up to now is       10.9 secs

     total energy              =    -449.06163481 Ry
     estimated scf accuracy    <       4.10013342 Ry

     iteration #  5     ecut=   124.00 Ry     beta= 0.70
     Davidson diagonalization with overlap
     ethr =  1.00E-02,  avg # of iterations =  1.0

     negative rho (up, down):  3.086E-04 0.000E+00

     total cpu time spent up to now is       12.5 secs

     total energy              =    -448.90603065 Ry
     estimated scf accuracy    <       3.84006773 Ry

     iteration #  6     ecut=   124.00 Ry     beta= 0.70
     Davidson diagonalization with overlap
     ethr =  1.00E-02,  avg # of iterations =  1.0

     negative rho (up, down):  5.567E-04 0.000E+00

     total cpu time spent up to now is       14.1 secs

     total energy              =    -448.45313966 Ry
     estimated scf accuracy    <       2.30437841 Ry

     iteration #  7     ecut=   124.00 Ry     beta= 0.70
     Davidson diagonalization with overlap
     ethr =  8.23E-03,  avg # of iterations =  1.8

     negative rho (up, down):  8.752E-04 0.000E+00

     total cpu time spent up to now is       15.8 secs

     total energy              =    -448.56785771 Ry
     estimated scf accuracy    <       0.26082294 Ry

     iteration #  8     ecut=   124.00 Ry     beta= 0.70
     Davidson diagonalization with overlap
     ethr =  9.32E-04,  avg # of iterations =  4.7

     negative rho (up, down):  8.092E-04 0.000E+00

     total cpu time spent up to now is       18.0 secs

     total energy              =    -448.46312916 Ry
     estimated scf accuracy    <       1.71508755 Ry

     iteration #  9     ecut=   124.00 Ry     beta= 0.70
     Davidson diagonalization with overlap
     ethr =  9.32E-04,  avg # of iterations =  3.7

     negative rho (up, down):  9.263E-04 0.000E+00

     total cpu time spent up to now is       20.0 secs

     total energy              =    -448.60437234 Ry
     estimated scf accuracy    <       0.13711288 Ry

     iteration # 10     ecut=   124.00 Ry     beta= 0.70
     Davidson diagonalization with overlap
     ethr =  4.90E-04,  avg # of iterations =  1.4

     negative rho (up, down):  9.270E-04 0.000E+00

     total cpu time spent up to now is       21.6 secs

     total energy              =    -448.61999596 Ry
     estimated scf accuracy    <       0.08171198 Ry

     iteration # 11     ecut=   124.00 Ry     beta= 0.70
     Davidson diagonalization with overlap
     ethr =  2.92E-04,  avg # of iterations =  1.1

     negative rho (up, down):  8.639E-04 0.000E+00

     total cpu time spent up to now is       23.2 secs

     total energy              =    -448.59093111 Ry
     estimated scf accuracy    <       0.10158199 Ry

     iteration # 12     ecut=   124.00 Ry     beta= 0.70
     Davidson diagonalization with overlap
     ethr =  2.92E-04,  avg # of iterations =  2.0

     negative rho (up, down):  8.188E-04 0.000E+00

     total cpu time spent up to now is       25.0 secs

     total energy              =    -448.57613799 Ry
     estimated scf accuracy    <       0.10877556 Ry

     iteration # 13     ecut=   124.00 Ry     beta= 0.70
     Davidson diagonalization with overlap
     ethr =  2.92E-04,  avg # of iterations =  2.0

     negative rho (up, down):  7.055E-04 0.000E+00

     total cpu time spent up to now is       26.8 secs

     total energy              =    -448.59497150 Ry
     estimated scf accuracy    <       0.18718533 Ry

     iteration # 14     ecut=   124.00 Ry     beta= 0.70
     Davidson diagonalization with overlap
     ethr =  2.92E-04,  avg # of iterations =  1.0

     negative rho (up, down):  7.619E-04 0.000E+00

     total cpu time spent up to now is       28.4 secs

     total energy              =    -448.58323709 Ry
     estimated scf accuracy    <       0.19720905 Ry

     iteration # 15     ecut=   124.00 Ry     beta= 0.70
     Davidson diagonalization with overlap
     ethr =  2.92E-04,  avg # of iterations =  1.1

     negative rho (up, down):  8.200E-04 0.000E+00

     total cpu time spent up to now is       30.0 secs

     total energy              =    -448.57947695 Ry
     estimated scf accuracy    <       0.06434365 Ry

     iteration # 16     ecut=   124.00 Ry     beta= 0.70
     Davidson diagonalization with overlap
     ethr =  2.30E-04,  avg # of iterations =  1.7

     negative rho (up, down):  8.734E-04 0.000E+00

     total cpu time spent up to now is       31.6 secs

     total energy              =    -448.59002319 Ry
     estimated scf accuracy    <       0.01051398 Ry

     iteration # 17     ecut=   124.00 Ry     beta= 0.70
     Davidson diagonalization with overlap
     ethr =  3.75E-05,  avg # of iterations =  4.8

     negative rho (up, down):  6.909E-04 0.000E+00

     total cpu time spent up to now is       34.0 secs

     total energy              =    -448.53644211 Ry
     estimated scf accuracy    <       0.18622138 Ry

     iteration # 18     ecut=   124.00 Ry     beta= 0.70
     Davidson diagonalization with overlap
     ethr =  3.75E-05,  avg # of iterations =  6.0

     negative rho (up, down):  1.002E-03 0.000E+00

     total cpu time spent up to now is       37.0 secs

     total energy              =    -448.54778699 Ry
     estimated scf accuracy    <       0.29533660 Ry

     iteration # 19     ecut=   124.00 Ry     beta= 0.70
     Davidson diagonalization with overlap
     ethr =  3.75E-05,  avg # of iterations =  5.3

     negative rho (up, down):  9.356E-04 0.000E+00

     total cpu time spent up to now is       39.7 secs

     total energy              =    -448.57966467 Ry
     estimated scf accuracy    <       0.01787399 Ry

     iteration # 20     ecut=   124.00 Ry     beta= 0.70
     Davidson diagonalization with overlap
     ethr =  3.75E-05,  avg # of iterations =  2.5

     negative rho (up, down):  9.428E-04 0.000E+00

     total cpu time spent up to now is       41.4 secs

     total energy              =    -448.58130454 Ry
     estimated scf accuracy    <       0.00012127 Ry

     iteration # 21     ecut=   124.00 Ry     beta= 0.70
     Davidson diagonalization with overlap
     ethr =  4.33E-07,  avg # of iterations =  5.3

     negative rho (up, down):  9.459E-04 0.000E+00

     total cpu time spent up to now is       44.0 secs

     total energy              =    -448.58140934 Ry
     estimated scf accuracy    <       0.00017309 Ry

     iteration # 22     ecut=   124.00 Ry     beta= 0.70
     Davidson diagonalization with overlap
     ethr =  4.33E-07,  avg # of iterations =  1.2

     negative rho (up, down):  9.468E-04 0.000E+00

     total cpu time spent up to now is       45.6 secs

     total energy              =    -448.58140809 Ry
     estimated scf accuracy    <       0.00003836 Ry

     iteration # 23     ecut=   124.00 Ry     beta= 0.70
     Davidson diagonalization with overlap
     ethr =  1.37E-07,  avg # of iterations =  2.5

     negative rho (up, down):  9.479E-04 0.000E+00

     total cpu time spent up to now is       47.4 secs

     total energy              =    -448.58141153 Ry
     estimated scf accuracy    <       0.00000024 Ry

     iteration # 24     ecut=   124.00 Ry     beta= 0.70
     Davidson diagonalization with overlap
     ethr =  8.67E-10,  avg # of iterations =  5.7

     negative rho (up, down):  9.475E-04 0.000E+00

     total cpu time spent up to now is       50.2 secs

     total energy              =    -448.58141148 Ry
     estimated scf accuracy    <       0.00000468 Ry

     iteration # 25     ecut=   124.00 Ry     beta= 0.70
     Davidson diagonalization with overlap
     ethr =  8.67E-10,  avg # of iterations =  4.0

     negative rho (up, down):  9.475E-04 0.000E+00

     total cpu time spent up to now is       52.4 secs

     total energy              =    -448.58141174 Ry
     estimated scf accuracy    <       0.00000001 Ry

     iteration # 26     ecut=   124.00 Ry     beta= 0.70
     Davidson diagonalization with overlap
     ethr =  4.03E-11,  avg # of iterations =  4.3

     negative rho (up, down):  9.476E-04 0.000E+00

     total cpu time spent up to now is       54.6 secs

     End of self-consistent calculation

     Number of k-points >= 100: set verbosity='high' to print the bands.

     the Fermi energy is    18.8035 ev

!    total energy              =    -448.58141174 Ry
     estimated scf accuracy    <          7.1E-09 Ry
     smearing contrib. (-TS)   =       0.00001214 Ry
     internal energy E=F+TS    =    -448.58142388 Ry

     The total energy is F=E-TS. E is the sum of the following terms:
     one-electron contribution =    -144.43887472 Ry
     hartree contribution      =      89.31312716 Ry
     xc contribution           =     -52.98290836 Ry
     ewald contribution        =    -264.31792473 Ry
     one-center paw contrib.   =     -76.15484323 Ry

     convergence has been achieved in  26 iterations

     negative rho (up, down):  9.476E-04 0.000E+00

     Forces acting on atoms (cartesian axes, Ry/au):

     atom    1 type  1   force =     0.00000000    0.00000000    0.00000000
     atom    2 type  2   force =     0.00000000    0.00000000    0.00000000

     Total force =     0.000000     Total SCF correction =     0.000000


     Computing stress (Cartesian axis) and pressure


     negative rho (up, down):  9.476E-04 0.000E+00
          total   stress  (Ry/bohr**3)                   (kbar)     P=      147.39
   0.00100193   0.00000000   0.00000000          147.39        0.00        0.00
   0.00000000   0.00100193   0.00000000            0.00      147.39        0.00
   0.00000000   0.00000000   0.00100193            0.00        0.00      147.39


     Writing all to output data dir ./TiFe.save/ :
     XML data file, charge density, pseudopotentials, collected wavefunctions

     init_run     :      1.48s CPU      1.53s WALL (       1 calls)
     electrons    :     51.19s CPU     52.93s WALL (       1 calls)
     forces       :      0.30s CPU      0.31s WALL (       1 calls)
     stress       :      1.65s CPU      1.69s WALL (       1 calls)

     Called by init_run:
     wfcinit      :      0.67s CPU      0.69s WALL (       1 calls)
     potinit      :      0.37s CPU      0.38s WALL (       1 calls)
     hinit0       :      0.25s CPU      0.26s WALL (       1 calls)

     Called by electrons:
     c_bands      :     37.13s CPU     37.96s WALL (      26 calls)
     sum_band     :      8.74s CPU      9.21s WALL (      26 calls)
     v_of_rho     :      0.62s CPU      0.67s WALL (      27 calls)
     newd         :      3.29s CPU      3.62s WALL (      27 calls)
     PAW_pot      :      1.47s CPU      1.51s WALL (      27 calls)
     mix_rho      :      0.07s CPU      0.08s WALL (      26 calls)

     Called by c_bands:
     init_us_2    :      0.88s CPU      0.90s WALL (    6600 calls)
     cegterg      :     35.49s CPU     36.27s WALL (    3120 calls)

     Called by *egterg:
     cdiaghg      :      4.03s CPU      4.10s WALL (   12431 calls)
     h_psi        :     27.56s CPU     28.22s WALL (   12551 calls)
     s_psi        :      0.63s CPU      0.65s WALL (   12551 calls)
     g_psi        :      0.16s CPU      0.16s WALL (    9311 calls)

     Called by h_psi:
     h_psi:calbec :      1.03s CPU      1.06s WALL (   12551 calls)
     vloc_psi     :     25.78s CPU     26.39s WALL (   12551 calls)
     add_vuspsi   :      0.64s CPU      0.66s WALL (   12551 calls)

     General routines
     calbec       :      1.58s CPU      1.62s WALL (   17711 calls)
     fft          :      0.55s CPU      0.62s WALL (     374 calls)
     ffts         :      0.29s CPU      0.29s WALL (      53 calls)
     fftw         :     24.24s CPU     24.79s WALL (  360772 calls)
     interpolate  :      0.31s CPU      0.32s WALL (      27 calls)

     Parallel routines

     PWSCF        :     55.00s CPU     57.10s WALL


   This run was terminated on:  15: 2:36  28Oct2025            

=------------------------------------------------------------------------------=
   JOB DONE.
=------------------------------------------------------------------------------=
