
     Program PWSCF v.7.4 starts on 28Oct2025 at 14:57: 0 

     This program is part of the open-source Quantum ESPRESSO suite
     for quantum simulation of materials; please cite
         "P. Giannozzi et al., J. Phys.:Condens. Matter 21 395502 (2009);
         "P. Giannozzi et al., J. Phys.:Condens. Matter 29 465901 (2017);
         "P. Giannozzi et al., J. Chem. Phys. 152 154105 (2020);
          URL http://www.quantum-espresso.org", 
     in publications or presentations arising from this work. More details at
     http://www.quantum-espresso.org/quote

     Parallel version (MPI & OpenMP), running on       8 processor cores
     Number of MPI processes:                 8
     Threads/MPI process:                     1

     MPI processes distributed on     1 nodes
     226546 MiB available memory on the printing compute node when the environment starts

     Reading input from TiFe_2.in

     Current dimensions of program PWSCF are:
     Max number of different atomic species (ntypx) = 10
     Max number of k-points (npk) =  40000
     Max angular momentum in pseudopotentials (lmaxx) =  4
     file Fe.pbe-spn-kjpaw_psl.0.2.1.UPF: wavefunction(s)  3D renormalized

     IMPORTANT: XC functional enforced from input :
     Exchange-correlation= PBE
                           (   1   4   3   4   0   0   0)
     Any further DFT definition will be discarded
     Please, verify this is what you really want

     Message from routine setup:
     using ibrav=0 with symmetry is DISCOURAGED, use correct ibrav instead

     R & G space division:  proc/nbgrp/npool/nimage =       8
     Subspace diagonalization in iterative solution of the eigenvalue problem:
     a serial algorithm will be used


     Parallelization info
     --------------------
     sticks:   dense  smooth     PW     G-vecs:    dense   smooth      PW
     Min         498     141     42                23582     3583     578
     Max         499     142     44                23587     3585     579
     Sum        3985    1129    341               188663    28671    4625

     Using Slab Decomposition



     bravais-lattice index     =            0
     lattice parameter (alat)  =       5.3643  a.u.
     unit-cell volume          =     154.3640 (a.u.)^3
     number of atoms/cell      =            2
     number of atomic types    =            2
     number of electrons       =        28.00
     number of Kohn-Sham states=           18
     kinetic-energy cutoff     =     124.0000  Ry
     charge density cutoff     =    1736.0000  Ry
     scf convergence threshold =      1.0E-08
     mixing beta               =       0.7000
     number of iterations used =            8  plain     mixing
     Exchange-correlation= PBE
                           (   1   4   3   4   0   0   0)

     celldm(1)=   5.364328  celldm(2)=   0.000000  celldm(3)=   0.000000
     celldm(4)=   0.000000  celldm(5)=   0.000000  celldm(6)=   0.000000

     crystal axes: (cart. coord. in units of alat)
               a(1) = (   1.000000   0.000000   0.000000 )  
               a(2) = (   0.000000   1.000000   0.000000 )  
               a(3) = (   0.000000   0.000000   1.000000 )  

     reciprocal axes: (cart. coord. in units 2 pi/alat)
               b(1) = (  1.000000  0.000000  0.000000 )  
               b(2) = (  0.000000  1.000000  0.000000 )  
               b(3) = (  0.000000  0.000000  1.000000 )  


     PseudoPot. # 1 for Fe read from file:
     ../../pseudos/Fe.pbe-spn-kjpaw_psl.0.2.1.UPF
     MD5 check sum: e86618425769142926afa95317d90200
     Pseudo is Projector augmented-wave + core cor, Zval = 16.0
     Generated using "atomic" code by A. Dal Corso  v.5.0.99 svn rev. 10869
     Shape of augmentation charge: PSQ
     Using radial grid of 1191 points,  6 beta functions with: 
                l(1) =   0
                l(2) =   0
                l(3) =   1
                l(4) =   1
                l(5) =   2
                l(6) =   2
     Q(r) pseudized with 0 coefficients 


     PseudoPot. # 2 for Ti read from file:
     ../../pseudos/ti_pbe_v1.4.uspp.F.UPF
     MD5 check sum: 88a00a6731bd790ddea75d31a80cb452
     Pseudo is Ultrasoft + core correction, Zval = 12.0
     Generated by new atomic code, or converted to UPF format
     Using radial grid of  851 points,  6 beta functions with: 
                l(1) =   0
                l(2) =   0
                l(3) =   1
                l(4) =   1
                l(5) =   2
                l(6) =   2
     Q(r) pseudized with  6 coefficients,  rinner =    1.000   1.000   1.000
                                                       1.000   1.000

     atomic species   valence    mass     pseudopotential
     Fe               16.00    55.84500     Fe( 1.00)
     Ti               12.00    47.86700     Ti( 1.00)

     48 Sym. Ops., with inversion, found



   Cartesian axes

     site n.     atom                  positions (alat units)
         1        Fe     tau(   1) = (   0.5000000   0.5000000   0.5000000  )
         2        Ti     tau(   2) = (   0.0000000   0.0000000   0.0000000  )

     number of k points=   120  Marzari-Vanderbilt smearing, width (Ry)=  0.0050

     Number of k-points >= 100: set verbosity='high' to print them.

     Dense  grid:   188663 G-vectors     FFT dimensions: (  72,  72,  72)

     Smooth grid:    28671 G-vectors     FFT dimensions: (  40,  40,  40)

     Estimated max dynamical RAM per process >     107.76 MB

     Estimated total dynamical RAM >     862.07 MB

     Check: negative core charge=   -0.000002

     Initial potential from superposition of free atoms

     starting charge      26.9995, renormalised to      28.0000

     negative rho (up, down):  1.328E-03 0.000E+00
     Starting wfcs are   23 randomized atomic wfcs
     Checking if some PAW data can be deallocated... 

     total cpu time spent up to now is        2.1 secs

     per-process dynamical memory:   141.5 Mb

     Self-consistent Calculation

     iteration #  1     ecut=   124.00 Ry     beta= 0.70
     Davidson diagonalization with overlap
     ethr =  1.00E-02,  avg # of iterations =  2.1

     negative rho (up, down):  5.559E-05 0.000E+00

     total cpu time spent up to now is        3.9 secs

     total energy              =    -436.73789404 Ry
     estimated scf accuracy    <      15.20152421 Ry

     iteration #  2     ecut=   124.00 Ry     beta= 0.70
     Davidson diagonalization with overlap
     ethr =  1.00E-02,  avg # of iterations =  6.1

     negative rho (up, down):  6.759E-05 0.000E+00

     total cpu time spent up to now is        7.0 secs

     WARNING: integrated charge=    27.99943491, expected=    28.00000000

     total energy              =    -448.42095014 Ry
     estimated scf accuracy    <      58.77481462 Ry

     iteration #  3     ecut=   124.00 Ry     beta= 0.70
     Davidson diagonalization with overlap
     ethr =  1.00E-02,  avg # of iterations =  3.0

     negative rho (up, down):  3.073E-04 0.000E+00

     total cpu time spent up to now is        9.2 secs

     WARNING: integrated charge=    27.99990703, expected=    28.00000000

     total energy              =    -448.44886932 Ry
     estimated scf accuracy    <      14.77117263 Ry

     iteration #  4     ecut=   124.00 Ry     beta= 0.70
     Davidson diagonalization with overlap
     ethr =  1.00E-02,  avg # of iterations =  2.1

     negative rho (up, down):  2.942E-04 0.000E+00

     total cpu time spent up to now is       11.0 secs

     WARNING: integrated charge=    27.99991177, expected=    28.00000000

     total energy              =    -449.00220366 Ry
     estimated scf accuracy    <       3.67273289 Ry

     iteration #  5     ecut=   124.00 Ry     beta= 0.70
     Davidson diagonalization with overlap
     ethr =  1.00E-02,  avg # of iterations =  1.0

     negative rho (up, down):  4.290E-04 0.000E+00

     total cpu time spent up to now is       12.5 secs

     WARNING: integrated charge=    27.99998318, expected=    28.00000000

     total energy              =    -448.62025233 Ry
     estimated scf accuracy    <       3.41830616 Ry

     iteration #  6     ecut=   124.00 Ry     beta= 0.70
     Davidson diagonalization with overlap
     ethr =  1.00E-02,  avg # of iterations =  1.1

     negative rho (up, down):  4.328E-04 0.000E+00

     total cpu time spent up to now is       14.1 secs

     WARNING: integrated charge=    27.99998265, expected=    28.00000000

     total energy              =    -448.73306364 Ry
     estimated scf accuracy    <       0.90827490 Ry

     iteration #  7     ecut=   124.00 Ry     beta= 0.70
     Davidson diagonalization with overlap
     ethr =  3.24E-03,  avg # of iterations =  1.1

     negative rho (up, down):  4.444E-04 0.000E+00

     total cpu time spent up to now is       15.7 secs

     WARNING: integrated charge=    27.99998303, expected=    28.00000000

     total energy              =    -448.73369314 Ry
     estimated scf accuracy    <       0.95179197 Ry

     iteration #  8     ecut=   124.00 Ry     beta= 0.70
     Davidson diagonalization with overlap
     ethr =  3.24E-03,  avg # of iterations =  1.0

     negative rho (up, down):  1.002E-03 0.000E+00

     total cpu time spent up to now is       17.2 secs

     WARNING: integrated charge=    27.99991584, expected=    28.00000000

     total energy              =    -448.51849606 Ry
     estimated scf accuracy    <       0.83205776 Ry

     iteration #  9     ecut=   124.00 Ry     beta= 0.70
     Davidson diagonalization with overlap
     ethr =  2.97E-03,  avg # of iterations =  1.9

     negative rho (up, down):  1.125E-03 0.000E+00

     total cpu time spent up to now is       18.9 secs

     WARNING: integrated charge=    27.99996308, expected=    28.00000000

     total energy              =    -448.50288608 Ry
     estimated scf accuracy    <       0.16189472 Ry

     iteration # 10     ecut=   124.00 Ry     beta= 0.70
     Davidson diagonalization with overlap
     ethr =  5.78E-04,  avg # of iterations =  5.3

     negative rho (up, down):  9.984E-04 0.000E+00

     total cpu time spent up to now is       21.2 secs

     WARNING: integrated charge=    27.99994831, expected=    28.00000000

     total energy              =    -448.56036827 Ry
     estimated scf accuracy    <       1.75573249 Ry

     iteration # 11     ecut=   124.00 Ry     beta= 0.70
     Davidson diagonalization with overlap
     ethr =  5.78E-04,  avg # of iterations =  2.8

     negative rho (up, down):  8.743E-04 0.000E+00

     total cpu time spent up to now is       22.9 secs

     WARNING: integrated charge=    28.00002257, expected=    28.00000000

     total energy              =    -448.63031207 Ry
     estimated scf accuracy    <       0.39116763 Ry

     iteration # 12     ecut=   124.00 Ry     beta= 0.70
     Davidson diagonalization with overlap
     ethr =  5.78E-04,  avg # of iterations =  1.2

     negative rho (up, down):  6.639E-04 0.000E+00

     total cpu time spent up to now is       24.5 secs

     WARNING: integrated charge=    27.99999027, expected=    28.00000000

     total energy              =    -448.42806578 Ry
     estimated scf accuracy    <       1.16861771 Ry

     iteration # 13     ecut=   124.00 Ry     beta= 0.70
     Davidson diagonalization with overlap
     ethr =  5.78E-04,  avg # of iterations =  4.0

     negative rho (up, down):  7.201E-04 0.000E+00

     total cpu time spent up to now is       26.5 secs

     WARNING: integrated charge=    27.99999227, expected=    28.00000000

     total energy              =    -448.59297504 Ry
     estimated scf accuracy    <       0.40147063 Ry

     iteration # 14     ecut=   124.00 Ry     beta= 0.70
     Davidson diagonalization with overlap
     ethr =  5.78E-04,  avg # of iterations =  1.0

     negative rho (up, down):  8.947E-04 0.000E+00

     total cpu time spent up to now is       28.0 secs

     total energy              =    -448.55712954 Ry
     estimated scf accuracy    <       0.25120597 Ry

     iteration # 15     ecut=   124.00 Ry     beta= 0.70
     Davidson diagonalization with overlap
     ethr =  5.78E-04,  avg # of iterations =  1.8

     negative rho (up, down):  9.496E-04 0.000E+00

     total cpu time spent up to now is       29.7 secs

     total energy              =    -448.56733579 Ry
     estimated scf accuracy    <       0.01063886 Ry

     iteration # 16     ecut=   124.00 Ry     beta= 0.70
     Davidson diagonalization with overlap
     ethr =  3.80E-05,  avg # of iterations =  2.8

     negative rho (up, down):  9.800E-04 0.000E+00

     total cpu time spent up to now is       31.6 secs

     total energy              =    -448.56872955 Ry
     estimated scf accuracy    <       0.00707641 Ry

     iteration # 17     ecut=   124.00 Ry     beta= 0.70
     Davidson diagonalization with overlap
     ethr =  2.53E-05,  avg # of iterations =  1.7

     negative rho (up, down):  1.029E-03 0.000E+00

     total cpu time spent up to now is       33.2 secs

     total energy              =    -448.56887773 Ry
     estimated scf accuracy    <       0.00212453 Ry

     iteration # 18     ecut=   124.00 Ry     beta= 0.70
     Davidson diagonalization with overlap
     ethr =  7.59E-06,  avg # of iterations =  4.3

     negative rho (up, down):  1.012E-03 0.000E+00

     total cpu time spent up to now is       35.4 secs

     total energy              =    -448.57010665 Ry
     estimated scf accuracy    <       0.01958100 Ry

     iteration # 19     ecut=   124.00 Ry     beta= 0.70
     Davidson diagonalization with overlap
     ethr =  7.59E-06,  avg # of iterations =  1.0

     negative rho (up, down):  9.619E-04 0.000E+00

     total cpu time spent up to now is       36.9 secs

     total energy              =    -448.56791229 Ry
     estimated scf accuracy    <       0.01314195 Ry

     iteration # 20     ecut=   124.00 Ry     beta= 0.70
     Davidson diagonalization with overlap
     ethr =  7.59E-06,  avg # of iterations =  3.8

     negative rho (up, down):  9.702E-04 0.000E+00

     total cpu time spent up to now is       39.0 secs

     total energy              =    -448.56898086 Ry
     estimated scf accuracy    <       0.00002065 Ry

     iteration # 21     ecut=   124.00 Ry     beta= 0.70
     Davidson diagonalization with overlap
     ethr =  7.38E-08,  avg # of iterations =  4.9

     negative rho (up, down):  9.637E-04 0.000E+00

     total cpu time spent up to now is       41.3 secs

     total energy              =    -448.56894446 Ry
     estimated scf accuracy    <       0.00070067 Ry

     iteration # 22     ecut=   124.00 Ry     beta= 0.70
     Davidson diagonalization with overlap
     ethr =  7.38E-08,  avg # of iterations =  4.4

     negative rho (up, down):  9.627E-04 0.000E+00

     total cpu time spent up to now is       43.5 secs

     total energy              =    -448.56899595 Ry
     estimated scf accuracy    <       0.00001563 Ry

     iteration # 23     ecut=   124.00 Ry     beta= 0.70
     Davidson diagonalization with overlap
     ethr =  5.58E-08,  avg # of iterations =  1.1

     negative rho (up, down):  9.624E-04 0.000E+00

     total cpu time spent up to now is       45.1 secs

     total energy              =    -448.56899689 Ry
     estimated scf accuracy    <       0.00000028 Ry

     iteration # 24     ecut=   124.00 Ry     beta= 0.70
     Davidson diagonalization with overlap
     ethr =  1.00E-09,  avg # of iterations =  4.5

     negative rho (up, down):  9.623E-04 0.000E+00

     total cpu time spent up to now is       47.4 secs

     total energy              =    -448.56899708 Ry
     estimated scf accuracy    <       0.00000013 Ry

     iteration # 25     ecut=   124.00 Ry     beta= 0.70
     Davidson diagonalization with overlap
     ethr =  4.68E-10,  avg # of iterations =  1.5

     negative rho (up, down):  9.624E-04 0.000E+00

     total cpu time spent up to now is       49.0 secs

     total energy              =    -448.56899708 Ry
     estimated scf accuracy    <       0.00000003 Ry

     iteration # 26     ecut=   124.00 Ry     beta= 0.70
     Davidson diagonalization with overlap
     ethr =  1.02E-10,  avg # of iterations =  2.5

     negative rho (up, down):  9.625E-04 0.000E+00

     total cpu time spent up to now is       50.8 secs

     End of self-consistent calculation

     Number of k-points >= 100: set verbosity='high' to print the bands.

     the Fermi energy is    19.9235 ev

!    total energy              =    -448.56899708 Ry
     estimated scf accuracy    <          1.3E-09 Ry
     smearing contrib. (-TS)   =       0.00002480 Ry
     internal energy E=F+TS    =    -448.56902189 Ry

     The total energy is F=E-TS. E is the sum of the following terms:
     one-electron contribution =    -137.32050076 Ry
     hartree contribution      =      86.96587197 Ry
     xc contribution           =     -53.08481641 Ry
     ewald contribution        =    -268.97357322 Ry
     one-center paw contrib.   =     -76.15600347 Ry

     convergence has been achieved in  26 iterations

     negative rho (up, down):  9.625E-04 0.000E+00

     Forces acting on atoms (cartesian axes, Ry/au):

     atom    1 type  1   force =     0.00000000    0.00000000    0.00000000
     atom    2 type  2   force =     0.00000000    0.00000000    0.00000000

     Total force =     0.000000     Total SCF correction =     0.000000


     Computing stress (Cartesian axis) and pressure


     negative rho (up, down):  9.625E-04 0.000E+00
          total   stress  (Ry/bohr**3)                   (kbar)     P=      294.87
   0.00200451   0.00000000   0.00000000          294.87        0.00        0.00
   0.00000000   0.00200451   0.00000000            0.00      294.87        0.00
   0.00000000   0.00000000   0.00200451            0.00        0.00      294.87


     Writing all to output data dir ./TiFe.save/ :
     XML data file, charge density, pseudopotentials, collected wavefunctions

     init_run     :      1.85s CPU      1.89s WALL (       1 calls)
     electrons    :     47.01s CPU     48.75s WALL (       1 calls)
     forces       :      0.27s CPU      0.29s WALL (       1 calls)
     stress       :      1.54s CPU      1.59s WALL (       1 calls)

     Called by init_run:
     wfcinit      :      0.66s CPU      0.67s WALL (       1 calls)
     potinit      :      0.37s CPU      0.38s WALL (       1 calls)
     hinit0       :      0.65s CPU      0.65s WALL (       1 calls)

     Called by electrons:
     c_bands      :     33.37s CPU     34.18s WALL (      26 calls)
     sum_band     :      8.52s CPU      8.97s WALL (      26 calls)
     v_of_rho     :      0.53s CPU      0.57s WALL (      27 calls)
     newd         :      3.16s CPU      3.46s WALL (      27 calls)
     PAW_pot      :      1.50s CPU      1.63s WALL (      27 calls)
     mix_rho      :      0.06s CPU      0.07s WALL (      26 calls)

     Called by c_bands:
     init_us_2    :      0.87s CPU      0.90s WALL (    6600 calls)
     cegterg      :     31.79s CPU     32.55s WALL (    3120 calls)

     Called by *egterg:
     cdiaghg      :      3.61s CPU      3.70s WALL (   11295 calls)
     h_psi        :     24.95s CPU     25.56s WALL (   11415 calls)
     s_psi        :      0.58s CPU      0.60s WALL (   11415 calls)
     g_psi        :      0.13s CPU      0.14s WALL (    8175 calls)

     Called by h_psi:
     h_psi:calbec :      0.93s CPU      0.95s WALL (   11415 calls)
     vloc_psi     :     23.32s CPU     23.90s WALL (   11415 calls)
     add_vuspsi   :      0.59s CPU      0.61s WALL (   11415 calls)

     General routines
     calbec       :      1.44s CPU      1.47s WALL (   16575 calls)
     fft          :      0.84s CPU      0.91s WALL (     374 calls)
     ffts         :      0.29s CPU      0.29s WALL (      53 calls)
     fftw         :     22.58s CPU     23.11s WALL (  338866 calls)
     interpolate  :      0.30s CPU      0.32s WALL (      27 calls)

     Parallel routines

     PWSCF        :     51.07s CPU     53.27s WALL


   This run was terminated on:  14:57:54  28Oct2025            

=------------------------------------------------------------------------------=
   JOB DONE.
=------------------------------------------------------------------------------=
