
     Program PWSCF v.7.4 starts on 28Oct2025 at 15:12:53 

     This program is part of the open-source Quantum ESPRESSO suite
     for quantum simulation of materials; please cite
         "P. Giannozzi et al., J. Phys.:Condens. Matter 21 395502 (2009);
         "P. Giannozzi et al., J. Phys.:Condens. Matter 29 465901 (2017);
         "P. Giannozzi et al., J. Chem. Phys. 152 154105 (2020);
          URL http://www.quantum-espresso.org", 
     in publications or presentations arising from this work. More details at
     http://www.quantum-espresso.org/quote

     Parallel version (MPI & OpenMP), running on       8 processor cores
     Number of MPI processes:                 8
     Threads/MPI process:                     1

     MPI processes distributed on     1 nodes
     226513 MiB available memory on the printing compute node when the environment starts

     Reading input from TiFe_17.in

     Current dimensions of program PWSCF are:
     Max number of different atomic species (ntypx) = 10
     Max number of k-points (npk) =  40000
     Max angular momentum in pseudopotentials (lmaxx) =  4
     file Fe.pbe-spn-kjpaw_psl.0.2.1.UPF: wavefunction(s)  3D renormalized

     IMPORTANT: XC functional enforced from input :
     Exchange-correlation= PBE
                           (   1   4   3   4   0   0   0)
     Any further DFT definition will be discarded
     Please, verify this is what you really want

     Message from routine setup:
     using ibrav=0 with symmetry is DISCOURAGED, use correct ibrav instead

     R & G space division:  proc/nbgrp/npool/nimage =       8
     Subspace diagonalization in iterative solution of the eigenvalue problem:
     a serial algorithm will be used


     Parallelization info
     --------------------
     sticks:   dense  smooth     PW     G-vecs:    dense   smooth      PW
     Min         550     157     46                27495     4175     672
     Max         551     158     48                27498     4176     673
     Sum        4405    1257    373               219967    33401    5377

     Using Slab Decomposition



     bravais-lattice index     =            0
     lattice parameter (alat)  =       5.6478  a.u.
     unit-cell volume          =     180.1502 (a.u.)^3
     number of atoms/cell      =            2
     number of atomic types    =            2
     number of electrons       =        28.00
     number of Kohn-Sham states=           18
     kinetic-energy cutoff     =     124.0000  Ry
     charge density cutoff     =    1736.0000  Ry
     scf convergence threshold =      1.0E-08
     mixing beta               =       0.7000
     number of iterations used =            8  plain     mixing
     Exchange-correlation= PBE
                           (   1   4   3   4   0   0   0)

     celldm(1)=   5.647787  celldm(2)=   0.000000  celldm(3)=   0.000000
     celldm(4)=   0.000000  celldm(5)=   0.000000  celldm(6)=   0.000000

     crystal axes: (cart. coord. in units of alat)
               a(1) = (   1.000000   0.000000   0.000000 )  
               a(2) = (   0.000000   1.000000   0.000000 )  
               a(3) = (   0.000000   0.000000   1.000000 )  

     reciprocal axes: (cart. coord. in units 2 pi/alat)
               b(1) = (  1.000000  0.000000  0.000000 )  
               b(2) = (  0.000000  1.000000  0.000000 )  
               b(3) = (  0.000000  0.000000  1.000000 )  


     PseudoPot. # 1 for Fe read from file:
     ../../pseudos/Fe.pbe-spn-kjpaw_psl.0.2.1.UPF
     MD5 check sum: e86618425769142926afa95317d90200
     Pseudo is Projector augmented-wave + core cor, Zval = 16.0
     Generated using "atomic" code by A. Dal Corso  v.5.0.99 svn rev. 10869
     Shape of augmentation charge: PSQ
     Using radial grid of 1191 points,  6 beta functions with: 
                l(1) =   0
                l(2) =   0
                l(3) =   1
                l(4) =   1
                l(5) =   2
                l(6) =   2
     Q(r) pseudized with 0 coefficients 


     PseudoPot. # 2 for Ti read from file:
     ../../pseudos/ti_pbe_v1.4.uspp.F.UPF
     MD5 check sum: 88a00a6731bd790ddea75d31a80cb452
     Pseudo is Ultrasoft + core correction, Zval = 12.0
     Generated by new atomic code, or converted to UPF format
     Using radial grid of  851 points,  6 beta functions with: 
                l(1) =   0
                l(2) =   0
                l(3) =   1
                l(4) =   1
                l(5) =   2
                l(6) =   2
     Q(r) pseudized with  6 coefficients,  rinner =    1.000   1.000   1.000
                                                       1.000   1.000

     atomic species   valence    mass     pseudopotential
     Fe               16.00    55.84500     Fe( 1.00)
     Ti               12.00    47.86700     Ti( 1.00)

     48 Sym. Ops., with inversion, found



   Cartesian axes

     site n.     atom                  positions (alat units)
         1        Fe     tau(   1) = (   0.5000000   0.5000000   0.5000000  )
         2        Ti     tau(   2) = (   0.0000000   0.0000000   0.0000000  )

     number of k points=   120  Marzari-Vanderbilt smearing, width (Ry)=  0.0050

     Number of k-points >= 100: set verbosity='high' to print them.

     Dense  grid:   219967 G-vectors     FFT dimensions: (  75,  75,  75)

     Smooth grid:    33401 G-vectors     FFT dimensions: (  45,  45,  45)

     Estimated max dynamical RAM per process >     124.70 MB

     Estimated total dynamical RAM >     997.63 MB

     Check: negative core charge=   -0.000001

     Initial potential from superposition of free atoms

     starting charge      26.9995, renormalised to      28.0000

     negative rho (up, down):  1.369E-03 0.000E+00
     Starting wfcs are   23 randomized atomic wfcs
     Checking if some PAW data can be deallocated... 

     total cpu time spent up to now is        1.9 secs

     per-process dynamical memory:   145.8 Mb

     Self-consistent Calculation

     iteration #  1     ecut=   124.00 Ry     beta= 0.70
     Davidson diagonalization with overlap
     ethr =  1.00E-02,  avg # of iterations =  2.2

     negative rho (up, down):  1.059E-04 0.000E+00

     total cpu time spent up to now is        4.7 secs

     total energy              =    -433.91600315 Ry
     estimated scf accuracy    <      18.64208164 Ry

     iteration #  2     ecut=   124.00 Ry     beta= 0.70
     Davidson diagonalization with overlap
     ethr =  1.00E-02,  avg # of iterations =  6.2

     negative rho (up, down):  1.782E-05 0.000E+00

     total cpu time spent up to now is        9.3 secs

     total energy              =    -448.33286228 Ry
     estimated scf accuracy    <      70.62274021 Ry

     iteration #  3     ecut=   124.00 Ry     beta= 0.70
     Davidson diagonalization with overlap
     ethr =  1.00E-02,  avg # of iterations =  3.2

     negative rho (up, down):  1.753E-04 0.000E+00

     total cpu time spent up to now is       12.6 secs

     total energy              =    -448.76233690 Ry
     estimated scf accuracy    <      17.67798975 Ry

     iteration #  4     ecut=   124.00 Ry     beta= 0.70
     Davidson diagonalization with overlap
     ethr =  1.00E-02,  avg # of iterations =  2.1

     negative rho (up, down):  2.549E-04 0.000E+00

     total cpu time spent up to now is       15.2 secs

     total energy              =    -449.15093214 Ry
     estimated scf accuracy    <       5.64476331 Ry

     iteration #  5     ecut=   124.00 Ry     beta= 0.70
     Davidson diagonalization with overlap
     ethr =  1.00E-02,  avg # of iterations =  1.0

     negative rho (up, down):  5.372E-04 0.000E+00

     total cpu time spent up to now is       17.5 secs

     total energy              =    -448.86425274 Ry
     estimated scf accuracy    <       4.73045133 Ry

     iteration #  6     ecut=   124.00 Ry     beta= 0.70
     Davidson diagonalization with overlap
     ethr =  1.00E-02,  avg # of iterations =  1.1

     negative rho (up, down):  9.559E-04 0.000E+00

     total cpu time spent up to now is       19.8 secs

     total energy              =    -448.15499975 Ry
     estimated scf accuracy    <       3.86285830 Ry

     iteration #  7     ecut=   124.00 Ry     beta= 0.70
     Davidson diagonalization with overlap
     ethr =  1.00E-02,  avg # of iterations =  2.1

     negative rho (up, down):  1.097E-03 0.000E+00

     total cpu time spent up to now is       22.2 secs

     total energy              =    -448.66063261 Ry
     estimated scf accuracy    <       0.51563064 Ry

     iteration #  8     ecut=   124.00 Ry     beta= 0.70
     Davidson diagonalization with overlap
     ethr =  1.84E-03,  avg # of iterations =  4.8

     negative rho (up, down):  5.289E-04 0.000E+00

     total cpu time spent up to now is       25.2 secs

     total energy              =    -447.75559853 Ry
     estimated scf accuracy    <       5.99867310 Ry

     iteration #  9     ecut=   124.00 Ry     beta= 0.70
     Davidson diagonalization with overlap
     ethr =  1.84E-03,  avg # of iterations =  4.5

     negative rho (up, down):  5.641E-04 0.000E+00

     total cpu time spent up to now is       28.3 secs

     total energy              =    -448.53763767 Ry
     estimated scf accuracy    <       2.88346561 Ry

     iteration # 10     ecut=   124.00 Ry     beta= 0.70
     Davidson diagonalization with overlap
     ethr =  1.84E-03,  avg # of iterations =  1.8

     negative rho (up, down):  8.763E-04 0.000E+00

     total cpu time spent up to now is       30.7 secs

     total energy              =    -448.52587265 Ry
     estimated scf accuracy    <       0.45017422 Ry

     iteration # 11     ecut=   124.00 Ry     beta= 0.70
     Davidson diagonalization with overlap
     ethr =  1.61E-03,  avg # of iterations =  3.1

     negative rho (up, down):  5.766E-04 0.000E+00

     total cpu time spent up to now is       33.2 secs

     total energy              =    -448.58911171 Ry
     estimated scf accuracy    <       0.25018655 Ry

     iteration # 12     ecut=   124.00 Ry     beta= 0.70
     Davidson diagonalization with overlap
     ethr =  8.94E-04,  avg # of iterations =  1.7

     negative rho (up, down):  4.311E-04 0.000E+00

     total cpu time spent up to now is       35.5 secs

     total energy              =    -448.64638423 Ry
     estimated scf accuracy    <       0.10224100 Ry

     iteration # 13     ecut=   124.00 Ry     beta= 0.70
     Davidson diagonalization with overlap
     ethr =  3.65E-04,  avg # of iterations =  3.8

     negative rho (up, down):  2.558E-04 0.000E+00

     total cpu time spent up to now is       38.4 secs

     total energy              =    -448.83552767 Ry
     estimated scf accuracy    <       1.10258392 Ry

     iteration # 14     ecut=   124.00 Ry     beta= 0.70
     Davidson diagonalization with overlap
     ethr =  3.65E-04,  avg # of iterations =  2.0

     negative rho (up, down):  1.081E-04 0.000E+00

     total cpu time spent up to now is       40.9 secs

     total energy              =    -449.05805425 Ry
     estimated scf accuracy    <       1.83383708 Ry

     iteration # 15     ecut=   124.00 Ry     beta= 0.70
     Davidson diagonalization with overlap
     ethr =  3.65E-04,  avg # of iterations =  3.4

     negative rho (up, down):  1.618E-04 0.000E+00

     total cpu time spent up to now is       43.8 secs

     total energy              =    -448.94770767 Ry
     estimated scf accuracy    <       3.03144473 Ry

     iteration # 16     ecut=   124.00 Ry     beta= 0.70
     Davidson diagonalization with overlap
     ethr =  3.65E-04,  avg # of iterations =  1.1

     negative rho (up, down):  5.183E-04 0.000E+00

     total cpu time spent up to now is       46.1 secs

     total energy              =    -448.67051095 Ry
     estimated scf accuracy    <       2.50830252 Ry

     iteration # 17     ecut=   124.00 Ry     beta= 0.70
     Davidson diagonalization with overlap
     ethr =  3.65E-04,  avg # of iterations =  2.5

     negative rho (up, down):  1.352E-03 0.000E+00

     total cpu time spent up to now is       49.0 secs

     total energy              =    -448.39488140 Ry
     estimated scf accuracy    <       1.10904039 Ry

     iteration # 18     ecut=   124.00 Ry     beta= 0.70
     Davidson diagonalization with overlap
     ethr =  3.65E-04,  avg # of iterations =  5.4

     negative rho (up, down):  1.046E-03 0.000E+00

     total cpu time spent up to now is       52.8 secs

     total energy              =    -448.57532336 Ry
     estimated scf accuracy    <       1.68417295 Ry

     iteration # 19     ecut=   124.00 Ry     beta= 0.70
     Davidson diagonalization with overlap
     ethr =  3.65E-04,  avg # of iterations =  3.2

     negative rho (up, down):  9.501E-04 0.000E+00

     total cpu time spent up to now is       55.4 secs

     total energy              =    -448.58548737 Ry
     estimated scf accuracy    <       0.39323383 Ry

     iteration # 20     ecut=   124.00 Ry     beta= 0.70
     Davidson diagonalization with overlap
     ethr =  3.65E-04,  avg # of iterations =  1.3

     negative rho (up, down):  7.140E-04 0.000E+00

     total cpu time spent up to now is       57.7 secs

     total energy              =    -448.55283483 Ry
     estimated scf accuracy    <       0.13945279 Ry

     iteration # 21     ecut=   124.00 Ry     beta= 0.70
     Davidson diagonalization with overlap
     ethr =  3.65E-04,  avg # of iterations =  3.3

     negative rho (up, down):  9.075E-04 0.000E+00

     total cpu time spent up to now is       60.5 secs

     total energy              =    -448.56763381 Ry
     estimated scf accuracy    <       0.38511543 Ry

     iteration # 22     ecut=   124.00 Ry     beta= 0.70
     Davidson diagonalization with overlap
     ethr =  3.65E-04,  avg # of iterations =  1.6

     negative rho (up, down):  1.011E-03 0.000E+00

     total cpu time spent up to now is       62.8 secs

     total energy              =    -448.58266142 Ry
     estimated scf accuracy    <       0.00876450 Ry

     iteration # 23     ecut=   124.00 Ry     beta= 0.70
     Davidson diagonalization with overlap
     ethr =  3.13E-05,  avg # of iterations =  4.3

     negative rho (up, down):  9.570E-04 0.000E+00

     total cpu time spent up to now is       65.9 secs

     total energy              =    -448.58491352 Ry
     estimated scf accuracy    <       0.00477842 Ry

     iteration # 24     ecut=   124.00 Ry     beta= 0.70
     Davidson diagonalization with overlap
     ethr =  1.71E-05,  avg # of iterations =  1.9

     negative rho (up, down):  9.433E-04 0.000E+00

     total cpu time spent up to now is       68.3 secs

     total energy              =    -448.58547883 Ry
     estimated scf accuracy    <       0.00014024 Ry

     iteration # 25     ecut=   124.00 Ry     beta= 0.70
     Davidson diagonalization with overlap
     ethr =  5.01E-07,  avg # of iterations =  4.9

     negative rho (up, down):  9.537E-04 0.000E+00

     total cpu time spent up to now is       71.6 secs

     total energy              =    -448.58552698 Ry
     estimated scf accuracy    <       0.00154678 Ry

     iteration # 26     ecut=   124.00 Ry     beta= 0.70
     Davidson diagonalization with overlap
     ethr =  5.01E-07,  avg # of iterations =  1.5

     negative rho (up, down):  9.746E-04 0.000E+00

     total cpu time spent up to now is       73.9 secs

     total energy              =    -448.58544203 Ry
     estimated scf accuracy    <       0.00074446 Ry

     iteration # 27     ecut=   124.00 Ry     beta= 0.70
     Davidson diagonalization with overlap
     ethr =  5.01E-07,  avg # of iterations =  3.5

     negative rho (up, down):  9.701E-04 0.000E+00

     total cpu time spent up to now is       76.7 secs

     total energy              =    -448.58549084 Ry
     estimated scf accuracy    <       0.00001356 Ry

     iteration # 28     ecut=   124.00 Ry     beta= 0.70
     Davidson diagonalization with overlap
     ethr =  4.84E-08,  avg # of iterations =  2.5

     negative rho (up, down):  9.690E-04 0.000E+00

     total cpu time spent up to now is       79.2 secs

     total energy              =    -448.58549505 Ry
     estimated scf accuracy    <       0.00005523 Ry

     iteration # 29     ecut=   124.00 Ry     beta= 0.70
     Davidson diagonalization with overlap
     ethr =  4.84E-08,  avg # of iterations =  1.4

     negative rho (up, down):  9.697E-04 0.000E+00

     total cpu time spent up to now is       81.5 secs

     total energy              =    -448.58549172 Ry
     estimated scf accuracy    <       0.00007980 Ry

     iteration # 30     ecut=   124.00 Ry     beta= 0.70
     Davidson diagonalization with overlap
     ethr =  4.84E-08,  avg # of iterations =  1.0

     negative rho (up, down):  9.703E-04 0.000E+00

     total cpu time spent up to now is       83.8 secs

     total energy              =    -448.58548765 Ry
     estimated scf accuracy    <       0.00003874 Ry

     iteration # 31     ecut=   124.00 Ry     beta= 0.70
     Davidson diagonalization with overlap
     ethr =  4.84E-08,  avg # of iterations =  2.1

     negative rho (up, down):  9.711E-04 0.000E+00

     total cpu time spent up to now is       86.3 secs

     total energy              =    -448.58548950 Ry
     estimated scf accuracy    <       0.00000069 Ry

     iteration # 32     ecut=   124.00 Ry     beta= 0.70
     Davidson diagonalization with overlap
     ethr =  2.48E-09,  avg # of iterations =  4.5

     negative rho (up, down):  9.710E-04 0.000E+00

     total cpu time spent up to now is       89.3 secs

     total energy              =    -448.58548978 Ry
     estimated scf accuracy    <       0.00000080 Ry

     iteration # 33     ecut=   124.00 Ry     beta= 0.70
     Davidson diagonalization with overlap
     ethr =  2.48E-09,  avg # of iterations =  1.0

     negative rho (up, down):  9.706E-04 0.000E+00

     total cpu time spent up to now is       91.6 secs

     total energy              =    -448.58548973 Ry
     estimated scf accuracy    <       0.00000019 Ry

     iteration # 34     ecut=   124.00 Ry     beta= 0.70
     Davidson diagonalization with overlap
     ethr =  6.92E-10,  avg # of iterations =  3.0

     negative rho (up, down):  9.707E-04 0.000E+00

     total cpu time spent up to now is       94.2 secs

     total energy              =    -448.58548977 Ry
     estimated scf accuracy    <       0.00000029 Ry

     iteration # 35     ecut=   124.00 Ry     beta= 0.70
     Davidson diagonalization with overlap
     ethr =  6.92E-10,  avg # of iterations =  1.2

     negative rho (up, down):  9.708E-04 0.000E+00

     total cpu time spent up to now is       96.5 secs

     End of self-consistent calculation

     Number of k-points >= 100: set verbosity='high' to print the bands.

     the Fermi energy is    16.6834 ev

!    total energy              =    -448.58548978 Ry
     estimated scf accuracy    <          3.5E-09 Ry
     smearing contrib. (-TS)   =      -0.00002867 Ry
     internal energy E=F+TS    =    -448.58546112 Ry

     The total energy is F=E-TS. E is the sum of the following terms:
     one-electron contribution =    -158.07101807 Ry
     hartree contribution      =      93.91470188 Ry
     xc contribution           =     -52.80253263 Ry
     ewald contribution        =    -255.47395600 Ry
     one-center paw contrib.   =     -76.15265629 Ry

     convergence has been achieved in  35 iterations

     negative rho (up, down):  9.708E-04 0.000E+00

     Forces acting on atoms (cartesian axes, Ry/au):

     atom    1 type  1   force =     0.00000000    0.00000000    0.00000000
     atom    2 type  2   force =     0.00000000    0.00000000    0.00000000

     Total force =     0.000000     Total SCF correction =     0.000000


     Computing stress (Cartesian axis) and pressure


     negative rho (up, down):  9.708E-04 0.000E+00
          total   stress  (Ry/bohr**3)                   (kbar)     P=      -63.91
  -0.00043446   0.00000000   0.00000000          -63.91        0.00        0.00
   0.00000000  -0.00043446   0.00000000            0.00      -63.91        0.00
   0.00000000   0.00000000  -0.00043446            0.00        0.00      -63.91


     Writing all to output data dir ./TiFe.save/ :
     XML data file, charge density, pseudopotentials, collected wavefunctions

     init_run     :      1.68s CPU      1.73s WALL (       1 calls)
     electrons    :     92.09s CPU     94.64s WALL (       1 calls)
     forces       :      0.32s CPU      0.34s WALL (       1 calls)
     stress       :      1.80s CPU      1.85s WALL (       1 calls)

     Called by init_run:
     wfcinit      :      1.02s CPU      1.03s WALL (       1 calls)
     potinit      :      0.20s CPU      0.21s WALL (       1 calls)
     hinit0       :      0.26s CPU      0.27s WALL (       1 calls)

     Called by electrons:
     c_bands      :     67.88s CPU     69.03s WALL (      35 calls)
     sum_band     :     16.60s CPU     17.36s WALL (      35 calls)
     v_of_rho     :      0.84s CPU      0.92s WALL (      36 calls)
     newd         :      4.80s CPU      5.31s WALL (      36 calls)
     PAW_pot      :      1.97s CPU      2.01s WALL (      36 calls)
     mix_rho      :      0.10s CPU      0.12s WALL (      35 calls)

     Called by c_bands:
     init_us_2    :      1.36s CPU      1.39s WALL (    8760 calls)
     cegterg      :     65.32s CPU     66.41s WALL (    4200 calls)

     Called by *egterg:
     cdiaghg      :      4.92s CPU      5.01s WALL (   15480 calls)
     h_psi        :     55.20s CPU     56.14s WALL (   15600 calls)
     s_psi        :      0.86s CPU      0.87s WALL (   15600 calls)
     g_psi        :      0.21s CPU      0.21s WALL (   11280 calls)

     Called by h_psi:
     h_psi:calbec :      1.48s CPU      1.50s WALL (   15600 calls)
     vloc_psi     :     52.68s CPU     53.58s WALL (   15600 calls)
     add_vuspsi   :      0.88s CPU      0.90s WALL (   15600 calls)

     General routines
     calbec       :      2.12s CPU      2.16s WALL (   21840 calls)
     fft          :      0.68s CPU      0.80s WALL (     491 calls)
     ffts         :      0.12s CPU      0.13s WALL (      71 calls)
     fftw         :     53.96s CPU     54.86s WALL (  449462 calls)
     interpolate  :      0.16s CPU      0.17s WALL (      36 calls)

     Parallel routines

     PWSCF        :     96.29s CPU     99.20s WALL


   This run was terminated on:  15:14:32  28Oct2025            

=------------------------------------------------------------------------------=
   JOB DONE.
=------------------------------------------------------------------------------=
