
     Program PWSCF v.7.4 starts on 28Oct2025 at 15:22: 5 

     This program is part of the open-source Quantum ESPRESSO suite
     for quantum simulation of materials; please cite
         "P. Giannozzi et al., J. Phys.:Condens. Matter 21 395502 (2009);
         "P. Giannozzi et al., J. Phys.:Condens. Matter 29 465901 (2017);
         "P. Giannozzi et al., J. Chem. Phys. 152 154105 (2020);
          URL http://www.quantum-espresso.org", 
     in publications or presentations arising from this work. More details at
     http://www.quantum-espresso.org/quote

     Parallel version (MPI & OpenMP), running on       8 processor cores
     Number of MPI processes:                 8
     Threads/MPI process:                     1

     MPI processes distributed on     1 nodes
     226449 MiB available memory on the printing compute node when the environment starts

     Reading input from TiFe_23.in

     Current dimensions of program PWSCF are:
     Max number of different atomic species (ntypx) = 10
     Max number of k-points (npk) =  40000
     Max angular momentum in pseudopotentials (lmaxx) =  4
     file Fe.pbe-spn-kjpaw_psl.0.2.1.UPF: wavefunction(s)  3D renormalized

     IMPORTANT: XC functional enforced from input :
     Exchange-correlation= PBE
                           (   1   4   3   4   0   0   0)
     Any further DFT definition will be discarded
     Please, verify this is what you really want

     Message from routine setup:
     using ibrav=0 with symmetry is DISCOURAGED, use correct ibrav instead

     R & G space division:  proc/nbgrp/npool/nimage =       8
     Subspace diagonalization in iterative solution of the eigenvalue problem:
     a serial algorithm will be used


     Parallelization info
     --------------------
     sticks:   dense  smooth     PW     G-vecs:    dense   smooth      PW
     Min         572     164     47                29196     4466     695
     Max         573     165     48                29199     4467     699
     Sum        4581    1313    377               233577    35729    5575

     Using Slab Decomposition



     bravais-lattice index     =            0
     lattice parameter (alat)  =       5.7612  a.u.
     unit-cell volume          =     191.2195 (a.u.)^3
     number of atoms/cell      =            2
     number of atomic types    =            2
     number of electrons       =        28.00
     number of Kohn-Sham states=           18
     kinetic-energy cutoff     =     124.0000  Ry
     charge density cutoff     =    1736.0000  Ry
     scf convergence threshold =      1.0E-08
     mixing beta               =       0.7000
     number of iterations used =            8  plain     mixing
     Exchange-correlation= PBE
                           (   1   4   3   4   0   0   0)

     celldm(1)=   5.761170  celldm(2)=   0.000000  celldm(3)=   0.000000
     celldm(4)=   0.000000  celldm(5)=   0.000000  celldm(6)=   0.000000

     crystal axes: (cart. coord. in units of alat)
               a(1) = (   1.000000   0.000000   0.000000 )  
               a(2) = (   0.000000   1.000000   0.000000 )  
               a(3) = (   0.000000   0.000000   1.000000 )  

     reciprocal axes: (cart. coord. in units 2 pi/alat)
               b(1) = (  1.000000  0.000000  0.000000 )  
               b(2) = (  0.000000  1.000000  0.000000 )  
               b(3) = (  0.000000  0.000000  1.000000 )  


     PseudoPot. # 1 for Fe read from file:
     ../../pseudos/Fe.pbe-spn-kjpaw_psl.0.2.1.UPF
     MD5 check sum: e86618425769142926afa95317d90200
     Pseudo is Projector augmented-wave + core cor, Zval = 16.0
     Generated using "atomic" code by A. Dal Corso  v.5.0.99 svn rev. 10869
     Shape of augmentation charge: PSQ
     Using radial grid of 1191 points,  6 beta functions with: 
                l(1) =   0
                l(2) =   0
                l(3) =   1
                l(4) =   1
                l(5) =   2
                l(6) =   2
     Q(r) pseudized with 0 coefficients 


     PseudoPot. # 2 for Ti read from file:
     ../../pseudos/ti_pbe_v1.4.uspp.F.UPF
     MD5 check sum: 88a00a6731bd790ddea75d31a80cb452
     Pseudo is Ultrasoft + core correction, Zval = 12.0
     Generated by new atomic code, or converted to UPF format
     Using radial grid of  851 points,  6 beta functions with: 
                l(1) =   0
                l(2) =   0
                l(3) =   1
                l(4) =   1
                l(5) =   2
                l(6) =   2
     Q(r) pseudized with  6 coefficients,  rinner =    1.000   1.000   1.000
                                                       1.000   1.000

     atomic species   valence    mass     pseudopotential
     Fe               16.00    55.84500     Fe( 1.00)
     Ti               12.00    47.86700     Ti( 1.00)

     48 Sym. Ops., with inversion, found



   Cartesian axes

     site n.     atom                  positions (alat units)
         1        Fe     tau(   1) = (   0.5000000   0.5000000   0.5000000  )
         2        Ti     tau(   2) = (   0.0000000   0.0000000   0.0000000  )

     number of k points=   120  Marzari-Vanderbilt smearing, width (Ry)=  0.0050

     Number of k-points >= 100: set verbosity='high' to print them.

     Dense  grid:   233577 G-vectors     FFT dimensions: (  80,  80,  80)

     Smooth grid:    35729 G-vectors     FFT dimensions: (  45,  45,  45)

     Estimated max dynamical RAM per process >     132.29 MB

     Estimated total dynamical RAM >       1.03 GB

     Check: negative core charge=   -0.000001

     Initial potential from superposition of free atoms

     starting charge      26.9995, renormalised to      28.0000

     negative rho (up, down):  1.340E-03 0.000E+00
     Starting wfcs are   23 randomized atomic wfcs
     Checking if some PAW data can be deallocated... 

     total cpu time spent up to now is        2.3 secs

     per-process dynamical memory:   147.3 Mb

     Self-consistent Calculation

     iteration #  1     ecut=   124.00 Ry     beta= 0.70
     Davidson diagonalization with overlap
     ethr =  1.00E-02,  avg # of iterations =  2.2

     negative rho (up, down):  9.605E-05 0.000E+00

     total cpu time spent up to now is        5.1 secs

     total energy              =    -432.75728560 Ry
     estimated scf accuracy    <      20.03175787 Ry

     iteration #  2     ecut=   124.00 Ry     beta= 0.70
     Davidson diagonalization with overlap
     ethr =  1.00E-02,  avg # of iterations =  6.2

     negative rho (up, down):  1.107E-05 0.000E+00

     total cpu time spent up to now is        9.9 secs

     total energy              =    -447.72782837 Ry
     estimated scf accuracy    <      77.35676254 Ry

     iteration #  3     ecut=   124.00 Ry     beta= 0.70
     Davidson diagonalization with overlap
     ethr =  1.00E-02,  avg # of iterations =  3.2

     negative rho (up, down):  1.329E-04 0.000E+00

     total cpu time spent up to now is       13.2 secs

     total energy              =    -449.12621849 Ry
     estimated scf accuracy    <      18.67113461 Ry

     iteration #  4     ecut=   124.00 Ry     beta= 0.70
     Davidson diagonalization with overlap
     ethr =  1.00E-02,  avg # of iterations =  2.1

     negative rho (up, down):  2.526E-04 0.000E+00

     total cpu time spent up to now is       15.9 secs

     total energy              =    -449.15484915 Ry
     estimated scf accuracy    <       7.28261572 Ry

     iteration #  5     ecut=   124.00 Ry     beta= 0.70
     Davidson diagonalization with overlap
     ethr =  1.00E-02,  avg # of iterations =  1.1

     negative rho (up, down):  4.841E-04 0.000E+00

     total cpu time spent up to now is       18.2 secs

     total energy              =    -448.85309098 Ry
     estimated scf accuracy    <       5.10823554 Ry

     iteration #  6     ecut=   124.00 Ry     beta= 0.70
     Davidson diagonalization with overlap
     ethr =  1.00E-02,  avg # of iterations =  1.2

     negative rho (up, down):  1.292E-03 0.000E+00

     total cpu time spent up to now is       20.5 secs

     total energy              =    -447.64834533 Ry
     estimated scf accuracy    <       3.86915555 Ry

     iteration #  7     ecut=   124.00 Ry     beta= 0.70
     Davidson diagonalization with overlap
     ethr =  1.00E-02,  avg # of iterations =  4.2

     negative rho (up, down):  6.234E-04 0.000E+00

     total cpu time spent up to now is       23.5 secs

     total energy              =    -447.41194971 Ry
     estimated scf accuracy    <      18.33611625 Ry

     iteration #  8     ecut=   124.00 Ry     beta= 0.70
     Davidson diagonalization with overlap
     ethr =  1.00E-02,  avg # of iterations =  3.0

     negative rho (up, down):  6.642E-04 0.000E+00

     total cpu time spent up to now is       26.1 secs

     total energy              =    -448.58552412 Ry
     estimated scf accuracy    <       0.32644594 Ry

     iteration #  9     ecut=   124.00 Ry     beta= 0.70
     Davidson diagonalization with overlap
     ethr =  1.17E-03,  avg # of iterations =  2.2

     negative rho (up, down):  7.328E-04 0.000E+00

     total cpu time spent up to now is       28.6 secs

     total energy              =    -448.58992150 Ry
     estimated scf accuracy    <       0.19278127 Ry

     iteration # 10     ecut=   124.00 Ry     beta= 0.70
     Davidson diagonalization with overlap
     ethr =  6.89E-04,  avg # of iterations =  1.2

     negative rho (up, down):  7.784E-04 0.000E+00

     total cpu time spent up to now is       30.9 secs

     total energy              =    -448.58447390 Ry
     estimated scf accuracy    <       0.12172558 Ry

     iteration # 11     ecut=   124.00 Ry     beta= 0.70
     Davidson diagonalization with overlap
     ethr =  4.35E-04,  avg # of iterations =  1.2

     negative rho (up, down):  7.884E-04 0.000E+00

     total cpu time spent up to now is       33.2 secs

     total energy              =    -448.58410547 Ry
     estimated scf accuracy    <       0.07949475 Ry

     iteration # 12     ecut=   124.00 Ry     beta= 0.70
     Davidson diagonalization with overlap
     ethr =  2.84E-04,  avg # of iterations =  1.1

     negative rho (up, down):  7.609E-04 0.000E+00

     total cpu time spent up to now is       35.5 secs

     total energy              =    -448.58911693 Ry
     estimated scf accuracy    <       0.05889955 Ry

     iteration # 13     ecut=   124.00 Ry     beta= 0.70
     Davidson diagonalization with overlap
     ethr =  2.10E-04,  avg # of iterations =  1.1

     negative rho (up, down):  7.758E-04 0.000E+00

     total cpu time spent up to now is       37.9 secs

     total energy              =    -448.58731617 Ry
     estimated scf accuracy    <       0.10236371 Ry

     iteration # 14     ecut=   124.00 Ry     beta= 0.70
     Davidson diagonalization with overlap
     ethr =  2.10E-04,  avg # of iterations =  1.0

     negative rho (up, down):  8.243E-04 0.000E+00

     total cpu time spent up to now is       40.2 secs

     total energy              =    -448.58448027 Ry
     estimated scf accuracy    <       0.08361364 Ry

     iteration # 15     ecut=   124.00 Ry     beta= 0.70
     Davidson diagonalization with overlap
     ethr =  2.10E-04,  avg # of iterations =  1.0

     negative rho (up, down):  9.038E-04 0.000E+00

     total cpu time spent up to now is       42.5 secs

     total energy              =    -448.57425454 Ry
     estimated scf accuracy    <       0.11904317 Ry

     iteration # 16     ecut=   124.00 Ry     beta= 0.70
     Davidson diagonalization with overlap
     ethr =  2.10E-04,  avg # of iterations =  1.2

     negative rho (up, down):  9.632E-04 0.000E+00

     total cpu time spent up to now is       44.8 secs

     total energy              =    -448.57531692 Ry
     estimated scf accuracy    <       0.01680877 Ry

     iteration # 17     ecut=   124.00 Ry     beta= 0.70
     Davidson diagonalization with overlap
     ethr =  6.00E-05,  avg # of iterations =  3.2

     negative rho (up, down):  9.463E-04 0.000E+00

     total cpu time spent up to now is       47.4 secs

     total energy              =    -448.57715943 Ry
     estimated scf accuracy    <       0.00155673 Ry

     iteration # 18     ecut=   124.00 Ry     beta= 0.70
     Davidson diagonalization with overlap
     ethr =  5.56E-06,  avg # of iterations =  3.7

     negative rho (up, down):  9.450E-04 0.000E+00

     total cpu time spent up to now is       50.1 secs

     total energy              =    -448.57734481 Ry
     estimated scf accuracy    <       0.00051199 Ry

     iteration # 19     ecut=   124.00 Ry     beta= 0.70
     Davidson diagonalization with overlap
     ethr =  1.83E-06,  avg # of iterations =  2.7

     negative rho (up, down):  9.370E-04 0.000E+00

     total cpu time spent up to now is       52.6 secs

     total energy              =    -448.57732032 Ry
     estimated scf accuracy    <       0.00047981 Ry

     iteration # 20     ecut=   124.00 Ry     beta= 0.70
     Davidson diagonalization with overlap
     ethr =  1.71E-06,  avg # of iterations =  1.4

     negative rho (up, down):  9.310E-04 0.000E+00

     total cpu time spent up to now is       55.0 secs

     total energy              =    -448.57733082 Ry
     estimated scf accuracy    <       0.00008936 Ry

     iteration # 21     ecut=   124.00 Ry     beta= 0.70
     Davidson diagonalization with overlap
     ethr =  3.19E-07,  avg # of iterations =  3.3

     negative rho (up, down):  9.329E-04 0.000E+00

     total cpu time spent up to now is       57.7 secs

     total energy              =    -448.57734018 Ry
     estimated scf accuracy    <       0.00001213 Ry

     iteration # 22     ecut=   124.00 Ry     beta= 0.70
     Davidson diagonalization with overlap
     ethr =  4.33E-08,  avg # of iterations =  4.4

     negative rho (up, down):  9.328E-04 0.000E+00

     total cpu time spent up to now is       60.8 secs

     total energy              =    -448.57734613 Ry
     estimated scf accuracy    <       0.00000685 Ry

     iteration # 23     ecut=   124.00 Ry     beta= 0.70
     Davidson diagonalization with overlap
     ethr =  2.44E-08,  avg # of iterations =  1.0

     negative rho (up, down):  9.318E-04 0.000E+00

     total cpu time spent up to now is       63.1 secs

     total energy              =    -448.57734487 Ry
     estimated scf accuracy    <       0.00000332 Ry

     iteration # 24     ecut=   124.00 Ry     beta= 0.70
     Davidson diagonalization with overlap
     ethr =  1.19E-08,  avg # of iterations =  4.1

     negative rho (up, down):  9.329E-04 0.000E+00

     total cpu time spent up to now is       66.2 secs

     total energy              =    -448.57734504 Ry
     estimated scf accuracy    <       0.00000621 Ry

     iteration # 25     ecut=   124.00 Ry     beta= 0.70
     Davidson diagonalization with overlap
     ethr =  1.19E-08,  avg # of iterations =  3.2

     negative rho (up, down):  9.329E-04 0.000E+00

     total cpu time spent up to now is       68.9 secs

     total energy              =    -448.57734582 Ry
     estimated scf accuracy    <       0.00000021 Ry

     iteration # 26     ecut=   124.00 Ry     beta= 0.70
     Davidson diagonalization with overlap
     ethr =  7.63E-10,  avg # of iterations =  2.9

     negative rho (up, down):  9.329E-04 0.000E+00

     total cpu time spent up to now is       71.5 secs

     total energy              =    -448.57734585 Ry
     estimated scf accuracy    <       0.00000002 Ry

     iteration # 27     ecut=   124.00 Ry     beta= 0.70
     Davidson diagonalization with overlap
     ethr =  5.76E-11,  avg # of iterations =  4.6

     negative rho (up, down):  9.329E-04 0.000E+00

     total cpu time spent up to now is       74.7 secs

     total energy              =    -448.57734585 Ry
     estimated scf accuracy    <       0.00000006 Ry

     iteration # 28     ecut=   124.00 Ry     beta= 0.70
     Davidson diagonalization with overlap
     ethr =  5.76E-11,  avg # of iterations =  3.5

     negative rho (up, down):  9.329E-04 0.000E+00

     total cpu time spent up to now is       77.4 secs

     End of self-consistent calculation

     Number of k-points >= 100: set verbosity='high' to print the bands.

     the Fermi energy is    15.5134 ev

!    total energy              =    -448.57734586 Ry
     estimated scf accuracy    <          9.4E-10 Ry
     smearing contrib. (-TS)   =      -0.00000684 Ry
     internal energy E=F+TS    =    -448.57733901 Ry

     The total energy is F=E-TS. E is the sum of the following terms:
     one-electron contribution =    -165.89827916 Ry
     hartree contribution      =      96.62779620 Ry
     xc contribution           =     -52.70947397 Ry
     ewald contribution        =    -250.44606283 Ry
     one-center paw contrib.   =     -76.15131926 Ry

     convergence has been achieved in  28 iterations

     negative rho (up, down):  9.329E-04 0.000E+00

     Forces acting on atoms (cartesian axes, Ry/au):

     atom    1 type  1   force =     0.00000000    0.00000000    0.00000000
     atom    2 type  2   force =     0.00000000    0.00000000    0.00000000

     Total force =     0.000000     Total SCF correction =     0.000000


     Computing stress (Cartesian axis) and pressure


     negative rho (up, down):  9.329E-04 0.000E+00
          total   stress  (Ry/bohr**3)                   (kbar)     P=     -150.65
  -0.00102407   0.00000000   0.00000000         -150.65        0.00        0.00
   0.00000000  -0.00102407   0.00000000            0.00     -150.65        0.00
   0.00000000   0.00000000  -0.00102407            0.00        0.00     -150.65


     Writing all to output data dir ./TiFe.save/ :
     XML data file, charge density, pseudopotentials, collected wavefunctions

     init_run     :      2.07s CPU      2.13s WALL (       1 calls)
     electrons    :     73.02s CPU     75.06s WALL (       1 calls)
     forces       :      0.34s CPU      0.36s WALL (       1 calls)
     stress       :      1.90s CPU      1.96s WALL (       1 calls)

     Called by init_run:
     wfcinit      :      1.01s CPU      1.03s WALL (       1 calls)
     potinit      :      0.21s CPU      0.22s WALL (       1 calls)
     hinit0       :      0.64s CPU      0.65s WALL (       1 calls)

     Called by electrons:
     c_bands      :     52.89s CPU     53.82s WALL (      28 calls)
     sum_band     :     13.65s CPU     14.26s WALL (      28 calls)
     v_of_rho     :      0.80s CPU      0.85s WALL (      29 calls)
     newd         :      4.15s CPU      4.53s WALL (      29 calls)
     PAW_pot      :      1.58s CPU      1.62s WALL (      29 calls)
     mix_rho      :      0.09s CPU      0.10s WALL (      28 calls)

     Called by c_bands:
     init_us_2    :      1.13s CPU      1.16s WALL (    7080 calls)
     cegterg      :     50.75s CPU     51.61s WALL (    3360 calls)

     Called by *egterg:
     cdiaghg      :      3.73s CPU      3.80s WALL (   11917 calls)
     h_psi        :     43.10s CPU     43.84s WALL (   12037 calls)
     s_psi        :      0.69s CPU      0.71s WALL (   12037 calls)
     g_psi        :      0.16s CPU      0.17s WALL (    8557 calls)

     Called by h_psi:
     h_psi:calbec :      1.19s CPU      1.21s WALL (   12037 calls)
     vloc_psi     :     41.08s CPU     41.78s WALL (   12037 calls)
     add_vuspsi   :      0.70s CPU      0.72s WALL (   12037 calls)

     General routines
     calbec       :      1.79s CPU      1.82s WALL (   17437 calls)
     fft          :      1.01s CPU      1.10s WALL (     400 calls)
     ffts         :      0.12s CPU      0.12s WALL (      57 calls)
     fftw         :     41.91s CPU     42.61s WALL (  352854 calls)
     interpolate  :      0.15s CPU      0.16s WALL (      29 calls)

     Parallel routines

     PWSCF        :     77.74s CPU     80.15s WALL


   This run was terminated on:  15:23:26  28Oct2025            

=------------------------------------------------------------------------------=
   JOB DONE.
=------------------------------------------------------------------------------=
