
     Program PWSCF v.7.4 starts on 28Oct2025 at 15: 0:49 

     This program is part of the open-source Quantum ESPRESSO suite
     for quantum simulation of materials; please cite
         "P. Giannozzi et al., J. Phys.:Condens. Matter 21 395502 (2009);
         "P. Giannozzi et al., J. Phys.:Condens. Matter 29 465901 (2017);
         "P. Giannozzi et al., J. Chem. Phys. 152 154105 (2020);
          URL http://www.quantum-espresso.org", 
     in publications or presentations arising from this work. More details at
     http://www.quantum-espresso.org/quote

     Parallel version (MPI & OpenMP), running on       8 processor cores
     Number of MPI processes:                 8
     Threads/MPI process:                     1

     MPI processes distributed on     1 nodes
     226761 MiB available memory on the printing compute node when the environment starts

     Reading input from TiFe_6.in

     Current dimensions of program PWSCF are:
     Max number of different atomic species (ntypx) = 10
     Max number of k-points (npk) =  40000
     Max angular momentum in pseudopotentials (lmaxx) =  4
     file Fe.pbe-spn-kjpaw_psl.0.2.1.UPF: wavefunction(s)  3D renormalized

     IMPORTANT: XC functional enforced from input :
     Exchange-correlation= PBE
                           (   1   4   3   4   0   0   0)
     Any further DFT definition will be discarded
     Please, verify this is what you really want

     Message from routine setup:
     using ibrav=0 with symmetry is DISCOURAGED, use correct ibrav instead

     R & G space division:  proc/nbgrp/npool/nimage =       8
     Subspace diagonalization in iterative solution of the eigenvalue problem:
     a serial algorithm will be used


     Parallelization info
     --------------------
     sticks:   dense  smooth     PW     G-vecs:    dense   smooth      PW
     Min         511     147     43                24594     3755     599
     Max         513     148     44                24595     3758     601
     Sum        4093    1177    349               196757    30047    4801

     Using Slab Decomposition



     bravais-lattice index     =            0
     lattice parameter (alat)  =       5.4399  a.u.
     unit-cell volume          =     160.9818 (a.u.)^3
     number of atoms/cell      =            2
     number of atomic types    =            2
     number of electrons       =        28.00
     number of Kohn-Sham states=           18
     kinetic-energy cutoff     =     124.0000  Ry
     charge density cutoff     =    1736.0000  Ry
     scf convergence threshold =      1.0E-08
     mixing beta               =       0.7000
     number of iterations used =            8  plain     mixing
     Exchange-correlation= PBE
                           (   1   4   3   4   0   0   0)

     celldm(1)=   5.439917  celldm(2)=   0.000000  celldm(3)=   0.000000
     celldm(4)=   0.000000  celldm(5)=   0.000000  celldm(6)=   0.000000

     crystal axes: (cart. coord. in units of alat)
               a(1) = (   1.000000   0.000000   0.000000 )  
               a(2) = (   0.000000   1.000000   0.000000 )  
               a(3) = (   0.000000   0.000000   1.000000 )  

     reciprocal axes: (cart. coord. in units 2 pi/alat)
               b(1) = (  1.000000  0.000000  0.000000 )  
               b(2) = (  0.000000  1.000000  0.000000 )  
               b(3) = (  0.000000  0.000000  1.000000 )  


     PseudoPot. # 1 for Fe read from file:
     ../../pseudos/Fe.pbe-spn-kjpaw_psl.0.2.1.UPF
     MD5 check sum: e86618425769142926afa95317d90200
     Pseudo is Projector augmented-wave + core cor, Zval = 16.0
     Generated using "atomic" code by A. Dal Corso  v.5.0.99 svn rev. 10869
     Shape of augmentation charge: PSQ
     Using radial grid of 1191 points,  6 beta functions with: 
                l(1) =   0
                l(2) =   0
                l(3) =   1
                l(4) =   1
                l(5) =   2
                l(6) =   2
     Q(r) pseudized with 0 coefficients 


     PseudoPot. # 2 for Ti read from file:
     ../../pseudos/ti_pbe_v1.4.uspp.F.UPF
     MD5 check sum: 88a00a6731bd790ddea75d31a80cb452
     Pseudo is Ultrasoft + core correction, Zval = 12.0
     Generated by new atomic code, or converted to UPF format
     Using radial grid of  851 points,  6 beta functions with: 
                l(1) =   0
                l(2) =   0
                l(3) =   1
                l(4) =   1
                l(5) =   2
                l(6) =   2
     Q(r) pseudized with  6 coefficients,  rinner =    1.000   1.000   1.000
                                                       1.000   1.000

     atomic species   valence    mass     pseudopotential
     Fe               16.00    55.84500     Fe( 1.00)
     Ti               12.00    47.86700     Ti( 1.00)

     48 Sym. Ops., with inversion, found



   Cartesian axes

     site n.     atom                  positions (alat units)
         1        Fe     tau(   1) = (   0.5000000   0.5000000   0.5000000  )
         2        Ti     tau(   2) = (   0.0000000   0.0000000   0.0000000  )

     number of k points=   120  Marzari-Vanderbilt smearing, width (Ry)=  0.0050

     Number of k-points >= 100: set verbosity='high' to print them.

     Dense  grid:   196757 G-vectors     FFT dimensions: (  75,  75,  75)

     Smooth grid:    30047 G-vectors     FFT dimensions: (  40,  40,  40)

     Estimated max dynamical RAM per process >     112.64 MB

     Estimated total dynamical RAM >     901.11 MB

     Check: negative core charge=   -0.000002

     Initial potential from superposition of free atoms

     starting charge      26.9995, renormalised to      28.0000

     negative rho (up, down):  1.317E-03 0.000E+00
     Starting wfcs are   23 randomized atomic wfcs
     Checking if some PAW data can be deallocated... 

     total cpu time spent up to now is        1.7 secs

     per-process dynamical memory:   142.8 Mb

     Self-consistent Calculation

     iteration #  1     ecut=   124.00 Ry     beta= 0.70
     Davidson diagonalization with overlap
     ethr =  1.00E-02,  avg # of iterations =  2.1

     negative rho (up, down):  5.078E-05 0.000E+00

     total cpu time spent up to now is        3.6 secs

     total energy              =    -436.03755589 Ry
     estimated scf accuracy    <      16.06739421 Ry

     iteration #  2     ecut=   124.00 Ry     beta= 0.70
     Davidson diagonalization with overlap
     ethr =  1.00E-02,  avg # of iterations =  6.1

     negative rho (up, down):  5.327E-05 0.000E+00

     total cpu time spent up to now is        6.7 secs

     total energy              =    -448.50478240 Ry
     estimated scf accuracy    <      61.43680930 Ry

     iteration #  3     ecut=   124.00 Ry     beta= 0.70
     Davidson diagonalization with overlap
     ethr =  1.00E-02,  avg # of iterations =  3.0

     negative rho (up, down):  2.914E-04 0.000E+00

     total cpu time spent up to now is        8.9 secs

     total energy              =    -448.48790766 Ry
     estimated scf accuracy    <      15.57715968 Ry

     iteration #  4     ecut=   124.00 Ry     beta= 0.70
     Davidson diagonalization with overlap
     ethr =  1.00E-02,  avg # of iterations =  2.1

     negative rho (up, down):  2.965E-04 0.000E+00

     total cpu time spent up to now is       10.8 secs

     total energy              =    -449.04838810 Ry
     estimated scf accuracy    <       3.99033562 Ry

     iteration #  5     ecut=   124.00 Ry     beta= 0.70
     Davidson diagonalization with overlap
     ethr =  1.00E-02,  avg # of iterations =  1.0

     negative rho (up, down):  3.344E-04 0.000E+00

     total cpu time spent up to now is       12.3 secs

     total energy              =    -448.83152792 Ry
     estimated scf accuracy    <       3.73671777 Ry

     iteration #  6     ecut=   124.00 Ry     beta= 0.70
     Davidson diagonalization with overlap
     ethr =  1.00E-02,  avg # of iterations =  1.0

     negative rho (up, down):  4.368E-04 0.000E+00

     total cpu time spent up to now is       13.9 secs

     total energy              =    -448.62826196 Ry
     estimated scf accuracy    <       1.87244916 Ry

     iteration #  7     ecut=   124.00 Ry     beta= 0.70
     Davidson diagonalization with overlap
     ethr =  6.69E-03,  avg # of iterations =  1.2

     negative rho (up, down):  8.640E-04 0.000E+00

     total cpu time spent up to now is       15.5 secs

     total energy              =    -448.47394636 Ry
     estimated scf accuracy    <       0.51941394 Ry

     iteration #  8     ecut=   124.00 Ry     beta= 0.70
     Davidson diagonalization with overlap
     ethr =  1.86E-03,  avg # of iterations =  4.7

     negative rho (up, down):  7.095E-04 0.000E+00

     total cpu time spent up to now is       17.7 secs

     total energy              =    -448.33406917 Ry
     estimated scf accuracy    <       3.43598969 Ry

     iteration #  9     ecut=   124.00 Ry     beta= 0.70
     Davidson diagonalization with overlap
     ethr =  1.86E-03,  avg # of iterations =  3.5

     negative rho (up, down):  8.368E-04 0.000E+00

     total cpu time spent up to now is       19.6 secs

     total energy              =    -448.64443647 Ry
     estimated scf accuracy    <       0.26870351 Ry

     iteration # 10     ecut=   124.00 Ry     beta= 0.70
     Davidson diagonalization with overlap
     ethr =  9.60E-04,  avg # of iterations =  1.2

     negative rho (up, down):  8.390E-04 0.000E+00

     total cpu time spent up to now is       21.2 secs

     total energy              =    -448.68315044 Ry
     estimated scf accuracy    <       0.38148854 Ry

     iteration # 11     ecut=   124.00 Ry     beta= 0.70
     Davidson diagonalization with overlap
     ethr =  9.60E-04,  avg # of iterations =  1.1

     negative rho (up, down):  7.083E-04 0.000E+00

     total cpu time spent up to now is       22.7 secs

     total energy              =    -448.59567661 Ry
     estimated scf accuracy    <       0.88587537 Ry

     iteration # 12     ecut=   124.00 Ry     beta= 0.70
     Davidson diagonalization with overlap
     ethr =  9.60E-04,  avg # of iterations =  2.0

     negative rho (up, down):  6.422E-04 0.000E+00

     total cpu time spent up to now is       24.5 secs

     total energy              =    -448.69490808 Ry
     estimated scf accuracy    <       0.31656877 Ry

     iteration # 13     ecut=   124.00 Ry     beta= 0.70
     Davidson diagonalization with overlap
     ethr =  9.60E-04,  avg # of iterations =  2.7

     negative rho (up, down):  6.867E-04 0.000E+00

     total cpu time spent up to now is       26.3 secs

     total energy              =    -448.39044235 Ry
     estimated scf accuracy    <       2.21127166 Ry

     iteration # 14     ecut=   124.00 Ry     beta= 0.70
     Davidson diagonalization with overlap
     ethr =  9.60E-04,  avg # of iterations =  3.5

     negative rho (up, down):  8.760E-04 0.000E+00

     total cpu time spent up to now is       28.4 secs

     total energy              =    -448.63512905 Ry
     estimated scf accuracy    <       0.37087680 Ry

     iteration # 15     ecut=   124.00 Ry     beta= 0.70
     Davidson diagonalization with overlap
     ethr =  9.60E-04,  avg # of iterations =  1.1

     negative rho (up, down):  7.850E-04 0.000E+00

     total cpu time spent up to now is       30.0 secs

     total energy              =    -448.64088398 Ry
     estimated scf accuracy    <       0.58013913 Ry

     iteration # 16     ecut=   124.00 Ry     beta= 0.70
     Davidson diagonalization with overlap
     ethr =  9.60E-04,  avg # of iterations =  1.0

     negative rho (up, down):  7.062E-04 0.000E+00

     total cpu time spent up to now is       31.6 secs

     total energy              =    -448.58582686 Ry
     estimated scf accuracy    <       0.44298369 Ry

     iteration # 17     ecut=   124.00 Ry     beta= 0.70
     Davidson diagonalization with overlap
     ethr =  9.60E-04,  avg # of iterations =  1.8

     negative rho (up, down):  8.503E-04 0.000E+00

     total cpu time spent up to now is       33.2 secs

     total energy              =    -448.56879191 Ry
     estimated scf accuracy    <       0.13741163 Ry

     iteration # 18     ecut=   124.00 Ry     beta= 0.70
     Davidson diagonalization with overlap
     ethr =  4.91E-04,  avg # of iterations =  2.1

     negative rho (up, down):  9.493E-04 0.000E+00

     total cpu time spent up to now is       35.0 secs

     total energy              =    -448.58005952 Ry
     estimated scf accuracy    <       0.10413984 Ry

     iteration # 19     ecut=   124.00 Ry     beta= 0.70
     Davidson diagonalization with overlap
     ethr =  3.72E-04,  avg # of iterations =  1.4

     negative rho (up, down):  9.493E-04 0.000E+00

     total cpu time spent up to now is       36.6 secs

     total energy              =    -448.57746522 Ry
     estimated scf accuracy    <       0.08170472 Ry

     iteration # 20     ecut=   124.00 Ry     beta= 0.70
     Davidson diagonalization with overlap
     ethr =  2.92E-04,  avg # of iterations =  1.0

     negative rho (up, down):  9.593E-04 0.000E+00

     total cpu time spent up to now is       38.2 secs

     total energy              =    -448.57812687 Ry
     estimated scf accuracy    <       0.01055632 Ry

     iteration # 21     ecut=   124.00 Ry     beta= 0.70
     Davidson diagonalization with overlap
     ethr =  3.77E-05,  avg # of iterations =  3.1

     negative rho (up, down):  9.416E-04 0.000E+00

     total cpu time spent up to now is       40.1 secs

     total energy              =    -448.57931103 Ry
     estimated scf accuracy    <       0.00155652 Ry

     iteration # 22     ecut=   124.00 Ry     beta= 0.70
     Davidson diagonalization with overlap
     ethr =  5.56E-06,  avg # of iterations =  2.9

     negative rho (up, down):  9.454E-04 0.000E+00

     total cpu time spent up to now is       41.9 secs

     total energy              =    -448.57952037 Ry
     estimated scf accuracy    <       0.00000871 Ry

     iteration # 23     ecut=   124.00 Ry     beta= 0.70
     Davidson diagonalization with overlap
     ethr =  3.11E-08,  avg # of iterations =  6.2

     negative rho (up, down):  9.441E-04 0.000E+00

     total cpu time spent up to now is       44.8 secs

     total energy              =    -448.57954852 Ry
     estimated scf accuracy    <       0.00001052 Ry

     iteration # 24     ecut=   124.00 Ry     beta= 0.70
     Davidson diagonalization with overlap
     ethr =  3.11E-08,  avg # of iterations =  2.1

     negative rho (up, down):  9.441E-04 0.000E+00

     total cpu time spent up to now is       46.6 secs

     End of self-consistent calculation

     Number of k-points >= 100: set verbosity='high' to print the bands.

     the Fermi energy is    19.0222 ev

!    total energy              =    -448.57954965 Ry
     estimated scf accuracy    <          7.5E-09 Ry
     smearing contrib. (-TS)   =       0.00001476 Ry
     internal energy E=F+TS    =    -448.57956441 Ry

     The total energy is F=E-TS. E is the sum of the following terms:
     one-electron contribution =    -143.03235004 Ry
     hartree contribution      =      88.84679586 Ry
     xc contribution           =     -53.00280472 Ry
     ewald contribution        =    -265.23611614 Ry
     one-center paw contrib.   =     -76.15508937 Ry

     convergence has been achieved in  24 iterations

     negative rho (up, down):  9.441E-04 0.000E+00

     Forces acting on atoms (cartesian axes, Ry/au):

     atom    1 type  1   force =     0.00000000    0.00000000    0.00000000
     atom    2 type  2   force =     0.00000000    0.00000000    0.00000000

     Total force =     0.000000     Total SCF correction =     0.000000


     Computing stress (Cartesian axis) and pressure


     negative rho (up, down):  9.441E-04 0.000E+00
          total   stress  (Ry/bohr**3)                   (kbar)     P=      175.49
   0.00119296   0.00000000   0.00000000          175.49        0.00        0.00
   0.00000000   0.00119296   0.00000000            0.00      175.49        0.00
   0.00000000   0.00000000   0.00119296            0.00        0.00      175.49


     Writing all to output data dir ./TiFe.save/ :
     XML data file, charge density, pseudopotentials, collected wavefunctions

     init_run     :      1.47s CPU      1.52s WALL (       1 calls)
     electrons    :     43.33s CPU     44.86s WALL (       1 calls)
     forces       :      0.29s CPU      0.31s WALL (       1 calls)
     stress       :      1.61s CPU      1.67s WALL (       1 calls)

     Called by init_run:
     wfcinit      :      0.66s CPU      0.68s WALL (       1 calls)
     potinit      :      0.37s CPU      0.38s WALL (       1 calls)
     hinit0       :      0.26s CPU      0.26s WALL (       1 calls)

     Called by electrons:
     c_bands      :     30.42s CPU     31.12s WALL (      24 calls)
     sum_band     :      8.06s CPU      8.50s WALL (      24 calls)
     v_of_rho     :      0.58s CPU      0.62s WALL (      25 calls)
     newd         :      2.98s CPU      3.28s WALL (      25 calls)
     PAW_pot      :      1.36s CPU      1.39s WALL (      25 calls)
     mix_rho      :      0.07s CPU      0.07s WALL (      24 calls)

     Called by c_bands:
     init_us_2    :      0.81s CPU      0.84s WALL (    6120 calls)
     cegterg      :     28.93s CPU     29.58s WALL (    2880 calls)

     Called by *egterg:
     cdiaghg      :      3.07s CPU      3.14s WALL (    9859 calls)
     h_psi        :     22.91s CPU     23.45s WALL (    9979 calls)
     s_psi        :      0.52s CPU      0.53s WALL (    9979 calls)
     g_psi        :      0.12s CPU      0.12s WALL (    6979 calls)

     Called by h_psi:
     h_psi:calbec :      0.84s CPU      0.86s WALL (    9979 calls)
     vloc_psi     :     21.44s CPU     21.95s WALL (    9979 calls)
     add_vuspsi   :      0.53s CPU      0.54s WALL (    9979 calls)

     General routines
     calbec       :      1.33s CPU      1.37s WALL (   14899 calls)
     fft          :      0.51s CPU      0.59s WALL (     348 calls)
     ffts         :      0.28s CPU      0.29s WALL (      49 calls)
     fftw         :     20.41s CPU     20.87s WALL (  309564 calls)
     interpolate  :      0.31s CPU      0.32s WALL (      25 calls)

     Parallel routines

     PWSCF        :     47.10s CPU     49.03s WALL


   This run was terminated on:  15: 1:38  28Oct2025            

=------------------------------------------------------------------------------=
   JOB DONE.
=------------------------------------------------------------------------------=
