
     Program PWSCF v.7.4 starts on 28Oct2025 at 14:57:54 

     This program is part of the open-source Quantum ESPRESSO suite
     for quantum simulation of materials; please cite
         "P. Giannozzi et al., J. Phys.:Condens. Matter 21 395502 (2009);
         "P. Giannozzi et al., J. Phys.:Condens. Matter 29 465901 (2017);
         "P. Giannozzi et al., J. Chem. Phys. 152 154105 (2020);
          URL http://www.quantum-espresso.org", 
     in publications or presentations arising from this work. More details at
     http://www.quantum-espresso.org/quote

     Parallel version (MPI & OpenMP), running on       8 processor cores
     Number of MPI processes:                 8
     Threads/MPI process:                     1

     MPI processes distributed on     1 nodes
     226615 MiB available memory on the printing compute node when the environment starts

     Reading input from TiFe_3.in

     Current dimensions of program PWSCF are:
     Max number of different atomic species (ntypx) = 10
     Max number of k-points (npk) =  40000
     Max angular momentum in pseudopotentials (lmaxx) =  4
     file Fe.pbe-spn-kjpaw_psl.0.2.1.UPF: wavefunction(s)  3D renormalized

     IMPORTANT: XC functional enforced from input :
     Exchange-correlation= PBE
                           (   1   4   3   4   0   0   0)
     Any further DFT definition will be discarded
     Please, verify this is what you really want

     Message from routine setup:
     using ibrav=0 with symmetry is DISCOURAGED, use correct ibrav instead

     R & G space division:  proc/nbgrp/npool/nimage =       8
     Subspace diagonalization in iterative solution of the eigenvalue problem:
     a serial algorithm will be used


     Parallelization info
     --------------------
     sticks:   dense  smooth     PW     G-vecs:    dense   smooth      PW
     Min         499     142     42                23852     3628     586
     Max         501     143     43                23856     3631     589
     Sum        4001    1137    341               190823    29039    4697

     Using Slab Decomposition



     bravais-lattice index     =            0
     lattice parameter (alat)  =       5.3832  a.u.
     unit-cell volume          =     156.0011 (a.u.)^3
     number of atoms/cell      =            2
     number of atomic types    =            2
     number of electrons       =        28.00
     number of Kohn-Sham states=           18
     kinetic-energy cutoff     =     124.0000  Ry
     charge density cutoff     =    1736.0000  Ry
     scf convergence threshold =      1.0E-08
     mixing beta               =       0.7000
     number of iterations used =            8  plain     mixing
     Exchange-correlation= PBE
                           (   1   4   3   4   0   0   0)

     celldm(1)=   5.383225  celldm(2)=   0.000000  celldm(3)=   0.000000
     celldm(4)=   0.000000  celldm(5)=   0.000000  celldm(6)=   0.000000

     crystal axes: (cart. coord. in units of alat)
               a(1) = (   1.000000   0.000000   0.000000 )  
               a(2) = (   0.000000   1.000000   0.000000 )  
               a(3) = (   0.000000   0.000000   1.000000 )  

     reciprocal axes: (cart. coord. in units 2 pi/alat)
               b(1) = (  1.000000  0.000000  0.000000 )  
               b(2) = (  0.000000  1.000000  0.000000 )  
               b(3) = (  0.000000  0.000000  1.000000 )  


     PseudoPot. # 1 for Fe read from file:
     ../../pseudos/Fe.pbe-spn-kjpaw_psl.0.2.1.UPF
     MD5 check sum: e86618425769142926afa95317d90200
     Pseudo is Projector augmented-wave + core cor, Zval = 16.0
     Generated using "atomic" code by A. Dal Corso  v.5.0.99 svn rev. 10869
     Shape of augmentation charge: PSQ
     Using radial grid of 1191 points,  6 beta functions with: 
                l(1) =   0
                l(2) =   0
                l(3) =   1
                l(4) =   1
                l(5) =   2
                l(6) =   2
     Q(r) pseudized with 0 coefficients 


     PseudoPot. # 2 for Ti read from file:
     ../../pseudos/ti_pbe_v1.4.uspp.F.UPF
     MD5 check sum: 88a00a6731bd790ddea75d31a80cb452
     Pseudo is Ultrasoft + core correction, Zval = 12.0
     Generated by new atomic code, or converted to UPF format
     Using radial grid of  851 points,  6 beta functions with: 
                l(1) =   0
                l(2) =   0
                l(3) =   1
                l(4) =   1
                l(5) =   2
                l(6) =   2
     Q(r) pseudized with  6 coefficients,  rinner =    1.000   1.000   1.000
                                                       1.000   1.000

     atomic species   valence    mass     pseudopotential
     Fe               16.00    55.84500     Fe( 1.00)
     Ti               12.00    47.86700     Ti( 1.00)

     48 Sym. Ops., with inversion, found



   Cartesian axes

     site n.     atom                  positions (alat units)
         1        Fe     tau(   1) = (   0.5000000   0.5000000   0.5000000  )
         2        Ti     tau(   2) = (   0.0000000   0.0000000   0.0000000  )

     number of k points=   120  Marzari-Vanderbilt smearing, width (Ry)=  0.0050

     Number of k-points >= 100: set verbosity='high' to print them.

     Dense  grid:   190823 G-vectors     FFT dimensions: (  72,  72,  72)

     Smooth grid:    29039 G-vectors     FFT dimensions: (  40,  40,  40)

     Estimated max dynamical RAM per process >     108.87 MB

     Estimated total dynamical RAM >     870.97 MB

     Check: negative core charge=   -0.000002

     Initial potential from superposition of free atoms

     starting charge      26.9995, renormalised to      28.0000

     negative rho (up, down):  1.332E-03 0.000E+00
     Starting wfcs are   23 randomized atomic wfcs
     Checking if some PAW data can be deallocated... 

     total cpu time spent up to now is        2.1 secs

     per-process dynamical memory:   141.7 Mb

     Self-consistent Calculation

     iteration #  1     ecut=   124.00 Ry     beta= 0.70
     Davidson diagonalization with overlap
     ethr =  1.00E-02,  avg # of iterations =  2.1

     negative rho (up, down):  5.656E-05 0.000E+00

     total cpu time spent up to now is        3.9 secs

     total energy              =    -436.56524126 Ry
     estimated scf accuracy    <      15.41590506 Ry

     iteration #  2     ecut=   124.00 Ry     beta= 0.70
     Davidson diagonalization with overlap
     ethr =  1.00E-02,  avg # of iterations =  6.1

     negative rho (up, down):  6.348E-05 0.000E+00

     total cpu time spent up to now is        6.9 secs

     WARNING: integrated charge=    28.00001632, expected=    28.00000000

     total energy              =    -448.44114245 Ry
     estimated scf accuracy    <      59.43232145 Ry

     iteration #  3     ecut=   124.00 Ry     beta= 0.70
     Davidson diagonalization with overlap
     ethr =  1.00E-02,  avg # of iterations =  3.0

     negative rho (up, down):  3.007E-04 0.000E+00

     total cpu time spent up to now is        9.1 secs

     total energy              =    -448.45767816 Ry
     estimated scf accuracy    <      14.97392799 Ry

     iteration #  4     ecut=   124.00 Ry     beta= 0.70
     Davidson diagonalization with overlap
     ethr =  1.00E-02,  avg # of iterations =  2.1

     negative rho (up, down):  2.920E-04 0.000E+00

     total cpu time spent up to now is       10.9 secs

     total energy              =    -449.01412387 Ry
     estimated scf accuracy    <       3.74662493 Ry

     iteration #  5     ecut=   124.00 Ry     beta= 0.70
     Davidson diagonalization with overlap
     ethr =  1.00E-02,  avg # of iterations =  1.0

     negative rho (up, down):  4.065E-04 0.000E+00

     total cpu time spent up to now is       12.4 secs

     total energy              =    -448.66410109 Ry
     estimated scf accuracy    <       3.49469586 Ry

     iteration #  6     ecut=   124.00 Ry     beta= 0.70
     Davidson diagonalization with overlap
     ethr =  1.00E-02,  avg # of iterations =  1.0

     negative rho (up, down):  4.063E-04 0.000E+00

     total cpu time spent up to now is       14.0 secs

     total energy              =    -448.75258523 Ry
     estimated scf accuracy    <       1.08294420 Ry

     iteration #  7     ecut=   124.00 Ry     beta= 0.70
     Davidson diagonalization with overlap
     ethr =  3.87E-03,  avg # of iterations =  1.1

     negative rho (up, down):  4.036E-04 0.000E+00

     total cpu time spent up to now is       15.5 secs

     total energy              =    -448.78770932 Ry
     estimated scf accuracy    <       1.01601716 Ry

     iteration #  8     ecut=   124.00 Ry     beta= 0.70
     Davidson diagonalization with overlap
     ethr =  3.63E-03,  avg # of iterations =  1.0

     negative rho (up, down):  1.130E-03 0.000E+00

     total cpu time spent up to now is       17.0 secs

     WARNING: integrated charge=    28.00000288, expected=    28.00000000

     total energy              =    -448.63261413 Ry
     estimated scf accuracy    <       1.19290733 Ry

     iteration #  9     ecut=   124.00 Ry     beta= 0.70
     Davidson diagonalization with overlap
     ethr =  3.63E-03,  avg # of iterations =  1.9

     negative rho (up, down):  1.429E-03 0.000E+00

     total cpu time spent up to now is       18.7 secs

     total energy              =    -448.51378523 Ry
     estimated scf accuracy    <       0.46532079 Ry

     iteration # 10     ecut=   124.00 Ry     beta= 0.70
     Davidson diagonalization with overlap
     ethr =  1.66E-03,  avg # of iterations =  5.1

     negative rho (up, down):  1.136E-03 0.000E+00

     total cpu time spent up to now is       20.9 secs

     WARNING: integrated charge=    28.00000291, expected=    28.00000000

     total energy              =    -448.62813684 Ry
     estimated scf accuracy    <       9.95340979 Ry

     iteration # 11     ecut=   124.00 Ry     beta= 0.70
     Davidson diagonalization with overlap
     ethr =  1.66E-03,  avg # of iterations =  2.8

     negative rho (up, down):  8.645E-04 0.000E+00

     total cpu time spent up to now is       22.7 secs

     total energy              =    -448.70699615 Ry
     estimated scf accuracy    <       2.71521235 Ry

     iteration # 12     ecut=   124.00 Ry     beta= 0.70
     Davidson diagonalization with overlap
     ethr =  1.66E-03,  avg # of iterations =  1.2

     negative rho (up, down):  6.606E-04 0.000E+00

     total cpu time spent up to now is       24.2 secs

     total energy              =    -448.34200042 Ry
     estimated scf accuracy    <       2.91909755 Ry

     iteration # 13     ecut=   124.00 Ry     beta= 0.70
     Davidson diagonalization with overlap
     ethr =  1.66E-03,  avg # of iterations =  3.4

     negative rho (up, down):  5.260E-04 0.000E+00

     total cpu time spent up to now is       26.0 secs

     total energy              =    -448.62442656 Ry
     estimated scf accuracy    <       0.13633521 Ry

     iteration # 14     ecut=   124.00 Ry     beta= 0.70
     Davidson diagonalization with overlap
     ethr =  4.87E-04,  avg # of iterations =  2.9

     negative rho (up, down):  6.241E-04 0.000E+00

     total cpu time spent up to now is       27.8 secs

     total energy              =    -448.57450662 Ry
     estimated scf accuracy    <       0.66398534 Ry

     iteration # 15     ecut=   124.00 Ry     beta= 0.70
     Davidson diagonalization with overlap
     ethr =  4.87E-04,  avg # of iterations =  1.3

     negative rho (up, down):  5.966E-04 0.000E+00

     total cpu time spent up to now is       29.4 secs

     total energy              =    -448.59286337 Ry
     estimated scf accuracy    <       0.14409801 Ry

     iteration # 16     ecut=   124.00 Ry     beta= 0.70
     Davidson diagonalization with overlap
     ethr =  4.87E-04,  avg # of iterations =  1.0

     negative rho (up, down):  5.955E-04 0.000E+00

     total cpu time spent up to now is       30.9 secs

     total energy              =    -448.59264468 Ry
     estimated scf accuracy    <       0.11633277 Ry

     iteration # 17     ecut=   124.00 Ry     beta= 0.70
     Davidson diagonalization with overlap
     ethr =  4.15E-04,  avg # of iterations =  1.0

     negative rho (up, down):  6.046E-04 0.000E+00

     total cpu time spent up to now is       32.4 secs

     total energy              =    -448.59551771 Ry
     estimated scf accuracy    <       0.11642869 Ry

     iteration # 18     ecut=   124.00 Ry     beta= 0.70
     Davidson diagonalization with overlap
     ethr =  4.15E-04,  avg # of iterations =  1.1

     negative rho (up, down):  6.779E-04 0.000E+00

     total cpu time spent up to now is       34.0 secs

     total energy              =    -448.58576695 Ry
     estimated scf accuracy    <       0.16782615 Ry

     iteration # 19     ecut=   124.00 Ry     beta= 0.70
     Davidson diagonalization with overlap
     ethr =  4.15E-04,  avg # of iterations =  1.0

     negative rho (up, down):  8.422E-04 0.000E+00

     total cpu time spent up to now is       35.5 secs

     total energy              =    -448.57378910 Ry
     estimated scf accuracy    <       0.10713452 Ry

     iteration # 20     ecut=   124.00 Ry     beta= 0.70
     Davidson diagonalization with overlap
     ethr =  3.83E-04,  avg # of iterations =  1.0

     negative rho (up, down):  9.970E-04 0.000E+00

     total cpu time spent up to now is       37.1 secs

     total energy              =    -448.56610809 Ry
     estimated scf accuracy    <       0.04699270 Ry

     iteration # 21     ecut=   124.00 Ry     beta= 0.70
     Davidson diagonalization with overlap
     ethr =  1.68E-04,  avg # of iterations =  2.1

     negative rho (up, down):  9.564E-04 0.000E+00

     total cpu time spent up to now is       38.7 secs

     total energy              =    -448.57143402 Ry
     estimated scf accuracy    <       0.00189694 Ry

     iteration # 22     ecut=   124.00 Ry     beta= 0.70
     Davidson diagonalization with overlap
     ethr =  6.77E-06,  avg # of iterations =  4.5

     negative rho (up, down):  9.516E-04 0.000E+00

     total cpu time spent up to now is       40.9 secs

     total energy              =    -448.57219013 Ry
     estimated scf accuracy    <       0.00098107 Ry

     iteration # 23     ecut=   124.00 Ry     beta= 0.70
     Davidson diagonalization with overlap
     ethr =  3.50E-06,  avg # of iterations =  1.1

     negative rho (up, down):  9.610E-04 0.000E+00

     total cpu time spent up to now is       42.4 secs

     total energy              =    -448.57209111 Ry
     estimated scf accuracy    <       0.00147163 Ry

     iteration # 24     ecut=   124.00 Ry     beta= 0.70
     Davidson diagonalization with overlap
     ethr =  3.50E-06,  avg # of iterations =  1.1

     negative rho (up, down):  9.634E-04 0.000E+00

     total cpu time spent up to now is       44.0 secs

     total energy              =    -448.57209541 Ry
     estimated scf accuracy    <       0.00032395 Ry

     iteration # 25     ecut=   124.00 Ry     beta= 0.70
     Davidson diagonalization with overlap
     ethr =  1.16E-06,  avg # of iterations =  2.2

     negative rho (up, down):  9.664E-04 0.000E+00

     total cpu time spent up to now is       45.6 secs

     total energy              =    -448.57211183 Ry
     estimated scf accuracy    <       0.00001480 Ry

     iteration # 26     ecut=   124.00 Ry     beta= 0.70
     Davidson diagonalization with overlap
     ethr =  5.28E-08,  avg # of iterations =  4.7

     negative rho (up, down):  9.656E-04 0.000E+00

     total cpu time spent up to now is       47.8 secs

     total energy              =    -448.57211966 Ry
     estimated scf accuracy    <       0.00001646 Ry

     iteration # 27     ecut=   124.00 Ry     beta= 0.70
     Davidson diagonalization with overlap
     ethr =  5.28E-08,  avg # of iterations =  1.0

     negative rho (up, down):  9.654E-04 0.000E+00

     total cpu time spent up to now is       49.3 secs

     total energy              =    -448.57212047 Ry
     estimated scf accuracy    <       0.00000043 Ry

     iteration # 28     ecut=   124.00 Ry     beta= 0.70
     Davidson diagonalization with overlap
     ethr =  1.53E-09,  avg # of iterations =  4.8

     negative rho (up, down):  9.653E-04 0.000E+00

     total cpu time spent up to now is       51.5 secs

     total energy              =    -448.57212072 Ry
     estimated scf accuracy    <       0.00000005 Ry

     iteration # 29     ecut=   124.00 Ry     beta= 0.70
     Davidson diagonalization with overlap
     ethr =  1.71E-10,  avg # of iterations =  3.0

     negative rho (up, down):  9.655E-04 0.000E+00

     total cpu time spent up to now is       53.2 secs

     End of self-consistent calculation

     Number of k-points >= 100: set verbosity='high' to print the bands.

     the Fermi energy is    19.6938 ev

!    total energy              =    -448.57212072 Ry
     estimated scf accuracy    <          7.8E-09 Ry
     smearing contrib. (-TS)   =       0.00002060 Ry
     internal energy E=F+TS    =    -448.57214133 Ry

     The total energy is F=E-TS. E is the sum of the following terms:
     one-electron contribution =    -138.76083134 Ry
     hartree contribution      =      87.43749546 Ry
     xc contribution           =     -53.06367085 Ry
     ewald contribution        =    -268.02936898 Ry
     one-center paw contrib.   =     -76.15576562 Ry

     convergence has been achieved in  29 iterations

     negative rho (up, down):  9.655E-04 0.000E+00

     Forces acting on atoms (cartesian axes, Ry/au):

     atom    1 type  1   force =     0.00000000    0.00000000    0.00000000
     atom    2 type  2   force =     0.00000000    0.00000000    0.00000000

     Total force =     0.000000     Total SCF correction =     0.000000


     Computing stress (Cartesian axis) and pressure


     negative rho (up, down):  9.655E-04 0.000E+00
          total   stress  (Ry/bohr**3)                   (kbar)     P=      262.33
   0.00178330   0.00000000   0.00000000          262.33        0.00        0.00
   0.00000000   0.00178330   0.00000000            0.00      262.33        0.00
   0.00000000   0.00000000   0.00178330            0.00        0.00      262.33


     Writing all to output data dir ./TiFe.save/ :
     XML data file, charge density, pseudopotentials, collected wavefunctions

     init_run     :      1.85s CPU      1.90s WALL (       1 calls)
     electrons    :     49.25s CPU     51.15s WALL (       1 calls)
     forces       :      0.28s CPU      0.29s WALL (       1 calls)
     stress       :      1.55s CPU      1.60s WALL (       1 calls)

     Called by init_run:
     wfcinit      :      0.67s CPU      0.68s WALL (       1 calls)
     potinit      :      0.36s CPU      0.38s WALL (       1 calls)
     hinit0       :      0.65s CPU      0.65s WALL (       1 calls)

     Called by electrons:
     c_bands      :     34.00s CPU     34.80s WALL (      29 calls)
     sum_band     :      9.54s CPU     10.07s WALL (      29 calls)
     v_of_rho     :      0.59s CPU      0.64s WALL (      30 calls)
     newd         :      3.48s CPU      3.86s WALL (      30 calls)
     PAW_pot      :      1.68s CPU      1.82s WALL (      30 calls)
     mix_rho      :      0.07s CPU      0.08s WALL (      29 calls)

     Called by c_bands:
     init_us_2    :      0.99s CPU      1.02s WALL (    7320 calls)
     cegterg      :     32.21s CPU     32.97s WALL (    3480 calls)

     Called by *egterg:
     cdiaghg      :      3.52s CPU      3.59s WALL (   11366 calls)
     h_psi        :     25.47s CPU     26.10s WALL (   11486 calls)
     s_psi        :      0.59s CPU      0.60s WALL (   11486 calls)
     g_psi        :      0.13s CPU      0.14s WALL (    7886 calls)

     Called by h_psi:
     h_psi:calbec :      0.95s CPU      0.97s WALL (   11486 calls)
     vloc_psi     :     23.81s CPU     24.41s WALL (   11486 calls)
     add_vuspsi   :      0.59s CPU      0.61s WALL (   11486 calls)

     General routines
     calbec       :      1.51s CPU      1.55s WALL (   17006 calls)
     fft          :      0.88s CPU      0.96s WALL (     413 calls)
     ffts         :      0.29s CPU      0.29s WALL (      59 calls)
     fftw         :     23.71s CPU     24.28s WALL (  359750 calls)
     interpolate  :      0.31s CPU      0.32s WALL (      30 calls)

     Parallel routines

     PWSCF        :     53.33s CPU     55.59s WALL


   This run was terminated on:  14:58:50  28Oct2025            

=------------------------------------------------------------------------------=
   JOB DONE.
=------------------------------------------------------------------------------=
