
     Program PWSCF v.7.4 starts on 28Oct2025 at 14:58:50 

     This program is part of the open-source Quantum ESPRESSO suite
     for quantum simulation of materials; please cite
         "P. Giannozzi et al., J. Phys.:Condens. Matter 21 395502 (2009);
         "P. Giannozzi et al., J. Phys.:Condens. Matter 29 465901 (2017);
         "P. Giannozzi et al., J. Chem. Phys. 152 154105 (2020);
          URL http://www.quantum-espresso.org", 
     in publications or presentations arising from this work. More details at
     http://www.quantum-espresso.org/quote

     Parallel version (MPI & OpenMP), running on       8 processor cores
     Number of MPI processes:                 8
     Threads/MPI process:                     1

     MPI processes distributed on     1 nodes
     226542 MiB available memory on the printing compute node when the environment starts

     Reading input from TiFe_4.in

     Current dimensions of program PWSCF are:
     Max number of different atomic species (ntypx) = 10
     Max number of k-points (npk) =  40000
     Max angular momentum in pseudopotentials (lmaxx) =  4
     file Fe.pbe-spn-kjpaw_psl.0.2.1.UPF: wavefunction(s)  3D renormalized

     IMPORTANT: XC functional enforced from input :
     Exchange-correlation= PBE
                           (   1   4   3   4   0   0   0)
     Any further DFT definition will be discarded
     Please, verify this is what you really want

     Message from routine setup:
     using ibrav=0 with symmetry is DISCOURAGED, use correct ibrav instead

     R & G space division:  proc/nbgrp/npool/nimage =       8
     Subspace diagonalization in iterative solution of the eigenvalue problem:
     a serial algorithm will be used


     Parallelization info
     --------------------
     sticks:   dense  smooth     PW     G-vecs:    dense   smooth      PW
     Min         503     144     42                24053     3676     586
     Max         504     145     43                24056     3679     589
     Sum        4025    1153    341               192431    29423    4697

     Using Slab Decomposition



     bravais-lattice index     =            0
     lattice parameter (alat)  =       5.4021  a.u.
     unit-cell volume          =     157.6497 (a.u.)^3
     number of atoms/cell      =            2
     number of atomic types    =            2
     number of electrons       =        28.00
     number of Kohn-Sham states=           18
     kinetic-energy cutoff     =     124.0000  Ry
     charge density cutoff     =    1736.0000  Ry
     scf convergence threshold =      1.0E-08
     mixing beta               =       0.7000
     number of iterations used =            8  plain     mixing
     Exchange-correlation= PBE
                           (   1   4   3   4   0   0   0)

     celldm(1)=   5.402122  celldm(2)=   0.000000  celldm(3)=   0.000000
     celldm(4)=   0.000000  celldm(5)=   0.000000  celldm(6)=   0.000000

     crystal axes: (cart. coord. in units of alat)
               a(1) = (   1.000000   0.000000   0.000000 )  
               a(2) = (   0.000000   1.000000   0.000000 )  
               a(3) = (   0.000000   0.000000   1.000000 )  

     reciprocal axes: (cart. coord. in units 2 pi/alat)
               b(1) = (  1.000000  0.000000  0.000000 )  
               b(2) = (  0.000000  1.000000  0.000000 )  
               b(3) = (  0.000000  0.000000  1.000000 )  


     PseudoPot. # 1 for Fe read from file:
     ../../pseudos/Fe.pbe-spn-kjpaw_psl.0.2.1.UPF
     MD5 check sum: e86618425769142926afa95317d90200
     Pseudo is Projector augmented-wave + core cor, Zval = 16.0
     Generated using "atomic" code by A. Dal Corso  v.5.0.99 svn rev. 10869
     Shape of augmentation charge: PSQ
     Using radial grid of 1191 points,  6 beta functions with: 
                l(1) =   0
                l(2) =   0
                l(3) =   1
                l(4) =   1
                l(5) =   2
                l(6) =   2
     Q(r) pseudized with 0 coefficients 


     PseudoPot. # 2 for Ti read from file:
     ../../pseudos/ti_pbe_v1.4.uspp.F.UPF
     MD5 check sum: 88a00a6731bd790ddea75d31a80cb452
     Pseudo is Ultrasoft + core correction, Zval = 12.0
     Generated by new atomic code, or converted to UPF format
     Using radial grid of  851 points,  6 beta functions with: 
                l(1) =   0
                l(2) =   0
                l(3) =   1
                l(4) =   1
                l(5) =   2
                l(6) =   2
     Q(r) pseudized with  6 coefficients,  rinner =    1.000   1.000   1.000
                                                       1.000   1.000

     atomic species   valence    mass     pseudopotential
     Fe               16.00    55.84500     Fe( 1.00)
     Ti               12.00    47.86700     Ti( 1.00)

     48 Sym. Ops., with inversion, found



   Cartesian axes

     site n.     atom                  positions (alat units)
         1        Fe     tau(   1) = (   0.5000000   0.5000000   0.5000000  )
         2        Ti     tau(   2) = (   0.0000000   0.0000000   0.0000000  )

     number of k points=   120  Marzari-Vanderbilt smearing, width (Ry)=  0.0050

     Number of k-points >= 100: set verbosity='high' to print them.

     Dense  grid:   192431 G-vectors     FFT dimensions: (  72,  72,  72)

     Smooth grid:    29423 G-vectors     FFT dimensions: (  40,  40,  40)

     Estimated max dynamical RAM per process >     109.75 MB

     Estimated total dynamical RAM >     877.99 MB

     Check: negative core charge=   -0.000002

     Initial potential from superposition of free atoms

     starting charge      26.9995, renormalised to      28.0000

     negative rho (up, down):  1.338E-03 0.000E+00
     Starting wfcs are   23 randomized atomic wfcs
     Checking if some PAW data can be deallocated... 

     total cpu time spent up to now is        2.1 secs

     per-process dynamical memory:   141.9 Mb

     Self-consistent Calculation

     iteration #  1     ecut=   124.00 Ry     beta= 0.70
     Davidson diagonalization with overlap
     ethr =  1.00E-02,  avg # of iterations =  2.1

     negative rho (up, down):  5.728E-05 0.000E+00

     total cpu time spent up to now is        3.9 secs

     total energy              =    -436.39386899 Ry
     estimated scf accuracy    <      15.62828310 Ry

     iteration #  2     ecut=   124.00 Ry     beta= 0.70
     Davidson diagonalization with overlap
     ethr =  1.00E-02,  avg # of iterations =  6.1

     negative rho (up, down):  5.918E-05 0.000E+00

     total cpu time spent up to now is        6.9 secs

     total energy              =    -448.46102553 Ry
     estimated scf accuracy    <      60.10197855 Ry

     iteration #  3     ecut=   124.00 Ry     beta= 0.70
     Davidson diagonalization with overlap
     ethr =  1.00E-02,  avg # of iterations =  3.0

     negative rho (up, down):  2.931E-04 0.000E+00

     total cpu time spent up to now is        9.1 secs

     total energy              =    -448.46971359 Ry
     estimated scf accuracy    <      15.17142282 Ry

     iteration #  4     ecut=   124.00 Ry     beta= 0.70
     Davidson diagonalization with overlap
     ethr =  1.00E-02,  avg # of iterations =  2.1

     negative rho (up, down):  2.889E-04 0.000E+00

     total cpu time spent up to now is       10.9 secs

     total energy              =    -449.02729644 Ry
     estimated scf accuracy    <       3.83135125 Ry

     iteration #  5     ecut=   124.00 Ry     beta= 0.70
     Davidson diagonalization with overlap
     ethr =  1.00E-02,  avg # of iterations =  1.0

     negative rho (up, down):  3.783E-04 0.000E+00

     total cpu time spent up to now is       12.5 secs

     total energy              =    -448.72068093 Ry
     estimated scf accuracy    <       3.58347701 Ry

     iteration #  6     ecut=   124.00 Ry     beta= 0.70
     Davidson diagonalization with overlap
     ethr =  1.00E-02,  avg # of iterations =  1.0

     negative rho (up, down):  3.856E-04 0.000E+00

     total cpu time spent up to now is       14.0 secs

     total energy              =    -448.75760651 Ry
     estimated scf accuracy    <       1.33368595 Ry

     iteration #  7     ecut=   124.00 Ry     beta= 0.70
     Davidson diagonalization with overlap
     ethr =  4.76E-03,  avg # of iterations =  1.0

     negative rho (up, down):  3.870E-04 0.000E+00

     total cpu time spent up to now is       15.6 secs

     total energy              =    -448.74184340 Ry
     estimated scf accuracy    <       1.02940841 Ry

     iteration #  8     ecut=   124.00 Ry     beta= 0.70
     Davidson diagonalization with overlap
     ethr =  3.68E-03,  avg # of iterations =  1.0

     negative rho (up, down):  6.078E-01 0.000E+00

     total cpu time spent up to now is       17.1 secs

     total energy              =    -453.51108112 Ry
     estimated scf accuracy    <       0.79083597 Ry

     iteration #  9     ecut=   124.00 Ry     beta= 0.70
     Davidson diagonalization with overlap
     ethr =  2.82E-03,  avg # of iterations =  5.5

     negative rho (up, down):  1.083E-01 0.000E+00

     total cpu time spent up to now is       19.9 secs

     total energy              =    -451.99321189 Ry
     estimated scf accuracy    <      16.28552221 Ry

     iteration # 10     ecut=   124.00 Ry     beta= 0.70
     Davidson diagonalization with overlap
     ethr =  2.82E-03,  avg # of iterations =  3.8

     negative rho (up, down):  1.061E-03 0.000E+00

     total cpu time spent up to now is       21.8 secs

     total energy              =    -448.59836497 Ry
     estimated scf accuracy    <      23.31042765 Ry

     iteration # 11     ecut=   124.00 Ry     beta= 0.70
     Davidson diagonalization with overlap
     ethr =  2.82E-03,  avg # of iterations =  4.1

     negative rho (up, down):  1.337E-03 0.000E+00

     total cpu time spent up to now is       24.0 secs

     total energy              =    -449.44482904 Ry
     estimated scf accuracy    <       4.16270187 Ry

     iteration # 12     ecut=   124.00 Ry     beta= 0.70
     Davidson diagonalization with overlap
     ethr =  2.82E-03,  avg # of iterations =  3.2

     negative rho (up, down):  8.075E-04 0.000E+00

     total cpu time spent up to now is       25.8 secs

     WARNING: integrated charge=    28.00182858, expected=    28.00000000

     total energy              =    -448.22497422 Ry
     estimated scf accuracy    <      16.21984173 Ry

     iteration # 13     ecut=   124.00 Ry     beta= 0.70
     Davidson diagonalization with overlap
     ethr =  2.82E-03,  avg # of iterations =  3.5

     negative rho (up, down):  5.074E-04 0.000E+00

     total cpu time spent up to now is       27.7 secs

     WARNING: integrated charge=    28.00268740, expected=    28.00000000

     total energy              =    -448.34876499 Ry
     estimated scf accuracy    <       1.60118225 Ry

     iteration # 14     ecut=   124.00 Ry     beta= 0.70
     Davidson diagonalization with overlap
     ethr =  2.82E-03,  avg # of iterations =  3.7

     negative rho (up, down):  6.216E-04 0.000E+00

     total cpu time spent up to now is       29.7 secs

     WARNING: integrated charge=    28.00255884, expected=    28.00000000

     total energy              =    -448.57540382 Ry
     estimated scf accuracy    <       0.66920105 Ry

     iteration # 15     ecut=   124.00 Ry     beta= 0.70
     Davidson diagonalization with overlap
     ethr =  2.39E-03,  avg # of iterations =  1.1

     negative rho (up, down):  7.016E-04 0.000E+00

     total cpu time spent up to now is       31.2 secs

     WARNING: integrated charge=    28.00204120, expected=    28.00000000

     total energy              =    -448.55962524 Ry
     estimated scf accuracy    <       0.27531433 Ry

     iteration # 16     ecut=   124.00 Ry     beta= 0.70
     Davidson diagonalization with overlap
     ethr =  9.83E-04,  avg # of iterations =  1.7

     negative rho (up, down):  7.142E-04 0.000E+00

     total cpu time spent up to now is       32.8 secs

     WARNING: integrated charge=    28.00195199, expected=    28.00000000

     total energy              =    -448.57435369 Ry
     estimated scf accuracy    <       0.04763763 Ry

     iteration # 17     ecut=   124.00 Ry     beta= 0.70
     Davidson diagonalization with overlap
     ethr =  1.70E-04,  avg # of iterations =  4.4

     negative rho (up, down):  7.256E-04 0.000E+00

     total cpu time spent up to now is       34.8 secs

     WARNING: integrated charge=    28.00142064, expected=    28.00000000

     total energy              =    -448.58184306 Ry
     estimated scf accuracy    <       0.02854509 Ry

     iteration # 18     ecut=   124.00 Ry     beta= 0.70
     Davidson diagonalization with overlap
     ethr =  1.02E-04,  avg # of iterations =  1.2

     negative rho (up, down):  7.642E-04 0.000E+00

     total cpu time spent up to now is       36.4 secs

     WARNING: integrated charge=    28.00139719, expected=    28.00000000

     total energy              =    -448.57924229 Ry
     estimated scf accuracy    <       0.03775081 Ry

     iteration # 19     ecut=   124.00 Ry     beta= 0.70
     Davidson diagonalization with overlap
     ethr =  1.02E-04,  avg # of iterations =  1.0

     negative rho (up, down):  7.942E-04 0.000E+00

     total cpu time spent up to now is       37.9 secs

     WARNING: integrated charge=    28.00126424, expected=    28.00000000

     total energy              =    -448.57843037 Ry
     estimated scf accuracy    <       0.02081223 Ry

     iteration # 20     ecut=   124.00 Ry     beta= 0.70
     Davidson diagonalization with overlap
     ethr =  7.43E-05,  avg # of iterations =  1.0

     negative rho (up, down):  8.359E-04 0.000E+00

     total cpu time spent up to now is       39.5 secs

     WARNING: integrated charge=    28.00102079, expected=    28.00000000

     total energy              =    -448.57686531 Ry
     estimated scf accuracy    <       0.01680110 Ry

     iteration # 21     ecut=   124.00 Ry     beta= 0.70
     Davidson diagonalization with overlap
     ethr =  6.00E-05,  avg # of iterations =  1.0

     negative rho (up, down):  9.741E-04 0.000E+00

     total cpu time spent up to now is       41.0 secs

     WARNING: integrated charge=    28.00004440, expected=    28.00000000

     total energy              =    -448.57302776 Ry
     estimated scf accuracy    <       0.01016831 Ry

     iteration # 22     ecut=   124.00 Ry     beta= 0.70
     Davidson diagonalization with overlap
     ethr =  3.63E-05,  avg # of iterations =  2.6

     negative rho (up, down):  9.796E-04 0.000E+00

     total cpu time spent up to now is       42.8 secs

     WARNING: integrated charge=    28.00002039, expected=    28.00000000

     total energy              =    -448.57465153 Ry
     estimated scf accuracy    <       0.00012427 Ry

     iteration # 23     ecut=   124.00 Ry     beta= 0.70
     Davidson diagonalization with overlap
     c_bands:  1 eigenvalues not converged
     ethr =  4.44E-07,  avg # of iterations =  6.8

     negative rho (up, down):  9.680E-04 0.000E+00

     total cpu time spent up to now is       45.9 secs

     WARNING: integrated charge=    28.00002337, expected=    28.00000000

     total energy              =    -448.57488715 Ry
     estimated scf accuracy    <       0.00025825 Ry

     iteration # 24     ecut=   124.00 Ry     beta= 0.70
     Davidson diagonalization with overlap
     ethr =  4.44E-07,  avg # of iterations =  2.4

     negative rho (up, down):  9.678E-04 0.000E+00

     total cpu time spent up to now is       47.6 secs

     WARNING: integrated charge=    28.00001015, expected=    28.00000000

     total energy              =    -448.57491254 Ry
     estimated scf accuracy    <       0.00000105 Ry

     iteration # 25     ecut=   124.00 Ry     beta= 0.70
     Davidson diagonalization with overlap
     ethr =  3.74E-09,  avg # of iterations =  4.9

     negative rho (up, down):  9.680E-04 0.000E+00

     total cpu time spent up to now is       50.0 secs

     total energy              =    -448.57491406 Ry
     estimated scf accuracy    <       0.00000007 Ry

     iteration # 26     ecut=   124.00 Ry     beta= 0.70
     Davidson diagonalization with overlap
     ethr =  2.57E-10,  avg # of iterations =  4.2

     negative rho (up, down):  9.680E-04 0.000E+00

     total cpu time spent up to now is       52.0 secs

     End of self-consistent calculation

     Number of k-points >= 100: set verbosity='high' to print the bands.

     the Fermi energy is    19.4670 ev

!    total energy              =    -448.57491407 Ry
     estimated scf accuracy    <          4.2E-09 Ry
     smearing contrib. (-TS)   =       0.00001761 Ry
     internal energy E=F+TS    =    -448.57493168 Ry

     The total energy is F=E-TS. E is the sum of the following terms:
     one-electron contribution =    -140.19192262 Ry
     hartree contribution      =      87.90715014 Ry
     xc contribution           =     -53.04285694 Ry
     ewald contribution        =    -267.09177061 Ry
     one-center paw contrib.   =     -76.15553164 Ry

     convergence has been achieved in  26 iterations

     negative rho (up, down):  9.680E-04 0.000E+00

     Forces acting on atoms (cartesian axes, Ry/au):

     atom    1 type  1   force =     0.00000000    0.00000000    0.00000000
     atom    2 type  2   force =     0.00000000    0.00000000    0.00000000

     Total force =     0.000000     Total SCF correction =     0.000000


     Computing stress (Cartesian axis) and pressure


     negative rho (up, down):  9.680E-04 0.000E+00
          total   stress  (Ry/bohr**3)                   (kbar)     P=      231.92
   0.00157656   0.00000000   0.00000000          231.92        0.00        0.00
   0.00000000   0.00157656   0.00000000            0.00      231.92        0.00
   0.00000000   0.00000000   0.00157656            0.00        0.00      231.92


     Writing all to output data dir ./TiFe.save/ :
     XML data file, charge density, pseudopotentials, collected wavefunctions

     init_run     :      1.83s CPU      1.88s WALL (       1 calls)
     electrons    :     48.17s CPU     49.96s WALL (       1 calls)
     forces       :      0.29s CPU      0.30s WALL (       1 calls)
     stress       :      1.58s CPU      1.63s WALL (       1 calls)

     Called by init_run:
     wfcinit      :      0.64s CPU      0.66s WALL (       1 calls)
     potinit      :      0.37s CPU      0.38s WALL (       1 calls)
     hinit0       :      0.64s CPU      0.65s WALL (       1 calls)

     Called by electrons:
     c_bands      :     34.43s CPU     35.21s WALL (      26 calls)
     sum_band     :      8.63s CPU      9.09s WALL (      26 calls)
     v_of_rho     :      0.54s CPU      0.58s WALL (      27 calls)
     newd         :      3.16s CPU      3.52s WALL (      27 calls)
     PAW_pot      :      1.49s CPU      1.63s WALL (      27 calls)
     mix_rho      :      0.06s CPU      0.07s WALL (      26 calls)

     Called by c_bands:
     init_us_2    :      0.87s CPU      0.89s WALL (    6600 calls)
     cegterg      :     32.81s CPU     33.55s WALL (    3120 calls)

     Called by *egterg:
     cdiaghg      :      3.80s CPU      3.89s WALL (   11943 calls)
     h_psi        :     25.44s CPU     26.04s WALL (   12063 calls)
     s_psi        :      0.60s CPU      0.62s WALL (   12063 calls)
     g_psi        :      0.15s CPU      0.15s WALL (    8823 calls)

     Called by h_psi:
     h_psi:calbec :      0.97s CPU      1.00s WALL (   12063 calls)
     vloc_psi     :     23.75s CPU     24.31s WALL (   12063 calls)
     add_vuspsi   :      0.61s CPU      0.63s WALL (   12063 calls)

     General routines
     calbec       :      1.47s CPU      1.50s WALL (   17223 calls)
     fft          :      0.85s CPU      0.91s WALL (     374 calls)
     ffts         :      0.29s CPU      0.29s WALL (      53 calls)
     fftw         :     23.20s CPU     23.72s WALL (  351490 calls)
     interpolate  :      0.30s CPU      0.31s WALL (      27 calls)

     Parallel routines

     PWSCF        :     52.27s CPU     54.41s WALL


   This run was terminated on:  14:59:44  28Oct2025            

=------------------------------------------------------------------------------=
   JOB DONE.
=------------------------------------------------------------------------------=
