
     Program PWSCF v.7.4 starts on 28Oct2025 at 15: 3:33 

     This program is part of the open-source Quantum ESPRESSO suite
     for quantum simulation of materials; please cite
         "P. Giannozzi et al., J. Phys.:Condens. Matter 21 395502 (2009);
         "P. Giannozzi et al., J. Phys.:Condens. Matter 29 465901 (2017);
         "P. Giannozzi et al., J. Chem. Phys. 152 154105 (2020);
          URL http://www.quantum-espresso.org", 
     in publications or presentations arising from this work. More details at
     http://www.quantum-espresso.org/quote

     Parallel version (MPI & OpenMP), running on       8 processor cores
     Number of MPI processes:                 8
     Threads/MPI process:                     1

     MPI processes distributed on     1 nodes
     224951 MiB available memory on the printing compute node when the environment starts

     Reading input from TiFe_9.in

     Current dimensions of program PWSCF are:
     Max number of different atomic species (ntypx) = 10
     Max number of k-points (npk) =  40000
     Max angular momentum in pseudopotentials (lmaxx) =  4
     file Fe.pbe-spn-kjpaw_psl.0.2.1.UPF: wavefunction(s)  3D renormalized

     IMPORTANT: XC functional enforced from input :
     Exchange-correlation= PBE
                           (   1   4   3   4   0   0   0)
     Any further DFT definition will be discarded
     Please, verify this is what you really want

     Message from routine setup:
     using ibrav=0 with symmetry is DISCOURAGED, use correct ibrav instead

     R & G space division:  proc/nbgrp/npool/nimage =       8
     Subspace diagonalization in iterative solution of the eigenvalue problem:
     a serial algorithm will be used


     Parallelization info
     --------------------
     sticks:   dense  smooth     PW     G-vecs:    dense   smooth      PW
     Min         523     150     43                25353     3886     617
     Max         524     151     44                25356     3889     620
     Sum        4189    1201    349               202837    31103    4945

     Using Slab Decomposition



     bravais-lattice index     =            0
     lattice parameter (alat)  =       5.4966  a.u.
     unit-cell volume          =     166.0674 (a.u.)^3
     number of atoms/cell      =            2
     number of atomic types    =            2
     number of electrons       =        28.00
     number of Kohn-Sham states=           18
     kinetic-energy cutoff     =     124.0000  Ry
     charge density cutoff     =    1736.0000  Ry
     scf convergence threshold =      1.0E-08
     mixing beta               =       0.7000
     number of iterations used =            8  plain     mixing
     Exchange-correlation= PBE
                           (   1   4   3   4   0   0   0)

     celldm(1)=   5.496609  celldm(2)=   0.000000  celldm(3)=   0.000000
     celldm(4)=   0.000000  celldm(5)=   0.000000  celldm(6)=   0.000000

     crystal axes: (cart. coord. in units of alat)
               a(1) = (   1.000000   0.000000   0.000000 )  
               a(2) = (   0.000000   1.000000   0.000000 )  
               a(3) = (   0.000000   0.000000   1.000000 )  

     reciprocal axes: (cart. coord. in units 2 pi/alat)
               b(1) = (  1.000000  0.000000  0.000000 )  
               b(2) = (  0.000000  1.000000  0.000000 )  
               b(3) = (  0.000000  0.000000  1.000000 )  


     PseudoPot. # 1 for Fe read from file:
     ../../pseudos/Fe.pbe-spn-kjpaw_psl.0.2.1.UPF
     MD5 check sum: e86618425769142926afa95317d90200
     Pseudo is Projector augmented-wave + core cor, Zval = 16.0
     Generated using "atomic" code by A. Dal Corso  v.5.0.99 svn rev. 10869
     Shape of augmentation charge: PSQ
     Using radial grid of 1191 points,  6 beta functions with: 
                l(1) =   0
                l(2) =   0
                l(3) =   1
                l(4) =   1
                l(5) =   2
                l(6) =   2
     Q(r) pseudized with 0 coefficients 


     PseudoPot. # 2 for Ti read from file:
     ../../pseudos/ti_pbe_v1.4.uspp.F.UPF
     MD5 check sum: 88a00a6731bd790ddea75d31a80cb452
     Pseudo is Ultrasoft + core correction, Zval = 12.0
     Generated by new atomic code, or converted to UPF format
     Using radial grid of  851 points,  6 beta functions with: 
                l(1) =   0
                l(2) =   0
                l(3) =   1
                l(4) =   1
                l(5) =   2
                l(6) =   2
     Q(r) pseudized with  6 coefficients,  rinner =    1.000   1.000   1.000
                                                       1.000   1.000

     atomic species   valence    mass     pseudopotential
     Fe               16.00    55.84500     Fe( 1.00)
     Ti               12.00    47.86700     Ti( 1.00)

     48 Sym. Ops., with inversion, found



   Cartesian axes

     site n.     atom                  positions (alat units)
         1        Fe     tau(   1) = (   0.5000000   0.5000000   0.5000000  )
         2        Ti     tau(   2) = (   0.0000000   0.0000000   0.0000000  )

     number of k points=   120  Marzari-Vanderbilt smearing, width (Ry)=  0.0050

     Number of k-points >= 100: set verbosity='high' to print them.

     Dense  grid:   202837 G-vectors     FFT dimensions: (  75,  75,  75)

     Smooth grid:    31103 G-vectors     FFT dimensions: (  40,  40,  40)

     Estimated max dynamical RAM per process >     115.81 MB

     Estimated total dynamical RAM >     926.52 MB

     Check: negative core charge=   -0.000002

     Initial potential from superposition of free atoms

     starting charge      26.9995, renormalised to      28.0000

     negative rho (up, down):  1.334E-03 0.000E+00
     Starting wfcs are   23 randomized atomic wfcs
     Checking if some PAW data can be deallocated... 

     total cpu time spent up to now is        1.8 secs

     per-process dynamical memory:   143.8 Mb

     Self-consistent Calculation

     iteration #  1     ecut=   124.00 Ry     beta= 0.70
     Davidson diagonalization with overlap
     ethr =  1.00E-02,  avg # of iterations =  2.1

     negative rho (up, down):  6.618E-05 0.000E+00

     total cpu time spent up to now is        3.7 secs

     total energy              =    -435.46015812 Ry
     estimated scf accuracy    <      16.77278297 Ry

     iteration #  2     ecut=   124.00 Ry     beta= 0.70
     Davidson diagonalization with overlap
     ethr =  1.00E-02,  avg # of iterations =  6.1

     negative rho (up, down):  3.911E-05 0.000E+00

     total cpu time spent up to now is        6.9 secs

     total energy              =    -448.52628064 Ry
     estimated scf accuracy    <      63.74370091 Ry

     iteration #  3     ecut=   124.00 Ry     beta= 0.70
     Davidson diagonalization with overlap
     ethr =  1.00E-02,  avg # of iterations =  3.1

     negative rho (up, down):  2.669E-04 0.000E+00

     total cpu time spent up to now is        9.2 secs

     total energy              =    -448.53819674 Ry
     estimated scf accuracy    <      16.18223831 Ry

     iteration #  4     ecut=   124.00 Ry     beta= 0.70
     Davidson diagonalization with overlap
     ethr =  1.00E-02,  avg # of iterations =  2.1

     negative rho (up, down):  2.873E-04 0.000E+00

     total cpu time spent up to now is       11.1 secs

     total energy              =    -449.08485493 Ry
     estimated scf accuracy    <       4.33111368 Ry

     iteration #  5     ecut=   124.00 Ry     beta= 0.70
     Davidson diagonalization with overlap
     ethr =  1.00E-02,  avg # of iterations =  1.0

     negative rho (up, down):  2.724E-04 0.000E+00

     total cpu time spent up to now is       12.7 secs

     total energy              =    -449.03989872 Ry
     estimated scf accuracy    <       4.03068068 Ry

     iteration #  6     ecut=   124.00 Ry     beta= 0.70
     Davidson diagonalization with overlap
     ethr =  1.00E-02,  avg # of iterations =  1.0

     negative rho (up, down):  8.353E-04 0.000E+00

     total cpu time spent up to now is       14.4 secs

     total energy              =    -448.17663096 Ry
     estimated scf accuracy    <       3.22537206 Ry

     iteration #  7     ecut=   124.00 Ry     beta= 0.70
     Davidson diagonalization with overlap
     ethr =  1.00E-02,  avg # of iterations =  2.1

     negative rho (up, down):  8.981E-04 0.000E+00

     total cpu time spent up to now is       16.1 secs

     total energy              =    -448.59934336 Ry
     estimated scf accuracy    <       0.73361901 Ry

     iteration #  8     ecut=   124.00 Ry     beta= 0.70
     Davidson diagonalization with overlap
     ethr =  2.62E-03,  avg # of iterations =  1.5

     negative rho (up, down):  9.901E-04 0.000E+00

     total cpu time spent up to now is       17.8 secs

     total energy              =    -448.57667824 Ry
     estimated scf accuracy    <       0.60264386 Ry

     iteration #  9     ecut=   124.00 Ry     beta= 0.70
     Davidson diagonalization with overlap
     ethr =  2.15E-03,  avg # of iterations =  1.6

     negative rho (up, down):  1.079E-03 0.000E+00

     total cpu time spent up to now is       19.5 secs

     total energy              =    -448.66276019 Ry
     estimated scf accuracy    <       0.16540613 Ry

     iteration # 10     ecut=   124.00 Ry     beta= 0.70
     Davidson diagonalization with overlap
     ethr =  5.91E-04,  avg # of iterations =  5.2

     negative rho (up, down):  7.901E-04 0.000E+00

     total cpu time spent up to now is       21.6 secs

     total energy              =    -448.32084304 Ry
     estimated scf accuracy    <       4.00722316 Ry

     iteration # 11     ecut=   124.00 Ry     beta= 0.70
     Davidson diagonalization with overlap
     ethr =  5.91E-04,  avg # of iterations =  4.6

     negative rho (up, down):  7.577E-04 0.000E+00

     total cpu time spent up to now is       23.8 secs

     total energy              =    -448.59259789 Ry
     estimated scf accuracy    <       0.10110321 Ry

     iteration # 12     ecut=   124.00 Ry     beta= 0.70
     Davidson diagonalization with overlap
     ethr =  3.61E-04,  avg # of iterations =  1.1

     negative rho (up, down):  7.743E-04 0.000E+00

     total cpu time spent up to now is       25.4 secs

     total energy              =    -448.59828733 Ry
     estimated scf accuracy    <       0.09803911 Ry

     iteration # 13     ecut=   124.00 Ry     beta= 0.70
     Davidson diagonalization with overlap
     ethr =  3.50E-04,  avg # of iterations =  1.0

     negative rho (up, down):  8.923E-04 0.000E+00

     total cpu time spent up to now is       27.0 secs

     total energy              =    -448.58050667 Ry
     estimated scf accuracy    <       0.20590386 Ry

     iteration # 14     ecut=   124.00 Ry     beta= 0.70
     Davidson diagonalization with overlap
     ethr =  3.50E-04,  avg # of iterations =  1.0

     negative rho (up, down):  9.442E-04 0.000E+00

     total cpu time spent up to now is       28.6 secs

     total energy              =    -448.58311501 Ry
     estimated scf accuracy    <       0.03109157 Ry

     iteration # 15     ecut=   124.00 Ry     beta= 0.70
     Davidson diagonalization with overlap
     ethr =  1.11E-04,  avg # of iterations =  1.6

     negative rho (up, down):  8.146E-04 0.000E+00

     total cpu time spent up to now is       30.3 secs

     total energy              =    -448.58902386 Ry
     estimated scf accuracy    <       0.00395435 Ry

     iteration # 16     ecut=   124.00 Ry     beta= 0.70
     Davidson diagonalization with overlap
     ethr =  1.41E-05,  avg # of iterations =  4.6

     negative rho (up, down):  7.620E-04 0.000E+00

     total cpu time spent up to now is       32.7 secs

     total energy              =    -448.60233360 Ry
     estimated scf accuracy    <       0.11916022 Ry

     iteration # 17     ecut=   124.00 Ry     beta= 0.70
     Davidson diagonalization with overlap
     ethr =  1.41E-05,  avg # of iterations =  2.8

     negative rho (up, down):  8.616E-04 0.000E+00

     total cpu time spent up to now is       34.6 secs

     total energy              =    -448.58581642 Ry
     estimated scf accuracy    <       0.19185120 Ry

     iteration # 18     ecut=   124.00 Ry     beta= 0.70
     Davidson diagonalization with overlap
     ethr =  1.41E-05,  avg # of iterations =  3.9

     negative rho (up, down):  9.220E-04 0.000E+00

     total cpu time spent up to now is       36.8 secs

     total energy              =    -448.58228940 Ry
     estimated scf accuracy    <       0.04750862 Ry

     iteration # 19     ecut=   124.00 Ry     beta= 0.70
     Davidson diagonalization with overlap
     ethr =  1.41E-05,  avg # of iterations =  4.0

     negative rho (up, down):  9.655E-04 0.000E+00

     total cpu time spent up to now is       39.0 secs

     total energy              =    -448.58383339 Ry
     estimated scf accuracy    <       0.00296636 Ry

     iteration # 20     ecut=   124.00 Ry     beta= 0.70
     Davidson diagonalization with overlap
     ethr =  1.06E-05,  avg # of iterations =  2.1

     negative rho (up, down):  9.569E-04 0.000E+00

     total cpu time spent up to now is       40.8 secs

     total energy              =    -448.58422759 Ry
     estimated scf accuracy    <       0.00016289 Ry

     iteration # 21     ecut=   124.00 Ry     beta= 0.70
     Davidson diagonalization with overlap
     ethr =  5.82E-07,  avg # of iterations =  4.2

     negative rho (up, down):  9.551E-04 0.000E+00

     total cpu time spent up to now is       43.0 secs

     total energy              =    -448.58427010 Ry
     estimated scf accuracy    <       0.00004697 Ry

     iteration # 22     ecut=   124.00 Ry     beta= 0.70
     Davidson diagonalization with overlap
     ethr =  1.68E-07,  avg # of iterations =  1.7

     negative rho (up, down):  9.530E-04 0.000E+00

     total cpu time spent up to now is       44.7 secs

     total energy              =    -448.58426881 Ry
     estimated scf accuracy    <       0.00001476 Ry

     iteration # 23     ecut=   124.00 Ry     beta= 0.70
     Davidson diagonalization with overlap
     ethr =  5.27E-08,  avg # of iterations =  2.8

     negative rho (up, down):  9.533E-04 0.000E+00

     total cpu time spent up to now is       46.5 secs

     total energy              =    -448.58427158 Ry
     estimated scf accuracy    <       0.00000241 Ry

     iteration # 24     ecut=   124.00 Ry     beta= 0.70
     Davidson diagonalization with overlap
     ethr =  8.62E-09,  avg # of iterations =  2.6

     negative rho (up, down):  9.534E-04 0.000E+00

     total cpu time spent up to now is       48.3 secs

     total energy              =    -448.58427175 Ry
     estimated scf accuracy    <       0.00000039 Ry

     iteration # 25     ecut=   124.00 Ry     beta= 0.70
     Davidson diagonalization with overlap
     ethr =  1.40E-09,  avg # of iterations =  2.9

     negative rho (up, down):  9.535E-04 0.000E+00

     total cpu time spent up to now is       50.1 secs

     total energy              =    -448.58427179 Ry
     estimated scf accuracy    <       0.00000006 Ry

     iteration # 26     ecut=   124.00 Ry     beta= 0.70
     Davidson diagonalization with overlap
     ethr =  2.15E-10,  avg # of iterations =  3.7

     negative rho (up, down):  9.535E-04 0.000E+00

     total cpu time spent up to now is       52.2 secs

     End of self-consistent calculation

     Number of k-points >= 100: set verbosity='high' to print the bands.

     the Fermi energy is    18.3690 ev

!    total energy              =    -448.58427181 Ry
     estimated scf accuracy    <          9.9E-10 Ry
     smearing contrib. (-TS)   =       0.00000134 Ry
     internal energy E=F+TS    =    -448.58427314 Ry

     The total energy is F=E-TS. E is the sum of the following terms:
     one-electron contribution =    -147.22753451 Ry
     hartree contribution      =      90.24252515 Ry
     xc contribution           =     -52.94438818 Ry
     ewald contribution        =    -262.50048229 Ry
     one-center paw contrib.   =     -76.15439332 Ry

     convergence has been achieved in  26 iterations

     negative rho (up, down):  9.535E-04 0.000E+00

     Forces acting on atoms (cartesian axes, Ry/au):

     atom    1 type  1   force =     0.00000000    0.00000000    0.00000000
     atom    2 type  2   force =     0.00000000    0.00000000    0.00000000

     Total force =     0.000000     Total SCF correction =     0.000000


     Computing stress (Cartesian axis) and pressure


     negative rho (up, down):  9.535E-04 0.000E+00
          total   stress  (Ry/bohr**3)                   (kbar)     P=       97.46
   0.00066252   0.00000000   0.00000000           97.46        0.00        0.00
   0.00000000   0.00066252   0.00000000            0.00       97.46        0.00
   0.00000000   0.00000000   0.00066252            0.00        0.00       97.46


     Writing all to output data dir ./TiFe.save/ :
     XML data file, charge density, pseudopotentials, collected wavefunctions

     init_run     :      1.50s CPU      1.55s WALL (       1 calls)
     electrons    :     48.74s CPU     50.45s WALL (       1 calls)
     forces       :      0.30s CPU      0.32s WALL (       1 calls)
     stress       :      1.67s CPU      1.71s WALL (       1 calls)

     Called by init_run:
     wfcinit      :      0.69s CPU      0.70s WALL (       1 calls)
     potinit      :      0.37s CPU      0.38s WALL (       1 calls)
     hinit0       :      0.26s CPU      0.27s WALL (       1 calls)

     Called by electrons:
     c_bands      :     34.41s CPU     35.16s WALL (      26 calls)
     sum_band     :      8.93s CPU      9.42s WALL (      26 calls)
     v_of_rho     :      0.63s CPU      0.68s WALL (      27 calls)
     newd         :      3.35s CPU      3.72s WALL (      27 calls)
     PAW_pot      :      1.48s CPU      1.52s WALL (      27 calls)
     mix_rho      :      0.08s CPU      0.08s WALL (      26 calls)

     Called by c_bands:
     init_us_2    :      0.92s CPU      0.95s WALL (    6600 calls)
     cegterg      :     32.69s CPU     33.39s WALL (    3120 calls)

     Called by *egterg:
     cdiaghg      :      3.73s CPU      3.81s WALL (   11564 calls)
     h_psi        :     25.48s CPU     26.05s WALL (   11684 calls)
     s_psi        :      0.61s CPU      0.62s WALL (   11684 calls)
     g_psi        :      0.14s CPU      0.15s WALL (    8444 calls)

     Called by h_psi:
     h_psi:calbec :      0.96s CPU      0.99s WALL (   11684 calls)
     vloc_psi     :     23.79s CPU     24.32s WALL (   11684 calls)
     add_vuspsi   :      0.61s CPU      0.63s WALL (   11684 calls)

     General routines
     calbec       :      1.48s CPU      1.52s WALL (   16844 calls)
     fft          :      0.54s CPU      0.62s WALL (     374 calls)
     ffts         :      0.29s CPU      0.29s WALL (      53 calls)
     fftw         :     22.52s CPU     23.01s WALL (  337650 calls)
     interpolate  :      0.31s CPU      0.32s WALL (      27 calls)

     Parallel routines

     PWSCF        :     52.59s CPU     54.71s WALL


   This run was terminated on:  15: 4:28  28Oct2025            

=------------------------------------------------------------------------------=
   JOB DONE.
=------------------------------------------------------------------------------=
