
     Program PWSCF v.7.4 starts on 19Nov2025 at 13:25:42 

     This program is part of the open-source Quantum ESPRESSO suite
     for quantum simulation of materials; please cite
         "P. Giannozzi et al., J. Phys.:Condens. Matter 21 395502 (2009);
         "P. Giannozzi et al., J. Phys.:Condens. Matter 29 465901 (2017);
         "P. Giannozzi et al., J. Chem. Phys. 152 154105 (2020);
          URL http://www.quantum-espresso.org", 
     in publications or presentations arising from this work. More details at
     http://www.quantum-espresso.org/quote

     Parallel version (MPI & OpenMP), running on      16 processor cores
     Number of MPI processes:                16
     Threads/MPI process:                     1

     MPI processes distributed on     1 nodes
     211328 MiB available memory on the printing compute node when the environment starts

     Reading input from TiFeH.in

     Current dimensions of program PWSCF are:
     Max number of different atomic species (ntypx) = 10
     Max number of k-points (npk) =  40000
     Max angular momentum in pseudopotentials (lmaxx) =  4
     file Fe.pbe-spn-kjpaw_psl.0.2.1.UPF: wavefunction(s)  3D renormalized

     IMPORTANT: XC functional enforced from input :
     Exchange-correlation= PBE
                           (   1   4   3   4   0   0   0)
     Any further DFT definition will be discarded
     Please, verify this is what you really want


     R & G space division:  proc/nbgrp/npool/nimage =      16
     Subspace diagonalization in iterative solution of the eigenvalue problem:
     a serial algorithm will be used


     Parallelization info
     --------------------
     sticks:   dense  smooth     PW     G-vecs:    dense   smooth      PW
     Min         269      76     22                13288     2024     320
     Max         271      77     23                13289     2027     323
     Sum        4309    1225    357               212623    32423    5137

     Using Slab Decomposition



     bravais-lattice index     =            0
     lattice parameter (alat)  =       5.5824  a.u.
     unit-cell volume          =     173.9675 (a.u.)^3
     number of atoms/cell      =            3
     number of atomic types    =            3
     number of electrons       =        29.00
     number of Kohn-Sham states=           19
     kinetic-energy cutoff     =     124.0000  Ry
     charge density cutoff     =    1736.0000  Ry
     scf convergence threshold =      1.0E-08
     mixing beta               =       0.7000
     number of iterations used =            8  plain     mixing
     energy convergence thresh.=      1.0E-04
     force convergence thresh. =      1.0E-03
     press convergence thresh. =      1.0E-01
     Exchange-correlation= PBE
                           (   1   4   3   4   0   0   0)
     nstep                     =           50


     celldm(1)=   5.582423  celldm(2)=   0.000000  celldm(3)=   0.000000
     celldm(4)=   0.000000  celldm(5)=   0.000000  celldm(6)=   0.000000

     crystal axes: (cart. coord. in units of alat)
               a(1) = (   1.000000   0.000000   0.000000 )  
               a(2) = (   0.000000   1.000000   0.000000 )  
               a(3) = (   0.000000   0.000000   1.000000 )  

     reciprocal axes: (cart. coord. in units 2 pi/alat)
               b(1) = (  1.000000  0.000000  0.000000 )  
               b(2) = (  0.000000  1.000000  0.000000 )  
               b(3) = (  0.000000  0.000000  1.000000 )  


     PseudoPot. # 1 for Fe read from file:
     ../../pseudos/Fe.pbe-spn-kjpaw_psl.0.2.1.UPF
     MD5 check sum: e86618425769142926afa95317d90200
     Pseudo is Projector augmented-wave + core cor, Zval = 16.0
     Generated using "atomic" code by A. Dal Corso  v.5.0.99 svn rev. 10869
     Shape of augmentation charge: PSQ
     Using radial grid of 1191 points,  6 beta functions with: 
                l(1) =   0
                l(2) =   0
                l(3) =   1
                l(4) =   1
                l(5) =   2
                l(6) =   2
     Q(r) pseudized with 0 coefficients 


     PseudoPot. # 2 for Ti read from file:
     ../../pseudos/ti_pbe_v1.4.uspp.F.UPF
     MD5 check sum: 88a00a6731bd790ddea75d31a80cb452
     Pseudo is Ultrasoft + core correction, Zval = 12.0
     Generated by new atomic code, or converted to UPF format
     Using radial grid of  851 points,  6 beta functions with: 
                l(1) =   0
                l(2) =   0
                l(3) =   1
                l(4) =   1
                l(5) =   2
                l(6) =   2
     Q(r) pseudized with  6 coefficients,  rinner =    1.000   1.000   1.000
                                                       1.000   1.000

     PseudoPot. # 3 for H  read from file:
     ../../pseudos/H.pbe-rrkjus_psl.1.0.0.UPF
     MD5 check sum: f52b6d4d1c606e5624b1dc7b2218f220
     Pseudo is Ultrasoft, Zval =  1.0
     Generated using "atomic" code by A. Dal Corso  v.5.1
     Using radial grid of  929 points,  2 beta functions with: 
                l(1) =   0
                l(2) =   0
     Q(r) pseudized with 0 coefficients 


     atomic species   valence    mass     pseudopotential
     Fe               16.00    55.84500     Fe( 1.00)
     Ti               12.00    47.86700     Ti( 1.00)
     H                 1.00     1.00784     H ( 1.00)

     No symmetry found



   Cartesian axes

     site n.     atom                  positions (alat units)
         1        Fe     tau(   1) = (   0.5000000   0.5000000   0.5000000  )
         2        Ti     tau(   2) = (   0.0000000   0.0000000   0.0000000  )
         3        H      tau(   3) = (   0.5000000   0.0000000   0.0000000  )

     number of k points=  1688  Marzari-Vanderbilt smearing, width (Ry)=  0.0050

     Number of k-points >= 100: set verbosity='high' to print them.

     Dense  grid:   212623 G-vectors     FFT dimensions: (  75,  75,  75)

     Smooth grid:    32423 G-vectors     FFT dimensions: (  40,  40,  40)

     Estimated max dynamical RAM per process >     193.02 MB

     Estimated total dynamical RAM >       3.02 GB

     Check: negative core charge=   -0.000001

     Initial potential from superposition of free atoms

     starting charge      27.9995, renormalised to      29.0000

     negative rho (up, down):  1.312E-03 0.000E+00
     Starting wfcs are   24 randomized atomic wfcs
     Checking if some PAW data can be deallocated... 

     total cpu time spent up to now is        8.1 secs

     per-process dynamical memory:   271.0 Mb

     Self-consistent Calculation

     iteration #  1     ecut=   124.00 Ry     beta= 0.70
     Davidson diagonalization with overlap
     ethr =  1.00E-02,  avg # of iterations =  2.1

     negative rho (up, down):  1.116E-04 0.000E+00

     total cpu time spent up to now is       24.9 secs

     total energy              =    -434.92749302 Ry
     estimated scf accuracy    <      18.72531033 Ry

     iteration #  2     ecut=   124.00 Ry     beta= 0.70
     Davidson diagonalization with overlap
     ethr =  1.00E-02,  avg # of iterations =  6.2

     negative rho (up, down):  1.393E-05 0.000E+00

     total cpu time spent up to now is       57.2 secs

     total energy              =    -448.56815156 Ry
     estimated scf accuracy    <      73.31532662 Ry

     iteration #  3     ecut=   124.00 Ry     beta= 0.70
     Davidson diagonalization with overlap
     ethr =  1.00E-02,  avg # of iterations =  3.1

     negative rho (up, down):  1.457E-04 0.000E+00

     total cpu time spent up to now is       78.2 secs

     total energy              =    -449.73530624 Ry
     estimated scf accuracy    <      16.98620622 Ry

     iteration #  4     ecut=   124.00 Ry     beta= 0.70
     Davidson diagonalization with overlap
     ethr =  1.00E-02,  avg # of iterations =  2.3

     negative rho (up, down):  2.209E-04 0.000E+00

     total cpu time spent up to now is       94.5 secs

     total energy              =    -450.06859974 Ry
     estimated scf accuracy    <       5.10090423 Ry

     iteration #  5     ecut=   124.00 Ry     beta= 0.70
     Davidson diagonalization with overlap
     ethr =  1.00E-02,  avg # of iterations =  1.1

     negative rho (up, down):  8.246E-04 0.000E+00

     total cpu time spent up to now is      107.9 secs

     total energy              =    -449.32560432 Ry
     estimated scf accuracy    <       4.07399084 Ry

     iteration #  6     ecut=   124.00 Ry     beta= 0.70
     Davidson diagonalization with overlap
     ethr =  1.00E-02,  avg # of iterations =  2.1

     negative rho (up, down):  8.304E-04 0.000E+00

     total cpu time spent up to now is      122.6 secs

     total energy              =    -449.56975468 Ry
     estimated scf accuracy    <       0.08063428 Ry

     iteration #  7     ecut=   124.00 Ry     beta= 0.70
     Davidson diagonalization with overlap
     ethr =  2.78E-04,  avg # of iterations =  5.3

     negative rho (up, down):  6.810E-04 0.000E+00

     total cpu time spent up to now is      146.0 secs

     total energy              =    -449.59581555 Ry
     estimated scf accuracy    <       0.02137548 Ry

     iteration #  8     ecut=   124.00 Ry     beta= 0.70
     Davidson diagonalization with overlap
     ethr =  7.37E-05,  avg # of iterations =  4.3

     negative rho (up, down):  1.058E-03 0.000E+00

     total cpu time spent up to now is      168.0 secs

     total energy              =    -449.45886594 Ry
     estimated scf accuracy    <       1.59018901 Ry

     iteration #  9     ecut=   124.00 Ry     beta= 0.70
     Davidson diagonalization with overlap
     ethr =  7.37E-05,  avg # of iterations =  5.2

     negative rho (up, down):  8.893E-04 0.000E+00

     total cpu time spent up to now is      193.7 secs

     total energy              =    -449.58236542 Ry
     estimated scf accuracy    <       0.14319273 Ry

     iteration # 10     ecut=   124.00 Ry     beta= 0.70
     Davidson diagonalization with overlap
     ethr =  7.37E-05,  avg # of iterations =  3.0

     negative rho (up, down):  9.122E-04 0.000E+00

     total cpu time spent up to now is      211.8 secs

     total energy              =    -449.59489787 Ry
     estimated scf accuracy    <       0.01995079 Ry

     iteration # 11     ecut=   124.00 Ry     beta= 0.70
     Davidson diagonalization with overlap
     ethr =  6.88E-05,  avg # of iterations =  1.5

     negative rho (up, down):  9.057E-04 0.000E+00

     total cpu time spent up to now is      225.6 secs

     total energy              =    -449.59753625 Ry
     estimated scf accuracy    <       0.01499727 Ry

     iteration # 12     ecut=   124.00 Ry     beta= 0.70
     Davidson diagonalization with overlap
     ethr =  5.17E-05,  avg # of iterations =  1.0

     negative rho (up, down):  9.003E-04 0.000E+00

     total cpu time spent up to now is      238.9 secs

     total energy              =    -449.59779051 Ry
     estimated scf accuracy    <       0.00116772 Ry

     iteration # 13     ecut=   124.00 Ry     beta= 0.70
     Davidson diagonalization with overlap
     ethr =  4.03E-06,  avg # of iterations =  2.3

     negative rho (up, down):  9.035E-04 0.000E+00

     total cpu time spent up to now is      254.1 secs

     total energy              =    -449.59810729 Ry
     estimated scf accuracy    <       0.00257576 Ry

     iteration # 14     ecut=   124.00 Ry     beta= 0.70
     Davidson diagonalization with overlap
     ethr =  4.03E-06,  avg # of iterations =  1.0

     negative rho (up, down):  9.166E-04 0.000E+00

     total cpu time spent up to now is      267.4 secs

     total energy              =    -449.59787950 Ry
     estimated scf accuracy    <       0.00191074 Ry

     iteration # 15     ecut=   124.00 Ry     beta= 0.70
     Davidson diagonalization with overlap
     ethr =  4.03E-06,  avg # of iterations =  1.1

     negative rho (up, down):  9.231E-04 0.000E+00

     total cpu time spent up to now is      280.8 secs

     total energy              =    -449.59793928 Ry
     estimated scf accuracy    <       0.00009065 Ry

     iteration # 16     ecut=   124.00 Ry     beta= 0.70
     Davidson diagonalization with overlap
     ethr =  3.13E-07,  avg # of iterations =  2.8

     negative rho (up, down):  9.177E-04 0.000E+00

     total cpu time spent up to now is      297.6 secs

     total energy              =    -449.59795100 Ry
     estimated scf accuracy    <       0.00018702 Ry

     iteration # 17     ecut=   124.00 Ry     beta= 0.70
     Davidson diagonalization with overlap
     ethr =  3.13E-07,  avg # of iterations =  1.6

     negative rho (up, down):  9.171E-04 0.000E+00

     total cpu time spent up to now is      311.8 secs

     total energy              =    -449.59796558 Ry
     estimated scf accuracy    <       0.00000006 Ry

     iteration # 18     ecut=   124.00 Ry     beta= 0.70
     Davidson diagonalization with overlap
     c_bands:  1 eigenvalues not converged
     ethr =  2.17E-10,  avg # of iterations =  9.2

     negative rho (up, down):  9.172E-04 0.000E+00

     total cpu time spent up to now is      353.7 secs

     total energy              =    -449.59796693 Ry
     estimated scf accuracy    <       0.00000079 Ry

     iteration # 19     ecut=   124.00 Ry     beta= 0.70
     Davidson diagonalization with overlap
     ethr =  2.17E-10,  avg # of iterations =  2.5

     negative rho (up, down):  9.173E-04 0.000E+00

     total cpu time spent up to now is      370.3 secs

     total energy              =    -449.59796687 Ry
     estimated scf accuracy    <       0.00000033 Ry

     iteration # 20     ecut=   124.00 Ry     beta= 0.70
     Davidson diagonalization with overlap
     ethr =  2.17E-10,  avg # of iterations =  2.6

     negative rho (up, down):  9.175E-04 0.000E+00

     total cpu time spent up to now is      387.8 secs

     total energy              =    -449.59796683 Ry
     estimated scf accuracy    <       0.00000009 Ry

     iteration # 21     ecut=   124.00 Ry     beta= 0.70
     Davidson diagonalization with overlap
     ethr =  2.17E-10,  avg # of iterations =  2.9

     negative rho (up, down):  9.175E-04 0.000E+00

     total cpu time spent up to now is      406.0 secs

     total energy              =    -449.59796686 Ry
     estimated scf accuracy    <       0.00000001 Ry

     iteration # 22     ecut=   124.00 Ry     beta= 0.70
     Davidson diagonalization with overlap
     ethr =  5.08E-11,  avg # of iterations =  1.7

     negative rho (up, down):  9.174E-04 0.000E+00

     total cpu time spent up to now is      420.1 secs

     End of self-consistent calculation

     Number of k-points >= 100: set verbosity='high' to print the bands.

     the Fermi energy is    18.0361 ev

!    total energy              =    -449.59796686 Ry
     estimated scf accuracy    <          3.5E-09 Ry
     smearing contrib. (-TS)   =      -0.00002982 Ry
     internal energy E=F+TS    =    -449.59793704 Ry

     The total energy is F=E-TS. E is the sum of the following terms:
     one-electron contribution =    -148.22751760 Ry
     hartree contribution      =      91.39657513 Ry
     xc contribution           =     -53.89088944 Ry
     ewald contribution        =    -262.72514085 Ry
     one-center paw contrib.   =     -76.15096427 Ry

     convergence has been achieved in  22 iterations

     negative rho (up, down):  9.174E-04 0.000E+00

     Forces acting on atoms (cartesian axes, Ry/au):

     atom    1 type  1   force =    -0.00000002    0.00000003    0.00000002
     atom    2 type  2   force =     0.00000004   -0.00000002   -0.00000001
     atom    3 type  3   force =    -0.00000002   -0.00000001   -0.00000001

     Total force =     0.000000     Total SCF correction =     0.000000
     SCF correction compared to forces is large: reduce conv_thr to get better values


     Computing stress (Cartesian axis) and pressure


     negative rho (up, down):  9.174E-04 0.000E+00
          total   stress  (Ry/bohr**3)                   (kbar)     P=      365.78
   0.00585091   0.00000000  -0.00000000          860.70        0.00       -0.00
   0.00000000   0.00080431   0.00000000            0.00      118.32        0.00
  -0.00000000   0.00000000   0.00080426           -0.00        0.00      118.31


     BFGS Geometry Optimization
     Energy error            =      1.4E-01 Ry
     Gradient error          =      4.4E-08 Ry/Bohr
     Cell gradient error     =      8.6E+02 kbar

     number of scf cycles    =   1
     number of bfgs steps    =   0

     enthalpy           new  =    -449.5979668572 Ry

     new trust radius        =       0.3858580149 bohr
     new conv_thr            =       0.0000000100 Ry

     new unit-cell volume =    207.51410 a.u.^3 (    30.75042 Ang^3 )
     density =      5.65493 g/cm^3

CELL_PARAMETERS (alat=  5.58242261)
   1.146272762   0.000000024  -0.000000014
   0.000000024   1.020107703   0.000000016
  -0.000000014   0.000000016   1.020106434

ATOMIC_POSITIONS (crystal)
Fe               0.4999999963        0.5000000050        0.5000000032
Ti               0.0000000079       -0.0000000039       -0.0000000021
H                0.4999999958       -0.0000000011       -0.0000000011



     Writing config-only to output data dir ./TiFeH.save/ :
     XML data file     NEW-OLD atomic charge density approx. for the potential
     New effective cutoffs (rho, wfc): 1667.80  119.15

     Check: negative core charge=   -0.000002

     negative rho (up, down):  1.033E-03 0.000E+00

     total cpu time spent up to now is      426.0 secs

     per-process dynamical memory:   275.4 Mb

     Self-consistent Calculation

     iteration #  1     ecut=   124.00 Ry     beta= 0.70
     Davidson diagonalization with overlap
     c_bands:  1 eigenvalues not converged
     c_bands:  1 eigenvalues not converged
     c_bands:  1 eigenvalues not converged
     c_bands:  1 eigenvalues not converged
     c_bands:  1 eigenvalues not converged
     c_bands:  1 eigenvalues not converged
     c_bands:  1 eigenvalues not converged
     c_bands:  1 eigenvalues not converged
     c_bands:  1 eigenvalues not converged
     c_bands:  1 eigenvalues not converged
     c_bands:  1 eigenvalues not converged
     c_bands:  1 eigenvalues not converged
     c_bands:  1 eigenvalues not converged
     c_bands:  1 eigenvalues not converged
     c_bands:  1 eigenvalues not converged
     c_bands:  1 eigenvalues not converged
     c_bands:  1 eigenvalues not converged
     c_bands:  1 eigenvalues not converged
     c_bands:  1 eigenvalues not converged
     c_bands:  1 eigenvalues not converged
     c_bands:  1 eigenvalues not converged
     c_bands:  1 eigenvalues not converged
     c_bands:  1 eigenvalues not converged
     c_bands:  1 eigenvalues not converged
     c_bands:  1 eigenvalues not converged
     c_bands:  1 eigenvalues not converged
     c_bands:  1 eigenvalues not converged
     c_bands:  1 eigenvalues not converged
     c_bands:  1 eigenvalues not converged
     c_bands:  1 eigenvalues not converged
     c_bands:  1 eigenvalues not converged
     c_bands:  1 eigenvalues not converged
     c_bands:  1 eigenvalues not converged
     c_bands:  1 eigenvalues not converged
     c_bands:  1 eigenvalues not converged
     c_bands:  1 eigenvalues not converged
     c_bands:  2 eigenvalues not converged
     c_bands:  1 eigenvalues not converged
     c_bands:  1 eigenvalues not converged
     c_bands:  1 eigenvalues not converged
     c_bands:  1 eigenvalues not converged
     c_bands:  1 eigenvalues not converged
     c_bands:  1 eigenvalues not converged
     c_bands:  1 eigenvalues not converged
     c_bands:  1 eigenvalues not converged
     c_bands:  1 eigenvalues not converged
     c_bands:  1 eigenvalues not converged
     c_bands:  1 eigenvalues not converged
     c_bands:  1 eigenvalues not converged
     c_bands:  1 eigenvalues not converged
     c_bands:  1 eigenvalues not converged
     ethr =  1.00E-06,  avg # of iterations = 14.9

     negative rho (up, down):  9.996E-04 0.000E+00

     total cpu time spent up to now is      500.4 secs

     total energy              =    -449.61782845 Ry
     estimated scf accuracy    <       0.07883930 Ry

     iteration #  2     ecut=   124.00 Ry     beta= 0.70
     Davidson diagonalization with overlap
     ethr =  2.72E-04,  avg # of iterations =  5.3

     negative rho (up, down):  8.238E-04 0.000E+00

     total cpu time spent up to now is      524.5 secs

     total energy              =    -449.16709188 Ry
     estimated scf accuracy    <      12.11258014 Ry

     iteration #  3     ecut=   124.00 Ry     beta= 0.70
     Davidson diagonalization with overlap
     ethr =  2.72E-04,  avg # of iterations =  4.6

     negative rho (up, down):  9.182E-04 0.000E+00

     total cpu time spent up to now is      547.1 secs

     total energy              =    -449.66418828 Ry
     estimated scf accuracy    <       0.02631919 Ry

     iteration #  4     ecut=   124.00 Ry     beta= 0.70
     Davidson diagonalization with overlap
     ethr =  9.08E-05,  avg # of iterations =  2.2

     negative rho (up, down):  9.102E-04 0.000E+00

     total cpu time spent up to now is      563.6 secs

     total energy              =    -449.66926621 Ry
     estimated scf accuracy    <       0.00693167 Ry

     iteration #  5     ecut=   124.00 Ry     beta= 0.70
     Davidson diagonalization with overlap
     ethr =  2.39E-05,  avg # of iterations =  1.8

     negative rho (up, down):  9.093E-04 0.000E+00

     total cpu time spent up to now is      578.0 secs

     total energy              =    -449.66975945 Ry
     estimated scf accuracy    <       0.00036908 Ry

     iteration #  6     ecut=   124.00 Ry     beta= 0.70
     Davidson diagonalization with overlap
     ethr =  1.27E-06,  avg # of iterations =  5.3

     negative rho (up, down):  9.075E-04 0.000E+00

     total cpu time spent up to now is      602.2 secs

     total energy              =    -449.66994241 Ry
     estimated scf accuracy    <       0.00010019 Ry

     iteration #  7     ecut=   124.00 Ry     beta= 0.70
     Davidson diagonalization with overlap
     ethr =  3.45E-07,  avg # of iterations =  1.4

     negative rho (up, down):  9.059E-04 0.000E+00

     total cpu time spent up to now is      616.0 secs

     total energy              =    -449.66994243 Ry
     estimated scf accuracy    <       0.00001750 Ry

     iteration #  8     ecut=   124.00 Ry     beta= 0.70
     Davidson diagonalization with overlap
     ethr =  6.03E-08,  avg # of iterations =  2.6

     negative rho (up, down):  9.066E-04 0.000E+00

     total cpu time spent up to now is      633.4 secs

     total energy              =    -449.66994652 Ry
     estimated scf accuracy    <       0.00000614 Ry

     iteration #  9     ecut=   124.00 Ry     beta= 0.70
     Davidson diagonalization with overlap
     ethr =  2.12E-08,  avg # of iterations =  2.0

     negative rho (up, down):  9.070E-04 0.000E+00

     total cpu time spent up to now is      649.0 secs

     total energy              =    -449.66994668 Ry
     estimated scf accuracy    <       0.00000107 Ry

     iteration # 10     ecut=   124.00 Ry     beta= 0.70
     Davidson diagonalization with overlap
     ethr =  3.70E-09,  avg # of iterations =  3.5

     negative rho (up, down):  9.068E-04 0.000E+00

     total cpu time spent up to now is      667.6 secs

     total energy              =    -449.66994699 Ry
     estimated scf accuracy    <       0.00000002 Ry

     iteration # 11     ecut=   124.00 Ry     beta= 0.70
     Davidson diagonalization with overlap
     ethr =  7.25E-11,  avg # of iterations =  5.4

     negative rho (up, down):  9.067E-04 0.000E+00

     total cpu time spent up to now is      692.9 secs

     End of self-consistent calculation

     Number of k-points >= 100: set verbosity='high' to print the bands.

     the Fermi energy is    14.8883 ev

!    total energy              =    -449.66994701 Ry
     estimated scf accuracy    <          1.7E-09 Ry
     smearing contrib. (-TS)   =      -0.00019097 Ry
     internal energy E=F+TS    =    -449.66975604 Ry

     The total energy is F=E-TS. E is the sum of the following terms:
     one-electron contribution =    -171.48792797 Ry
     hartree contribution      =      99.41469131 Ry
     xc contribution           =     -53.51978920 Ry
     ewald contribution        =    -247.92993416 Ry
     one-center paw contrib.   =     -76.14679601 Ry

     convergence has been achieved in  11 iterations

     negative rho (up, down):  9.067E-04 0.000E+00

     Forces acting on atoms (cartesian axes, Ry/au):

     atom    1 type  1   force =    -0.00000001   -0.00000002    0.00000004
     atom    2 type  2   force =    -0.00000002    0.00000001   -0.00000002
     atom    3 type  3   force =     0.00000003    0.00000001   -0.00000002

     Total force =     0.000000     Total SCF correction =     0.000000
     SCF correction compared to forces is large: reduce conv_thr to get better values


     Computing stress (Cartesian axis) and pressure


     negative rho (up, down):  9.067E-04 0.000E+00
          total   stress  (Ry/bohr**3)                   (kbar)     P=      -76.52
   0.00092064   0.00000000   0.00000000          135.43        0.00        0.00
   0.00000000  -0.00124061   0.00000000            0.00     -182.50        0.00
   0.00000000   0.00000000  -0.00124061            0.00        0.00     -182.50

     Energy error            =      7.2E-02 Ry
     Gradient error          =      4.3E-08 Ry/Bohr
     Cell gradient error     =      1.8E+02 kbar

     number of scf cycles    =   2
     number of bfgs steps    =   1

     enthalpy           old  =    -449.5979668572 Ry
     enthalpy           new  =    -449.6699470069 Ry

     CASE: enthalpy          _new < enthalpy          _old

     new trust radius        =       0.1268845026 bohr
     new conv_thr            =            1.0E-10 Ry

     new unit-cell volume =    201.37239 a.u.^3 (    29.84031 Ang^3 )
     density =      5.82740 g/cm^3

CELL_PARAMETERS (alat=  5.58242261)
   1.196755483   0.000000033  -0.000000004
   0.000000032   0.983475414   0.000000043
  -0.000000002   0.000000043   0.983473939

ATOMIC_POSITIONS (crystal)
Fe               0.4999999932        0.5000000026        0.5000000125
Ti               0.0000000046       -0.0000000028       -0.0000000067
H                0.5000000023        0.0000000002       -0.0000000058



     Writing config-only to output data dir ./TiFeH.save/ :
     XML data file     NEW-OLD atomic charge density approx. for the potential
     New effective cutoffs (rho, wfc): 1794.36  128.19

     Check: negative core charge=   -0.000002

     negative rho (up, down):  8.810E-04 0.000E+00

     total cpu time spent up to now is      698.8 secs

     per-process dynamical memory:   275.4 Mb

     Self-consistent Calculation

     iteration #  1     ecut=   124.00 Ry     beta= 0.70
     Davidson diagonalization with overlap
     ethr =  1.00E-06,  avg # of iterations = 11.4

     negative rho (up, down):  8.784E-04 0.000E+00

     total cpu time spent up to now is      758.4 secs

     total energy              =    -449.69403369 Ry
     estimated scf accuracy    <       0.00423747 Ry

     iteration #  2     ecut=   124.00 Ry     beta= 0.70
     Davidson diagonalization with overlap
     ethr =  1.46E-05,  avg # of iterations =  2.8

     negative rho (up, down):  9.014E-04 0.000E+00

     total cpu time spent up to now is      775.1 secs

     total energy              =    -449.69125684 Ry
     estimated scf accuracy    <       0.01463950 Ry

     iteration #  3     ecut=   124.00 Ry     beta= 0.70
     Davidson diagonalization with overlap
     ethr =  1.46E-05,  avg # of iterations =  3.7

     negative rho (up, down):  8.905E-04 0.000E+00

     total cpu time spent up to now is      794.5 secs

     total energy              =    -449.69000578 Ry
     estimated scf accuracy    <       0.11399865 Ry

     iteration #  4     ecut=   124.00 Ry     beta= 0.70
     Davidson diagonalization with overlap
     ethr =  1.46E-05,  avg # of iterations =  3.1

     negative rho (up, down):  8.856E-04 0.000E+00

     total cpu time spent up to now is      811.6 secs

     total energy              =    -449.69520863 Ry
     estimated scf accuracy    <       0.00002851 Ry

     iteration #  5     ecut=   124.00 Ry     beta= 0.70
     Davidson diagonalization with overlap
     ethr =  9.83E-08,  avg # of iterations =  4.9

     negative rho (up, down):  8.883E-04 0.000E+00

     total cpu time spent up to now is      835.1 secs

     total energy              =    -449.69523220 Ry
     estimated scf accuracy    <       0.00001191 Ry

     iteration #  6     ecut=   124.00 Ry     beta= 0.70
     Davidson diagonalization with overlap
     ethr =  4.11E-08,  avg # of iterations =  2.4

     negative rho (up, down):  8.884E-04 0.000E+00

     total cpu time spent up to now is      851.4 secs

     total energy              =    -449.69523429 Ry
     estimated scf accuracy    <       0.00000027 Ry

     iteration #  7     ecut=   124.00 Ry     beta= 0.70
     Davidson diagonalization with overlap
     ethr =  9.38E-10,  avg # of iterations =  4.9

     negative rho (up, down):  8.882E-04 0.000E+00

     total cpu time spent up to now is      874.9 secs

     total energy              =    -449.69523453 Ry
     estimated scf accuracy    <       0.00000010 Ry

     iteration #  8     ecut=   124.00 Ry     beta= 0.70
     Davidson diagonalization with overlap
     ethr =  3.30E-10,  avg # of iterations =  1.6

     negative rho (up, down):  8.882E-04 0.000E+00

     total cpu time spent up to now is      888.9 secs

     total energy              =    -449.69523454 Ry
     estimated scf accuracy    <          4.3E-09 Ry

     iteration #  9     ecut=   124.00 Ry     beta= 0.70
     Davidson diagonalization with overlap
     ethr =  1.49E-11,  avg # of iterations =  4.3

     negative rho (up, down):  8.882E-04 0.000E+00

     total cpu time spent up to now is      908.9 secs

     total energy              =    -449.69523454 Ry
     estimated scf accuracy    <          1.1E-09 Ry

     iteration # 10     ecut=   124.00 Ry     beta= 0.70
     Davidson diagonalization with overlap
     ethr =  3.88E-12,  avg # of iterations =  2.2

     negative rho (up, down):  8.882E-04 0.000E+00

     total cpu time spent up to now is      924.0 secs

     total energy              =    -449.69523454 Ry
     estimated scf accuracy    <          1.8E-10 Ry

     iteration # 11     ecut=   124.00 Ry     beta= 0.70
     Davidson diagonalization with overlap
     ethr =  6.35E-13,  avg # of iterations =  3.5

     negative rho (up, down):  8.882E-04 0.000E+00

     total cpu time spent up to now is      942.2 secs

     End of self-consistent calculation

     Number of k-points >= 100: set verbosity='high' to print the bands.

     the Fermi energy is    15.3960 ev

!    total energy              =    -449.69523454 Ry
     estimated scf accuracy    <          7.7E-12 Ry
     smearing contrib. (-TS)   =      -0.00008855 Ry
     internal energy E=F+TS    =    -449.69514599 Ry

     The total energy is F=E-TS. E is the sum of the following terms:
     one-electron contribution =    -167.73663470 Ry
     hartree contribution      =      98.14111096 Ry
     xc contribution           =     -53.54676343 Ry
     ewald contribution        =    -250.40482528 Ry
     one-center paw contrib.   =     -76.14803354 Ry

     convergence has been achieved in  11 iterations

     negative rho (up, down):  8.882E-04 0.000E+00

     Forces acting on atoms (cartesian axes, Ry/au):

     atom    1 type  1   force =    -0.00000001   -0.00000000    0.00000000
     atom    2 type  2   force =     0.00000001    0.00000000    0.00000000
     atom    3 type  3   force =     0.00000000    0.00000000   -0.00000001

     Total force =     0.000000     Total SCF correction =     0.000000
     SCF correction compared to forces is large: reduce conv_thr to get better values


     Computing stress (Cartesian axis) and pressure


     negative rho (up, down):  8.882E-04 0.000E+00
          total   stress  (Ry/bohr**3)                   (kbar)     P=      -69.27
   0.00070788  -0.00000000   0.00000000          104.13       -0.00        0.00
  -0.00000000  -0.00106031   0.00000000           -0.00     -155.98        0.00
   0.00000000   0.00000000  -0.00106029            0.00        0.00     -155.97

     Energy error            =      2.5E-02 Ry
     Gradient error          =      9.0E-09 Ry/Bohr
     Cell gradient error     =      1.6E+02 kbar

     number of scf cycles    =   3
     number of bfgs steps    =   2

     enthalpy           old  =    -449.6699470069 Ry
     enthalpy           new  =    -449.6952345411 Ry

     CASE: enthalpy          _new < enthalpy          _old


     WARNING: bfgs curvature condition failed, Theta= 0.982
     new trust radius        =       0.1795802365 bohr
     new conv_thr            =            1.0E-10 Ry

     new unit-cell volume =    188.70510 a.u.^3 (    27.96321 Ang^3 )
     density =      6.21858 g/cm^3

CELL_PARAMETERS (alat=  5.58242261)
   1.272479563   0.000000037  -0.000000005
   0.000000032   0.923278096   0.000000055
  -0.000000002   0.000000055   0.923277290

ATOMIC_POSITIONS (crystal)
Fe               0.4999999881        0.5000000025        0.5000000149
Ti               0.0000000082       -0.0000000029       -0.0000000063
H                0.5000000037        0.0000000004       -0.0000000087



     Writing config-only to output data dir ./TiFeH.save/ :
     XML data file     NEW-OLD atomic charge density approx. for the potential
     New effective cutoffs (rho, wfc): 2035.97  145.45

     Check: negative core charge=   -0.000002

     negative rho (up, down):  8.343E-04 0.000E+00

     total cpu time spent up to now is      948.1 secs

     per-process dynamical memory:   275.4 Mb

     Self-consistent Calculation

     iteration #  1     ecut=   124.00 Ry     beta= 0.70
     Davidson diagonalization with overlap
     c_bands:  1 eigenvalues not converged
     c_bands:  1 eigenvalues not converged
     c_bands:  1 eigenvalues not converged
     c_bands:  1 eigenvalues not converged
     c_bands:  1 eigenvalues not converged
     c_bands:  1 eigenvalues not converged
     c_bands:  1 eigenvalues not converged
     c_bands:  1 eigenvalues not converged
     ethr =  1.00E-06,  avg # of iterations = 13.2

     negative rho (up, down):  7.872E-04 0.000E+00

     total cpu time spent up to now is     1017.7 secs

     total energy              =    -449.70808358 Ry
     estimated scf accuracy    <       0.01313754 Ry

     iteration #  2     ecut=   124.00 Ry     beta= 0.70
     Davidson diagonalization with overlap
     ethr =  4.53E-05,  avg # of iterations =  4.5

     negative rho (up, down):  8.409E-04 0.000E+00

     total cpu time spent up to now is     1039.8 secs

     total energy              =    -449.66615882 Ry
     estimated scf accuracy    <       0.85995652 Ry

     iteration #  3     ecut=   124.00 Ry     beta= 0.70
     Davidson diagonalization with overlap
     ethr =  4.53E-05,  avg # of iterations =  4.3

     negative rho (up, down):  8.573E-04 0.000E+00

     total cpu time spent up to now is     1061.0 secs

     total energy              =    -449.71476933 Ry
     estimated scf accuracy    <       0.01119748 Ry

     iteration #  4     ecut=   124.00 Ry     beta= 0.70
     Davidson diagonalization with overlap
     ethr =  3.86E-05,  avg # of iterations =  1.1

     negative rho (up, down):  8.530E-04 0.000E+00

     total cpu time spent up to now is     1074.3 secs

     total energy              =    -449.71553671 Ry
     estimated scf accuracy    <       0.00007873 Ry

     iteration #  5     ecut=   124.00 Ry     beta= 0.70
     Davidson diagonalization with overlap
     ethr =  2.71E-07,  avg # of iterations =  4.8

     negative rho (up, down):  8.533E-04 0.000E+00

     total cpu time spent up to now is     1098.1 secs

     total energy              =    -449.71561238 Ry
     estimated scf accuracy    <       0.00000735 Ry

     iteration #  6     ecut=   124.00 Ry     beta= 0.70
     Davidson diagonalization with overlap
     ethr =  2.54E-08,  avg # of iterations =  3.5

     negative rho (up, down):  8.545E-04 0.000E+00

     total cpu time spent up to now is     1116.4 secs

     total energy              =    -449.71561438 Ry
     estimated scf accuracy    <       0.00000181 Ry

     iteration #  7     ecut=   124.00 Ry     beta= 0.70
     Davidson diagonalization with overlap
     ethr =  6.26E-09,  avg # of iterations =  2.6

     negative rho (up, down):  8.544E-04 0.000E+00

     total cpu time spent up to now is     1133.2 secs

     total energy              =    -449.71561472 Ry
     estimated scf accuracy    <       0.00000059 Ry

     iteration #  8     ecut=   124.00 Ry     beta= 0.70
     Davidson diagonalization with overlap
     ethr =  2.02E-09,  avg # of iterations =  1.9

     negative rho (up, down):  8.544E-04 0.000E+00

     total cpu time spent up to now is     1148.0 secs

     total energy              =    -449.71561481 Ry
     estimated scf accuracy    <       0.00000006 Ry

     iteration #  9     ecut=   124.00 Ry     beta= 0.70
     Davidson diagonalization with overlap
     ethr =  2.05E-10,  avg # of iterations =  4.4

     negative rho (up, down):  8.544E-04 0.000E+00

     total cpu time spent up to now is     1167.7 secs

     total energy              =    -449.71561482 Ry
     estimated scf accuracy    <          1.9E-09 Ry

     iteration # 10     ecut=   124.00 Ry     beta= 0.70
     Davidson diagonalization with overlap
     ethr =  6.44E-12,  avg # of iterations =  4.4

     negative rho (up, down):  8.544E-04 0.000E+00

     total cpu time spent up to now is     1189.2 secs

     total energy              =    -449.71561483 Ry
     estimated scf accuracy    <          2.3E-10 Ry

     iteration # 11     ecut=   124.00 Ry     beta= 0.70
     Davidson diagonalization with overlap
     ethr =  7.85E-13,  avg # of iterations =  2.8

     negative rho (up, down):  8.544E-04 0.000E+00

     total cpu time spent up to now is     1206.7 secs

     End of self-consistent calculation

     Number of k-points >= 100: set verbosity='high' to print the bands.

     the Fermi energy is    16.3993 ev

!    total energy              =    -449.71561483 Ry
     estimated scf accuracy    <          1.8E-12 Ry
     smearing contrib. (-TS)   =      -0.00002861 Ry
     internal energy E=F+TS    =    -449.71558621 Ry

     The total energy is F=E-TS. E is the sum of the following terms:
     one-electron contribution =    -159.90730764 Ry
     hartree contribution      =      95.59353966 Ry
     xc contribution           =     -53.64600734 Ry
     ewald contribution        =    -255.60539555 Ry
     one-center paw contrib.   =     -76.15041534 Ry

     convergence has been achieved in  11 iterations

     negative rho (up, down):  8.544E-04 0.000E+00

     Forces acting on atoms (cartesian axes, Ry/au):

     atom    1 type  1   force =     0.00000000    0.00000000    0.00000000
     atom    2 type  2   force =    -0.00000001    0.00000000    0.00000000
     atom    3 type  3   force =     0.00000000   -0.00000000   -0.00000000

     Total force =     0.000000     Total SCF correction =     0.000000
     SCF correction compared to forces is large: reduce conv_thr to get better values


     Computing stress (Cartesian axis) and pressure


     negative rho (up, down):  8.544E-04 0.000E+00
          total   stress  (Ry/bohr**3)                   (kbar)     P=        7.68
   0.00028218  -0.00000000   0.00000000           41.51       -0.00        0.00
  -0.00000000  -0.00006280   0.00000000           -0.00       -9.24        0.00
   0.00000000   0.00000000  -0.00006279            0.00        0.00       -9.24

     Energy error            =      2.0E-02 Ry
     Gradient error          =      8.3E-09 Ry/Bohr
     Cell gradient error     =      4.2E+01 kbar

     number of scf cycles    =   4
     number of bfgs steps    =   3

     enthalpy           old  =    -449.6952345411 Ry
     enthalpy           new  =    -449.7156148256 Ry

     CASE: enthalpy          _new < enthalpy          _old

     new trust radius        =       0.0364318394 bohr
     new conv_thr            =            1.0E-10 Ry

     new unit-cell volume =    187.76562 a.u.^3 (    27.82399 Ang^3 )
     density =      6.24969 g/cm^3

CELL_PARAMETERS (alat=  5.58242261)
   1.289353255   0.000000035  -0.000000005
   0.000000028   0.914930476   0.000000060
  -0.000000002   0.000000060   0.914930114

ATOMIC_POSITIONS (crystal)
Fe               0.4999999886        0.5000000025        0.5000000155
Ti               0.0000000064       -0.0000000029       -0.0000000058
H                0.5000000050        0.0000000003       -0.0000000097



     Writing config-only to output data dir ./TiFeH.save/ :
     XML data file     NEW-OLD atomic charge density approx. for the potential
     New effective cutoffs (rho, wfc): 2073.29  148.12

     Check: negative core charge=   -0.000002

     negative rho (up, down):  8.518E-04 0.000E+00

     total cpu time spent up to now is     1212.6 secs

     per-process dynamical memory:   275.3 Mb

     Self-consistent Calculation

     iteration #  1     ecut=   124.00 Ry     beta= 0.70
     Davidson diagonalization with overlap
     ethr =  1.00E-06,  avg # of iterations =  7.1

     negative rho (up, down):  8.015E-04 0.000E+00

     total cpu time spent up to now is     1250.6 secs

     total energy              =    -449.71355136 Ry
     estimated scf accuracy    <       0.00303644 Ry

     iteration #  2     ecut=   124.00 Ry     beta= 0.70
     Davidson diagonalization with overlap
     ethr =  1.05E-05,  avg # of iterations =  5.4

     negative rho (up, down):  8.326E-04 0.000E+00

     total cpu time spent up to now is     1275.8 secs

     total energy              =    -449.69707805 Ry
     estimated scf accuracy    <       0.42422157 Ry

     iteration #  3     ecut=   124.00 Ry     beta= 0.70
     Davidson diagonalization with overlap
     ethr =  1.05E-05,  avg # of iterations =  4.8

     negative rho (up, down):  8.427E-04 0.000E+00

     total cpu time spent up to now is     1299.1 secs

     total energy              =    -449.71618446 Ry
     estimated scf accuracy    <       0.00024338 Ry

     iteration #  4     ecut=   124.00 Ry     beta= 0.70
     Davidson diagonalization with overlap
     ethr =  8.39E-07,  avg # of iterations =  3.2

     negative rho (up, down):  8.441E-04 0.000E+00

     total cpu time spent up to now is     1317.2 secs

     total energy              =    -449.71624052 Ry
     estimated scf accuracy    <       0.00003044 Ry

     iteration #  5     ecut=   124.00 Ry     beta= 0.70
     Davidson diagonalization with overlap
     ethr =  1.05E-07,  avg # of iterations =  3.4

     negative rho (up, down):  8.434E-04 0.000E+00

     total cpu time spent up to now is     1334.7 secs

     total energy              =    -449.71624654 Ry
     estimated scf accuracy    <       0.00000053 Ry

     iteration #  6     ecut=   124.00 Ry     beta= 0.70
     Davidson diagonalization with overlap
     ethr =  1.84E-09,  avg # of iterations =  5.3

     negative rho (up, down):  8.433E-04 0.000E+00

     total cpu time spent up to now is     1360.5 secs

     total energy              =    -449.71624728 Ry
     estimated scf accuracy    <       0.00000010 Ry

     iteration #  7     ecut=   124.00 Ry     beta= 0.70
     Davidson diagonalization with overlap
     ethr =  3.49E-10,  avg # of iterations =  2.0

     negative rho (up, down):  8.433E-04 0.000E+00

     total cpu time spent up to now is     1375.2 secs

     total energy              =    -449.71624728 Ry
     estimated scf accuracy    <       0.00000001 Ry

     iteration #  8     ecut=   124.00 Ry     beta= 0.70
     Davidson diagonalization with overlap
     ethr =  4.74E-11,  avg # of iterations =  2.9

     negative rho (up, down):  8.433E-04 0.000E+00

     total cpu time spent up to now is     1391.2 secs

     total energy              =    -449.71624729 Ry
     estimated scf accuracy    <          1.5E-09 Ry

     iteration #  9     ecut=   124.00 Ry     beta= 0.70
     Davidson diagonalization with overlap
     ethr =  5.31E-12,  avg # of iterations =  4.4

     negative rho (up, down):  8.433E-04 0.000E+00

     total cpu time spent up to now is     1411.7 secs

     End of self-consistent calculation

     Number of k-points >= 100: set verbosity='high' to print the bands.

     the Fermi energy is    16.4679 ev

!    total energy              =    -449.71624729 Ry
     estimated scf accuracy    <          4.8E-11 Ry
     smearing contrib. (-TS)   =      -0.00004541 Ry
     internal energy E=F+TS    =    -449.71620188 Ry

     The total energy is F=E-TS. E is the sum of the following terms:
     one-electron contribution =    -159.43632106 Ry
     hartree contribution      =      95.46593428 Ry
     xc contribution           =     -53.65408945 Ry
     ewald contribution        =    -255.94099508 Ry
     one-center paw contrib.   =     -76.15073057 Ry

     convergence has been achieved in   9 iterations

     negative rho (up, down):  8.433E-04 0.000E+00

     Forces acting on atoms (cartesian axes, Ry/au):

     atom    1 type  1   force =     0.00000001   -0.00000000    0.00000000
     atom    2 type  2   force =    -0.00000001    0.00000000    0.00000000
     atom    3 type  3   force =    -0.00000000    0.00000000   -0.00000000

     Total force =     0.000000     Total SCF correction =     0.000000
     SCF correction compared to forces is large: reduce conv_thr to get better values


     Computing stress (Cartesian axis) and pressure


     negative rho (up, down):  8.433E-04 0.000E+00
          total   stress  (Ry/bohr**3)                   (kbar)     P=       13.48
   0.00019203  -0.00000000   0.00000000           28.25       -0.00        0.00
  -0.00000000   0.00004148   0.00000000           -0.00        6.10        0.00
   0.00000000   0.00000000   0.00004149            0.00        0.00        6.10

     Energy error            =      6.3E-04 Ry
     Gradient error          =      6.4E-09 Ry/Bohr
     Cell gradient error     =      2.8E+01 kbar

     number of scf cycles    =   5
     number of bfgs steps    =   4

     enthalpy           old  =    -449.7156148256 Ry
     enthalpy           new  =    -449.7162472865 Ry

     CASE: enthalpy          _new < enthalpy          _old

     new trust radius        =       0.0287148245 bohr
     new conv_thr            =            1.0E-10 Ry

     new unit-cell volume =    188.35435 a.u.^3 (    27.91123 Ang^3 )
     density =      6.23016 g/cm^3

CELL_PARAMETERS (alat=  5.58242261)
   1.302862779   0.000000032  -0.000000005
   0.000000023   0.911600238   0.000000065
  -0.000000001   0.000000065   0.911600184

ATOMIC_POSITIONS (crystal)
Fe               0.4999999907        0.5000000020        0.5000000162
Ti               0.0000000041       -0.0000000024       -0.0000000054
H                0.5000000052        0.0000000005       -0.0000000108



     Writing config-only to output data dir ./TiFeH.save/ :
     XML data file     NEW-OLD atomic charge density approx. for the potential
     New effective cutoffs (rho, wfc): 2088.46  149.20

     Check: negative core charge=   -0.000002

     negative rho (up, down):  8.416E-04 0.000E+00

     total cpu time spent up to now is     1417.6 secs

     per-process dynamical memory:   275.4 Mb

     Self-consistent Calculation

     iteration #  1     ecut=   124.00 Ry     beta= 0.70
     Davidson diagonalization with overlap
     ethr =  1.00E-06,  avg # of iterations =  6.1

     negative rho (up, down):  8.043E-04 0.000E+00

     total cpu time spent up to now is     1450.2 secs

     total energy              =    -449.71473571 Ry
     estimated scf accuracy    <       0.00204799 Ry

     iteration #  2     ecut=   124.00 Ry     beta= 0.70
     Davidson diagonalization with overlap
     ethr =  7.06E-06,  avg # of iterations =  5.4

     negative rho (up, down):  8.305E-04 0.000E+00

     total cpu time spent up to now is     1475.4 secs

     total energy              =    -449.70204953 Ry
     estimated scf accuracy    <       0.34605110 Ry

     iteration #  3     ecut=   124.00 Ry     beta= 0.70
     Davidson diagonalization with overlap
     ethr =  7.06E-06,  avg # of iterations =  4.9

     negative rho (up, down):  8.361E-04 0.000E+00

     total cpu time spent up to now is     1498.9 secs

     total energy              =    -449.71638723 Ry
     estimated scf accuracy    <       0.00008746 Ry

     iteration #  4     ecut=   124.00 Ry     beta= 0.70
     Davidson diagonalization with overlap
     ethr =  3.02E-07,  avg # of iterations =  3.8

     negative rho (up, down):  8.352E-04 0.000E+00

     total cpu time spent up to now is     1518.5 secs

     total energy              =    -449.71641830 Ry
     estimated scf accuracy    <       0.00000122 Ry

     iteration #  5     ecut=   124.00 Ry     beta= 0.70
     Davidson diagonalization with overlap
     ethr =  4.21E-09,  avg # of iterations =  5.5

     negative rho (up, down):  8.348E-04 0.000E+00

     total cpu time spent up to now is     1544.5 secs

     total energy              =    -449.71642007 Ry
     estimated scf accuracy    <       0.00000031 Ry

     iteration #  6     ecut=   124.00 Ry     beta= 0.70
     Davidson diagonalization with overlap
     ethr =  1.05E-09,  avg # of iterations =  1.7

     negative rho (up, down):  8.347E-04 0.000E+00

     total cpu time spent up to now is     1558.8 secs

     total energy              =    -449.71642007 Ry
     estimated scf accuracy    <       0.00000002 Ry

     iteration #  7     ecut=   124.00 Ry     beta= 0.70
     Davidson diagonalization with overlap
     ethr =  6.98E-11,  avg # of iterations =  3.7

     negative rho (up, down):  8.347E-04 0.000E+00

     total cpu time spent up to now is     1578.0 secs

     total energy              =    -449.71642008 Ry
     estimated scf accuracy    <          1.6E-09 Ry

     iteration #  8     ecut=   124.00 Ry     beta= 0.70
     Davidson diagonalization with overlap
     ethr =  5.59E-12,  avg # of iterations =  4.5

     negative rho (up, down):  8.347E-04 0.000E+00

     total cpu time spent up to now is     1598.5 secs

     End of self-consistent calculation

     Number of k-points >= 100: set verbosity='high' to print the bands.

     the Fermi energy is    16.3872 ev

!    total energy              =    -449.71642008 Ry
     estimated scf accuracy    <          5.7E-11 Ry
     smearing contrib. (-TS)   =      -0.00002169 Ry
     internal energy E=F+TS    =    -449.71639839 Ry

     The total energy is F=E-TS. E is the sum of the following terms:
     one-electron contribution =    -159.98092814 Ry
     hartree contribution      =      95.67217158 Ry
     xc contribution           =     -53.64735773 Ry
     ewald contribution        =    -255.60949888 Ry
     one-center paw contrib.   =     -76.15078522 Ry

     convergence has been achieved in   8 iterations

     negative rho (up, down):  8.347E-04 0.000E+00

     Forces acting on atoms (cartesian axes, Ry/au):

     atom    1 type  1   force =     0.00000000    0.00000000   -0.00000000
     atom    2 type  2   force =    -0.00000000   -0.00000000    0.00000000
     atom    3 type  3   force =    -0.00000000   -0.00000000    0.00000000

     Total force =     0.000000     Total SCF correction =     0.000000
     SCF correction compared to forces is large: reduce conv_thr to get better values


     Computing stress (Cartesian axis) and pressure


     negative rho (up, down):  8.347E-04 0.000E+00
          total   stress  (Ry/bohr**3)                   (kbar)     P=        5.76
   0.00003929  -0.00000000   0.00000000            5.78       -0.00        0.00
  -0.00000000   0.00003912   0.00000000           -0.00        5.75        0.00
   0.00000000   0.00000000   0.00003912            0.00        0.00        5.75

     Energy error            =      1.7E-04 Ry
     Gradient error          =      4.5E-09 Ry/Bohr
     Cell gradient error     =      5.8E+00 kbar

     number of scf cycles    =   6
     number of bfgs steps    =   5

     enthalpy           old  =    -449.7162472865 Ry
     enthalpy           new  =    -449.7164200800 Ry

     CASE: enthalpy          _new < enthalpy          _old

     new trust radius        =       0.0026361348 bohr
     new conv_thr            =            1.0E-10 Ry

     new unit-cell volume =    188.86025 a.u.^3 (    27.98620 Ang^3 )
     density =      6.21347 g/cm^3

CELL_PARAMETERS (alat=  5.58242261)
   1.303856564   0.000000029  -0.000000005
   0.000000020   0.912475699   0.000000068
  -0.000000001   0.000000068   0.912475681

ATOMIC_POSITIONS (crystal)
Fe               0.4999999919        0.5000000026        0.5000000157
Ti               0.0000000035       -0.0000000027       -0.0000000049
H                0.5000000046        0.0000000001       -0.0000000109



     Writing config-only to output data dir ./TiFeH.save/ :
     XML data file     NEW-OLD atomic charge density approx. for the potential
     New effective cutoffs (rho, wfc): 2084.45  148.91

     Check: negative core charge=   -0.000002

     negative rho (up, down):  8.359E-04 0.000E+00

     total cpu time spent up to now is     1604.4 secs

     per-process dynamical memory:   275.4 Mb

     Self-consistent Calculation

     iteration #  1     ecut=   124.00 Ry     beta= 0.70
     Davidson diagonalization with overlap
     ethr =  1.00E-06,  avg # of iterations =  2.0

     Threshold (ethr) on eigenvalues was too large:
     Diagonalizing with lowered threshold

     Davidson diagonalization with overlap
     ethr =  3.83E-09,  avg # of iterations =  6.2

     negative rho (up, down):  8.344E-04 0.000E+00

     total cpu time spent up to now is     1648.4 secs

     total energy              =    -449.71642480 Ry
     estimated scf accuracy    <       0.00000208 Ry

     iteration #  2     ecut=   124.00 Ry     beta= 0.70
     Davidson diagonalization with overlap
     ethr =  7.16E-09,  avg # of iterations =  4.2

     negative rho (up, down):  8.338E-04 0.000E+00

     total cpu time spent up to now is     1669.6 secs

     total energy              =    -449.71641955 Ry
     estimated scf accuracy    <       0.00022620 Ry

     iteration #  3     ecut=   124.00 Ry     beta= 0.70
     Davidson diagonalization with overlap
     ethr =  7.16E-09,  avg # of iterations =  4.2

     negative rho (up, down):  8.344E-04 0.000E+00

     total cpu time spent up to now is     1689.2 secs

     total energy              =    -449.71643102 Ry
     estimated scf accuracy    <       0.00000663 Ry

     iteration #  4     ecut=   124.00 Ry     beta= 0.70
     Davidson diagonalization with overlap
     ethr =  7.16E-09,  avg # of iterations =  2.0

     negative rho (up, down):  8.343E-04 0.000E+00

     total cpu time spent up to now is     1704.4 secs

     total energy              =    -449.71643139 Ry
     estimated scf accuracy    <       0.00000032 Ry

     iteration #  5     ecut=   124.00 Ry     beta= 0.70
     Davidson diagonalization with overlap
     ethr =  1.10E-09,  avg # of iterations =  2.7

     negative rho (up, down):  8.342E-04 0.000E+00

     total cpu time spent up to now is     1719.8 secs

     total energy              =    -449.71643142 Ry
     estimated scf accuracy    <       0.00000001 Ry

     iteration #  6     ecut=   124.00 Ry     beta= 0.70
     Davidson diagonalization with overlap
     ethr =  3.55E-11,  avg # of iterations =  4.9

     negative rho (up, down):  8.342E-04 0.000E+00

     total cpu time spent up to now is     1743.1 secs

     total energy              =    -449.71643143 Ry
     estimated scf accuracy    <          4.8E-09 Ry

     iteration #  7     ecut=   124.00 Ry     beta= 0.70
     Davidson diagonalization with overlap
     ethr =  1.66E-11,  avg # of iterations =  2.0

     negative rho (up, down):  8.342E-04 0.000E+00

     total cpu time spent up to now is     1757.9 secs

     total energy              =    -449.71643142 Ry
     estimated scf accuracy    <          1.6E-09 Ry

     iteration #  8     ecut=   124.00 Ry     beta= 0.70
     Davidson diagonalization with overlap
     ethr =  5.46E-12,  avg # of iterations =  2.0

     negative rho (up, down):  8.342E-04 0.000E+00

     total cpu time spent up to now is     1774.0 secs

     End of self-consistent calculation

     Number of k-points >= 100: set verbosity='high' to print the bands.

     the Fermi energy is    16.3363 ev

!    total energy              =    -449.71643142 Ry
     estimated scf accuracy    <          6.6E-11 Ry
     smearing contrib. (-TS)   =      -0.00002241 Ry
     internal energy E=F+TS    =    -449.71640902 Ry

     The total energy is F=E-TS. E is the sum of the following terms:
     one-electron contribution =    -160.33309076 Ry
     hartree contribution      =      95.79167721 Ry
     xc contribution           =     -53.64227075 Ry
     ewald contribution        =    -255.38200870 Ry
     one-center paw contrib.   =     -76.15071602 Ry

     convergence has been achieved in   8 iterations

     negative rho (up, down):  8.342E-04 0.000E+00

     Forces acting on atoms (cartesian axes, Ry/au):

     atom    1 type  1   force =     0.00000000   -0.00000000    0.00000000
     atom    2 type  2   force =    -0.00000000    0.00000000    0.00000000
     atom    3 type  3   force =    -0.00000000    0.00000000   -0.00000000

     Total force =     0.000000     Total SCF correction =     0.000000
     SCF correction compared to forces is large: reduce conv_thr to get better values


     Computing stress (Cartesian axis) and pressure


     negative rho (up, down):  8.342E-04 0.000E+00
          total   stress  (Ry/bohr**3)                   (kbar)     P=        0.77
   0.00000465  -0.00000000   0.00000000            0.68       -0.00        0.00
  -0.00000000   0.00000548   0.00000000           -0.00        0.81        0.00
   0.00000000   0.00000000   0.00000548            0.00        0.00        0.81

     Energy error            =      1.1E-05 Ry
     Gradient error          =      4.9E-09 Ry/Bohr
     Cell gradient error     =      8.1E-01 kbar

     number of scf cycles    =   7
     number of bfgs steps    =   6

     enthalpy           old  =    -449.7164200800 Ry
     enthalpy           new  =    -449.7164314242 Ry

     CASE: enthalpy          _new < enthalpy          _old

     new trust radius        =       0.0004948591 bohr
     new conv_thr            =            1.0E-10 Ry

     new unit-cell volume =    188.93904 a.u.^3 (    27.99788 Ang^3 )
     density =      6.21088 g/cm^3

CELL_PARAMETERS (alat=  5.58242261)
   1.303930983   0.000000027  -0.000000004
   0.000000017   0.912639985   0.000000069
  -0.000000000   0.000000069   0.912639966

ATOMIC_POSITIONS (crystal)
Fe               0.4999999932        0.5000000023        0.5000000158
Ti               0.0000000031       -0.0000000025       -0.0000000046
H                0.5000000037        0.0000000001       -0.0000000112



     Writing config-only to output data dir ./TiFeH.save/ :
     XML data file     NEW-OLD atomic charge density approx. for the potential
     New effective cutoffs (rho, wfc): 2083.70  148.86

     Check: negative core charge=   -0.000002

     negative rho (up, down):  8.344E-04 0.000E+00

     total cpu time spent up to now is     1779.9 secs

     per-process dynamical memory:   275.4 Mb

     Self-consistent Calculation

     iteration #  1     ecut=   124.00 Ry     beta= 0.70
     Davidson diagonalization with overlap
     ethr =  1.00E-06,  avg # of iterations =  2.0

     Threshold (ethr) on eigenvalues was too large:
     Diagonalizing with lowered threshold

     Davidson diagonalization with overlap
     ethr =  5.24E-10,  avg # of iterations =  5.0

     negative rho (up, down):  8.344E-04 0.000E+00

     total cpu time spent up to now is     1820.8 secs

     total energy              =    -449.71643132 Ry
     estimated scf accuracy    <       0.00000023 Ry

     iteration #  2     ecut=   124.00 Ry     beta= 0.70
     Davidson diagonalization with overlap
     ethr =  8.05E-10,  avg # of iterations =  4.4

     negative rho (up, down):  8.341E-04 0.000E+00

     total cpu time spent up to now is     1842.2 secs

     total energy              =    -449.71642970 Ry
     estimated scf accuracy    <       0.00004709 Ry

     iteration #  3     ecut=   124.00 Ry     beta= 0.70
     Davidson diagonalization with overlap
     ethr =  8.05E-10,  avg # of iterations =  4.4

     negative rho (up, down):  8.342E-04 0.000E+00

     total cpu time spent up to now is     1862.6 secs

     total energy              =    -449.71643166 Ry
     estimated scf accuracy    <       0.00000007 Ry

     iteration #  4     ecut=   124.00 Ry     beta= 0.70
     Davidson diagonalization with overlap
     ethr =  2.47E-10,  avg # of iterations =  2.0

     negative rho (up, down):  8.342E-04 0.000E+00

     total cpu time spent up to now is     1877.5 secs

     total energy              =    -449.71643166 Ry
     estimated scf accuracy    <       0.00000001 Ry

     iteration #  5     ecut=   124.00 Ry     beta= 0.70
     Davidson diagonalization with overlap
     ethr =  3.63E-11,  avg # of iterations =  2.3

     negative rho (up, down):  8.342E-04 0.000E+00

     total cpu time spent up to now is     1893.0 secs

     total energy              =    -449.71643166 Ry
     estimated scf accuracy    <          4.3E-10 Ry

     iteration #  6     ecut=   124.00 Ry     beta= 0.70
     Davidson diagonalization with overlap
     ethr =  1.47E-12,  avg # of iterations =  4.9

     negative rho (up, down):  8.342E-04 0.000E+00

     total cpu time spent up to now is     1916.8 secs

     total energy              =    -449.71643166 Ry
     estimated scf accuracy    <          1.2E-10 Ry

     iteration #  7     ecut=   124.00 Ry     beta= 0.70
     Davidson diagonalization with overlap
     ethr =  4.09E-13,  avg # of iterations =  2.2

     negative rho (up, down):  8.342E-04 0.000E+00

     total cpu time spent up to now is     1931.6 secs

     total energy              =    -449.71643166 Ry
     estimated scf accuracy    <          2.3E-10 Ry

     iteration #  8     ecut=   124.00 Ry     beta= 0.70
     Davidson diagonalization with overlap
     ethr =  4.09E-13,  avg # of iterations =  2.0

     negative rho (up, down):  8.342E-04 0.000E+00

     total cpu time spent up to now is     1947.5 secs

     End of self-consistent calculation

     Number of k-points >= 100: set verbosity='high' to print the bands.

     the Fermi energy is    16.3285 ev

!    total energy              =    -449.71643166 Ry
     estimated scf accuracy    <          8.1E-12 Ry
     smearing contrib. (-TS)   =      -0.00002271 Ry
     internal energy E=F+TS    =    -449.71640895 Ry

     The total energy is F=E-TS. E is the sum of the following terms:
     one-electron contribution =    -160.38704621 Ry
     hartree contribution      =      95.80993938 Ry
     xc contribution           =     -53.64150565 Ry
     ewald contribution        =    -255.34709205 Ry
     one-center paw contrib.   =     -76.15070443 Ry

     convergence has been achieved in   8 iterations

     negative rho (up, down):  8.342E-04 0.000E+00

     Forces acting on atoms (cartesian axes, Ry/au):

     atom    1 type  1   force =     0.00000000   -0.00000000   -0.00000000
     atom    2 type  2   force =    -0.00000000    0.00000000    0.00000000
     atom    3 type  3   force =    -0.00000000    0.00000000   -0.00000000

     Total force =     0.000000     Total SCF correction =     0.000000
     SCF correction compared to forces is large: reduce conv_thr to get better values


     Computing stress (Cartesian axis) and pressure


     negative rho (up, down):  8.342E-04 0.000E+00
          total   stress  (Ry/bohr**3)                   (kbar)     P=        0.08
   0.00000061  -0.00000000   0.00000000            0.09       -0.00        0.00
  -0.00000000   0.00000047   0.00000000           -0.00        0.07        0.00
   0.00000000   0.00000000   0.00000047            0.00        0.00        0.07

     Energy error            =      2.4E-07 Ry
     Gradient error          =      2.8E-09 Ry/Bohr
     Cell gradient error     =      8.9E-02 kbar

     bfgs converged in   8 scf cycles and   7 bfgs steps
     (criteria: energy <  1.0E-04 Ry, force <  1.0E-03 Ry/Bohr, cell <  1.0E-01 kbar)

     End of BFGS Geometry Optimization

     Final enthalpy           =    -449.7164316601 Ry

     File ./TiFeH.bfgs deleted, as requested
Begin final coordinates
     new unit-cell volume =    188.93904 a.u.^3 (    27.99788 Ang^3 )
     density =      6.21088 g/cm^3

CELL_PARAMETERS (alat=  5.58242261)
   1.303930983   0.000000027  -0.000000004
   0.000000017   0.912639985   0.000000069
  -0.000000000   0.000000069   0.912639966

ATOMIC_POSITIONS (crystal)
Fe               0.4999999932        0.5000000023        0.5000000158
Ti               0.0000000031       -0.0000000025       -0.0000000046
H                0.5000000037        0.0000000001       -0.0000000112
End final coordinates



     Writing config-only to output data dir ./TiFeH.save/ :
     XML data file
     Final scf calculation at the relaxed structure.
     The G-vectors are recalculated for the final unit cell
     Results may differ from those at the preceding step.

     Parallelization info
     --------------------
     sticks:   dense  smooth     PW     G-vecs:    dense   smooth      PW
     Min         319      91     26                14420     2203     344
     Max         321      92     27                14422     2206     347
     Sum        5119    1463    425               230737    35259    5527

     Using Slab Decomposition



     bravais-lattice index     =            0
     lattice parameter (alat)  =       5.5824  a.u.
     unit-cell volume          =     188.9390 (a.u.)^3
     number of atoms/cell      =            3
     number of atomic types    =            3
     number of electrons       =        29.00
     number of Kohn-Sham states=           19
     kinetic-energy cutoff     =     124.0000  Ry
     charge density cutoff     =    1736.0000  Ry
     scf convergence threshold =      1.0E-10
     mixing beta               =       0.7000
     number of iterations used =            8  plain     mixing
     press convergence thresh. =      1.0E-01
     Exchange-correlation= PBE
                           (   1   4   3   4   0   0   0)

     celldm(1)=   5.582423  celldm(2)=   0.000000  celldm(3)=   0.000000
     celldm(4)=   0.000000  celldm(5)=   0.000000  celldm(6)=   0.000000

     crystal axes: (cart. coord. in units of alat)
               a(1) = (   1.303931   0.000000  -0.000000 )  
               a(2) = (   0.000000   0.912640   0.000000 )  
               a(3) = (  -0.000000   0.000000   0.912640 )  

     reciprocal axes: (cart. coord. in units 2 pi/alat)
               b(1) = (  0.766912 -0.000000  0.000000 )  
               b(2) = ( -0.000000  1.095722 -0.000000 )  
               b(3) = (  0.000000 -0.000000  1.095722 )  


     PseudoPot. # 1 for Fe read from file:
     ../../pseudos/Fe.pbe-spn-kjpaw_psl.0.2.1.UPF
     MD5 check sum: e86618425769142926afa95317d90200
     Pseudo is Projector augmented-wave + core cor, Zval = 16.0
     Generated using "atomic" code by A. Dal Corso  v.5.0.99 svn rev. 10869
     Shape of augmentation charge: PSQ
     Using radial grid of 1191 points,  6 beta functions with: 
                l(1) =   0
                l(2) =   0
                l(3) =   1
                l(4) =   1
                l(5) =   2
                l(6) =   2
     Q(r) pseudized with 0 coefficients 


     PseudoPot. # 2 for Ti read from file:
     ../../pseudos/ti_pbe_v1.4.uspp.F.UPF
     MD5 check sum: 88a00a6731bd790ddea75d31a80cb452
     Pseudo is Ultrasoft + core correction, Zval = 12.0
     Generated by new atomic code, or converted to UPF format
     Using radial grid of  851 points,  6 beta functions with: 
                l(1) =   0
                l(2) =   0
                l(3) =   1
                l(4) =   1
                l(5) =   2
                l(6) =   2
     Q(r) pseudized with  6 coefficients,  rinner =    1.000   1.000   1.000
                                                       1.000   1.000

     PseudoPot. # 3 for H  read from file:
     ../../pseudos/H.pbe-rrkjus_psl.1.0.0.UPF
     MD5 check sum: f52b6d4d1c606e5624b1dc7b2218f220
     Pseudo is Ultrasoft, Zval =  1.0
     Generated using "atomic" code by A. Dal Corso  v.5.1
     Using radial grid of  929 points,  2 beta functions with: 
                l(1) =   0
                l(2) =   0
     Q(r) pseudized with 0 coefficients 


     atomic species   valence    mass     pseudopotential
     Fe               16.00    55.84500     Fe( 1.00)
     Ti               12.00    47.86700     Ti( 1.00)
     H                 1.00     1.00784     H ( 1.00)

     No symmetry found



   Cartesian axes

     site n.     atom                  positions (alat units)
         1        Fe     tau(   1) = (   0.6519655   0.4563200   0.4563200  )
         2        Ti     tau(   2) = (   0.0000000  -0.0000000  -0.0000000  )
         3        H      tau(   3) = (   0.6519655   0.0000000  -0.0000000  )

     number of k points=  1688  Marzari-Vanderbilt smearing, width (Ry)=  0.0050

     Number of k-points >= 100: set verbosity='high' to print them.

     Dense  grid:   230737 G-vectors     FFT dimensions: ( 100,  72,  72)

     Smooth grid:    35259 G-vectors     FFT dimensions: (  54,  40,  40)

     Estimated max dynamical RAM per process >     208.65 MB

     Estimated total dynamical RAM >       3.26 GB

     Check: negative core charge=   -0.000001

     Initial potential from superposition of free atoms

     starting charge      27.9995, renormalised to      29.0000

     negative rho (up, down):  1.318E-03 0.000E+00
     Starting wfcs are   24 randomized atomic wfcs
     Checking if some PAW data can be deallocated... 

     total cpu time spent up to now is     1962.1 secs

     per-process dynamical memory:   283.5 Mb

     Self-consistent Calculation

     iteration #  1     ecut=   124.00 Ry     beta= 0.70
     Davidson diagonalization with overlap
     c_bands:  1 eigenvalues not converged
     c_bands:  1 eigenvalues not converged
     c_bands:  1 eigenvalues not converged
     c_bands:  1 eigenvalues not converged
     c_bands:  2 eigenvalues not converged
     c_bands:  2 eigenvalues not converged
     c_bands:  1 eigenvalues not converged
     c_bands:  1 eigenvalues not converged
     c_bands:  1 eigenvalues not converged
     c_bands:  1 eigenvalues not converged
     c_bands:  1 eigenvalues not converged
     c_bands:  1 eigenvalues not converged
     c_bands:  1 eigenvalues not converged
     c_bands:  2 eigenvalues not converged
     c_bands:  1 eigenvalues not converged
     c_bands:  1 eigenvalues not converged
     c_bands:  1 eigenvalues not converged
     c_bands:  1 eigenvalues not converged
     c_bands:  1 eigenvalues not converged
     c_bands:  1 eigenvalues not converged
     c_bands:  1 eigenvalues not converged
     c_bands:  1 eigenvalues not converged
     c_bands:  1 eigenvalues not converged
     c_bands:  1 eigenvalues not converged
     c_bands:  1 eigenvalues not converged
     c_bands:  1 eigenvalues not converged
     c_bands:  1 eigenvalues not converged
     c_bands:  1 eigenvalues not converged
     c_bands:  1 eigenvalues not converged
     c_bands:  1 eigenvalues not converged
     c_bands:  1 eigenvalues not converged
     c_bands:  1 eigenvalues not converged
     c_bands:  1 eigenvalues not converged
     c_bands:  1 eigenvalues not converged
     c_bands:  1 eigenvalues not converged
     c_bands:  1 eigenvalues not converged
     c_bands:  1 eigenvalues not converged
     c_bands:  1 eigenvalues not converged
     c_bands:  1 eigenvalues not converged
     c_bands:  1 eigenvalues not converged
     c_bands:  1 eigenvalues not converged
     c_bands:  1 eigenvalues not converged
     c_bands:  1 eigenvalues not converged
     c_bands:  1 eigenvalues not converged
     c_bands:  1 eigenvalues not converged
     c_bands:  1 eigenvalues not converged
     c_bands:  1 eigenvalues not converged
     c_bands:  1 eigenvalues not converged
     c_bands:  1 eigenvalues not converged
     c_bands:  1 eigenvalues not converged
     c_bands:  1 eigenvalues not converged
     c_bands:  1 eigenvalues not converged
     c_bands:  1 eigenvalues not converged
     c_bands:  1 eigenvalues not converged
     c_bands:  2 eigenvalues not converged
     c_bands:  1 eigenvalues not converged
     c_bands:  1 eigenvalues not converged
     c_bands:  1 eigenvalues not converged
     c_bands:  1 eigenvalues not converged
     c_bands:  1 eigenvalues not converged
     c_bands:  1 eigenvalues not converged
     c_bands:  1 eigenvalues not converged
     c_bands:  1 eigenvalues not converged
     c_bands:  1 eigenvalues not converged
     c_bands:  1 eigenvalues not converged
     c_bands:  1 eigenvalues not converged
     c_bands:  1 eigenvalues not converged
     c_bands:  1 eigenvalues not converged
     c_bands:  1 eigenvalues not converged
     c_bands:  1 eigenvalues not converged
     c_bands:  1 eigenvalues not converged
     c_bands:  1 eigenvalues not converged
     c_bands:  1 eigenvalues not converged
     c_bands:  1 eigenvalues not converged
     c_bands:  1 eigenvalues not converged
     c_bands:  1 eigenvalues not converged
     c_bands:  1 eigenvalues not converged
     c_bands:  1 eigenvalues not converged
     c_bands:  1 eigenvalues not converged
     c_bands:  1 eigenvalues not converged
     c_bands:  1 eigenvalues not converged
     c_bands:  1 eigenvalues not converged
     c_bands:  1 eigenvalues not converged
     c_bands:  2 eigenvalues not converged
     c_bands:  1 eigenvalues not converged
     c_bands:  1 eigenvalues not converged
     c_bands:  1 eigenvalues not converged
     c_bands:  1 eigenvalues not converged
     c_bands:  1 eigenvalues not converged
     c_bands:  1 eigenvalues not converged
     c_bands:  1 eigenvalues not converged
     c_bands:  1 eigenvalues not converged
     c_bands:  2 eigenvalues not converged
     c_bands:  1 eigenvalues not converged
     c_bands:  1 eigenvalues not converged
     c_bands:  2 eigenvalues not converged
     c_bands:  1 eigenvalues not converged
     c_bands:  1 eigenvalues not converged
     c_bands:  1 eigenvalues not converged
     c_bands:  1 eigenvalues not converged
     c_bands:  1 eigenvalues not converged
     c_bands:  1 eigenvalues not converged
     c_bands:  1 eigenvalues not converged
     c_bands:  1 eigenvalues not converged
     c_bands:  1 eigenvalues not converged
     c_bands:  1 eigenvalues not converged
     c_bands:  1 eigenvalues not converged
     c_bands:  1 eigenvalues not converged
     c_bands:  1 eigenvalues not converged
     c_bands:  1 eigenvalues not converged
     c_bands:  1 eigenvalues not converged
     c_bands:  1 eigenvalues not converged
     c_bands:  1 eigenvalues not converged
     c_bands:  1 eigenvalues not converged
     c_bands:  1 eigenvalues not converged
     c_bands:  1 eigenvalues not converged
     c_bands:  1 eigenvalues not converged
     c_bands:  1 eigenvalues not converged
     c_bands:  1 eigenvalues not converged
     c_bands:  1 eigenvalues not converged
     c_bands:  2 eigenvalues not converged
     c_bands:  1 eigenvalues not converged
     c_bands:  1 eigenvalues not converged
     c_bands:  1 eigenvalues not converged
     c_bands:  2 eigenvalues not converged
     c_bands:  1 eigenvalues not converged
     c_bands:  1 eigenvalues not converged
     c_bands:  1 eigenvalues not converged
     c_bands:  1 eigenvalues not converged
     c_bands:  1 eigenvalues not converged
     c_bands:  1 eigenvalues not converged
     c_bands:  1 eigenvalues not converged
     c_bands:  1 eigenvalues not converged
     c_bands:  1 eigenvalues not converged
     c_bands:  1 eigenvalues not converged
     c_bands:  1 eigenvalues not converged
     c_bands:  1 eigenvalues not converged
     c_bands:  1 eigenvalues not converged
     c_bands:  1 eigenvalues not converged
     c_bands:  1 eigenvalues not converged
     c_bands:  1 eigenvalues not converged
     c_bands:  1 eigenvalues not converged
     c_bands:  1 eigenvalues not converged
     c_bands:  1 eigenvalues not converged
     c_bands:  1 eigenvalues not converged
     c_bands:  1 eigenvalues not converged
     c_bands:  1 eigenvalues not converged
     c_bands:  1 eigenvalues not converged
     c_bands:  1 eigenvalues not converged
     c_bands:  1 eigenvalues not converged
     c_bands:  1 eigenvalues not converged
     c_bands:  1 eigenvalues not converged
     c_bands:  1 eigenvalues not converged
     c_bands:  1 eigenvalues not converged
     c_bands:  1 eigenvalues not converged
     c_bands:  1 eigenvalues not converged
     c_bands:  1 eigenvalues not converged
     c_bands:  1 eigenvalues not converged
     c_bands:  1 eigenvalues not converged
     c_bands:  1 eigenvalues not converged
     c_bands:  1 eigenvalues not converged
     c_bands:  1 eigenvalues not converged
     c_bands:  1 eigenvalues not converged
     c_bands:  1 eigenvalues not converged
     c_bands:  1 eigenvalues not converged
     c_bands:  1 eigenvalues not converged
     c_bands:  1 eigenvalues not converged
     c_bands:  1 eigenvalues not converged
     c_bands:  1 eigenvalues not converged
     c_bands:  1 eigenvalues not converged
     c_bands:  1 eigenvalues not converged
     c_bands:  1 eigenvalues not converged
     ethr =  1.00E-06,  avg # of iterations = 16.3

     negative rho (up, down):  1.694E-04 0.000E+00

     total cpu time spent up to now is     2059.6 secs

     total energy              =    -428.90215649 Ry
     estimated scf accuracy    <      26.07239344 Ry

     iteration #  2     ecut=   124.00 Ry     beta= 0.70
     Davidson diagonalization with overlap
     ethr =  1.00E-02,  avg # of iterations =  7.6

     total cpu time spent up to now is     2102.5 secs

     total energy              =    -438.93909060 Ry
     estimated scf accuracy    <     143.53550552 Ry

     iteration #  3     ecut=   124.00 Ry     beta= 0.70
     Davidson diagonalization with overlap
     ethr =  1.00E-02,  avg # of iterations =  4.2

     negative rho (up, down):  1.533E-05 0.000E+00

     total cpu time spent up to now is     2129.1 secs

     total energy              =    -451.49973559 Ry
     estimated scf accuracy    <      22.49831098 Ry

     iteration #  4     ecut=   124.00 Ry     beta= 0.70
     Davidson diagonalization with overlap
     ethr =  1.00E-02,  avg # of iterations =  2.2

     negative rho (up, down):  1.749E-04 0.000E+00

     total cpu time spent up to now is     2147.5 secs

     total energy              =    -450.00193549 Ry
     estimated scf accuracy    <      13.18276263 Ry

     iteration #  5     ecut=   124.00 Ry     beta= 0.70
     Davidson diagonalization with overlap
     ethr =  1.00E-02,  avg # of iterations =  2.0

     negative rho (up, down):  3.216E-04 0.000E+00

     total cpu time spent up to now is     2164.6 secs

     total energy              =    -450.00733469 Ry
     estimated scf accuracy    <       5.07788225 Ry

     iteration #  6     ecut=   124.00 Ry     beta= 0.70
     Davidson diagonalization with overlap
     ethr =  1.00E-02,  avg # of iterations =  1.0

     negative rho (up, down):  4.359E-04 0.000E+00

     total cpu time spent up to now is     2180.3 secs

     total energy              =    -449.91385042 Ry
     estimated scf accuracy    <       3.39677745 Ry

     iteration #  7     ecut=   124.00 Ry     beta= 0.70
     Davidson diagonalization with overlap
     ethr =  1.00E-02,  avg # of iterations =  1.0

     negative rho (up, down):  7.849E-04 0.000E+00

     total cpu time spent up to now is     2196.1 secs

     total energy              =    -449.73415720 Ry
     estimated scf accuracy    <       2.50093192 Ry

     iteration #  8     ecut=   124.00 Ry     beta= 0.70
     Davidson diagonalization with overlap
     ethr =  8.62E-03,  avg # of iterations =  1.2

     negative rho (up, down):  9.177E-04 0.000E+00

     total cpu time spent up to now is     2212.0 secs

     total energy              =    -449.60649387 Ry
     estimated scf accuracy    <       1.34997446 Ry

     iteration #  9     ecut=   124.00 Ry     beta= 0.70
     Davidson diagonalization with overlap
     ethr =  4.66E-03,  avg # of iterations =  1.3

     negative rho (up, down):  8.892E-04 0.000E+00

     total cpu time spent up to now is     2228.1 secs

     total energy              =    -449.70248873 Ry
     estimated scf accuracy    <       0.12487082 Ry

     iteration # 10     ecut=   124.00 Ry     beta= 0.70
     Davidson diagonalization with overlap
     ethr =  4.31E-04,  avg # of iterations =  4.6

     negative rho (up, down):  1.048E-03 0.000E+00

     total cpu time spent up to now is     2250.1 secs

     total energy              =    -449.73727218 Ry
     estimated scf accuracy    <       0.03410938 Ry

     iteration # 11     ecut=   124.00 Ry     beta= 0.70
     Davidson diagonalization with overlap
     ethr =  1.18E-04,  avg # of iterations =  4.6

     negative rho (up, down):  9.905E-04 0.000E+00

     total cpu time spent up to now is     2275.0 secs

     total energy              =    -449.75313643 Ry
     estimated scf accuracy    <       1.67536022 Ry

     iteration # 12     ecut=   124.00 Ry     beta= 0.70
     Davidson diagonalization with overlap
     ethr =  1.18E-04,  avg # of iterations =  1.1

     negative rho (up, down):  6.433E-04 0.000E+00

     total cpu time spent up to now is     2290.9 secs

     total energy              =    -449.62528538 Ry
     estimated scf accuracy    <       1.00522597 Ry

     iteration # 13     ecut=   124.00 Ry     beta= 0.70
     Davidson diagonalization with overlap
     ethr =  1.18E-04,  avg # of iterations =  5.1

     negative rho (up, down):  4.659E-04 0.000E+00

     total cpu time spent up to now is     2318.0 secs

     total energy              =    -449.79138121 Ry
     estimated scf accuracy    <       0.23081425 Ry

     iteration # 14     ecut=   124.00 Ry     beta= 0.70
     Davidson diagonalization with overlap
     ethr =  1.18E-04,  avg # of iterations =  3.6

     negative rho (up, down):  5.743E-04 0.000E+00

     total cpu time spent up to now is     2339.6 secs

     total energy              =    -449.76722089 Ry
     estimated scf accuracy    <       1.09180326 Ry

     iteration # 15     ecut=   124.00 Ry     beta= 0.70
     Davidson diagonalization with overlap
     ethr =  1.18E-04,  avg # of iterations =  1.5

     negative rho (up, down):  8.020E-04 0.000E+00

     total cpu time spent up to now is     2356.0 secs

     total energy              =    -449.69242913 Ry
     estimated scf accuracy    <       0.70062604 Ry

     iteration # 16     ecut=   124.00 Ry     beta= 0.70
     Davidson diagonalization with overlap
     ethr =  1.18E-04,  avg # of iterations =  3.4

     negative rho (up, down):  7.995E-04 0.000E+00

     total cpu time spent up to now is     2379.1 secs

     total energy              =    -449.71790117 Ry
     estimated scf accuracy    <       0.03722557 Ry

     iteration # 17     ecut=   124.00 Ry     beta= 0.70
     Davidson diagonalization with overlap
     ethr =  1.18E-04,  avg # of iterations =  1.0

     negative rho (up, down):  8.104E-04 0.000E+00

     total cpu time spent up to now is     2394.8 secs

     total energy              =    -449.71737790 Ry
     estimated scf accuracy    <       0.02721508 Ry

     iteration # 18     ecut=   124.00 Ry     beta= 0.70
     Davidson diagonalization with overlap
     ethr =  9.38E-05,  avg # of iterations =  1.0

     negative rho (up, down):  8.215E-04 0.000E+00

     total cpu time spent up to now is     2410.5 secs

     total energy              =    -449.71701609 Ry
     estimated scf accuracy    <       0.01429128 Ry

     iteration # 19     ecut=   124.00 Ry     beta= 0.70
     Davidson diagonalization with overlap
     ethr =  4.93E-05,  avg # of iterations =  1.0

     negative rho (up, down):  8.626E-04 0.000E+00

     total cpu time spent up to now is     2426.2 secs

     total energy              =    -449.71605035 Ry
     estimated scf accuracy    <       0.00708358 Ry

     iteration # 20     ecut=   124.00 Ry     beta= 0.70
     Davidson diagonalization with overlap
     ethr =  2.44E-05,  avg # of iterations =  2.2

     negative rho (up, down):  8.709E-04 0.000E+00

     total cpu time spent up to now is     2443.5 secs

     total energy              =    -449.71701143 Ry
     estimated scf accuracy    <       0.00249461 Ry

     iteration # 21     ecut=   124.00 Ry     beta= 0.70
     Davidson diagonalization with overlap
     ethr =  8.60E-06,  avg # of iterations =  1.8

     negative rho (up, down):  8.539E-04 0.000E+00

     total cpu time spent up to now is     2460.2 secs

     total energy              =    -449.71664904 Ry
     estimated scf accuracy    <       0.00440312 Ry

     iteration # 22     ecut=   124.00 Ry     beta= 0.70
     Davidson diagonalization with overlap
     ethr =  8.60E-06,  avg # of iterations =  1.0

     negative rho (up, down):  8.538E-04 0.000E+00

     total cpu time spent up to now is     2476.0 secs

     total energy              =    -449.71684425 Ry
     estimated scf accuracy    <       0.00001010 Ry

     iteration # 23     ecut=   124.00 Ry     beta= 0.70
     Davidson diagonalization with overlap
     ethr =  3.48E-08,  avg # of iterations =  5.1

     negative rho (up, down):  8.529E-04 0.000E+00

     total cpu time spent up to now is     2501.1 secs

     total energy              =    -449.71685405 Ry
     estimated scf accuracy    <       0.00000439 Ry

     iteration # 24     ecut=   124.00 Ry     beta= 0.70
     Davidson diagonalization with overlap
     ethr =  1.51E-08,  avg # of iterations =  2.4

     negative rho (up, down):  8.537E-04 0.000E+00

     total cpu time spent up to now is     2519.0 secs

     total energy              =    -449.71685445 Ry
     estimated scf accuracy    <       0.00000956 Ry

     iteration # 25     ecut=   124.00 Ry     beta= 0.70
     Davidson diagonalization with overlap
     ethr =  1.51E-08,  avg # of iterations =  1.0

     negative rho (up, down):  8.536E-04 0.000E+00

     total cpu time spent up to now is     2534.3 secs

     total energy              =    -449.71685492 Ry
     estimated scf accuracy    <       0.00000022 Ry

     iteration # 26     ecut=   124.00 Ry     beta= 0.70
     Davidson diagonalization with overlap
     ethr =  7.58E-10,  avg # of iterations =  2.5

     negative rho (up, down):  8.536E-04 0.000E+00

     total cpu time spent up to now is     2552.1 secs

     total energy              =    -449.71685495 Ry
     estimated scf accuracy    <          9.8E-10 Ry

     iteration # 27     ecut=   124.00 Ry     beta= 0.70
     Davidson diagonalization with overlap
     c_bands:  1 eigenvalues not converged
     ethr =  3.36E-12,  avg # of iterations =  7.6

     negative rho (up, down):  8.536E-04 0.000E+00

     total cpu time spent up to now is     2593.8 secs

     total energy              =    -449.71685495 Ry
     estimated scf accuracy    <          6.3E-10 Ry

     iteration # 28     ecut=   124.00 Ry     beta= 0.70
     Davidson diagonalization with overlap
     ethr =  2.17E-12,  avg # of iterations =  2.0

     negative rho (up, down):  8.536E-04 0.000E+00

     total cpu time spent up to now is     2611.9 secs

     End of self-consistent calculation

     Number of k-points >= 100: set verbosity='high' to print the bands.

     the Fermi energy is    16.3282 ev

!    total energy              =    -449.71685496 Ry
     estimated scf accuracy    <          6.1E-11 Ry
     smearing contrib. (-TS)   =      -0.00002276 Ry
     internal energy E=F+TS    =    -449.71683220 Ry

     The total energy is F=E-TS. E is the sum of the following terms:
     one-electron contribution =    -160.38693052 Ry
     hartree contribution      =      95.80959705 Ry
     xc contribution           =     -53.64162265 Ry
     ewald contribution        =    -255.34709205 Ry
     one-center paw contrib.   =     -76.15078402 Ry

     convergence has been achieved in  28 iterations

     negative rho (up, down):  8.536E-04 0.000E+00

     Forces acting on atoms (cartesian axes, Ry/au):

     atom    1 type  1   force =     0.00000064   -0.00000002   -0.00000003
     atom    2 type  2   force =    -0.00000013    0.00000001    0.00000001
     atom    3 type  3   force =    -0.00000051    0.00000001    0.00000001

     Total force =     0.000001     Total SCF correction =     0.000005
     SCF correction compared to forces is large: reduce conv_thr to get better values


     Computing stress (Cartesian axis) and pressure


     negative rho (up, down):  8.536E-04 0.000E+00
          total   stress  (Ry/bohr**3)                   (kbar)     P=        0.61
   0.00002373  -0.00000000   0.00000000            3.49       -0.00        0.00
  -0.00000000  -0.00000567   0.00000000           -0.00       -0.83        0.00
   0.00000000   0.00000000  -0.00000567            0.00        0.00       -0.83


     Writing all to output data dir ./TiFeH.save/ :
     XML data file
     init_run     :     16.46s CPU     16.94s WALL (       2 calls)
     electrons    :   2473.32s CPU   2548.00s WALL (       9 calls)
     update_pot   :      0.48s CPU      0.53s WALL (       7 calls)
     forces       :      8.35s CPU      8.59s WALL (       9 calls)
     stress       :     37.54s CPU     38.29s WALL (       9 calls)

     Called by init_run:
     wfcinit      :     14.66s CPU     15.09s WALL (       2 calls)
     potinit      :      0.61s CPU      0.62s WALL (       2 calls)
     hinit0       :      0.92s CPU      0.93s WALL (       2 calls)

     Called by electrons:
     c_bands      :   2205.38s CPU   2269.07s WALL (     118 calls)
     sum_band     :    253.41s CPU    262.49s WALL (     118 calls)
     v_of_rho     :      1.53s CPU      1.74s WALL (     125 calls)
     newd         :      8.26s CPU      9.42s WALL (     125 calls)
     PAW_pot      :      5.82s CPU      6.43s WALL (     132 calls)
     mix_rho      :      0.19s CPU      0.21s WALL (     118 calls)

     Called by c_bands:
     init_us_2    :     37.89s CPU     39.37s WALL (  443944 calls)
     cegterg      :   2142.43s CPU   2203.44s WALL (  199184 calls)

     Called by *egterg:
     cdiaghg      :    336.72s CPU    345.06s WALL (  908519 calls)
     h_psi        :   1539.25s CPU   1586.08s WALL (  927087 calls)
     s_psi        :     36.14s CPU     37.32s WALL (  927087 calls)
     g_psi        :      7.12s CPU      7.29s WALL (  724527 calls)

     Called by h_psi:
     h_psi:calbec :     64.72s CPU     66.70s WALL (  927087 calls)
     vloc_psi     :   1431.55s CPU   1475.14s WALL (  927087 calls)
     add_vuspsi   :     36.86s CPU     38.09s WALL (  927087 calls)

     General routines
     calbec       :    101.79s CPU    104.92s WALL ( 1396351 calls)
     fft          :      5.29s CPU      5.60s WALL (    1841 calls)
     ffts         :      0.49s CPU      0.50s WALL (     243 calls)
     fftw         :   1339.56s CPU   1378.62s WALL (26812362 calls)
     interpolate  :      0.56s CPU      0.59s WALL (     125 calls)

     Parallel routines

     PWSCF        :   2540.75s CPU   2617.41s WALL


   This run was terminated on:  14: 9:20  19Nov2025            

=------------------------------------------------------------------------------=
   JOB DONE.
=------------------------------------------------------------------------------=
