
     Program PWSCF v.7.4 starts on  4Dec2025 at  2:42:45 

     This program is part of the open-source Quantum ESPRESSO suite
     for quantum simulation of materials; please cite
         "P. Giannozzi et al., J. Phys.:Condens. Matter 21 395502 (2009);
         "P. Giannozzi et al., J. Phys.:Condens. Matter 29 465901 (2017);
         "P. Giannozzi et al., J. Chem. Phys. 152 154105 (2020);
          URL http://www.quantum-espresso.org", 
     in publications or presentations arising from this work. More details at
     http://www.quantum-espresso.org/quote

     Parallel version (MPI & OpenMP), running on      16 processor cores
     Number of MPI processes:                16
     Threads/MPI process:                     1

     MPI processes distributed on     1 nodes
     338934 MiB available memory on the printing compute node when the environment starts

     Reading input from TiFe_octa1_1_2.in

     Current dimensions of program PWSCF are:
     Max number of different atomic species (ntypx) = 10
     Max number of k-points (npk) =  40000
     Max angular momentum in pseudopotentials (lmaxx) =  4
     file Fe.pbe-spn-kjpaw_psl.0.2.1.UPF: wavefunction(s)  3D renormalized

     IMPORTANT: XC functional enforced from input :
     Exchange-correlation= PBE
                           (   1   4   3   4   0   0   0)
     Any further DFT definition will be discarded
     Please, verify this is what you really want

     Message from routine setup:
     using ibrav=0 with symmetry is DISCOURAGED, use correct ibrav instead

     R & G space division:  proc/nbgrp/npool/nimage =      16
     Subspace diagonalization in iterative solution of the eigenvalue problem:
     a serial algorithm will be used


     Parallelization info
     --------------------
     sticks:   dense  smooth     PW     G-vecs:    dense   smooth      PW
     Min        1075     307     84               106249    16243    2316
     Max        1077     308     85               106252    16246    2319
     Sum       17217    4921   1353              1700005   259911   37073

     Using Slab Decomposition



     bravais-lattice index     =            0
     lattice parameter (alat)  =       5.5824  a.u.
     unit-cell volume          =    1391.7400 (a.u.)^3
     number of atoms/cell      =           24
     number of atomic types    =            3
     number of electrons       =       232.00
     number of Kohn-Sham states=          139
     kinetic-energy cutoff     =     124.0000  Ry
     charge density cutoff     =    1736.0000  Ry
     scf convergence threshold =      1.0E-08
     mixing beta               =       0.7000
     number of iterations used =            8  plain     mixing
     energy convergence thresh.=      1.0E-04
     force convergence thresh. =      1.0E-03
     press convergence thresh. =      1.0E-01
     Exchange-correlation= PBE
                           (   1   4   3   4   0   0   0)
     nstep                     =           50


     celldm(1)=   5.582423  celldm(2)=   0.000000  celldm(3)=   0.000000
     celldm(4)=   0.000000  celldm(5)=   0.000000  celldm(6)=   0.000000

     crystal axes: (cart. coord. in units of alat)
               a(1) = (   2.000000   0.000000   0.000000 )  
               a(2) = (   0.000000   2.000000   0.000000 )  
               a(3) = (   0.000000   0.000000   2.000000 )  

     reciprocal axes: (cart. coord. in units 2 pi/alat)
               b(1) = (  0.500000  0.000000  0.000000 )  
               b(2) = (  0.000000  0.500000  0.000000 )  
               b(3) = (  0.000000  0.000000  0.500000 )  


     PseudoPot. # 1 for Fe read from file:
     ../../../../pseudos/Fe.pbe-spn-kjpaw_psl.0.2.1.UPF
     MD5 check sum: e86618425769142926afa95317d90200
     Pseudo is Projector augmented-wave + core cor, Zval = 16.0
     Generated using "atomic" code by A. Dal Corso  v.5.0.99 svn rev. 10869
     Shape of augmentation charge: PSQ
     Using radial grid of 1191 points,  6 beta functions with: 
                l(1) =   0
                l(2) =   0
                l(3) =   1
                l(4) =   1
                l(5) =   2
                l(6) =   2
     Q(r) pseudized with 0 coefficients 


     PseudoPot. # 2 for Ti read from file:
     ../../../../pseudos/ti_pbe_v1.4.uspp.F.UPF
     MD5 check sum: 88a00a6731bd790ddea75d31a80cb452
     Pseudo is Ultrasoft + core correction, Zval = 12.0
     Generated by new atomic code, or converted to UPF format
     Using radial grid of  851 points,  6 beta functions with: 
                l(1) =   0
                l(2) =   0
                l(3) =   1
                l(4) =   1
                l(5) =   2
                l(6) =   2
     Q(r) pseudized with  6 coefficients,  rinner =    1.000   1.000   1.000
                                                       1.000   1.000

     PseudoPot. # 3 for H  read from file:
     ../../../../pseudos/H.pbe-rrkjus_psl.1.0.0.UPF
     MD5 check sum: f52b6d4d1c606e5624b1dc7b2218f220
     Pseudo is Ultrasoft, Zval =  1.0
     Generated using "atomic" code by A. Dal Corso  v.5.1
     Using radial grid of  929 points,  2 beta functions with: 
                l(1) =   0
                l(2) =   0
     Q(r) pseudized with 0 coefficients 


     atomic species   valence    mass     pseudopotential
     Fe               16.00    55.84500     Fe( 1.00)
     Ti               12.00    47.86700     Ti( 1.00)
     H                 1.00     1.00784     H ( 1.00)

      8 Sym. Ops., with inversion, found ( 4 have fractional translation)



   Cartesian axes

     site n.     atom                  positions (alat units)
         1        Ti     tau(   1) = (   0.0000000   0.0000000   0.0000000  )
         2        Ti     tau(   2) = (   1.0000000   1.0000000   0.0000000  )
         3        Ti     tau(   3) = (   1.0000000   0.0000000   0.0000000  )
         4        Ti     tau(   4) = (   0.0000000   1.0000000   1.0000000  )
         5        Ti     tau(   5) = (   0.0000000   0.0000000   1.0000000  )
         6        Ti     tau(   6) = (   1.0000000   1.0000000   1.0000000  )
         7        Ti     tau(   7) = (   1.0000000   0.0000000   1.0000000  )
         8        Ti     tau(   8) = (   0.0000000   1.0000000   0.0000000  )
         9        Fe     tau(   9) = (   0.5000000   0.5000000   0.5000000  )
        10        Fe     tau(  10) = (   1.5000000   1.5000000   0.5000000  )
        11        Fe     tau(  11) = (   1.5000000   0.5000000   0.5000000  )
        12        Fe     tau(  12) = (   0.5000000   1.5000000   1.5000000  )
        13        Fe     tau(  13) = (   0.5000000   0.5000000   1.5000000  )
        14        Fe     tau(  14) = (   1.5000000   1.5000000   1.5000000  )
        15        Fe     tau(  15) = (   1.5000000   0.5000000   1.5000000  )
        16        Fe     tau(  16) = (   0.5000000   1.5000000   0.5000000  )
        17        H      tau(  17) = (   1.0000000   0.5000000   1.5000000  )
        18        H      tau(  18) = (   0.5000000   0.5000000   1.0000000  )
        19        H      tau(  19) = (   0.5000000   1.0000000   1.5000000  )
        20        H      tau(  20) = (   0.5000000   0.0000000   1.5000000  )
        21        H      tau(  21) = (   1.5000000   1.5000000   1.0000000  )
        22        H      tau(  22) = (   1.0000000   1.5000000   0.5000000  )
        23        H      tau(  23) = (   1.5000000   1.0000000   0.5000000  )
        24        H      tau(  24) = (   1.5000000   0.0000000   0.5000000  )

     number of k points=   105  Marzari-Vanderbilt smearing, width (Ry)=  0.0050

     Number of k-points >= 100: set verbosity='high' to print them.

     Dense  grid:  1700005 G-vectors     FFT dimensions: ( 150, 150, 150)

     Smooth grid:   259911 G-vectors     FFT dimensions: (  80,  80,  80)

     Estimated max dynamical RAM per process >     888.89 MB

     Estimated total dynamical RAM >      13.89 GB

     Check: negative core charge=   -0.000001

     Initial potential from superposition of free atoms

     starting charge     223.9961, renormalised to     232.0000

     negative rho (up, down):  1.074E-02 0.000E+00
     Starting wfcs are  192 randomized atomic wfcs
     Checking if some PAW data can be deallocated... 

     total cpu time spent up to now is       32.1 secs

     per-process dynamical memory:   677.3 Mb

     Self-consistent Calculation

     iteration #  1     ecut=   124.00 Ry     beta= 0.70
     Davidson diagonalization with overlap
     ethr =  1.00E-02,  avg # of iterations =  2.5

     negative rho (up, down):  3.484E-04 0.000E+00

     total cpu time spent up to now is      102.6 secs

     total energy              =   -3500.97691959 Ry
     estimated scf accuracy    <     122.79393823 Ry

     iteration #  2     ecut=   124.00 Ry     beta= 0.70
     Davidson diagonalization with overlap
     ethr =  1.00E-02,  avg # of iterations =  6.5

     negative rho (up, down):  3.812E-04 0.000E+00

     total cpu time spent up to now is      238.9 secs

     total energy              =   -3597.70409094 Ry
     estimated scf accuracy    <     476.45880486 Ry

     iteration #  3     ecut=   124.00 Ry     beta= 0.70
     Davidson diagonalization with overlap
     ethr =  1.00E-02,  avg # of iterations =  3.1

     negative rho (up, down):  2.051E-03 0.000E+00

     total cpu time spent up to now is      326.1 secs

     total energy              =   -3597.92205808 Ry
     estimated scf accuracy    <     121.18933449 Ry

     iteration #  4     ecut=   124.00 Ry     beta= 0.70
     Davidson diagonalization with overlap
     ethr =  1.00E-02,  avg # of iterations =  2.6

     negative rho (up, down):  2.284E-03 0.000E+00

     total cpu time spent up to now is      394.6 secs

     total energy              =   -3601.87169583 Ry
     estimated scf accuracy    <      37.05536993 Ry

     iteration #  5     ecut=   124.00 Ry     beta= 0.70
     Davidson diagonalization with overlap
     ethr =  1.00E-02,  avg # of iterations =  1.1

     negative rho (up, down):  2.507E-03 0.000E+00

     total cpu time spent up to now is      446.1 secs

     total energy              =   -3602.41823164 Ry
     estimated scf accuracy    <      34.02934076 Ry

     iteration #  6     ecut=   124.00 Ry     beta= 0.70
     Davidson diagonalization with overlap
     ethr =  1.00E-02,  avg # of iterations =  1.1

     negative rho (up, down):  3.940E-03 0.000E+00

     total cpu time spent up to now is      497.2 secs

     total energy              =   -3602.06649134 Ry
     estimated scf accuracy    <      37.53471657 Ry

     iteration #  7     ecut=   124.00 Ry     beta= 0.70
     Davidson diagonalization with overlap
     ethr =  1.00E-02,  avg # of iterations =  1.0

     negative rho (up, down):  7.675E-03 0.000E+00

     total cpu time spent up to now is      548.8 secs

     total energy              =   -3594.34626406 Ry
     estimated scf accuracy    <      42.20039232 Ry

     iteration #  8     ecut=   124.00 Ry     beta= 0.70
     Davidson diagonalization with overlap
     ethr =  1.00E-02,  avg # of iterations =  2.5

     negative rho (up, down):  8.463E-03 0.000E+00

     total cpu time spent up to now is      610.4 secs

     total energy              =   -3597.34986944 Ry
     estimated scf accuracy    <       1.82945138 Ry

     iteration #  9     ecut=   124.00 Ry     beta= 0.70
     Davidson diagonalization with overlap
     ethr =  7.89E-04,  avg # of iterations =  5.7

     negative rho (up, down):  7.806E-03 0.000E+00

     total cpu time spent up to now is      702.7 secs

     total energy              =   -3597.62714083 Ry
     estimated scf accuracy    <       6.88193063 Ry

     iteration # 10     ecut=   124.00 Ry     beta= 0.70
     Davidson diagonalization with overlap
     ethr =  7.89E-04,  avg # of iterations =  1.6

     negative rho (up, down):  8.542E-03 0.000E+00

     total cpu time spent up to now is      758.3 secs

     total energy              =   -3597.87686315 Ry
     estimated scf accuracy    <       1.36660611 Ry

     iteration # 11     ecut=   124.00 Ry     beta= 0.70
     Davidson diagonalization with overlap
     ethr =  5.89E-04,  avg # of iterations =  1.0

     negative rho (up, down):  8.308E-03 0.000E+00

     total cpu time spent up to now is      810.0 secs

     total energy              =   -3597.87228025 Ry
     estimated scf accuracy    <       3.90472496 Ry

     iteration # 12     ecut=   124.00 Ry     beta= 0.70
     Davidson diagonalization with overlap
     ethr =  5.89E-04,  avg # of iterations =  1.0

     negative rho (up, down):  6.725E-03 0.000E+00

     total cpu time spent up to now is      861.4 secs

     total energy              =   -3597.24138596 Ry
     estimated scf accuracy    <       3.46783835 Ry

     iteration # 13     ecut=   124.00 Ry     beta= 0.70
     Davidson diagonalization with overlap
     ethr =  5.89E-04,  avg # of iterations =  4.0

     negative rho (up, down):  6.901E-03 0.000E+00

     total cpu time spent up to now is      930.8 secs

     total energy              =   -3597.70556065 Ry
     estimated scf accuracy    <       1.76494371 Ry

     iteration # 14     ecut=   124.00 Ry     beta= 0.70
     Davidson diagonalization with overlap
     ethr =  5.89E-04,  avg # of iterations =  1.0

     negative rho (up, down):  7.233E-03 0.000E+00

     total cpu time spent up to now is      982.2 secs

     total energy              =   -3597.68078234 Ry
     estimated scf accuracy    <       0.78788832 Ry

     iteration # 15     ecut=   124.00 Ry     beta= 0.70
     Davidson diagonalization with overlap
     ethr =  3.40E-04,  avg # of iterations =  1.1

     negative rho (up, down):  7.394E-03 0.000E+00

     total cpu time spent up to now is     1033.9 secs

     total energy              =   -3597.66659057 Ry
     estimated scf accuracy    <       0.37244164 Ry

     iteration # 16     ecut=   124.00 Ry     beta= 0.70
     Davidson diagonalization with overlap
     ethr =  1.61E-04,  avg # of iterations =  1.8

     negative rho (up, down):  7.414E-03 0.000E+00

     total cpu time spent up to now is     1090.4 secs

     total energy              =   -3597.67611872 Ry
     estimated scf accuracy    <       0.04198110 Ry

     iteration # 17     ecut=   124.00 Ry     beta= 0.70
     Davidson diagonalization with overlap
     c_bands:  2 eigenvalues not converged
     ethr =  1.81E-05,  avg # of iterations =  7.5

     negative rho (up, down):  7.478E-03 0.000E+00

     total cpu time spent up to now is     1166.2 secs

     total energy              =   -3597.67861447 Ry
     estimated scf accuracy    <       0.01005426 Ry

     iteration # 18     ecut=   124.00 Ry     beta= 0.70
     Davidson diagonalization with overlap
     c_bands:  1 eigenvalues not converged
     c_bands:  1 eigenvalues not converged
     c_bands:  1 eigenvalues not converged
     c_bands:  1 eigenvalues not converged
     ethr =  4.33E-06,  avg # of iterations =  8.0

     negative rho (up, down):  7.431E-03 0.000E+00

     total cpu time spent up to now is     1255.0 secs

     total energy              =   -3597.68030851 Ry
     estimated scf accuracy    <       0.00969737 Ry

     iteration # 19     ecut=   124.00 Ry     beta= 0.70
     Davidson diagonalization with overlap
     c_bands:  1 eigenvalues not converged
     ethr =  4.18E-06,  avg # of iterations =  2.1

     negative rho (up, down):  7.414E-03 0.000E+00

     total cpu time spent up to now is     1312.6 secs

     total energy              =   -3597.68061444 Ry
     estimated scf accuracy    <       0.00498049 Ry

     iteration # 20     ecut=   124.00 Ry     beta= 0.70
     Davidson diagonalization with overlap
     ethr =  2.15E-06,  avg # of iterations =  1.5

     negative rho (up, down):  7.397E-03 0.000E+00

     total cpu time spent up to now is     1366.8 secs

     total energy              =   -3597.68084740 Ry
     estimated scf accuracy    <       0.00066183 Ry

     iteration # 21     ecut=   124.00 Ry     beta= 0.70
     Davidson diagonalization with overlap
     ethr =  2.85E-07,  avg # of iterations =  5.2

     negative rho (up, down):  7.410E-03 0.000E+00

     total cpu time spent up to now is     1447.2 secs

     total energy              =   -3597.68099888 Ry
     estimated scf accuracy    <       0.00041150 Ry

     iteration # 22     ecut=   124.00 Ry     beta= 0.70
     Davidson diagonalization with overlap
     ethr =  1.77E-07,  avg # of iterations =  1.5

     negative rho (up, down):  7.418E-03 0.000E+00

     total cpu time spent up to now is     1501.3 secs

     total energy              =   -3597.68100657 Ry
     estimated scf accuracy    <       0.00006297 Ry

     iteration # 23     ecut=   124.00 Ry     beta= 0.70
     Davidson diagonalization with overlap
     ethr =  2.71E-08,  avg # of iterations =  4.4

     negative rho (up, down):  7.412E-03 0.000E+00

     total cpu time spent up to now is     1582.3 secs

     total energy              =   -3597.68102357 Ry
     estimated scf accuracy    <       0.00006744 Ry

     iteration # 24     ecut=   124.00 Ry     beta= 0.70
     Davidson diagonalization with overlap
     ethr =  2.71E-08,  avg # of iterations =  1.2

     negative rho (up, down):  7.412E-03 0.000E+00

     total cpu time spent up to now is     1634.9 secs

     total energy              =   -3597.68102664 Ry
     estimated scf accuracy    <       0.00000523 Ry

     iteration # 25     ecut=   124.00 Ry     beta= 0.70
     Davidson diagonalization with overlap
     ethr =  2.25E-09,  avg # of iterations =  4.9

     negative rho (up, down):  7.412E-03 0.000E+00

     total cpu time spent up to now is     1710.5 secs

     total energy              =   -3597.68102774 Ry
     estimated scf accuracy    <       0.00000017 Ry

     iteration # 26     ecut=   124.00 Ry     beta= 0.70
     Davidson diagonalization with overlap
     ethr =  7.15E-11,  avg # of iterations =  5.1

     negative rho (up, down):  7.412E-03 0.000E+00

     total cpu time spent up to now is     1804.5 secs

     total energy              =   -3597.68102781 Ry
     estimated scf accuracy    <       0.00000039 Ry

     iteration # 27     ecut=   124.00 Ry     beta= 0.70
     Davidson diagonalization with overlap
     c_bands:  1 eigenvalues not converged
     ethr =  7.15E-11,  avg # of iterations =  2.9

     negative rho (up, down):  7.412E-03 0.000E+00

     total cpu time spent up to now is     1866.3 secs

     total energy              =   -3597.68102782 Ry
     estimated scf accuracy    <       0.00000036 Ry

     iteration # 28     ecut=   124.00 Ry     beta= 0.70
     Davidson diagonalization with overlap
     ethr =  7.15E-11,  avg # of iterations =  1.4

     negative rho (up, down):  7.412E-03 0.000E+00

     total cpu time spent up to now is     1919.8 secs

     total energy              =   -3597.68102783 Ry
     estimated scf accuracy    <       0.00000002 Ry

     iteration # 29     ecut=   124.00 Ry     beta= 0.70
     Davidson diagonalization with overlap
     ethr =  8.78E-12,  avg # of iterations =  3.2

     negative rho (up, down):  7.412E-03 0.000E+00

     total cpu time spent up to now is     1984.1 secs

     End of self-consistent calculation

     Number of k-points >= 100: set verbosity='high' to print the bands.

     the Fermi energy is    18.4188 ev

!    total energy              =   -3597.68102782 Ry
     estimated scf accuracy    <          9.6E-09 Ry
     smearing contrib. (-TS)   =      -0.00017692 Ry
     internal energy E=F+TS    =   -3597.68085090 Ry

     The total energy is F=E-TS. E is the sum of the following terms:
     one-electron contribution =   -1200.74043112 Ry
     hartree contribution      =     738.69017428 Ry
     xc contribution           =    -430.94620428 Ry
     ewald contribution        =   -2095.45039479 Ry
     one-center paw contrib.   =    -609.23399500 Ry

     convergence has been achieved in  29 iterations

     negative rho (up, down):  7.412E-03 0.000E+00

     Forces acting on atoms (cartesian axes, Ry/au):

     atom    1 type  2   force =     0.00000000    0.00000000    0.00000000
     atom    2 type  2   force =     0.00000000    0.00000000    0.00000000
     atom    3 type  2   force =     0.00000000    0.00000000    0.00000000
     atom    4 type  2   force =     0.00000000    0.00000000    0.00000000
     atom    5 type  2   force =     0.00000000    0.00000000    0.00000000
     atom    6 type  2   force =     0.00000000    0.00000000    0.00000000
     atom    7 type  2   force =     0.00000000    0.00000000    0.00000000
     atom    8 type  2   force =     0.00000000    0.00000000    0.00000000
     atom    9 type  1   force =    -0.00513859    0.00000000   -0.11129710
     atom   10 type  1   force =     0.10303632    0.00000000   -0.10303632
     atom   11 type  1   force =     0.00560203    0.00000000   -0.00560203
     atom   12 type  1   force =    -0.00560203    0.00000000    0.00560203
     atom   13 type  1   force =    -0.10303632    0.00000000    0.10303632
     atom   14 type  1   force =     0.00513859    0.00000000    0.11129710
     atom   15 type  1   force =     0.11129710    0.00000000    0.00513859
     atom   16 type  1   force =    -0.11129710    0.00000000   -0.00513859
     atom   17 type  3   force =     0.00149871    0.00000000    0.00379472
     atom   18 type  3   force =    -0.00379472    0.00000000   -0.00149871
     atom   19 type  3   force =    -0.00385386    0.00200274    0.00385386
     atom   20 type  3   force =    -0.00385386   -0.00200274    0.00385386
     atom   21 type  3   force =     0.00379472    0.00000000    0.00149871
     atom   22 type  3   force =    -0.00149871    0.00000000   -0.00379472
     atom   23 type  3   force =     0.00385386   -0.00200274   -0.00385386
     atom   24 type  3   force =     0.00385386    0.00200274   -0.00385386

     Total force =     0.304051     Total SCF correction =     0.000366


     Computing stress (Cartesian axis) and pressure


     negative rho (up, down):  7.412E-03 0.000E+00
          total   stress  (Ry/bohr**3)                   (kbar)     P=      282.72
   0.00166683   0.00000000   0.00001820          245.20        0.00        2.68
   0.00000000   0.00243208   0.00000000            0.00      357.77        0.00
   0.00001820   0.00000000   0.00166683            2.68        0.00      245.20


     BFGS Geometry Optimization
     Energy error            =      3.1E-01 Ry
     Gradient error          =      1.1E-01 Ry/Bohr
     Cell gradient error     =      3.6E+02 kbar

     number of scf cycles    =   1
     number of bfgs steps    =   0

     enthalpy           new  =   -3597.6810278209 Ry

     new trust radius        =       0.4536558876 bohr
     new conv_thr            =       0.0000000100 Ry

     new unit-cell volume =   1601.96597 a.u.^3 (   237.38686 Ang^3 )
     density =      5.86019 g/cm^3

CELL_PARAMETERS (alat=  5.58242261)
   2.083341504   0.000000000   0.000909865
   0.000000000   2.121603897   0.000000000
   0.000909865   0.000000000   2.083341504

ATOMIC_POSITIONS (crystal)
Ti               0.0000000000        0.0000000000        0.0000000000
Ti               0.5000000000        0.5000000000       -0.0000000000
Ti               0.5000000000        0.0000000000       -0.0000000000
Ti              -0.0000000000        0.5000000000        0.5000000000
Ti              -0.0000000000        0.0000000000        0.5000000000
Ti               0.5000000000        0.5000000000        0.5000000000
Ti               0.5000000000        0.0000000000        0.5000000000
Ti               0.0000000000        0.5000000000        0.0000000000
Fe               0.2495397529        0.2500000000        0.2400314695
Fe               0.7592286385        0.7500000000        0.2407713615
Fe               0.7505017564        0.2500000000        0.2494982436
Fe               0.2494982436        0.7500000000        0.7505017564
Fe               0.2407713615        0.2500000000        0.7592286385
Fe               0.7504602471        0.7500000000        0.7599685305
Fe               0.7599685305        0.2500000000        0.7504602471
Fe               0.2400314695        0.7500000000        0.2495397529
H                0.5001342351        0.2500000000        0.7503398813
H                0.2496601187        0.2500000000        0.4998657649
H                0.2496548223        0.5001793791        0.7503451777
H                0.2496548223       -0.0001793791        0.7503451777
H                0.7503398813        0.7500000000        0.5001342351
H                0.4998657649        0.7500000000        0.2496601187
H                0.7503451777        0.4998206209        0.2496548223
H                0.7503451777        0.0001793791        0.2496548223



     Writing config-only to output data dir ./TiFeH_supercell.save/ :
     XML data file     NEW-OLD atomic charge density approx. for the potential
     New effective cutoffs (rho, wfc): 1601.10  114.37

     negative rho (up, down):  8.185E-03 0.000E+00

     total cpu time spent up to now is     2031.7 secs

     per-process dynamical memory:   708.5 Mb

     Self-consistent Calculation

     iteration #  1     ecut=   124.00 Ry     beta= 0.70
     Davidson diagonalization with overlap
     c_bands:  1 eigenvalues not converged
     c_bands:  1 eigenvalues not converged
     c_bands:  1 eigenvalues not converged
     c_bands:  2 eigenvalues not converged
     c_bands:  2 eigenvalues not converged
     c_bands:  3 eigenvalues not converged
     c_bands:  1 eigenvalues not converged
     c_bands:  1 eigenvalues not converged
     c_bands:  1 eigenvalues not converged
     c_bands:  1 eigenvalues not converged
     c_bands:  2 eigenvalues not converged
     c_bands:  2 eigenvalues not converged
     c_bands:  1 eigenvalues not converged
     c_bands:  1 eigenvalues not converged
     c_bands:  2 eigenvalues not converged
     c_bands:  1 eigenvalues not converged
     c_bands:  1 eigenvalues not converged
     c_bands:  1 eigenvalues not converged
     c_bands:  1 eigenvalues not converged
     c_bands:  1 eigenvalues not converged
     c_bands:  1 eigenvalues not converged
     c_bands:  3 eigenvalues not converged
     c_bands:  1 eigenvalues not converged
     c_bands:  1 eigenvalues not converged
     c_bands:  1 eigenvalues not converged
     c_bands:  2 eigenvalues not converged
     c_bands:  1 eigenvalues not converged
     c_bands:  1 eigenvalues not converged
     c_bands:  2 eigenvalues not converged
     c_bands:  2 eigenvalues not converged
     c_bands:  2 eigenvalues not converged
     c_bands:  1 eigenvalues not converged
     c_bands:  1 eigenvalues not converged
     c_bands:  2 eigenvalues not converged
     c_bands:  1 eigenvalues not converged
     c_bands:  2 eigenvalues not converged
     c_bands:  1 eigenvalues not converged
     c_bands:  1 eigenvalues not converged
     c_bands:  2 eigenvalues not converged
     c_bands:  2 eigenvalues not converged
     c_bands:  1 eigenvalues not converged
     c_bands:  1 eigenvalues not converged
     c_bands:  1 eigenvalues not converged
     c_bands:  1 eigenvalues not converged
     c_bands:  1 eigenvalues not converged
     c_bands:  2 eigenvalues not converged
     c_bands:  1 eigenvalues not converged
     c_bands:  1 eigenvalues not converged
     c_bands:  1 eigenvalues not converged
     c_bands:  1 eigenvalues not converged
     c_bands:  1 eigenvalues not converged
     c_bands:  5 eigenvalues not converged
     c_bands:  2 eigenvalues not converged
     ethr =  1.00E-06,  avg # of iterations = 19.3

     negative rho (up, down):  7.347E-03 0.000E+00

     total cpu time spent up to now is     2442.7 secs

     total energy              =   -3597.68023144 Ry
     estimated scf accuracy    <       0.28440595 Ry

     iteration #  2     ecut=   124.00 Ry     beta= 0.70
     Davidson diagonalization with overlap
     ethr =  1.23E-04,  avg # of iterations =  8.5

     negative rho (up, down):  6.935E-03 0.000E+00

     total cpu time spent up to now is     2580.3 secs

     total energy              =   -3595.80112814 Ry
     estimated scf accuracy    <      53.14681686 Ry

     iteration #  3     ecut=   124.00 Ry     beta= 0.70
     Davidson diagonalization with overlap
     ethr =  1.23E-04,  avg # of iterations =  7.3

     negative rho (up, down):  7.167E-03 0.000E+00

     total cpu time spent up to now is     2700.7 secs

     total energy              =   -3597.67662228 Ry
     estimated scf accuracy    <       3.70352308 Ry

     iteration #  4     ecut=   124.00 Ry     beta= 0.70
     Davidson diagonalization with overlap
     ethr =  1.23E-04,  avg # of iterations =  6.8

     negative rho (up, down):  7.307E-03 0.000E+00

     total cpu time spent up to now is     2795.2 secs

     total energy              =   -3597.80027777 Ry
     estimated scf accuracy    <       1.50616980 Ry

     iteration #  5     ecut=   124.00 Ry     beta= 0.70
     Davidson diagonalization with overlap
     ethr =  1.23E-04,  avg # of iterations =  4.4

     negative rho (up, down):  7.387E-03 0.000E+00

     total cpu time spent up to now is     2863.0 secs

     total energy              =   -3597.84696687 Ry
     estimated scf accuracy    <       0.89750526 Ry

     iteration #  6     ecut=   124.00 Ry     beta= 0.70
     Davidson diagonalization with overlap
     ethr =  1.23E-04,  avg # of iterations =  3.2

     negative rho (up, down):  7.436E-03 0.000E+00

     total cpu time spent up to now is     2927.1 secs

     total energy              =   -3597.88128003 Ry
     estimated scf accuracy    <       0.11963875 Ry

     iteration #  7     ecut=   124.00 Ry     beta= 0.70
     Davidson diagonalization with overlap
     ethr =  5.16E-05,  avg # of iterations =  3.0

     negative rho (up, down):  7.458E-03 0.000E+00

     total cpu time spent up to now is     2987.4 secs

     total energy              =   -3597.89007956 Ry
     estimated scf accuracy    <       0.05092217 Ry

     iteration #  8     ecut=   124.00 Ry     beta= 0.70
     Davidson diagonalization with overlap
     ethr =  2.19E-05,  avg # of iterations =  2.3

     negative rho (up, down):  7.427E-03 0.000E+00

     total cpu time spent up to now is     3046.3 secs

     total energy              =   -3597.89298179 Ry
     estimated scf accuracy    <       0.01494867 Ry

     iteration #  9     ecut=   124.00 Ry     beta= 0.70
     Davidson diagonalization with overlap
     c_bands:  1 eigenvalues not converged
     ethr =  6.44E-06,  avg # of iterations =  5.0

     negative rho (up, down):  7.428E-03 0.000E+00

     total cpu time spent up to now is     3112.1 secs

     total energy              =   -3597.89383471 Ry
     estimated scf accuracy    <       0.00087063 Ry

     iteration # 10     ecut=   124.00 Ry     beta= 0.70
     Davidson diagonalization with overlap
     ethr =  3.75E-07,  avg # of iterations =  7.5

     negative rho (up, down):  7.419E-03 0.000E+00

     total cpu time spent up to now is     3208.5 secs

     total energy              =   -3597.89407765 Ry
     estimated scf accuracy    <       0.00039556 Ry

     iteration # 11     ecut=   124.00 Ry     beta= 0.70
     Davidson diagonalization with overlap
     ethr =  1.71E-07,  avg # of iterations =  1.6

     negative rho (up, down):  7.421E-03 0.000E+00

     total cpu time spent up to now is     3264.2 secs

     total energy              =   -3597.89410667 Ry
     estimated scf accuracy    <       0.00001065 Ry

     iteration # 12     ecut=   124.00 Ry     beta= 0.70
     Davidson diagonalization with overlap
     c_bands:  1 eigenvalues not converged
     ethr =  4.59E-09,  avg # of iterations =  5.7

     negative rho (up, down):  7.421E-03 0.000E+00

     total cpu time spent up to now is     3378.0 secs

     total energy              =   -3597.89411350 Ry
     estimated scf accuracy    <       0.00003838 Ry

     iteration # 13     ecut=   124.00 Ry     beta= 0.70
     Davidson diagonalization with overlap
     ethr =  4.59E-09,  avg # of iterations =  3.4

     negative rho (up, down):  7.420E-03 0.000E+00

     total cpu time spent up to now is     3442.8 secs

     total energy              =   -3597.89411482 Ry
     estimated scf accuracy    <       0.00001347 Ry

     iteration # 14     ecut=   124.00 Ry     beta= 0.70
     Davidson diagonalization with overlap
     ethr =  4.59E-09,  avg # of iterations =  1.0

     negative rho (up, down):  7.421E-03 0.000E+00

     total cpu time spent up to now is     3494.4 secs

     total energy              =   -3597.89411541 Ry
     estimated scf accuracy    <       0.00000191 Ry

     iteration # 15     ecut=   124.00 Ry     beta= 0.70
     Davidson diagonalization with overlap
     ethr =  8.23E-10,  avg # of iterations =  2.6

     negative rho (up, down):  7.421E-03 0.000E+00

     total cpu time spent up to now is     3560.4 secs

     total energy              =   -3597.89411550 Ry
     estimated scf accuracy    <       0.00000113 Ry

     iteration # 16     ecut=   124.00 Ry     beta= 0.70
     Davidson diagonalization with overlap
     ethr =  4.87E-10,  avg # of iterations =  3.2

     negative rho (up, down):  7.420E-03 0.000E+00

     total cpu time spent up to now is     3624.1 secs

     total energy              =   -3597.89411560 Ry
     estimated scf accuracy    <       0.00000113 Ry

     iteration # 17     ecut=   124.00 Ry     beta= 0.70
     Davidson diagonalization with overlap
     ethr =  4.87E-10,  avg # of iterations =  1.5

     negative rho (up, down):  7.421E-03 0.000E+00

     total cpu time spent up to now is     3678.4 secs

     total energy              =   -3597.89411567 Ry
     estimated scf accuracy    <       0.00000009 Ry

     iteration # 18     ecut=   124.00 Ry     beta= 0.70
     Davidson diagonalization with overlap
     ethr =  3.89E-11,  avg # of iterations =  3.4

     negative rho (up, down):  7.420E-03 0.000E+00

     total cpu time spent up to now is     3745.3 secs

     total energy              =   -3597.89411568 Ry
     estimated scf accuracy    <       0.00000003 Ry

     iteration # 19     ecut=   124.00 Ry     beta= 0.70
     Davidson diagonalization with overlap
     ethr =  1.43E-11,  avg # of iterations =  3.9

     negative rho (up, down):  7.420E-03 0.000E+00

     total cpu time spent up to now is     3810.9 secs

     total energy              =   -3597.89411569 Ry
     estimated scf accuracy    <       0.00000003 Ry

     iteration # 20     ecut=   124.00 Ry     beta= 0.70
     Davidson diagonalization with overlap
     ethr =  1.15E-11,  avg # of iterations =  1.3

     negative rho (up, down):  7.421E-03 0.000E+00

     total cpu time spent up to now is     3864.0 secs

     End of self-consistent calculation

     Number of k-points >= 100: set verbosity='high' to print the bands.

     the Fermi energy is    15.5908 ev

!    total energy              =   -3597.89411569 Ry
     estimated scf accuracy    <          5.6E-10 Ry
     smearing contrib. (-TS)   =      -0.00034067 Ry
     internal energy E=F+TS    =   -3597.89377501 Ry

     The total energy is F=E-TS. E is the sum of the following terms:
     one-electron contribution =   -1346.58085302 Ry
     hartree contribution      =     787.80873670 Ry
     xc contribution           =    -428.63070565 Ry
     ewald contribution        =   -2001.28293769 Ry
     one-center paw contrib.   =    -609.20801535 Ry

     convergence has been achieved in  20 iterations

     negative rho (up, down):  7.421E-03 0.000E+00

     Forces acting on atoms (cartesian axes, Ry/au):

     atom    1 type  2   force =    -0.00000000    0.00000000    0.00000000
     atom    2 type  2   force =     0.00000000    0.00000000    0.00000000
     atom    3 type  2   force =    -0.00000000   -0.00000000   -0.00000000
     atom    4 type  2   force =     0.00000000    0.00000000   -0.00000000
     atom    5 type  2   force =     0.00000000   -0.00000000    0.00000000
     atom    6 type  2   force =     0.00000000    0.00000000    0.00000000
     atom    7 type  2   force =     0.00000000    0.00000000    0.00000000
     atom    8 type  2   force =     0.00000000    0.00000000   -0.00000000
     atom    9 type  1   force =     0.00011264    0.00000000   -0.03928155
     atom   10 type  1   force =     0.04658069   -0.00000000   -0.04658069
     atom   11 type  1   force =     0.00097650    0.00000000   -0.00097650
     atom   12 type  1   force =    -0.00097650    0.00000000    0.00097650
     atom   13 type  1   force =    -0.04658069    0.00000000    0.04658069
     atom   14 type  1   force =    -0.00011264    0.00000000    0.03928155
     atom   15 type  1   force =     0.03928155    0.00000000   -0.00011264
     atom   16 type  1   force =    -0.03928155    0.00000000    0.00011264
     atom   17 type  3   force =     0.00285980    0.00000000    0.00264643
     atom   18 type  3   force =    -0.00264643    0.00000000   -0.00285980
     atom   19 type  3   force =    -0.00175113    0.00100747    0.00175113
     atom   20 type  3   force =    -0.00175113   -0.00100747    0.00175113
     atom   21 type  3   force =     0.00264643    0.00000000    0.00285980
     atom   22 type  3   force =    -0.00285980    0.00000000   -0.00264643
     atom   23 type  3   force =     0.00175113   -0.00100747   -0.00175113
     atom   24 type  3   force =     0.00175113    0.00100747   -0.00175113

     Total force =     0.122247     Total SCF correction =     0.000048


     Computing stress (Cartesian axis) and pressure


     negative rho (up, down):  7.421E-03 0.000E+00
          total   stress  (Ry/bohr**3)                   (kbar)     P=      -47.61
  -0.00043982   0.00000000  -0.00000640          -64.70        0.00       -0.94
   0.00000000  -0.00009136   0.00000000            0.00      -13.44        0.00
  -0.00000640   0.00000000  -0.00043982           -0.94        0.00      -64.70

     Energy error            =      2.1E-01 Ry
     Gradient error          =      4.7E-02 Ry/Bohr
     Cell gradient error     =      6.5E+01 kbar

     number of scf cycles    =   2
     number of bfgs steps    =   1

     enthalpy           old  =   -3597.6810278209 Ry
     enthalpy           new  =   -3597.8941156877 Ry

     CASE: enthalpy          _new < enthalpy          _old

     new trust radius        =       0.0765497623 bohr
     new conv_thr            =       0.0000000047 Ry

     new unit-cell volume =   1575.76453 a.u.^3 (   233.50421 Ang^3 )
     density =      5.95763 g/cm^3

CELL_PARAMETERS (alat=  5.58242261)
   2.065100655   0.000000000   0.000637104
   0.000000000   2.123932842   0.000000000
   0.000637104   0.000000000   2.065100655

ATOMIC_POSITIONS (crystal)
Ti              -0.0000000000        0.0000000000        0.0000000000
Ti               0.5000000000        0.5000000000       -0.0000000000
Ti               0.5000000000       -0.0000000000       -0.0000000000
Ti              -0.0000000000        0.5000000000        0.5000000000
Ti              -0.0000000000       -0.0000000000        0.5000000000
Ti               0.5000000000        0.5000000000        0.5000000000
Ti               0.5000000000        0.0000000000        0.5000000000
Ti               0.0000000000        0.5000000000       -0.0000000000
Fe               0.2495215888        0.2500000000        0.2359769151
Fe               0.7638848788        0.7500000000        0.2361151212
Fe               0.7506171980        0.2500000000        0.2493828020
Fe               0.2493828020        0.7500000000        0.7506171980
Fe               0.2361151212        0.2500000000        0.7638848788
Fe               0.7504784112        0.7500000000        0.7640230849
Fe               0.7640230849        0.2500000000        0.7504784112
Fe               0.2359769151        0.7500000000        0.2495215888
H                0.5003953106        0.2500000000        0.7505939669
H                0.2494060331        0.2500000000        0.4996046894
H                0.2494798797        0.5002805944        0.7505201203
H                0.2494798797       -0.0002805944        0.7505201203
H                0.7505939669        0.7500000000        0.5003953106
H                0.4996046894        0.7500000000        0.2494060331
H                0.7505201203        0.4997194056        0.2494798797
H                0.7505201203        0.0002805944        0.2494798797



     Writing config-only to output data dir ./TiFeH_supercell.save/ :
     XML data file     NEW-OLD atomic charge density approx. for the potential
     New effective cutoffs (rho, wfc): 1629.10  116.37

     negative rho (up, down):  7.294E-03 0.000E+00

     total cpu time spent up to now is     3912.1 secs

     per-process dynamical memory:   708.5 Mb

     Self-consistent Calculation

     iteration #  1     ecut=   124.00 Ry     beta= 0.70
     Davidson diagonalization with overlap
     c_bands:  2 eigenvalues not converged
     ethr =  1.00E-06,  avg # of iterations = 12.0

     negative rho (up, down):  7.340E-03 0.000E+00

     total cpu time spent up to now is     4173.1 secs

     total energy              =   -3597.89896610 Ry
     estimated scf accuracy    <       0.02791232 Ry

     iteration #  2     ecut=   124.00 Ry     beta= 0.70
     Davidson diagonalization with overlap
     c_bands:  1 eigenvalues not converged
     c_bands:  1 eigenvalues not converged
     c_bands:  1 eigenvalues not converged
     c_bands:  1 eigenvalues not converged
     c_bands:  2 eigenvalues not converged
     c_bands:  1 eigenvalues not converged
     c_bands:  1 eigenvalues not converged
     c_bands:  1 eigenvalues not converged
     c_bands:  2 eigenvalues not converged
     c_bands:  1 eigenvalues not converged
     c_bands:  1 eigenvalues not converged
     c_bands:  1 eigenvalues not converged
     c_bands:  1 eigenvalues not converged
     c_bands:  1 eigenvalues not converged
     c_bands:  1 eigenvalues not converged
     c_bands:  2 eigenvalues not converged
     c_bands:  1 eigenvalues not converged
     c_bands:  1 eigenvalues not converged
     c_bands:  1 eigenvalues not converged
     c_bands:  1 eigenvalues not converged
     c_bands:  1 eigenvalues not converged
     c_bands:  1 eigenvalues not converged
     ethr =  1.20E-05,  avg # of iterations = 15.0

     negative rho (up, down):  7.348E-03 0.000E+00

     total cpu time spent up to now is     4330.0 secs

     total energy              =   -3597.79137203 Ry
     estimated scf accuracy    <       2.11995992 Ry

     iteration #  3     ecut=   124.00 Ry     beta= 0.70
     Davidson diagonalization with overlap
     c_bands:  1 eigenvalues not converged
     c_bands:  1 eigenvalues not converged
     c_bands:  2 eigenvalues not converged
     c_bands:  1 eigenvalues not converged
     c_bands:  2 eigenvalues not converged
     c_bands:  1 eigenvalues not converged
     c_bands:  2 eigenvalues not converged
     c_bands:  1 eigenvalues not converged
     c_bands:  2 eigenvalues not converged
     c_bands:  1 eigenvalues not converged
     c_bands:  1 eigenvalues not converged
     c_bands:  1 eigenvalues not converged
     c_bands:  1 eigenvalues not converged
     c_bands:  1 eigenvalues not converged
     c_bands:  2 eigenvalues not converged
     c_bands:  1 eigenvalues not converged
     c_bands:  1 eigenvalues not converged
     c_bands:  1 eigenvalues not converged
     c_bands:  1 eigenvalues not converged
     c_bands:  1 eigenvalues not converged
     c_bands:  1 eigenvalues not converged
     ethr =  1.20E-05,  avg # of iterations = 14.4

     negative rho (up, down):  7.397E-03 0.000E+00

     total cpu time spent up to now is     4481.6 secs

     total energy              =   -3597.90875376 Ry
     estimated scf accuracy    <       0.16009943 Ry

     iteration #  4     ecut=   124.00 Ry     beta= 0.70
     Davidson diagonalization with overlap
     ethr =  1.20E-05,  avg # of iterations =  5.3

     negative rho (up, down):  7.410E-03 0.000E+00

     total cpu time spent up to now is     4554.1 secs

     total energy              =   -3597.91380241 Ry
     estimated scf accuracy    <       0.10015636 Ry

     iteration #  5     ecut=   124.00 Ry     beta= 0.70
     Davidson diagonalization with overlap
     ethr =  1.20E-05,  avg # of iterations =  4.2

     negative rho (up, down):  7.390E-03 0.000E+00

     total cpu time spent up to now is     4621.3 secs

     total energy              =   -3597.91666499 Ry
     estimated scf accuracy    <       0.03605816 Ry

     iteration #  6     ecut=   124.00 Ry     beta= 0.70
     Davidson diagonalization with overlap
     ethr =  1.20E-05,  avg # of iterations =  2.4

     negative rho (up, down):  7.412E-03 0.000E+00

     total cpu time spent up to now is     4681.7 secs

     total energy              =   -3597.91758394 Ry
     estimated scf accuracy    <       0.02831538 Ry

     iteration #  7     ecut=   124.00 Ry     beta= 0.70
     Davidson diagonalization with overlap
     ethr =  1.20E-05,  avg # of iterations =  1.2

     negative rho (up, down):  7.417E-03 0.000E+00

     total cpu time spent up to now is     4734.0 secs

     total energy              =   -3597.91869928 Ry
     estimated scf accuracy    <       0.01369622 Ry

     iteration #  8     ecut=   124.00 Ry     beta= 0.70
     Davidson diagonalization with overlap
     ethr =  5.90E-06,  avg # of iterations =  1.3

     negative rho (up, down):  7.419E-03 0.000E+00

     total cpu time spent up to now is     4787.4 secs

     total energy              =   -3597.91937813 Ry
     estimated scf accuracy    <       0.00087849 Ry

     iteration #  9     ecut=   124.00 Ry     beta= 0.70
     Davidson diagonalization with overlap
     ethr =  3.79E-07,  avg # of iterations =  4.3

     negative rho (up, down):  7.420E-03 0.000E+00

     total cpu time spent up to now is     4855.5 secs

     total energy              =   -3597.91947119 Ry
     estimated scf accuracy    <       0.00003302 Ry

     iteration # 10     ecut=   124.00 Ry     beta= 0.70
     Davidson diagonalization with overlap
     c_bands:  1 eigenvalues not converged
     c_bands:  1 eigenvalues not converged
     ethr =  1.42E-08,  avg # of iterations =  5.8

     negative rho (up, down):  7.421E-03 0.000E+00

     total cpu time spent up to now is     4946.6 secs

     total energy              =   -3597.91947896 Ry
     estimated scf accuracy    <       0.00002552 Ry

     iteration # 11     ecut=   124.00 Ry     beta= 0.70
     Davidson diagonalization with overlap
     ethr =  1.10E-08,  avg # of iterations =  4.2

     negative rho (up, down):  7.421E-03 0.000E+00

     total cpu time spent up to now is     5013.4 secs

     total energy              =   -3597.91948232 Ry
     estimated scf accuracy    <       0.00000207 Ry

     iteration # 12     ecut=   124.00 Ry     beta= 0.70
     Davidson diagonalization with overlap
     ethr =  8.90E-10,  avg # of iterations =  4.8

     negative rho (up, down):  7.421E-03 0.000E+00

     total cpu time spent up to now is     5088.3 secs

     total energy              =   -3597.91948268 Ry
     estimated scf accuracy    <       0.00000104 Ry

     iteration # 13     ecut=   124.00 Ry     beta= 0.70
     Davidson diagonalization with overlap
     ethr =  4.50E-10,  avg # of iterations =  2.5

     negative rho (up, down):  7.421E-03 0.000E+00

     total cpu time spent up to now is     5148.0 secs

     total energy              =   -3597.91948273 Ry
     estimated scf accuracy    <       0.00000061 Ry

     iteration # 14     ecut=   124.00 Ry     beta= 0.70
     Davidson diagonalization with overlap
     ethr =  2.62E-10,  avg # of iterations =  2.0

     negative rho (up, down):  7.421E-03 0.000E+00

     total cpu time spent up to now is     5205.4 secs

     total energy              =   -3597.91948273 Ry
     estimated scf accuracy    <       0.00000038 Ry

     iteration # 15     ecut=   124.00 Ry     beta= 0.70
     Davidson diagonalization with overlap
     ethr =  1.62E-10,  avg # of iterations =  3.5

     negative rho (up, down):  7.421E-03 0.000E+00

     total cpu time spent up to now is     5268.6 secs

     total energy              =   -3597.91948275 Ry
     estimated scf accuracy    <       0.00000025 Ry

     iteration # 16     ecut=   124.00 Ry     beta= 0.70
     Davidson diagonalization with overlap
     ethr =  1.08E-10,  avg # of iterations =  2.7

     negative rho (up, down):  7.421E-03 0.000E+00

     total cpu time spent up to now is     5329.0 secs

     total energy              =   -3597.91948277 Ry
     estimated scf accuracy    <       0.00000006 Ry

     iteration # 17     ecut=   124.00 Ry     beta= 0.70
     Davidson diagonalization with overlap
     ethr =  2.49E-11,  avg # of iterations =  3.7

     negative rho (up, down):  7.421E-03 0.000E+00

     total cpu time spent up to now is     5393.5 secs

     total energy              =   -3597.91948277 Ry
     estimated scf accuracy    <       0.00000001 Ry

     iteration # 18     ecut=   124.00 Ry     beta= 0.70
     Davidson diagonalization with overlap
     ethr =  6.34E-12,  avg # of iterations =  4.9

     negative rho (up, down):  7.421E-03 0.000E+00

     total cpu time spent up to now is     5467.3 secs

     End of self-consistent calculation

     Number of k-points >= 100: set verbosity='high' to print the bands.

     the Fermi energy is    15.8771 ev

!    total energy              =   -3597.91948277 Ry
     estimated scf accuracy    <          1.2E-09 Ry
     smearing contrib. (-TS)   =      -0.00021921 Ry
     internal energy E=F+TS    =   -3597.91926356 Ry

     The total energy is F=E-TS. E is the sum of the following terms:
     one-electron contribution =   -1330.06027733 Ry
     hartree contribution      =     782.24519120 Ry
     xc contribution           =    -428.83038690 Ry
     ewald contribution        =   -2012.06252992 Ry
     one-center paw contrib.   =    -609.21126062 Ry

     convergence has been achieved in  18 iterations

     negative rho (up, down):  7.421E-03 0.000E+00

     Forces acting on atoms (cartesian axes, Ry/au):

     atom    1 type  2   force =     0.00000000   -0.00000000    0.00000000
     atom    2 type  2   force =     0.00000000    0.00000000    0.00000000
     atom    3 type  2   force =     0.00000000    0.00000000    0.00000000
     atom    4 type  2   force =     0.00000000    0.00000000    0.00000000
     atom    5 type  2   force =     0.00000000   -0.00000000    0.00000000
     atom    6 type  2   force =     0.00000000    0.00000000   -0.00000000
     atom    7 type  2   force =     0.00000000   -0.00000000    0.00000000
     atom    8 type  2   force =     0.00000000    0.00000000    0.00000000
     atom    9 type  1   force =     0.00176850    0.00000000   -0.02696457
     atom   10 type  1   force =     0.03739547    0.00000000   -0.03739547
     atom   11 type  1   force =    -0.00061583    0.00000000    0.00061583
     atom   12 type  1   force =     0.00061583   -0.00000000   -0.00061583
     atom   13 type  1   force =    -0.03739547    0.00000000    0.03739547
     atom   14 type  1   force =    -0.00176850    0.00000000    0.02696457
     atom   15 type  1   force =     0.02696457    0.00000000   -0.00176850
     atom   16 type  1   force =    -0.02696457    0.00000000    0.00176850
     atom   17 type  3   force =     0.00147537    0.00000000    0.00265224
     atom   18 type  3   force =    -0.00265224   -0.00000000   -0.00147537
     atom   19 type  3   force =    -0.00112474    0.00032765    0.00112474
     atom   20 type  3   force =    -0.00112474   -0.00032765    0.00112474
     atom   21 type  3   force =     0.00265224   -0.00000000    0.00147537
     atom   22 type  3   force =    -0.00147537    0.00000000   -0.00265224
     atom   23 type  3   force =     0.00112474   -0.00032765   -0.00112474
     atom   24 type  3   force =     0.00112474    0.00032765   -0.00112474

     Total force =     0.092539     Total SCF correction =     0.000094


     Computing stress (Cartesian axis) and pressure


     negative rho (up, down):  7.421E-03 0.000E+00
          total   stress  (Ry/bohr**3)                   (kbar)     P=      -25.97
  -0.00027178   0.00000000  -0.00001424          -39.98        0.00       -2.10
   0.00000000   0.00001388   0.00000000            0.00        2.04        0.00
  -0.00001424   0.00000000  -0.00027178           -2.10        0.00      -39.98

     Energy error            =      2.5E-02 Ry
     Gradient error          =      3.7E-02 Ry/Bohr
     Cell gradient error     =      4.0E+01 kbar

     number of scf cycles    =   3
     number of bfgs steps    =   2

     enthalpy           old  =   -3597.8941156877 Ry
     enthalpy           new  =   -3597.9194827706 Ry

     CASE: enthalpy          _new < enthalpy          _old

     new trust radius        =       0.1138338886 bohr
     new conv_thr            =       0.0000000037 Ry

     new unit-cell volume =   1551.38358 a.u.^3 (   229.89133 Ang^3 )
     density =      6.05126 g/cm^3

CELL_PARAMETERS (alat=  5.58242261)
   2.044106380   0.000000000  -0.000656515
   0.000000000   2.134244229   0.000000000
  -0.000656515   0.000000000   2.044106380

ATOMIC_POSITIONS (crystal)
Ti               0.0000000000       -0.0000000000        0.0000000000
Ti               0.5000000000        0.5000000000       -0.0000000000
Ti               0.5000000000       -0.0000000000       -0.0000000000
Ti               0.0000000000        0.5000000000        0.5000000000
Ti               0.0000000000       -0.0000000000        0.5000000000
Ti               0.5000000000        0.5000000000        0.5000000000
Ti               0.5000000000       -0.0000000000        0.5000000000
Ti              -0.0000000000        0.5000000000       -0.0000000000
Fe               0.2497675765        0.2500000000        0.2306461381
Fe               0.7708692392        0.7500000000        0.2291307608
Fe               0.7505641097        0.2500000000        0.2494358903
Fe               0.2494358903        0.7500000000        0.7505641097
Fe               0.2291307608        0.2500000000        0.7708692392
Fe               0.7502324235        0.7500000000        0.7693538619
Fe               0.7693538619        0.2500000000        0.7502324235
Fe               0.2306461381        0.7500000000        0.2497675765
H                0.5006600760        0.2500000000        0.7510609346
H                0.2489390654        0.2500000000        0.4993399240
H                0.2492622888        0.5003549691        0.7507377112
H                0.2492622888       -0.0003549691        0.7507377112
H                0.7510609346        0.7500000000        0.5006600760
H                0.4993399240        0.7500000000        0.2489390654
H                0.7507377112        0.4996450309        0.2492622888
H                0.7507377112        0.0003549691        0.2492622888



     Writing config-only to output data dir ./TiFeH_supercell.save/ :
     XML data file     NEW-OLD atomic charge density approx. for the potential
     New effective cutoffs (rho, wfc): 1662.77  118.77

     negative rho (up, down):  7.357E-03 0.000E+00

     total cpu time spent up to now is     5515.4 secs

     per-process dynamical memory:   708.5 Mb

     Self-consistent Calculation

     iteration #  1     ecut=   124.00 Ry     beta= 0.70
     Davidson diagonalization with overlap
     c_bands:  1 eigenvalues not converged
     c_bands:  1 eigenvalues not converged
     c_bands:  1 eigenvalues not converged
     c_bands:  2 eigenvalues not converged
     c_bands:  2 eigenvalues not converged
     c_bands:  2 eigenvalues not converged
     c_bands:  1 eigenvalues not converged
     c_bands:  1 eigenvalues not converged
     c_bands:  1 eigenvalues not converged
     c_bands:  1 eigenvalues not converged
     c_bands:  2 eigenvalues not converged
     c_bands:  2 eigenvalues not converged
     ethr =  1.00E-06,  avg # of iterations = 14.2

     negative rho (up, down):  7.319E-03 0.000E+00

     total cpu time spent up to now is     5814.3 secs

     total energy              =   -3597.89943221 Ry
     estimated scf accuracy    <       0.05495856 Ry

     iteration #  2     ecut=   124.00 Ry     beta= 0.70
     Davidson diagonalization with overlap
     c_bands:  1 eigenvalues not converged
     c_bands:  1 eigenvalues not converged
     c_bands:  2 eigenvalues not converged
     c_bands:  1 eigenvalues not converged
     c_bands:  2 eigenvalues not converged
     c_bands:  1 eigenvalues not converged
     ethr =  2.37E-05,  avg # of iterations = 13.3

     negative rho (up, down):  7.271E-03 0.000E+00

     total cpu time spent up to now is     5964.2 secs

     total energy              =   -3597.68430814 Ry
     estimated scf accuracy    <       4.36131079 Ry

     iteration #  3     ecut=   124.00 Ry     beta= 0.70
     Davidson diagonalization with overlap
     c_bands:  1 eigenvalues not converged
     c_bands:  1 eigenvalues not converged
     c_bands:  1 eigenvalues not converged
     c_bands:  1 eigenvalues not converged
     c_bands:  1 eigenvalues not converged
     c_bands:  1 eigenvalues not converged
     c_bands:  1 eigenvalues not converged
     c_bands:  1 eigenvalues not converged
     c_bands:  1 eigenvalues not converged
     c_bands:  1 eigenvalues not converged
     c_bands:  1 eigenvalues not converged
     c_bands:  1 eigenvalues not converged
     c_bands:  1 eigenvalues not converged
     c_bands:  1 eigenvalues not converged
     c_bands:  1 eigenvalues not converged
     ethr =  2.37E-05,  avg # of iterations = 13.1

     negative rho (up, down):  7.342E-03 0.000E+00

     total cpu time spent up to now is     6104.2 secs

     total energy              =   -3597.89841853 Ry
     estimated scf accuracy    <       0.82862091 Ry

     iteration #  4     ecut=   124.00 Ry     beta= 0.70
     Davidson diagonalization with overlap
     ethr =  2.37E-05,  avg # of iterations =  6.8

     negative rho (up, down):  7.380E-03 0.000E+00

     total cpu time spent up to now is     6185.8 secs

     total energy              =   -3597.92745908 Ry
     estimated scf accuracy    <       0.17248097 Ry

     iteration #  5     ecut=   124.00 Ry     beta= 0.70
     Davidson diagonalization with overlap
     ethr =  2.37E-05,  avg # of iterations =  4.3

     negative rho (up, down):  7.362E-03 0.000E+00

     total cpu time spent up to now is     6251.8 secs

     total energy              =   -3597.93276063 Ry
     estimated scf accuracy    <       0.07031597 Ry

     iteration #  6     ecut=   124.00 Ry     beta= 0.70
     Davidson diagonalization with overlap
     ethr =  2.37E-05,  avg # of iterations =  2.4

     negative rho (up, down):  7.378E-03 0.000E+00

     total cpu time spent up to now is     6310.8 secs

     total energy              =   -3597.93407278 Ry
     estimated scf accuracy    <       0.08708476 Ry

     iteration #  7     ecut=   124.00 Ry     beta= 0.70
     Davidson diagonalization with overlap
     ethr =  2.37E-05,  avg # of iterations =  1.9

     negative rho (up, down):  7.402E-03 0.000E+00

     total cpu time spent up to now is     6366.5 secs

     total energy              =   -3597.93550016 Ry
     estimated scf accuracy    <       0.07552266 Ry

     iteration #  8     ecut=   124.00 Ry     beta= 0.70
     Davidson diagonalization with overlap
     ethr =  2.37E-05,  avg # of iterations =  1.0

     negative rho (up, down):  7.396E-03 0.000E+00

     total cpu time spent up to now is     6416.7 secs

     total energy              =   -3597.93889796 Ry
     estimated scf accuracy    <       0.00042707 Ry

     iteration #  9     ecut=   124.00 Ry     beta= 0.70
     Davidson diagonalization with overlap
     c_bands:  1 eigenvalues not converged
     ethr =  1.84E-07,  avg # of iterations =  6.4

     negative rho (up, down):  7.404E-03 0.000E+00

     total cpu time spent up to now is     6508.6 secs

     total energy              =   -3597.93909716 Ry
     estimated scf accuracy    <       0.00030911 Ry

     iteration # 10     ecut=   124.00 Ry     beta= 0.70
     Davidson diagonalization with overlap
     ethr =  1.33E-07,  avg # of iterations =  1.0

     negative rho (up, down):  7.403E-03 0.000E+00

     total cpu time spent up to now is     6558.6 secs

     total energy              =   -3597.93910150 Ry
     estimated scf accuracy    <       0.00004431 Ry

     iteration # 11     ecut=   124.00 Ry     beta= 0.70
     Davidson diagonalization with overlap
     ethr =  1.91E-08,  avg # of iterations =  4.8

     negative rho (up, down):  7.405E-03 0.000E+00

     total cpu time spent up to now is     6630.8 secs

     total energy              =   -3597.93910934 Ry
     estimated scf accuracy    <       0.00001027 Ry

     iteration # 12     ecut=   124.00 Ry     beta= 0.70
     Davidson diagonalization with overlap
     ethr =  4.42E-09,  avg # of iterations =  3.2

     negative rho (up, down):  7.405E-03 0.000E+00

     total cpu time spent up to now is     6691.5 secs

     total energy              =   -3597.93911019 Ry
     estimated scf accuracy    <       0.00000279 Ry

     iteration # 13     ecut=   124.00 Ry     beta= 0.70
     Davidson diagonalization with overlap
     ethr =  1.20E-09,  avg # of iterations =  3.1

     negative rho (up, down):  7.405E-03 0.000E+00

     total cpu time spent up to now is     6753.9 secs

     total energy              =   -3597.93911037 Ry
     estimated scf accuracy    <       0.00000089 Ry

     iteration # 14     ecut=   124.00 Ry     beta= 0.70
     Davidson diagonalization with overlap
     ethr =  3.83E-10,  avg # of iterations =  4.8

     negative rho (up, down):  7.405E-03 0.000E+00

     total cpu time spent up to now is     6827.7 secs

     total energy              =   -3597.93911055 Ry
     estimated scf accuracy    <       0.00000012 Ry

     iteration # 15     ecut=   124.00 Ry     beta= 0.70
     Davidson diagonalization with overlap
     ethr =  5.14E-11,  avg # of iterations =  4.8

     negative rho (up, down):  7.405E-03 0.000E+00

     total cpu time spent up to now is     6920.9 secs

     total energy              =   -3597.93911054 Ry
     estimated scf accuracy    <       0.00000214 Ry

     iteration # 16     ecut=   124.00 Ry     beta= 0.70
     Davidson diagonalization with overlap
     ethr =  5.14E-11,  avg # of iterations =  4.1

     negative rho (up, down):  7.405E-03 0.000E+00

     total cpu time spent up to now is     6986.7 secs

     total energy              =   -3597.93911059 Ry
     estimated scf accuracy    <       0.00000011 Ry

     iteration # 17     ecut=   124.00 Ry     beta= 0.70
     Davidson diagonalization with overlap
     ethr =  4.82E-11,  avg # of iterations =  1.0

     negative rho (up, down):  7.405E-03 0.000E+00

     total cpu time spent up to now is     7036.7 secs

     total energy              =   -3597.93911059 Ry
     estimated scf accuracy    <       0.00000005 Ry

     iteration # 18     ecut=   124.00 Ry     beta= 0.70
     Davidson diagonalization with overlap
     ethr =  1.99E-11,  avg # of iterations =  2.4

     negative rho (up, down):  7.405E-03 0.000E+00

     total cpu time spent up to now is     7095.4 secs

     total energy              =   -3597.93911060 Ry
     estimated scf accuracy    <          9.1E-09 Ry

     iteration # 19     ecut=   124.00 Ry     beta= 0.70
     Davidson diagonalization with overlap
     ethr =  3.93E-12,  avg # of iterations =  4.2

     negative rho (up, down):  7.405E-03 0.000E+00

     total cpu time spent up to now is     7160.0 secs

     End of self-consistent calculation

     Number of k-points >= 100: set verbosity='high' to print the bands.

     the Fermi energy is    16.1345 ev

!    total energy              =   -3597.93911060 Ry
     estimated scf accuracy    <          6.7E-10 Ry
     smearing contrib. (-TS)   =      -0.00019155 Ry
     internal energy E=F+TS    =   -3597.93891904 Ry

     The total energy is F=E-TS. E is the sum of the following terms:
     one-electron contribution =   -1316.86659394 Ry
     hartree contribution      =     778.25647143 Ry
     xc contribution           =    -429.01568626 Ry
     ewald contribution        =   -2021.09832004 Ry
     one-center paw contrib.   =    -609.21479023 Ry

     convergence has been achieved in  19 iterations

     negative rho (up, down):  7.405E-03 0.000E+00

     Forces acting on atoms (cartesian axes, Ry/au):

     atom    1 type  2   force =     0.00000000    0.00000000    0.00000000
     atom    2 type  2   force =     0.00000000    0.00000000    0.00000000
     atom    3 type  2   force =    -0.00000000    0.00000000   -0.00000000
     atom    4 type  2   force =     0.00000000    0.00000000    0.00000000
     atom    5 type  2   force =    -0.00000000    0.00000000   -0.00000000
     atom    6 type  2   force =     0.00000000    0.00000000    0.00000000
     atom    7 type  2   force =    -0.00000000   -0.00000000   -0.00000000
     atom    8 type  2   force =     0.00000000    0.00000000    0.00000000
     atom    9 type  1   force =     0.00349913    0.00000000   -0.00698822
     atom   10 type  1   force =     0.01932871    0.00000000   -0.01932871
     atom   11 type  1   force =    -0.00236223    0.00000000    0.00236223
     atom   12 type  1   force =     0.00236223   -0.00000000   -0.00236223
     atom   13 type  1   force =    -0.01932871    0.00000000    0.01932871
     atom   14 type  1   force =    -0.00349913    0.00000000    0.00698822
     atom   15 type  1   force =     0.00698822    0.00000000   -0.00349913
     atom   16 type  1   force =    -0.00698822    0.00000000    0.00349913
     atom   17 type  3   force =    -0.00082091    0.00000000    0.00287468
     atom   18 type  3   force =    -0.00287468    0.00000000    0.00082091
     atom   19 type  3   force =    -0.00043354   -0.00049816    0.00043354
     atom   20 type  3   force =    -0.00043354    0.00049816    0.00043354
     atom   21 type  3   force =     0.00287468    0.00000000   -0.00082091
     atom   22 type  3   force =     0.00082091    0.00000000   -0.00287468
     atom   23 type  3   force =     0.00043354    0.00049816   -0.00043354
     atom   24 type  3   force =     0.00043354   -0.00049816   -0.00043354

     Total force =     0.042418     Total SCF correction =     0.000058


     Computing stress (Cartesian axis) and pressure


     negative rho (up, down):  7.405E-03 0.000E+00
          total   stress  (Ry/bohr**3)                   (kbar)     P=       -4.47
  -0.00008308   0.00000000  -0.00002025          -12.22        0.00       -2.98
   0.00000000   0.00007494   0.00000000            0.00       11.02        0.00
  -0.00002025   0.00000000  -0.00008308           -2.98        0.00      -12.22

     Energy error            =      2.0E-02 Ry
     Gradient error          =      1.9E-02 Ry/Bohr
     Cell gradient error     =      1.2E+01 kbar

     number of scf cycles    =   4
     number of bfgs steps    =   3

     enthalpy           old  =   -3597.9194827706 Ry
     enthalpy           new  =   -3597.9391105964 Ry

     CASE: enthalpy          _new < enthalpy          _old

     new trust radius        =       0.0930661646 bohr
     new conv_thr            =       0.0000000019 Ry

     new unit-cell volume =   1540.05215 a.u.^3 (   228.21218 Ang^3 )
     density =      6.09578 g/cm^3

CELL_PARAMETERS (alat=  5.58242261)
   2.030478948   0.000000000  -0.002881068
   0.000000000   2.147193507   0.000000000
  -0.002881068   0.000000000   2.030478948

ATOMIC_POSITIONS (crystal)
Ti              -0.0000000000        0.0000000000        0.0000000000
Ti               0.5000000000        0.5000000000       -0.0000000000
Ti               0.5000000000       -0.0000000000       -0.0000000000
Ti               0.0000000000        0.5000000000        0.5000000000
Ti               0.0000000000       -0.0000000000        0.5000000000
Ti               0.5000000000        0.5000000000        0.5000000000
Ti               0.5000000000       -0.0000000000        0.5000000000
Ti               0.0000000000        0.5000000000       -0.0000000000
Fe               0.2503587686        0.2500000000        0.2272947200
Fe               0.7766343964        0.7500000000        0.2233656036
Fe               0.7502151935        0.2500000000        0.2497848065
Fe               0.2497848065        0.7500000000        0.7502151935
Fe               0.2233656036        0.2500000000        0.7766343964
Fe               0.7496412314        0.7500000000        0.7727052800
Fe               0.7727052800        0.2500000000        0.7496412314
Fe               0.2272947200        0.7500000000        0.2503587686
H                0.5006451100        0.2500000000        0.7516747946
H                0.2483252054        0.2500000000        0.4993548900
H                0.2491029497        0.5003138772        0.7508970503
H                0.2491029497       -0.0003138772        0.7508970503
H                0.7516747946        0.7500000000        0.5006451100
H                0.4993548900        0.7500000000        0.2483252054
H                0.7508970503        0.4996861228        0.2491029497
H                0.7508970503        0.0003138772        0.2491029497



     Writing config-only to output data dir ./TiFeH_supercell.save/ :
     XML data file     NEW-OLD atomic charge density approx. for the potential
     New effective cutoffs (rho, wfc): 1688.77  120.62

     Check: negative core charge=   -0.000001

     negative rho (up, down):  7.397E-03 0.000E+00

     total cpu time spent up to now is     7206.3 secs

     per-process dynamical memory:   708.5 Mb

     Self-consistent Calculation

     iteration #  1     ecut=   124.00 Ry     beta= 0.70
     Davidson diagonalization with overlap
     c_bands:  1 eigenvalues not converged
     c_bands:  1 eigenvalues not converged
     c_bands:  1 eigenvalues not converged
     c_bands:  1 eigenvalues not converged
     c_bands:  2 eigenvalues not converged
     c_bands:  1 eigenvalues not converged
     c_bands:  1 eigenvalues not converged
     c_bands:  1 eigenvalues not converged
     c_bands:  1 eigenvalues not converged
     c_bands:  1 eigenvalues not converged
     ethr =  1.00E-06,  avg # of iterations = 13.1

     negative rho (up, down):  7.315E-03 0.000E+00

     total cpu time spent up to now is     7468.0 secs

     total energy              =   -3597.92329875 Ry
     estimated scf accuracy    <       0.02875323 Ry

     iteration #  2     ecut=   124.00 Ry     beta= 0.70
     Davidson diagonalization with overlap
     c_bands:  1 eigenvalues not converged
     c_bands:  1 eigenvalues not converged
     c_bands:  1 eigenvalues not converged
     c_bands:  2 eigenvalues not converged
     c_bands:  1 eigenvalues not converged
     c_bands:  1 eigenvalues not converged
     c_bands:  1 eigenvalues not converged
     c_bands:  1 eigenvalues not converged
     c_bands:  1 eigenvalues not converged
     c_bands:  1 eigenvalues not converged
     c_bands:  1 eigenvalues not converged
     c_bands:  1 eigenvalues not converged
     c_bands:  2 eigenvalues not converged
     c_bands:  1 eigenvalues not converged
     c_bands:  1 eigenvalues not converged
     ethr =  1.24E-05,  avg # of iterations = 14.7

     negative rho (up, down):  7.299E-03 0.000E+00

     total cpu time spent up to now is     7615.9 secs

     total energy              =   -3597.80588733 Ry
     estimated scf accuracy    <       2.49019197 Ry

     iteration #  3     ecut=   124.00 Ry     beta= 0.70
     Davidson diagonalization with overlap
     c_bands:  1 eigenvalues not converged
     c_bands:  1 eigenvalues not converged
     c_bands:  1 eigenvalues not converged
     c_bands:  1 eigenvalues not converged
     c_bands:  1 eigenvalues not converged
     c_bands:  2 eigenvalues not converged
     c_bands:  1 eigenvalues not converged
     c_bands:  1 eigenvalues not converged
     c_bands:  1 eigenvalues not converged
     c_bands:  1 eigenvalues not converged
     c_bands:  1 eigenvalues not converged
     c_bands:  1 eigenvalues not converged
     c_bands:  1 eigenvalues not converged
     ethr =  1.24E-05,  avg # of iterations = 12.2

     negative rho (up, down):  7.343E-03 0.000E+00

     total cpu time spent up to now is     7750.1 secs

     total energy              =   -3597.91336389 Ry
     estimated scf accuracy    <       0.71664853 Ry

     iteration #  4     ecut=   124.00 Ry     beta= 0.70
     Davidson diagonalization with overlap
     ethr =  1.24E-05,  avg # of iterations =  7.2

     negative rho (up, down):  7.372E-03 0.000E+00

     total cpu time spent up to now is     7839.0 secs

     total energy              =   -3597.93892563 Ry
     estimated scf accuracy    <       0.04551980 Ry

     iteration #  5     ecut=   124.00 Ry     beta= 0.70
     Davidson diagonalization with overlap
     ethr =  1.24E-05,  avg # of iterations =  4.4

     negative rho (up, down):  7.367E-03 0.000E+00

     total cpu time spent up to now is     7903.4 secs

     total energy              =   -3597.93886359 Ry
     estimated scf accuracy    <       0.07765817 Ry

     iteration #  6     ecut=   124.00 Ry     beta= 0.70
     Davidson diagonalization with overlap
     ethr =  1.24E-05,  avg # of iterations =  2.6

     negative rho (up, down):  7.365E-03 0.000E+00

     total cpu time spent up to now is     7960.5 secs

     total energy              =   -3597.94082920 Ry
     estimated scf accuracy    <       0.05320329 Ry

     iteration #  7     ecut=   124.00 Ry     beta= 0.70
     Davidson diagonalization with overlap
     ethr =  1.24E-05,  avg # of iterations =  1.6

     negative rho (up, down):  7.382E-03 0.000E+00

     total cpu time spent up to now is     8012.1 secs

     total energy              =   -3597.94240595 Ry
     estimated scf accuracy    <       0.01661768 Ry

     iteration #  8     ecut=   124.00 Ry     beta= 0.70
     Davidson diagonalization with overlap
     ethr =  7.16E-06,  avg # of iterations =  1.6

     negative rho (up, down):  7.372E-03 0.000E+00

     total cpu time spent up to now is     8063.6 secs

     total energy              =   -3597.94349049 Ry
     estimated scf accuracy    <       0.00030783 Ry

     iteration #  9     ecut=   124.00 Ry     beta= 0.70
     Davidson diagonalization with overlap
     ethr =  1.33E-07,  avg # of iterations =  6.2

     negative rho (up, down):  7.379E-03 0.000E+00

     total cpu time spent up to now is     8145.7 secs

     total energy              =   -3597.94358414 Ry
     estimated scf accuracy    <       0.00012925 Ry

     iteration # 10     ecut=   124.00 Ry     beta= 0.70
     Davidson diagonalization with overlap
     ethr =  5.57E-08,  avg # of iterations =  1.8

     negative rho (up, down):  7.379E-03 0.000E+00

     total cpu time spent up to now is     8198.6 secs

     total energy              =   -3597.94358493 Ry
     estimated scf accuracy    <       0.00002825 Ry

     iteration # 11     ecut=   124.00 Ry     beta= 0.70
     Davidson diagonalization with overlap
     ethr =  1.22E-08,  avg # of iterations =  4.9

     negative rho (up, down):  7.380E-03 0.000E+00

     total cpu time spent up to now is     8271.6 secs

     total energy              =   -3597.94359143 Ry
     estimated scf accuracy    <       0.00000768 Ry

     iteration # 12     ecut=   124.00 Ry     beta= 0.70
     Davidson diagonalization with overlap
     ethr =  3.31E-09,  avg # of iterations =  2.9

     negative rho (up, down):  7.380E-03 0.000E+00

     total cpu time spent up to now is     8328.9 secs

     total energy              =   -3597.94359197 Ry
     estimated scf accuracy    <       0.00000155 Ry

     iteration # 13     ecut=   124.00 Ry     beta= 0.70
     Davidson diagonalization with overlap
     ethr =  6.68E-10,  avg # of iterations =  4.3

     negative rho (up, down):  7.380E-03 0.000E+00

     total cpu time spent up to now is     8396.7 secs

     total energy              =   -3597.94359216 Ry
     estimated scf accuracy    <       0.00000055 Ry

     iteration # 14     ecut=   124.00 Ry     beta= 0.70
     Davidson diagonalization with overlap
     ethr =  2.38E-10,  avg # of iterations =  3.9

     negative rho (up, down):  7.380E-03 0.000E+00

     total cpu time spent up to now is     8460.5 secs

     total energy              =   -3597.94359220 Ry
     estimated scf accuracy    <       0.00000059 Ry

     iteration # 15     ecut=   124.00 Ry     beta= 0.70
     Davidson diagonalization with overlap
     ethr =  2.38E-10,  avg # of iterations =  2.7

     negative rho (up, down):  7.380E-03 0.000E+00

     total cpu time spent up to now is     8516.6 secs

     total energy              =   -3597.94359225 Ry
     estimated scf accuracy    <       0.00000010 Ry

     iteration # 16     ecut=   124.00 Ry     beta= 0.70
     Davidson diagonalization with overlap
     ethr =  4.18E-11,  avg # of iterations =  4.4

     negative rho (up, down):  7.380E-03 0.000E+00

     total cpu time spent up to now is     8584.6 secs

     total energy              =   -3597.94359226 Ry
     estimated scf accuracy    <       0.00000004 Ry

     iteration # 17     ecut=   124.00 Ry     beta= 0.70
     Davidson diagonalization with overlap
     ethr =  1.92E-11,  avg # of iterations =  2.2

     negative rho (up, down):  7.380E-03 0.000E+00

     total cpu time spent up to now is     8639.4 secs

     total energy              =   -3597.94359226 Ry
     estimated scf accuracy    <       0.00000003 Ry

     iteration # 18     ecut=   124.00 Ry     beta= 0.70
     Davidson diagonalization with overlap
     ethr =  1.31E-11,  avg # of iterations =  2.3

     negative rho (up, down):  7.380E-03 0.000E+00

     total cpu time spent up to now is     8693.2 secs

     End of self-consistent calculation

     Number of k-points >= 100: set verbosity='high' to print the bands.

     the Fermi energy is    16.2465 ev

!    total energy              =   -3597.94359226 Ry
     estimated scf accuracy    <          1.8E-09 Ry
     smearing contrib. (-TS)   =      -0.00022024 Ry
     internal energy E=F+TS    =   -3597.94337202 Ry

     The total energy is F=E-TS. E is the sum of the following terms:
     one-electron contribution =   -1312.96653759 Ry
     hartree contribution      =     777.58202356 Ry
     xc contribution           =    -429.10394838 Ry
     ewald contribution        =   -2024.23815623 Ry
     one-center paw contrib.   =    -609.21675338 Ry

     convergence has been achieved in  18 iterations

     negative rho (up, down):  7.380E-03 0.000E+00

     Forces acting on atoms (cartesian axes, Ry/au):

     atom    1 type  2   force =     0.00000000    0.00000000    0.00000000
     atom    2 type  2   force =     0.00000000    0.00000000    0.00000000
     atom    3 type  2   force =     0.00000000    0.00000000    0.00000000
     atom    4 type  2   force =     0.00000000    0.00000000    0.00000000
     atom    5 type  2   force =     0.00000000    0.00000000    0.00000000
     atom    6 type  2   force =    -0.00000000    0.00000000   -0.00000000
     atom    7 type  2   force =     0.00000000    0.00000000    0.00000000
     atom    8 type  2   force =     0.00000000    0.00000000    0.00000000
     atom    9 type  1   force =     0.00381932    0.00000000    0.00762779
     atom   10 type  1   force =     0.00335100    0.00000000   -0.00335100
     atom   11 type  1   force =    -0.00284726    0.00000000    0.00284726
     atom   12 type  1   force =     0.00284726   -0.00000000   -0.00284726
     atom   13 type  1   force =    -0.00335100    0.00000000    0.00335100
     atom   14 type  1   force =    -0.00381932    0.00000000   -0.00762779
     atom   15 type  1   force =    -0.00762779    0.00000000   -0.00381932
     atom   16 type  1   force =     0.00762779    0.00000000    0.00381932
     atom   17 type  3   force =    -0.00271209    0.00000000    0.00309607
     atom   18 type  3   force =    -0.00309607   -0.00000000    0.00271209
     atom   19 type  3   force =    -0.00013241   -0.00064565    0.00013241
     atom   20 type  3   force =    -0.00013241    0.00064565    0.00013241
     atom   21 type  3   force =     0.00309607   -0.00000000   -0.00271209
     atom   22 type  3   force =     0.00271209    0.00000000   -0.00309607
     atom   23 type  3   force =     0.00013241    0.00064565   -0.00013241
     atom   24 type  3   force =     0.00013241   -0.00064565   -0.00013241

     Total force =     0.020928     Total SCF correction =     0.000057


     Computing stress (Cartesian axis) and pressure


     negative rho (up, down):  7.380E-03 0.000E+00
          total   stress  (Ry/bohr**3)                   (kbar)     P=        6.31
   0.00003120   0.00000000  -0.00001630            4.59        0.00       -2.40
   0.00000000   0.00006630   0.00000000            0.00        9.75        0.00
  -0.00001630   0.00000000   0.00003120           -2.40        0.00        4.59

     Energy error            =      4.5E-03 Ry
     Gradient error          =      7.6E-03 Ry/Bohr
     Cell gradient error     =      9.8E+00 kbar

     number of scf cycles    =   5
     number of bfgs steps    =   4

     enthalpy           old  =   -3597.9391105964 Ry
     enthalpy           new  =   -3597.9435922595 Ry

     CASE: enthalpy          _new < enthalpy          _old

     new trust radius        =       0.0120738586 bohr
     new conv_thr            =       0.0000000008 Ry

     new unit-cell volume =   1543.10645 a.u.^3 (   228.66478 Ang^3 )
     density =      6.08371 g/cm^3

CELL_PARAMETERS (alat=  5.58242261)
   2.030931451   0.000000000  -0.003817242
   0.000000000   2.150496591   0.000000000
  -0.003817242   0.000000000   2.030931451

ATOMIC_POSITIONS (crystal)
Ti               0.0000000000        0.0000000000        0.0000000000
Ti               0.5000000000        0.5000000000       -0.0000000000
Ti               0.5000000000       -0.0000000000       -0.0000000000
Ti               0.0000000000        0.5000000000        0.5000000000
Ti               0.0000000000       -0.0000000000        0.5000000000
Ti               0.5000000000        0.5000000000        0.5000000000
Ti               0.5000000000       -0.0000000000        0.5000000000
Ti               0.0000000000        0.5000000000       -0.0000000000
Fe               0.2507158576        0.2500000000        0.2278042527
Fe               0.7771895382        0.7500000000        0.2228104618
Fe               0.7499530618        0.2500000000        0.2500469382
Fe               0.2500469382        0.7500000000        0.7499530618
Fe               0.2228104618        0.2500000000        0.7771895382
Fe               0.7492841424        0.7500000000        0.7721957473
Fe               0.7721957473        0.2500000000        0.7492841424
Fe               0.2278042527        0.7500000000        0.2507158576
H                0.5004070720        0.2500000000        0.7519769051
H                0.2480230949        0.2500000000        0.4995929280
H                0.2490820558        0.5002544921        0.7509179442
H                0.2490820558       -0.0002544921        0.7509179442
H                0.7519769051        0.7500000000        0.5004070720
H                0.4995929280        0.7500000000        0.2480230949
H                0.7509179442        0.4997455079        0.2490820558
H                0.7509179442        0.0002544921        0.2490820558



     Writing config-only to output data dir ./TiFeH_supercell.save/ :
     XML data file     NEW-OLD atomic charge density approx. for the potential
     New effective cutoffs (rho, wfc): 1689.53  120.67

     Check: negative core charge=   -0.000001

     negative rho (up, down):  7.388E-03 0.000E+00

     total cpu time spent up to now is     8737.6 secs

     per-process dynamical memory:   708.5 Mb

     Self-consistent Calculation

     iteration #  1     ecut=   124.00 Ry     beta= 0.70
     Davidson diagonalization with overlap
     ethr =  1.00E-06,  avg # of iterations =  7.0

     Threshold (ethr) on eigenvalues was too large:
     Diagonalizing with lowered threshold

     Davidson diagonalization with overlap
     ethr =  6.69E-08,  avg # of iterations =  4.5

     negative rho (up, down):  7.373E-03 0.000E+00

     total cpu time spent up to now is     8934.2 secs

     total energy              =   -3597.94406093 Ry
     estimated scf accuracy    <       0.00016631 Ry

     iteration #  2     ecut=   124.00 Ry     beta= 0.70
     Davidson diagonalization with overlap
     ethr =  7.17E-08,  avg # of iterations =  7.0

     negative rho (up, down):  7.378E-03 0.000E+00

     total cpu time spent up to now is     9028.4 secs

     total energy              =   -3597.94341999 Ry
     estimated scf accuracy    <       0.01652808 Ry

     iteration #  3     ecut=   124.00 Ry     beta= 0.70
     Davidson diagonalization with overlap
     ethr =  7.17E-08,  avg # of iterations =  5.8

     negative rho (up, down):  7.381E-03 0.000E+00

     total cpu time spent up to now is     9116.8 secs

     total energy              =   -3597.94398061 Ry
     estimated scf accuracy    <       0.00288513 Ry

     iteration #  4     ecut=   124.00 Ry     beta= 0.70
     Davidson diagonalization with overlap
     ethr =  7.17E-08,  avg # of iterations =  5.0

     negative rho (up, down):  7.376E-03 0.000E+00

     total cpu time spent up to now is     9193.1 secs

     total energy              =   -3597.94409075 Ry
     estimated scf accuracy    <       0.00082717 Ry

     iteration #  5     ecut=   124.00 Ry     beta= 0.70
     Davidson diagonalization with overlap
     ethr =  7.17E-08,  avg # of iterations =  4.4

     negative rho (up, down):  7.382E-03 0.000E+00

     total cpu time spent up to now is     9265.4 secs

     total energy              =   -3597.94407189 Ry
     estimated scf accuracy    <       0.00140735 Ry

     iteration #  6     ecut=   124.00 Ry     beta= 0.70
     Davidson diagonalization with overlap
     ethr =  7.17E-08,  avg # of iterations =  4.2

     negative rho (up, down):  7.382E-03 0.000E+00

     total cpu time spent up to now is     9334.2 secs

     total energy              =   -3597.94413415 Ry
     estimated scf accuracy    <       0.00018263 Ry

     iteration #  7     ecut=   124.00 Ry     beta= 0.70
     Davidson diagonalization with overlap
     ethr =  7.17E-08,  avg # of iterations =  1.7

     negative rho (up, down):  7.380E-03 0.000E+00

     total cpu time spent up to now is     9386.5 secs

     total energy              =   -3597.94414174 Ry
     estimated scf accuracy    <       0.00008559 Ry

     iteration #  8     ecut=   124.00 Ry     beta= 0.70
     Davidson diagonalization with overlap
     ethr =  3.69E-08,  avg # of iterations =  2.4

     negative rho (up, down):  7.379E-03 0.000E+00

     total cpu time spent up to now is     9442.7 secs

     total energy              =   -3597.94414560 Ry
     estimated scf accuracy    <       0.00002490 Ry

     iteration #  9     ecut=   124.00 Ry     beta= 0.70
     Davidson diagonalization with overlap
     ethr =  1.07E-08,  avg # of iterations =  1.9

     negative rho (up, down):  7.380E-03 0.000E+00

     total cpu time spent up to now is     9495.0 secs

     total energy              =   -3597.94414782 Ry
     estimated scf accuracy    <       0.00000094 Ry

     iteration # 10     ecut=   124.00 Ry     beta= 0.70
     Davidson diagonalization with overlap
     ethr =  4.06E-10,  avg # of iterations =  4.9

     negative rho (up, down):  7.380E-03 0.000E+00

     total cpu time spent up to now is     9573.4 secs

     total energy              =   -3597.94414810 Ry
     estimated scf accuracy    <       0.00000033 Ry

     iteration # 11     ecut=   124.00 Ry     beta= 0.70
     Davidson diagonalization with overlap
     ethr =  1.42E-10,  avg # of iterations =  1.3

     negative rho (up, down):  7.380E-03 0.000E+00

     total cpu time spent up to now is     9623.7 secs

     total energy              =   -3597.94414811 Ry
     estimated scf accuracy    <       0.00000001 Ry

     iteration # 12     ecut=   124.00 Ry     beta= 0.70
     Davidson diagonalization with overlap
     ethr =  6.11E-12,  avg # of iterations =  5.4

     negative rho (up, down):  7.380E-03 0.000E+00

     total cpu time spent up to now is     9716.4 secs

     total energy              =   -3597.94414812 Ry
     estimated scf accuracy    <       0.00000001 Ry

     iteration # 13     ecut=   124.00 Ry     beta= 0.70
     Davidson diagonalization with overlap
     ethr =  4.65E-12,  avg # of iterations =  2.9

     negative rho (up, down):  7.380E-03 0.000E+00

     total cpu time spent up to now is     9775.4 secs

     total energy              =   -3597.94414812 Ry
     estimated scf accuracy    <       0.00000006 Ry

     iteration # 14     ecut=   124.00 Ry     beta= 0.70
     Davidson diagonalization with overlap
     ethr =  4.65E-12,  avg # of iterations =  2.2

     negative rho (up, down):  7.380E-03 0.000E+00

     total cpu time spent up to now is     9830.4 secs

     total energy              =   -3597.94414812 Ry
     estimated scf accuracy    <       0.00000002 Ry

     iteration # 15     ecut=   124.00 Ry     beta= 0.70
     Davidson diagonalization with overlap
     ethr =  4.65E-12,  avg # of iterations =  1.1

     negative rho (up, down):  7.380E-03 0.000E+00

     total cpu time spent up to now is     9878.8 secs

     total energy              =   -3597.94414812 Ry
     estimated scf accuracy    <          3.4E-09 Ry

     iteration # 16     ecut=   124.00 Ry     beta= 0.70
     Davidson diagonalization with overlap
     ethr =  1.46E-12,  avg # of iterations =  1.6

     negative rho (up, down):  7.380E-03 0.000E+00

     total cpu time spent up to now is     9930.1 secs

     End of self-consistent calculation

     Number of k-points >= 100: set verbosity='high' to print the bands.

     the Fermi energy is    16.2073 ev

!    total energy              =   -3597.94414812 Ry
     estimated scf accuracy    <          5.1E-10 Ry
     smearing contrib. (-TS)   =      -0.00023186 Ry
     internal energy E=F+TS    =   -3597.94391626 Ry

     The total energy is F=E-TS. E is the sum of the following terms:
     one-electron contribution =   -1314.87739834 Ry
     hartree contribution      =     778.20990374 Ry
     xc contribution           =    -429.07257517 Ry
     ewald contribution        =   -2022.98741305 Ry
     one-center paw contrib.   =    -609.21643345 Ry

     convergence has been achieved in  16 iterations

     negative rho (up, down):  7.380E-03 0.000E+00

     Forces acting on atoms (cartesian axes, Ry/au):

     atom    1 type  2   force =     0.00000000   -0.00000000    0.00000000
     atom    2 type  2   force =    -0.00000000    0.00000000   -0.00000000
     atom    3 type  2   force =     0.00000000   -0.00000000    0.00000000
     atom    4 type  2   force =     0.00000000    0.00000000    0.00000000
     atom    5 type  2   force =     0.00000000   -0.00000000   -0.00000000
     atom    6 type  2   force =     0.00000000    0.00000000    0.00000000
     atom    7 type  2   force =     0.00000000    0.00000000   -0.00000000
     atom    8 type  2   force =     0.00000000    0.00000000    0.00000000
     atom    9 type  1   force =     0.00329423    0.00000000    0.00667230
     atom   10 type  1   force =     0.00272403    0.00000000   -0.00272403
     atom   11 type  1   force =    -0.00253028    0.00000000    0.00253028
     atom   12 type  1   force =     0.00253028   -0.00000000   -0.00253028
     atom   13 type  1   force =    -0.00272403    0.00000000    0.00272403
     atom   14 type  1   force =    -0.00329423    0.00000000   -0.00667230
     atom   15 type  1   force =    -0.00667230    0.00000000   -0.00329423
     atom   16 type  1   force =     0.00667230   -0.00000000    0.00329423
     atom   17 type  3   force =    -0.00333469   -0.00000000    0.00313486
     atom   18 type  3   force =    -0.00313486    0.00000000    0.00333469
     atom   19 type  3   force =    -0.00022140   -0.00036321    0.00022140
     atom   20 type  3   force =    -0.00022140    0.00036321    0.00022140
     atom   21 type  3   force =     0.00313486    0.00000000   -0.00333469
     atom   22 type  3   force =     0.00333469   -0.00000000   -0.00313486
     atom   23 type  3   force =     0.00022140    0.00036321   -0.00022140
     atom   24 type  3   force =     0.00022140   -0.00036321   -0.00022140

     Total force =     0.019013     Total SCF correction =     0.000022


     Computing stress (Cartesian axis) and pressure


     negative rho (up, down):  7.380E-03 0.000E+00
          total   stress  (Ry/bohr**3)                   (kbar)     P=        2.51
   0.00001175   0.00000000  -0.00001486            1.73        0.00       -2.19
   0.00000000   0.00002764   0.00000000            0.00        4.07        0.00
  -0.00001486   0.00000000   0.00001175           -2.19        0.00        1.73

     Energy error            =      5.6E-04 Ry
     Gradient error          =      6.7E-03 Ry/Bohr
     Cell gradient error     =      4.1E+00 kbar

     number of scf cycles    =   6
     number of bfgs steps    =   5

     enthalpy           old  =   -3597.9435922595 Ry
     enthalpy           new  =   -3597.9441481193 Ry

     CASE: enthalpy          _new < enthalpy          _old

     new trust radius        =       0.0181008931 bohr
     new conv_thr            =       0.0000000006 Ry

     new unit-cell volume =   1546.37294 a.u.^3 (   229.14883 Ang^3 )
     density =      6.07086 g/cm^3

CELL_PARAMETERS (alat=  5.58242261)
   2.030908600   0.000000000  -0.005999550
   0.000000000   2.155108509   0.000000000
  -0.005999550   0.000000000   2.030908600

ATOMIC_POSITIONS (crystal)
Ti               0.0000000000        0.0000000000        0.0000000000
Ti               0.5000000000        0.5000000000       -0.0000000000
Ti               0.5000000000       -0.0000000000       -0.0000000000
Ti               0.0000000000        0.5000000000        0.5000000000
Ti               0.0000000000       -0.0000000000        0.5000000000
Ti               0.5000000000        0.5000000000        0.5000000000
Ti               0.5000000000       -0.0000000000        0.5000000000
Ti               0.0000000000        0.5000000000        0.0000000000
Fe               0.2515146047        0.2500000000        0.2290343480
Fe               0.7783163504        0.7500000000        0.2216836496
Fe               0.7493506046        0.2500000000        0.2506493954
Fe               0.2506493954        0.7500000000        0.7493506046
Fe               0.2216836496        0.2500000000        0.7783163504
Fe               0.7484853953        0.7500000000        0.7709656520
Fe               0.7709656520        0.2500000000        0.7484853953
Fe               0.2290343480        0.7500000000        0.2515146047
H                0.4996926145        0.2500000000        0.7527294929
H                0.2472705071        0.2500000000        0.5003073855
H                0.2490201792        0.5001555501        0.7509798208
H                0.2490201792       -0.0001555501        0.7509798208
H                0.7527294929        0.7500000000        0.4996926145
H                0.5003073855        0.7500000000        0.2472705071
H                0.7509798208        0.4998444499        0.2490201792
H                0.7509798208        0.0001555501        0.2490201792



     Writing config-only to output data dir ./TiFeH_supercell.save/ :
     XML data file     NEW-OLD atomic charge density approx. for the potential
     New effective cutoffs (rho, wfc): 1693.12  120.93

     Check: negative core charge=   -0.000001

     negative rho (up, down):  7.388E-03 0.000E+00

     total cpu time spent up to now is     9974.2 secs

     per-process dynamical memory:   708.5 Mb

     Self-consistent Calculation

     iteration #  1     ecut=   124.00 Ry     beta= 0.70
     Davidson diagonalization with overlap
     ethr =  1.00E-06,  avg # of iterations =  8.3

     negative rho (up, down):  7.370E-03 0.000E+00

     total cpu time spent up to now is    10137.5 secs

     total energy              =   -3597.94468078 Ry
     estimated scf accuracy    <       0.00075042 Ry

     iteration #  2     ecut=   124.00 Ry     beta= 0.70
     Davidson diagonalization with overlap
     c_bands:  1 eigenvalues not converged
     ethr =  3.23E-07,  avg # of iterations = 10.1

     negative rho (up, down):  7.384E-03 0.000E+00

     total cpu time spent up to now is    10248.8 secs

     total energy              =   -3597.94274934 Ry
     estimated scf accuracy    <       0.03493475 Ry

     iteration #  3     ecut=   124.00 Ry     beta= 0.70
     Davidson diagonalization with overlap
     c_bands:  1 eigenvalues not converged
     c_bands:  1 eigenvalues not converged
     ethr =  3.23E-07,  avg # of iterations =  8.5

     negative rho (up, down):  7.376E-03 0.000E+00

     total cpu time spent up to now is    10351.3 secs

     total energy              =   -3597.94459459 Ry
     estimated scf accuracy    <       0.00394953 Ry

     iteration #  4     ecut=   124.00 Ry     beta= 0.70
     Davidson diagonalization with overlap
     ethr =  3.23E-07,  avg # of iterations =  5.8

     negative rho (up, down):  7.370E-03 0.000E+00

     total cpu time spent up to now is    10429.0 secs

     total energy              =   -3597.94458740 Ry
     estimated scf accuracy    <       0.00936660 Ry

     iteration #  5     ecut=   124.00 Ry     beta= 0.70
     Davidson diagonalization with overlap
     ethr =  3.23E-07,  avg # of iterations =  4.5

     negative rho (up, down):  7.382E-03 0.000E+00

     total cpu time spent up to now is    10502.7 secs

     total energy              =   -3597.94453357 Ry
     estimated scf accuracy    <       0.01219824 Ry

     iteration #  6     ecut=   124.00 Ry     beta= 0.70
     Davidson diagonalization with overlap
     ethr =  3.23E-07,  avg # of iterations =  4.3

     negative rho (up, down):  7.381E-03 0.000E+00

     total cpu time spent up to now is    10571.2 secs

     total energy              =   -3597.94495457 Ry
     estimated scf accuracy    <       0.00087473 Ry

     iteration #  7     ecut=   124.00 Ry     beta= 0.70
     Davidson diagonalization with overlap
     ethr =  3.23E-07,  avg # of iterations =  1.9

     negative rho (up, down):  7.380E-03 0.000E+00

     total cpu time spent up to now is    10624.9 secs

     total energy              =   -3597.94498182 Ry
     estimated scf accuracy    <       0.00049940 Ry

     iteration #  8     ecut=   124.00 Ry     beta= 0.70
     Davidson diagonalization with overlap
     ethr =  2.15E-07,  avg # of iterations =  2.1

     negative rho (up, down):  7.379E-03 0.000E+00

     total cpu time spent up to now is    10679.5 secs

     total energy              =   -3597.94501227 Ry
     estimated scf accuracy    <       0.00008682 Ry

     iteration #  9     ecut=   124.00 Ry     beta= 0.70
     Davidson diagonalization with overlap
     ethr =  3.74E-08,  avg # of iterations =  2.0

     negative rho (up, down):  7.379E-03 0.000E+00

     total cpu time spent up to now is    10734.8 secs

     total energy              =   -3597.94501985 Ry
     estimated scf accuracy    <       0.00000377 Ry

     iteration # 10     ecut=   124.00 Ry     beta= 0.70
     Davidson diagonalization with overlap
     ethr =  1.63E-09,  avg # of iterations =  4.7

     negative rho (up, down):  7.379E-03 0.000E+00

     total cpu time spent up to now is    10808.3 secs

     total energy              =   -3597.94502068 Ry
     estimated scf accuracy    <       0.00000088 Ry

     iteration # 11     ecut=   124.00 Ry     beta= 0.70
     Davidson diagonalization with overlap
     ethr =  3.81E-10,  avg # of iterations =  2.4

     negative rho (up, down):  7.379E-03 0.000E+00

     total cpu time spent up to now is    10864.3 secs

     total energy              =   -3597.94502075 Ry
     estimated scf accuracy    <       0.00000002 Ry

     iteration # 12     ecut=   124.00 Ry     beta= 0.70
     Davidson diagonalization with overlap
     ethr =  9.33E-12,  avg # of iterations =  6.2

     negative rho (up, down):  7.379E-03 0.000E+00

     total cpu time spent up to now is    10986.4 secs

     total energy              =   -3597.94502077 Ry
     estimated scf accuracy    <       0.00000002 Ry

     iteration # 13     ecut=   124.00 Ry     beta= 0.70
     Davidson diagonalization with overlap
     ethr =  7.45E-12,  avg # of iterations =  4.0

     negative rho (up, down):  7.379E-03 0.000E+00

     total cpu time spent up to now is    11049.2 secs

     total energy              =   -3597.94502077 Ry
     estimated scf accuracy    <       0.00000005 Ry

     iteration # 14     ecut=   124.00 Ry     beta= 0.70
     Davidson diagonalization with overlap
     ethr =  7.45E-12,  avg # of iterations =  3.3

     negative rho (up, down):  7.379E-03 0.000E+00

     total cpu time spent up to now is    11109.6 secs

     total energy              =   -3597.94502077 Ry
     estimated scf accuracy    <       0.00000007 Ry

     iteration # 15     ecut=   124.00 Ry     beta= 0.70
     Davidson diagonalization with overlap
     ethr =  7.45E-12,  avg # of iterations =  2.0

     negative rho (up, down):  7.379E-03 0.000E+00

     total cpu time spent up to now is    11163.3 secs

     total energy              =   -3597.94502077 Ry
     estimated scf accuracy    <          6.8E-09 Ry

     iteration # 16     ecut=   124.00 Ry     beta= 0.70
     Davidson diagonalization with overlap
     ethr =  2.94E-12,  avg # of iterations =  3.7

     negative rho (up, down):  7.379E-03 0.000E+00

     total cpu time spent up to now is    11225.2 secs

     total energy              =   -3597.94502077 Ry
     estimated scf accuracy    <       0.00000001 Ry

     iteration # 17     ecut=   124.00 Ry     beta= 0.70
     Davidson diagonalization with overlap
     ethr =  2.94E-12,  avg # of iterations =  1.1

     negative rho (up, down):  7.379E-03 0.000E+00

     total cpu time spent up to now is    11273.4 secs

     End of self-consistent calculation

     Number of k-points >= 100: set verbosity='high' to print the bands.

     the Fermi energy is    16.1653 ev

!    total energy              =   -3597.94502077 Ry
     estimated scf accuracy    <          3.0E-10 Ry
     smearing contrib. (-TS)   =      -0.00025765 Ry
     internal energy E=F+TS    =   -3597.94476312 Ry

     The total energy is F=E-TS. E is the sum of the following terms:
     one-electron contribution =   -1316.66366350 Ry
     hartree contribution      =     778.75283345 Ry
     xc contribution           =    -429.03828261 Ry
     ewald contribution        =   -2021.77951329 Ry
     one-center paw contrib.   =    -609.21613717 Ry

     convergence has been achieved in  17 iterations

     negative rho (up, down):  7.379E-03 0.000E+00

     Forces acting on atoms (cartesian axes, Ry/au):

     atom    1 type  2   force =     0.00000000    0.00000000    0.00000000
     atom    2 type  2   force =     0.00000000    0.00000000    0.00000000
     atom    3 type  2   force =     0.00000000    0.00000000    0.00000000
     atom    4 type  2   force =     0.00000000    0.00000000    0.00000000
     atom    5 type  2   force =    -0.00000000   -0.00000000   -0.00000000
     atom    6 type  2   force =     0.00000000    0.00000000    0.00000000
     atom    7 type  2   force =     0.00000000   -0.00000000    0.00000000
     atom    8 type  2   force =     0.00000000    0.00000000    0.00000000
     atom    9 type  1   force =     0.00208368    0.00000000    0.00447159
     atom   10 type  1   force =     0.00199012   -0.00000000   -0.00199012
     atom   11 type  1   force =    -0.00176998    0.00000000    0.00176998
     atom   12 type  1   force =     0.00176998   -0.00000000   -0.00176998
     atom   13 type  1   force =    -0.00199012    0.00000000    0.00199012
     atom   14 type  1   force =    -0.00208368   -0.00000000   -0.00447159
     atom   15 type  1   force =    -0.00447159    0.00000000   -0.00208368
     atom   16 type  1   force =     0.00447159   -0.00000000    0.00208368
     atom   17 type  3   force =    -0.00424474    0.00000000    0.00321664
     atom   18 type  3   force =    -0.00321664   -0.00000000    0.00424474
     atom   19 type  3   force =    -0.00038180    0.00009490    0.00038180
     atom   20 type  3   force =    -0.00038180   -0.00009490    0.00038180
     atom   21 type  3   force =     0.00321664   -0.00000000   -0.00424474
     atom   22 type  3   force =     0.00424474    0.00000000   -0.00321664
     atom   23 type  3   force =     0.00038180   -0.00009490   -0.00038180
     atom   24 type  3   force =     0.00038180    0.00009490   -0.00038180

     Total force =     0.015504     Total SCF correction =     0.000017


     Computing stress (Cartesian axis) and pressure


     negative rho (up, down):  7.379E-03 0.000E+00
          total   stress  (Ry/bohr**3)                   (kbar)     P=       -1.54
  -0.00000455   0.00000000  -0.00001166           -0.67        0.00       -1.72
   0.00000000  -0.00002233   0.00000000            0.00       -3.29        0.00
  -0.00001166   0.00000000  -0.00000455           -1.72        0.00       -0.67

     Energy error            =      8.7E-04 Ry
     Gradient error          =      4.5E-03 Ry/Bohr
     Cell gradient error     =      3.3E+00 kbar

     number of scf cycles    =   7
     number of bfgs steps    =   6

     enthalpy           old  =   -3597.9441481193 Ry
     enthalpy           new  =   -3597.9450207721 Ry

     CASE: enthalpy          _new < enthalpy          _old

     new trust radius        =       0.0271801551 bohr
     new conv_thr            =       0.0000000004 Ry

     new unit-cell volume =   1548.86911 a.u.^3 (   229.51872 Ang^3 )
     density =      6.06108 g/cm^3

CELL_PARAMETERS (alat=  5.58242261)
   2.030580469   0.000000000  -0.009510388
   0.000000000   2.159313523   0.000000000
  -0.009510388   0.000000000   2.030580469

ATOMIC_POSITIONS (crystal)
Ti               0.0000000000        0.0000000000        0.0000000000
Ti               0.5000000000        0.5000000000       -0.0000000000
Ti               0.5000000000       -0.0000000000       -0.0000000000
Ti               0.0000000000        0.5000000000        0.5000000000
Ti               0.0000000000       -0.0000000000        0.5000000000
Ti               0.5000000000        0.5000000000        0.5000000000
Ti               0.5000000000       -0.0000000000        0.5000000000
Ti               0.0000000000        0.5000000000        0.0000000000
Fe               0.2527244275        0.2500000000        0.2309974857
Fe               0.7800065686        0.7500000000        0.2199934314
Fe               0.7484109348        0.2500000000        0.2515890652
Fe               0.2515890652        0.7500000000        0.7484109348
Fe               0.2199934314        0.2500000000        0.7800065686
Fe               0.7472755725        0.7500000000        0.7690025143
Fe               0.7690025143        0.2500000000        0.7472755725
Fe               0.2309974857        0.7500000000        0.2527244275
H                0.4982996396        0.2500000000        0.7540489776
H                0.2459510224        0.2500000000        0.5017003604
H                0.2488945286        0.5000505318        0.7511054714
H                0.2488945286       -0.0000505318        0.7511054714
H                0.7540489776        0.7500000000        0.4982996396
H                0.5017003604        0.7500000000        0.2459510224
H                0.7511054714        0.4999494682        0.2488945286
H                0.7511054714        0.0000505318        0.2488945286



     Writing config-only to output data dir ./TiFeH_supercell.save/ :
     XML data file     NEW-OLD atomic charge density approx. for the potential
     New effective cutoffs (rho, wfc): 1699.40  121.39

     Check: negative core charge=   -0.000001

     negative rho (up, down):  7.386E-03 0.000E+00

     total cpu time spent up to now is    11318.1 secs

     per-process dynamical memory:   708.5 Mb

     Self-consistent Calculation

     iteration #  1     ecut=   124.00 Ry     beta= 0.70
     Davidson diagonalization with overlap
     ethr =  1.00E-06,  avg # of iterations =  9.2

     negative rho (up, down):  7.368E-03 0.000E+00

     total cpu time spent up to now is    11501.8 secs

     total energy              =   -3597.94511983 Ry
     estimated scf accuracy    <       0.00184095 Ry

     iteration #  2     ecut=   124.00 Ry     beta= 0.70
     Davidson diagonalization with overlap
     c_bands:  1 eigenvalues not converged
     c_bands:  2 eigenvalues not converged
     c_bands:  1 eigenvalues not converged
     c_bands:  1 eigenvalues not converged
     c_bands:  1 eigenvalues not converged
     c_bands:  2 eigenvalues not converged
     c_bands:  1 eigenvalues not converged
     c_bands:  1 eigenvalues not converged
     c_bands:  1 eigenvalues not converged
     c_bands:  1 eigenvalues not converged
     c_bands:  2 eigenvalues not converged
     c_bands:  1 eigenvalues not converged
     ethr =  7.94E-07,  avg # of iterations = 11.4

     negative rho (up, down):  7.386E-03 0.000E+00

     total cpu time spent up to now is    11623.9 secs

     total energy              =   -3597.93951183 Ry
     estimated scf accuracy    <       0.11162339 Ry

     iteration #  3     ecut=   124.00 Ry     beta= 0.70
     Davidson diagonalization with overlap
     c_bands:  1 eigenvalues not converged
     c_bands:  1 eigenvalues not converged
     ethr =  7.94E-07,  avg # of iterations =  8.9

     negative rho (up, down):  7.381E-03 0.000E+00

     total cpu time spent up to now is    11734.3 secs

     total energy              =   -3597.94404423 Ry
     estimated scf accuracy    <       0.04107471 Ry

     iteration #  4     ecut=   124.00 Ry     beta= 0.70
     Davidson diagonalization with overlap
     ethr =  7.94E-07,  avg # of iterations =  7.0

     negative rho (up, down):  7.363E-03 0.000E+00

     total cpu time spent up to now is    11817.8 secs

     total energy              =   -3597.94541329 Ry
     estimated scf accuracy    <       0.00665772 Ry

     iteration #  5     ecut=   124.00 Ry     beta= 0.70
     Davidson diagonalization with overlap
     ethr =  7.94E-07,  avg # of iterations =  4.4

     negative rho (up, down):  7.381E-03 0.000E+00

     total cpu time spent up to now is    11890.1 secs

     total energy              =   -3597.94496128 Ry
     estimated scf accuracy    <       0.01991923 Ry

     iteration #  6     ecut=   124.00 Ry     beta= 0.70
     Davidson diagonalization with overlap
     ethr =  7.94E-07,  avg # of iterations =  4.1

     negative rho (up, down):  7.381E-03 0.000E+00

     total cpu time spent up to now is    11958.5 secs

     total energy              =   -3597.94587036 Ry
     estimated scf accuracy    <       0.00025503 Ry

     iteration #  7     ecut=   124.00 Ry     beta= 0.70
     Davidson diagonalization with overlap
     ethr =  1.10E-07,  avg # of iterations =  4.8

     negative rho (up, down):  7.380E-03 0.000E+00

     total cpu time spent up to now is    12028.4 secs

     total energy              =   -3597.94590144 Ry
     estimated scf accuracy    <       0.00026912 Ry

     iteration #  8     ecut=   124.00 Ry     beta= 0.70
     Davidson diagonalization with overlap
     ethr =  1.10E-07,  avg # of iterations =  3.6

     negative rho (up, down):  7.381E-03 0.000E+00

     total cpu time spent up to now is    12090.0 secs

     total energy              =   -3597.94586898 Ry
     estimated scf accuracy    <       0.00182792 Ry

     iteration #  9     ecut=   124.00 Ry     beta= 0.70
     Davidson diagonalization with overlap
     ethr =  1.10E-07,  avg # of iterations =  2.2

     negative rho (up, down):  7.381E-03 0.000E+00

     total cpu time spent up to now is    12145.1 secs

     total energy              =   -3597.94592889 Ry
     estimated scf accuracy    <       0.00000663 Ry

     iteration # 10     ecut=   124.00 Ry     beta= 0.70
     Davidson diagonalization with overlap
     ethr =  2.86E-09,  avg # of iterations =  5.2

     negative rho (up, down):  7.380E-03 0.000E+00

     total cpu time spent up to now is    12228.4 secs

     total energy              =   -3597.94593225 Ry
     estimated scf accuracy    <       0.00000635 Ry

     iteration # 11     ecut=   124.00 Ry     beta= 0.70
     Davidson diagonalization with overlap
     ethr =  2.74E-09,  avg # of iterations =  1.0

     negative rho (up, down):  7.380E-03 0.000E+00

     total cpu time spent up to now is    12276.7 secs

     total energy              =   -3597.94593224 Ry
     estimated scf accuracy    <       0.00000144 Ry

     iteration # 12     ecut=   124.00 Ry     beta= 0.70
     Davidson diagonalization with overlap
     ethr =  6.19E-10,  avg # of iterations =  3.1

     negative rho (up, down):  7.380E-03 0.000E+00

     total cpu time spent up to now is    12333.9 secs

     total energy              =   -3597.94593231 Ry
     estimated scf accuracy    <       0.00000010 Ry

     iteration # 13     ecut=   124.00 Ry     beta= 0.70
     Davidson diagonalization with overlap
     ethr =  4.29E-11,  avg # of iterations =  5.0

     negative rho (up, down):  7.380E-03 0.000E+00

     total cpu time spent up to now is    12415.5 secs

     total energy              =   -3597.94593233 Ry
     estimated scf accuracy    <       0.00000040 Ry

     iteration # 14     ecut=   124.00 Ry     beta= 0.70
     Davidson diagonalization with overlap
     ethr =  4.29E-11,  avg # of iterations =  2.0

     negative rho (up, down):  7.380E-03 0.000E+00

     total cpu time spent up to now is    12469.8 secs

     total energy              =   -3597.94593234 Ry
     estimated scf accuracy    <       0.00000007 Ry

     iteration # 15     ecut=   124.00 Ry     beta= 0.70
     Davidson diagonalization with overlap
     ethr =  3.10E-11,  avg # of iterations =  1.5

     negative rho (up, down):  7.380E-03 0.000E+00

     total cpu time spent up to now is    12521.1 secs

     total energy              =   -3597.94593235 Ry
     estimated scf accuracy    <       0.00000001 Ry

     iteration # 16     ecut=   124.00 Ry     beta= 0.70
     Davidson diagonalization with overlap
     ethr =  5.96E-12,  avg # of iterations =  2.6

     negative rho (up, down):  7.380E-03 0.000E+00

     total cpu time spent up to now is    12580.2 secs

     total energy              =   -3597.94593235 Ry
     estimated scf accuracy    <          3.8E-09 Ry

     iteration # 17     ecut=   124.00 Ry     beta= 0.70
     Davidson diagonalization with overlap
     ethr =  1.64E-12,  avg # of iterations =  4.1

     negative rho (up, down):  7.380E-03 0.000E+00

     total cpu time spent up to now is    12642.2 secs

     total energy              =   -3597.94593235 Ry
     estimated scf accuracy    <          1.1E-09 Ry

     iteration # 18     ecut=   124.00 Ry     beta= 0.70
     Davidson diagonalization with overlap
     ethr =  4.64E-13,  avg # of iterations =  4.3

     negative rho (up, down):  7.380E-03 0.000E+00

     total cpu time spent up to now is    12709.3 secs

     End of self-consistent calculation

     Number of k-points >= 100: set verbosity='high' to print the bands.

     the Fermi energy is    16.1329 ev

!    total energy              =   -3597.94593235 Ry
     estimated scf accuracy    <          1.4E-10 Ry
     smearing contrib. (-TS)   =      -0.00029088 Ry
     internal energy E=F+TS    =   -3597.94564147 Ry

     The total energy is F=E-TS. E is the sum of the following terms:
     one-electron contribution =   -1317.76578846 Ry
     hartree contribution      =     779.03570137 Ry
     xc contribution           =    -429.01176544 Ry
     ewald contribution        =   -2020.98781183 Ry
     one-center paw contrib.   =    -609.21597711 Ry

     convergence has been achieved in  18 iterations

     negative rho (up, down):  7.380E-03 0.000E+00

     Forces acting on atoms (cartesian axes, Ry/au):

     atom    1 type  2   force =     0.00000000   -0.00000000    0.00000000
     atom    2 type  2   force =     0.00000000    0.00000000    0.00000000
     atom    3 type  2   force =     0.00000000   -0.00000000    0.00000000
     atom    4 type  2   force =     0.00000000    0.00000000    0.00000000
     atom    5 type  2   force =    -0.00000000   -0.00000000   -0.00000000
     atom    6 type  2   force =     0.00000000    0.00000000    0.00000000
     atom    7 type  2   force =    -0.00000000   -0.00000000   -0.00000000
     atom    8 type  2   force =     0.00000000   -0.00000000    0.00000000
     atom    9 type  1   force =     0.00019371    0.00000000    0.00144292
     atom   10 type  1   force =     0.00147004   -0.00000000   -0.00147004
     atom   11 type  1   force =    -0.00059413    0.00000000    0.00059413
     atom   12 type  1   force =     0.00059413   -0.00000000   -0.00059413
     atom   13 type  1   force =    -0.00147004    0.00000000    0.00147004
     atom   14 type  1   force =    -0.00019371   -0.00000000   -0.00144292
     atom   15 type  1   force =    -0.00144292    0.00000000   -0.00019371
     atom   16 type  1   force =     0.00144292    0.00000000    0.00019371
     atom   17 type  3   force =    -0.00483210   -0.00000000    0.00336445
     atom   18 type  3   force =    -0.00336445   -0.00000000    0.00483210
     atom   19 type  3   force =    -0.00058544    0.00056264    0.00058544
     atom   20 type  3   force =    -0.00058544   -0.00056264    0.00058544
     atom   21 type  3   force =     0.00336445   -0.00000000   -0.00483210
     atom   22 type  3   force =     0.00483210   -0.00000000   -0.00336445
     atom   23 type  3   force =     0.00058544   -0.00056264   -0.00058544
     atom   24 type  3   force =     0.00058544    0.00056264   -0.00058544

     Total force =     0.012697     Total SCF correction =     0.000057


     Computing stress (Cartesian axis) and pressure


     negative rho (up, down):  7.380E-03 0.000E+00
          total   stress  (Ry/bohr**3)                   (kbar)     P=       -4.50
  -0.00001159   0.00000000  -0.00000638           -1.71        0.00       -0.94
   0.00000000  -0.00006858   0.00000000            0.00      -10.09        0.00
  -0.00000638   0.00000000  -0.00001159           -0.94        0.00       -1.71

     Energy error            =      9.1E-04 Ry
     Gradient error          =      4.8E-03 Ry/Bohr
     Cell gradient error     =      1.0E+01 kbar

     number of scf cycles    =   8
     number of bfgs steps    =   7

     enthalpy           old  =   -3597.9450207721 Ry
     enthalpy           new  =   -3597.9459323461 Ry

     CASE: enthalpy          _new < enthalpy          _old

     new trust radius        =       0.0369112566 bohr
     new conv_thr            =       0.0000000005 Ry

     new unit-cell volume =   1549.91877 a.u.^3 (   229.67427 Ang^3 )
     density =      6.05697 g/cm^3

CELL_PARAMETERS (alat=  5.58242261)
   2.030532888   0.000000000  -0.014318108
   0.000000000   2.160938182   0.000000000
  -0.014318108   0.000000000   2.030532888

ATOMIC_POSITIONS (crystal)
Ti               0.0000000000        0.0000000000        0.0000000000
Ti               0.5000000000        0.5000000000       -0.0000000000
Ti               0.5000000000       -0.0000000000       -0.0000000000
Ti              -0.0000000000        0.5000000000        0.5000000000
Ti              -0.0000000000       -0.0000000000        0.5000000000
Ti               0.5000000000        0.5000000000        0.5000000000
Ti               0.5000000000       -0.0000000000        0.5000000000
Ti               0.0000000000        0.5000000000        0.0000000000
Fe               0.2542300192        0.2500000000        0.2336410753
Fe               0.7822983416        0.7500000000        0.2177016584
Fe               0.7471808778        0.2500000000        0.2528191222
Fe               0.2528191222        0.7500000000        0.7471808778
Fe               0.2177016584        0.2500000000        0.7822983416
Fe               0.7457699808        0.7500000000        0.7663589247
Fe               0.7663589247        0.2500000000        0.7457699808
Fe               0.2336410753        0.7500000000        0.2542300192
H                0.4960056288        0.2500000000        0.7561154053
H                0.2438845947        0.2500000000        0.5039943712
H                0.2486674909        0.4999809783        0.7513325091
H                0.2486674909        0.0000190217        0.7513325091
H                0.7561154053        0.7500000000        0.4960056288
H                0.5039943712        0.7500000000        0.2438845947
H                0.7513325091        0.5000190217        0.2486674909
H                0.7513325091       -0.0000190217        0.2486674909



     Writing config-only to output data dir ./TiFeH_supercell.save/ :
     XML data file     NEW-OLD atomic charge density approx. for the potential
     New effective cutoffs (rho, wfc): 1707.39  121.96

     Check: negative core charge=   -0.000001

     negative rho (up, down):  7.381E-03 0.000E+00

     total cpu time spent up to now is    12753.6 secs

     per-process dynamical memory:   708.5 Mb

     Self-consistent Calculation

     iteration #  1     ecut=   124.00 Ry     beta= 0.70
     Davidson diagonalization with overlap
     ethr =  1.00E-06,  avg # of iterations =  9.9

     negative rho (up, down):  7.370E-03 0.000E+00

     total cpu time spent up to now is    12952.5 secs

     total energy              =   -3597.94505434 Ry
     estimated scf accuracy    <       0.00355013 Ry

     iteration #  2     ecut=   124.00 Ry     beta= 0.70
     Davidson diagonalization with overlap
     c_bands:  1 eigenvalues not converged
     c_bands:  1 eigenvalues not converged
     c_bands:  1 eigenvalues not converged
     c_bands:  1 eigenvalues not converged
     c_bands:  1 eigenvalues not converged
     c_bands:  1 eigenvalues not converged
     c_bands:  1 eigenvalues not converged
     c_bands:  1 eigenvalues not converged
     c_bands:  1 eigenvalues not converged
     c_bands:  1 eigenvalues not converged
     c_bands:  1 eigenvalues not converged
     c_bands:  1 eigenvalues not converged
     c_bands:  1 eigenvalues not converged
     c_bands:  1 eigenvalues not converged
     c_bands:  1 eigenvalues not converged
     c_bands:  2 eigenvalues not converged
     c_bands:  1 eigenvalues not converged
     c_bands:  1 eigenvalues not converged
     c_bands:  2 eigenvalues not converged
     c_bands:  1 eigenvalues not converged
     ethr =  1.53E-06,  avg # of iterations = 13.3

     negative rho (up, down):  7.384E-03 0.000E+00

     total cpu time spent up to now is    13083.9 secs

     total energy              =   -3597.92806062 Ry
     estimated scf accuracy    <       0.46997323 Ry

     iteration #  3     ecut=   124.00 Ry     beta= 0.70
     Davidson diagonalization with overlap
     c_bands:  1 eigenvalues not converged
     c_bands:  1 eigenvalues not converged
     c_bands:  1 eigenvalues not converged
     c_bands:  1 eigenvalues not converged
     c_bands:  1 eigenvalues not converged
     ethr =  1.53E-06,  avg # of iterations =  9.5

     negative rho (up, down):  7.384E-03 0.000E+00

     total cpu time spent up to now is    13196.2 secs

     total energy              =   -3597.94299134 Ry
     estimated scf accuracy    <       0.07367717 Ry

     iteration #  4     ecut=   124.00 Ry     beta= 0.70
     Davidson diagonalization with overlap
     c_bands:  1 eigenvalues not converged
     c_bands:  1 eigenvalues not converged
     c_bands:  2 eigenvalues not converged
     ethr =  1.53E-06,  avg # of iterations = 10.7

     negative rho (up, down):  7.360E-03 0.000E+00

     total cpu time spent up to now is    13298.5 secs

     total energy              =   -3597.94621852 Ry
     estimated scf accuracy    <       0.00440683 Ry

     iteration #  5     ecut=   124.00 Ry     beta= 0.70
     Davidson diagonalization with overlap
     ethr =  1.53E-06,  avg # of iterations =  4.8

     negative rho (up, down):  7.381E-03 0.000E+00

     total cpu time spent up to now is    13369.7 secs

     total energy              =   -3597.94516024 Ry
     estimated scf accuracy    <       0.03224991 Ry

     iteration #  6     ecut=   124.00 Ry     beta= 0.70
     Davidson diagonalization with overlap
     ethr =  1.53E-06,  avg # of iterations =  4.0

     negative rho (up, down):  7.385E-03 0.000E+00

     total cpu time spent up to now is    13435.7 secs

     total energy              =   -3597.94653599 Ry
     estimated scf accuracy    <       0.00188809 Ry

     iteration #  7     ecut=   124.00 Ry     beta= 0.70
     Davidson diagonalization with overlap
     ethr =  8.14E-07,  avg # of iterations =  2.2

     negative rho (up, down):  7.383E-03 0.000E+00

     total cpu time spent up to now is    13490.2 secs

     total energy              =   -3597.94660504 Ry
     estimated scf accuracy    <       0.00176088 Ry

     iteration #  8     ecut=   124.00 Ry     beta= 0.70
     Davidson diagonalization with overlap
     ethr =  7.59E-07,  avg # of iterations =  2.0

     negative rho (up, down):  7.385E-03 0.000E+00

     total cpu time spent up to now is    13544.0 secs

     total energy              =   -3597.94668724 Ry
     estimated scf accuracy    <       0.00037683 Ry

     iteration #  9     ecut=   124.00 Ry     beta= 0.70
     Davidson diagonalization with overlap
     ethr =  1.62E-07,  avg # of iterations =  2.1

     negative rho (up, down):  7.384E-03 0.000E+00

     total cpu time spent up to now is    13598.9 secs

     total energy              =   -3597.94672109 Ry
     estimated scf accuracy    <       0.00001332 Ry

     iteration # 10     ecut=   124.00 Ry     beta= 0.70
     Davidson diagonalization with overlap
     ethr =  5.74E-09,  avg # of iterations =  4.9

     negative rho (up, down):  7.383E-03 0.000E+00

     total cpu time spent up to now is    13676.0 secs

     total energy              =   -3597.94672488 Ry
     estimated scf accuracy    <       0.00000413 Ry

     iteration # 11     ecut=   124.00 Ry     beta= 0.70
     Davidson diagonalization with overlap
     ethr =  1.78E-09,  avg # of iterations =  1.6

     negative rho (up, down):  7.383E-03 0.000E+00

     total cpu time spent up to now is    13728.1 secs

     total energy              =   -3597.94672507 Ry
     estimated scf accuracy    <       0.00000024 Ry

     iteration # 12     ecut=   124.00 Ry     beta= 0.70
     Davidson diagonalization with overlap
     ethr =  1.02E-10,  avg # of iterations =  5.2

     negative rho (up, down):  7.383E-03 0.000E+00

     total cpu time spent up to now is    13818.4 secs

     total energy              =   -3597.94672518 Ry
     estimated scf accuracy    <       0.00000012 Ry

     iteration # 13     ecut=   124.00 Ry     beta= 0.70
     Davidson diagonalization with overlap
     ethr =  5.34E-11,  avg # of iterations =  2.0

     negative rho (up, down):  7.383E-03 0.000E+00

     total cpu time spent up to now is    13873.8 secs

     total energy              =   -3597.94672517 Ry
     estimated scf accuracy    <       0.00000053 Ry

     iteration # 14     ecut=   124.00 Ry     beta= 0.70
     Davidson diagonalization with overlap
     ethr =  5.34E-11,  avg # of iterations =  1.2

     negative rho (up, down):  7.383E-03 0.000E+00

     total cpu time spent up to now is    13923.4 secs

     total energy              =   -3597.94672519 Ry
     estimated scf accuracy    <       0.00000003 Ry

     iteration # 15     ecut=   124.00 Ry     beta= 0.70
     Davidson diagonalization with overlap
     ethr =  1.33E-11,  avg # of iterations =  2.0

     negative rho (up, down):  7.383E-03 0.000E+00

     total cpu time spent up to now is    13978.3 secs

     total energy              =   -3597.94672519 Ry
     estimated scf accuracy    <       0.00000001 Ry

     iteration # 16     ecut=   124.00 Ry     beta= 0.70
     Davidson diagonalization with overlap
     ethr =  4.68E-12,  avg # of iterations =  2.8

     negative rho (up, down):  7.383E-03 0.000E+00

     total cpu time spent up to now is    14035.4 secs

     total energy              =   -3597.94672519 Ry
     estimated scf accuracy    <          1.9E-09 Ry

     iteration # 17     ecut=   124.00 Ry     beta= 0.70
     Davidson diagonalization with overlap
     ethr =  8.25E-13,  avg # of iterations =  4.8

     negative rho (up, down):  7.383E-03 0.000E+00

     total cpu time spent up to now is    14102.8 secs

     End of self-consistent calculation

     Number of k-points >= 100: set verbosity='high' to print the bands.

     the Fermi energy is    16.1191 ev

!    total energy              =   -3597.94672519 Ry
     estimated scf accuracy    <          1.7E-10 Ry
     smearing contrib. (-TS)   =      -0.00029476 Ry
     internal energy E=F+TS    =   -3597.94643043 Ry

     The total energy is F=E-TS. E is the sum of the following terms:
     one-electron contribution =   -1317.95241326 Ry
     hartree contribution      =     779.01410964 Ry
     xc contribution           =    -429.00084908 Ry
     ewald contribution        =   -2020.79125099 Ry
     one-center paw contrib.   =    -609.21602675 Ry

     convergence has been achieved in  17 iterations

     negative rho (up, down):  7.383E-03 0.000E+00

     Forces acting on atoms (cartesian axes, Ry/au):

     atom    1 type  2   force =     0.00000000    0.00000000    0.00000000
     atom    2 type  2   force =     0.00000000    0.00000000    0.00000000
     atom    3 type  2   force =     0.00000000    0.00000000    0.00000000
     atom    4 type  2   force =     0.00000000    0.00000000   -0.00000000
     atom    5 type  2   force =    -0.00000000   -0.00000000    0.00000000
     atom    6 type  2   force =     0.00000000    0.00000000    0.00000000
     atom    7 type  2   force =     0.00000000   -0.00000000    0.00000000
     atom    8 type  2   force =     0.00000000    0.00000000    0.00000000
     atom    9 type  1   force =    -0.00229353    0.00000000   -0.00170289
     atom   10 type  1   force =     0.00140577   -0.00000000   -0.00140577
     atom   11 type  1   force =     0.00083791    0.00000000   -0.00083791
     atom   12 type  1   force =    -0.00083791    0.00000000    0.00083791
     atom   13 type  1   force =    -0.00140577    0.00000000    0.00140577
     atom   14 type  1   force =     0.00229353    0.00000000    0.00170289
     atom   15 type  1   force =     0.00170289    0.00000000    0.00229353
     atom   16 type  1   force =    -0.00170289   -0.00000000   -0.00229353
     atom   17 type  3   force =    -0.00427582    0.00000000    0.00355861
     atom   18 type  3   force =    -0.00355861    0.00000000    0.00427582
     atom   19 type  3   force =    -0.00079013    0.00081906    0.00079013
     atom   20 type  3   force =    -0.00079013   -0.00081906    0.00079013
     atom   21 type  3   force =     0.00355861    0.00000000   -0.00427582
     atom   22 type  3   force =     0.00427582    0.00000000   -0.00355861
     atom   23 type  3   force =     0.00079013   -0.00081906   -0.00079013
     atom   24 type  3   force =     0.00079013    0.00081906   -0.00079013

     Total force =     0.013222     Total SCF correction =     0.000013


     Computing stress (Cartesian axis) and pressure


     negative rho (up, down):  7.383E-03 0.000E+00
          total   stress  (Ry/bohr**3)                   (kbar)     P=       -5.48
  -0.00000728   0.00000000   0.00000182           -1.07        0.00        0.27
   0.00000000  -0.00009728   0.00000000            0.00      -14.31        0.00
   0.00000182   0.00000000  -0.00000728            0.27        0.00       -1.07

     Energy error            =      7.9E-04 Ry
     Gradient error          =      4.3E-03 Ry/Bohr
     Cell gradient error     =      1.4E+01 kbar

     number of scf cycles    =   9
     number of bfgs steps    =   8

     enthalpy           old  =   -3597.9459323461 Ry
     enthalpy           new  =   -3597.9467251891 Ry

     CASE: enthalpy          _new < enthalpy          _old

     new trust radius        =       0.0314687206 bohr
     new conv_thr            =       0.0000000004 Ry

     new unit-cell volume =   1549.08544 a.u.^3 (   229.55078 Ang^3 )
     density =      6.06023 g/cm^3

CELL_PARAMETERS (alat=  5.58242261)
   2.031442486   0.000000000  -0.017622022
   0.000000000   2.157897730   0.000000000
  -0.017622022   0.000000000   2.031442486

ATOMIC_POSITIONS (crystal)
Ti               0.0000000000        0.0000000000        0.0000000000
Ti               0.5000000000        0.5000000000       -0.0000000000
Ti               0.5000000000       -0.0000000000       -0.0000000000
Ti              -0.0000000000        0.5000000000        0.5000000000
Ti              -0.0000000000       -0.0000000000        0.5000000000
Ti               0.5000000000        0.5000000000        0.5000000000
Ti               0.5000000000       -0.0000000000        0.5000000000
Ti               0.0000000000        0.5000000000        0.0000000000
Fe               0.2550705910        0.2500000000        0.2354795486
Fe               0.7840604041        0.7500000000        0.2159395959
Fe               0.7463808061        0.2500000000        0.2536191939
Fe               0.2536191939        0.7500000000        0.7463808061
Fe               0.2159395959        0.2500000000        0.7840604041
Fe               0.7449294090        0.7500000000        0.7645204514
Fe               0.7645204514        0.2500000000        0.7449294090
Fe               0.2354795486        0.7500000000        0.2550705910
H                0.4939729757        0.2500000000        0.7579777429
H                0.2420222571        0.2500000000        0.5060270243
H                0.2484274545        0.4999972810        0.7515725455
H                0.2484274545        0.0000027190        0.7515725455
H                0.7579777429        0.7500000000        0.4939729757
H                0.5060270243        0.7500000000        0.2420222571
H                0.7515725455        0.5000027190        0.2484274545
H                0.7515725455       -0.0000027190        0.2484274545



     Writing config-only to output data dir ./TiFeH_supercell.save/ :
     XML data file     NEW-OLD atomic charge density approx. for the potential
     New effective cutoffs (rho, wfc): 1711.31  122.25

     Check: negative core charge=   -0.000001

     negative rho (up, down):  7.377E-03 0.000E+00

     total cpu time spent up to now is    14147.3 secs

     per-process dynamical memory:   708.5 Mb

     Self-consistent Calculation

     iteration #  1     ecut=   124.00 Ry     beta= 0.70
     Davidson diagonalization with overlap
     ethr =  1.00E-06,  avg # of iterations =  8.9

     negative rho (up, down):  7.378E-03 0.000E+00

     total cpu time spent up to now is    14324.1 secs

     total energy              =   -3597.94597736 Ry
     estimated scf accuracy    <       0.00236024 Ry

     iteration #  2     ecut=   124.00 Ry     beta= 0.70
     Davidson diagonalization with overlap
     c_bands:  1 eigenvalues not converged
     c_bands:  1 eigenvalues not converged
     c_bands:  1 eigenvalues not converged
     c_bands:  1 eigenvalues not converged
     ethr =  1.02E-06,  avg # of iterations =  7.3

     negative rho (up, down):  7.387E-03 0.000E+00

     total cpu time spent up to now is    14433.3 secs

     total energy              =   -3597.92713671 Ry
     estimated scf accuracy    <       0.66756338 Ry

     iteration #  3     ecut=   124.00 Ry     beta= 0.70
     Davidson diagonalization with overlap
     ethr =  1.02E-06,  avg # of iterations =  6.5

     negative rho (up, down):  7.387E-03 0.000E+00

     total cpu time spent up to now is    14531.8 secs

     total energy              =   -3597.94626360 Ry
     estimated scf accuracy    <       0.01026369 Ry

     iteration #  4     ecut=   124.00 Ry     beta= 0.70
     Davidson diagonalization with overlap
     ethr =  1.02E-06,  avg # of iterations =  7.3

     negative rho (up, down):  7.375E-03 0.000E+00

     total cpu time spent up to now is    14617.4 secs

     total energy              =   -3597.94703182 Ry
     estimated scf accuracy    <       0.00340143 Ry

     iteration #  5     ecut=   124.00 Ry     beta= 0.70
     Davidson diagonalization with overlap
     ethr =  1.02E-06,  avg # of iterations =  4.0

     negative rho (up, down):  7.381E-03 0.000E+00

     total cpu time spent up to now is    14681.1 secs

     total energy              =   -3597.94656306 Ry
     estimated scf accuracy    <       0.01798911 Ry

     iteration #  6     ecut=   124.00 Ry     beta= 0.70
     Davidson diagonalization with overlap
     ethr =  1.02E-06,  avg # of iterations =  3.8

     negative rho (up, down):  7.387E-03 0.000E+00

     total cpu time spent up to now is    14742.5 secs

     total energy              =   -3597.94718440 Ry
     estimated scf accuracy    <       0.00178949 Ry

     iteration #  7     ecut=   124.00 Ry     beta= 0.70
     Davidson diagonalization with overlap
     ethr =  7.71E-07,  avg # of iterations =  1.7

     negative rho (up, down):  7.388E-03 0.000E+00

     total cpu time spent up to now is    14794.9 secs

     total energy              =   -3597.94727915 Ry
     estimated scf accuracy    <       0.00023365 Ry

     iteration #  8     ecut=   124.00 Ry     beta= 0.70
     Davidson diagonalization with overlap
     ethr =  1.01E-07,  avg # of iterations =  4.7

     negative rho (up, down):  7.389E-03 0.000E+00

     total cpu time spent up to now is    14863.6 secs

     total energy              =   -3597.94730343 Ry
     estimated scf accuracy    <       0.00023447 Ry

     iteration #  9     ecut=   124.00 Ry     beta= 0.70
     Davidson diagonalization with overlap
     ethr =  1.01E-07,  avg # of iterations =  2.9

     negative rho (up, down):  7.387E-03 0.000E+00

     total cpu time spent up to now is    14919.9 secs

     total energy              =   -3597.94732033 Ry
     estimated scf accuracy    <       0.00002260 Ry

     iteration # 10     ecut=   124.00 Ry     beta= 0.70
     Davidson diagonalization with overlap
     ethr =  9.74E-09,  avg # of iterations =  4.7

     negative rho (up, down):  7.387E-03 0.000E+00

     total cpu time spent up to now is    14987.7 secs

     total energy              =   -3597.94732326 Ry
     estimated scf accuracy    <       0.00000538 Ry

     iteration # 11     ecut=   124.00 Ry     beta= 0.70
     Davidson diagonalization with overlap
     ethr =  2.32E-09,  avg # of iterations =  2.2

     negative rho (up, down):  7.387E-03 0.000E+00

     total cpu time spent up to now is    15043.5 secs

     total energy              =   -3597.94732368 Ry
     estimated scf accuracy    <       0.00000021 Ry

     iteration # 12     ecut=   124.00 Ry     beta= 0.70
     Davidson diagonalization with overlap
     ethr =  9.13E-11,  avg # of iterations =  5.3

     negative rho (up, down):  7.387E-03 0.000E+00

     total cpu time spent up to now is    15146.8 secs

     total energy              =   -3597.94732383 Ry
     estimated scf accuracy    <       0.00000041 Ry

     iteration # 13     ecut=   124.00 Ry     beta= 0.70
     Davidson diagonalization with overlap
     ethr =  9.13E-11,  avg # of iterations =  1.6

     negative rho (up, down):  7.387E-03 0.000E+00

     total cpu time spent up to now is    15198.6 secs

     total energy              =   -3597.94732384 Ry
     estimated scf accuracy    <       0.00000017 Ry

     iteration # 14     ecut=   124.00 Ry     beta= 0.70
     Davidson diagonalization with overlap
     ethr =  7.52E-11,  avg # of iterations =  1.1

     negative rho (up, down):  7.387E-03 0.000E+00

     total cpu time spent up to now is    15247.2 secs

     total energy              =   -3597.94732384 Ry
     estimated scf accuracy    <       0.00000004 Ry

     iteration # 15     ecut=   124.00 Ry     beta= 0.70
     Davidson diagonalization with overlap
     ethr =  1.73E-11,  avg # of iterations =  2.2

     negative rho (up, down):  7.387E-03 0.000E+00

     total cpu time spent up to now is    15303.5 secs

     total energy              =   -3597.94732385 Ry
     estimated scf accuracy    <       0.00000002 Ry

     iteration # 16     ecut=   124.00 Ry     beta= 0.70
     Davidson diagonalization with overlap
     ethr =  1.04E-11,  avg # of iterations =  2.7

     negative rho (up, down):  7.387E-03 0.000E+00

     total cpu time spent up to now is    15360.1 secs

     total energy              =   -3597.94732385 Ry
     estimated scf accuracy    <       0.00000001 Ry

     iteration # 17     ecut=   124.00 Ry     beta= 0.70
     Davidson diagonalization with overlap
     ethr =  4.78E-12,  avg # of iterations =  1.8

     negative rho (up, down):  7.387E-03 0.000E+00

     total cpu time spent up to now is    15413.2 secs

     total energy              =   -3597.94732385 Ry
     estimated scf accuracy    <          5.8E-09 Ry

     iteration # 18     ecut=   124.00 Ry     beta= 0.70
     Davidson diagonalization with overlap
     ethr =  2.49E-12,  avg # of iterations =  2.7

     negative rho (up, down):  7.387E-03 0.000E+00

     total cpu time spent up to now is    15468.8 secs

     total energy              =   -3597.94732385 Ry
     estimated scf accuracy    <          1.4E-09 Ry

     iteration # 19     ecut=   124.00 Ry     beta= 0.70
     Davidson diagonalization with overlap
     ethr =  6.00E-13,  avg # of iterations =  2.8

     negative rho (up, down):  7.387E-03 0.000E+00

     total cpu time spent up to now is    15525.5 secs

     End of self-consistent calculation

     Number of k-points >= 100: set verbosity='high' to print the bands.

     the Fermi energy is    16.1301 ev

!    total energy              =   -3597.94732385 Ry
     estimated scf accuracy    <          2.2E-10 Ry
     smearing contrib. (-TS)   =      -0.00024295 Ry
     internal energy E=F+TS    =   -3597.94708090 Ry

     The total energy is F=E-TS. E is the sum of the following terms:
     one-electron contribution =   -1317.30296696 Ry
     hartree contribution      =     778.77433290 Ry
     xc contribution           =    -429.01010885 Ry
     ewald contribution        =   -2021.19207955 Ry
     one-center paw contrib.   =    -609.21625844 Ry

     convergence has been achieved in  19 iterations

     negative rho (up, down):  7.387E-03 0.000E+00

     Forces acting on atoms (cartesian axes, Ry/au):

     atom    1 type  2   force =     0.00000000    0.00000000    0.00000000
     atom    2 type  2   force =     0.00000000    0.00000000    0.00000000
     atom    3 type  2   force =     0.00000000    0.00000000    0.00000000
     atom    4 type  2   force =     0.00000000    0.00000000   -0.00000000
     atom    5 type  2   force =     0.00000000    0.00000000    0.00000000
     atom    6 type  2   force =     0.00000000    0.00000000    0.00000000
     atom    7 type  2   force =    -0.00000000   -0.00000000   -0.00000000
     atom    8 type  2   force =     0.00000000    0.00000000    0.00000000
     atom    9 type  1   force =    -0.00377628    0.00000000   -0.00280034
     atom   10 type  1   force =     0.00171065   -0.00000000   -0.00171065
     atom   11 type  1   force =     0.00154273    0.00000000   -0.00154273
     atom   12 type  1   force =    -0.00154273    0.00000000    0.00154273
     atom   13 type  1   force =    -0.00171065    0.00000000    0.00171065
     atom   14 type  1   force =     0.00377628   -0.00000000    0.00280034
     atom   15 type  1   force =     0.00280034    0.00000000    0.00377628
     atom   16 type  1   force =    -0.00280034    0.00000000   -0.00377628
     atom   17 type  3   force =    -0.00262503    0.00000000    0.00359173
     atom   18 type  3   force =    -0.00359173    0.00000000    0.00262503
     atom   19 type  3   force =    -0.00084423    0.00059618    0.00084423
     atom   20 type  3   force =    -0.00084423   -0.00059618    0.00084423
     atom   21 type  3   force =     0.00359173    0.00000000   -0.00262503
     atom   22 type  3   force =     0.00262503    0.00000000   -0.00359173
     atom   23 type  3   force =     0.00084423   -0.00059618   -0.00084423
     atom   24 type  3   force =     0.00084423    0.00059618   -0.00084423

     Total force =     0.013997     Total SCF correction =     0.000053


     Computing stress (Cartesian axis) and pressure


     negative rho (up, down):  7.387E-03 0.000E+00
          total   stress  (Ry/bohr**3)                   (kbar)     P=       -4.13
   0.00000228   0.00000000   0.00000831            0.34        0.00        1.22
   0.00000000  -0.00008878   0.00000000            0.00      -13.06        0.00
   0.00000831   0.00000000   0.00000228            1.22        0.00        0.34

     Energy error            =      6.0E-04 Ry
     Gradient error          =      3.8E-03 Ry/Bohr
     Cell gradient error     =      1.3E+01 kbar

     number of scf cycles    =  10
     number of bfgs steps    =   9

     enthalpy           old  =   -3597.9467251891 Ry
     enthalpy           new  =   -3597.9473238474 Ry

     CASE: enthalpy          _new < enthalpy          _old

     new trust radius        =       0.0346867115 bohr
     new conv_thr            =       0.0000000004 Ry

     new unit-cell volume =   1547.31816 a.u.^3 (   229.28890 Ang^3 )
     density =      6.06715 g/cm^3

CELL_PARAMETERS (alat=  5.58242261)
   2.033499518   0.000000000  -0.020204604
   0.000000000   2.151127828   0.000000000
  -0.020204604   0.000000000   2.033499518

ATOMIC_POSITIONS (crystal)
Ti               0.0000000000        0.0000000000        0.0000000000
Ti               0.5000000000        0.5000000000       -0.0000000000
Ti               0.5000000000       -0.0000000000       -0.0000000000
Ti              -0.0000000000        0.5000000000        0.5000000000
Ti              -0.0000000000       -0.0000000000        0.5000000000
Ti               0.5000000000        0.5000000000        0.5000000000
Ti               0.5000000000       -0.0000000000        0.5000000000
Ti              -0.0000000000        0.5000000000        0.0000000000
Fe               0.2554852714        0.2500000000        0.2370569900
Fe               0.7858850915        0.7500000000        0.2141149085
Fe               0.7457695076        0.2500000000        0.2542304924
Fe               0.2542304924        0.7500000000        0.7457695076
Fe               0.2141149085        0.2500000000        0.7858850915
Fe               0.7445147286        0.7500000000        0.7629430100
Fe               0.7629430100        0.2500000000        0.7445147286
Fe               0.2370569900        0.7500000000        0.2554852714
H                0.4918313735        0.2500000000        0.7601245820
H                0.2398754180        0.2500000000        0.5081686265
H                0.2481169837        0.5000519002        0.7518830163
H                0.2481169837       -0.0000519002        0.7518830163
H                0.7601245820        0.7500000000        0.4918313735
H                0.5081686265        0.7500000000        0.2398754180
H                0.7518830163        0.4999480998        0.2481169837
H                0.7518830163        0.0000519002        0.2481169837



     Writing config-only to output data dir ./TiFeH_supercell.save/ :
     XML data file     NEW-OLD atomic charge density approx. for the potential
     New effective cutoffs (rho, wfc): 1712.09  122.31

     Check: negative core charge=   -0.000001

     negative rho (up, down):  7.377E-03 0.000E+00

     total cpu time spent up to now is    15569.7 secs

     per-process dynamical memory:   708.5 Mb

     Self-consistent Calculation

     iteration #  1     ecut=   124.00 Ry     beta= 0.70
     Davidson diagonalization with overlap
     ethr =  1.00E-06,  avg # of iterations =  8.8

     negative rho (up, down):  7.384E-03 0.000E+00

     total cpu time spent up to now is    15743.2 secs

     total energy              =   -3597.94605829 Ry
     estimated scf accuracy    <       0.00291910 Ry

     iteration #  2     ecut=   124.00 Ry     beta= 0.70
     Davidson diagonalization with overlap
     c_bands:  1 eigenvalues not converged
     ethr =  1.26E-06,  avg # of iterations =  7.6

     negative rho (up, down):  7.390E-03 0.000E+00

     total cpu time spent up to now is    15855.2 secs

     total energy              =   -3597.91733559 Ry
     estimated scf accuracy    <       1.07296717 Ry

     iteration #  3     ecut=   124.00 Ry     beta= 0.70
     Davidson diagonalization with overlap
     ethr =  1.26E-06,  avg # of iterations =  6.8

     negative rho (up, down):  7.387E-03 0.000E+00

     total cpu time spent up to now is    15957.9 secs

     total energy              =   -3597.94775033 Ry
     estimated scf accuracy    <       0.00057526 Ry

     iteration #  4     ecut=   124.00 Ry     beta= 0.70
     Davidson diagonalization with overlap
     ethr =  2.48E-07,  avg # of iterations =  5.3

     negative rho (up, down):  7.390E-03 0.000E+00

     total cpu time spent up to now is    16044.3 secs

     total energy              =   -3597.94670163 Ry
     estimated scf accuracy    <       0.03530370 Ry

     iteration #  5     ecut=   124.00 Ry     beta= 0.70
     Davidson diagonalization with overlap
     ethr =  2.48E-07,  avg # of iterations =  5.1

     negative rho (up, down):  7.390E-03 0.000E+00

     total cpu time spent up to now is    16125.2 secs

     total energy              =   -3597.94778065 Ry
     estimated scf accuracy    <       0.00355713 Ry

     iteration #  6     ecut=   124.00 Ry     beta= 0.70
     Davidson diagonalization with overlap
     ethr =  2.48E-07,  avg # of iterations =  4.7

     negative rho (up, down):  7.396E-03 0.000E+00

     total cpu time spent up to now is    16192.0 secs

     total energy              =   -3597.94797788 Ry
     estimated scf accuracy    <       0.00010028 Ry

     iteration #  7     ecut=   124.00 Ry     beta= 0.70
     Davidson diagonalization with overlap
     ethr =  4.32E-08,  avg # of iterations =  5.0

     negative rho (up, down):  7.393E-03 0.000E+00

     total cpu time spent up to now is    16268.7 secs

     total energy              =   -3597.94795302 Ry
     estimated scf accuracy    <       0.00099020 Ry

     iteration #  8     ecut=   124.00 Ry     beta= 0.70
     Davidson diagonalization with overlap
     ethr =  4.32E-08,  avg # of iterations =  4.0

     negative rho (up, down):  7.393E-03 0.000E+00

     total cpu time spent up to now is    16337.2 secs

     total energy              =   -3597.94799570 Ry
     estimated scf accuracy    <       0.00005200 Ry

     iteration #  9     ecut=   124.00 Ry     beta= 0.70
     Davidson diagonalization with overlap
     ethr =  2.24E-08,  avg # of iterations =  3.4

     negative rho (up, down):  7.392E-03 0.000E+00

     total cpu time spent up to now is    16395.9 secs

     total energy              =   -3597.94800015 Ry
     estimated scf accuracy    <       0.00000711 Ry

     iteration # 10     ecut=   124.00 Ry     beta= 0.70
     Davidson diagonalization with overlap
     ethr =  3.07E-09,  avg # of iterations =  4.7

     negative rho (up, down):  7.392E-03 0.000E+00

     total cpu time spent up to now is    16461.9 secs

     total energy              =   -3597.94800100 Ry
     estimated scf accuracy    <       0.00000089 Ry

     iteration # 11     ecut=   124.00 Ry     beta= 0.70
     Davidson diagonalization with overlap
     ethr =  3.85E-10,  avg # of iterations =  4.6

     negative rho (up, down):  7.392E-03 0.000E+00

     total cpu time spent up to now is    16532.4 secs

     total energy              =   -3597.94800113 Ry
     estimated scf accuracy    <       0.00000026 Ry

     iteration # 12     ecut=   124.00 Ry     beta= 0.70
     Davidson diagonalization with overlap
     ethr =  1.14E-10,  avg # of iterations =  4.3

     negative rho (up, down):  7.392E-03 0.000E+00

     total cpu time spent up to now is    16598.5 secs

     total energy              =   -3597.94800117 Ry
     estimated scf accuracy    <       0.00000017 Ry

     iteration # 13     ecut=   124.00 Ry     beta= 0.70
     Davidson diagonalization with overlap
     ethr =  7.21E-11,  avg # of iterations =  1.7

     negative rho (up, down):  7.392E-03 0.000E+00

     total cpu time spent up to now is    16650.8 secs

     total energy              =   -3597.94800118 Ry
     estimated scf accuracy    <       0.00000002 Ry

     iteration # 14     ecut=   124.00 Ry     beta= 0.70
     Davidson diagonalization with overlap
     ethr =  6.80E-12,  avg # of iterations =  4.7

     negative rho (up, down):  7.392E-03 0.000E+00

     total cpu time spent up to now is    16740.2 secs

     total energy              =   -3597.94800119 Ry
     estimated scf accuracy    <       0.00000004 Ry

     iteration # 15     ecut=   124.00 Ry     beta= 0.70
     Davidson diagonalization with overlap
     ethr =  6.80E-12,  avg # of iterations =  1.8

     negative rho (up, down):  7.392E-03 0.000E+00

     total cpu time spent up to now is    16792.5 secs

     total energy              =   -3597.94800119 Ry
     estimated scf accuracy    <          1.8E-09 Ry

     iteration # 16     ecut=   124.00 Ry     beta= 0.70
     Davidson diagonalization with overlap
     ethr =  7.80E-13,  avg # of iterations =  3.7

     negative rho (up, down):  7.392E-03 0.000E+00

     total cpu time spent up to now is    16854.3 secs

     End of self-consistent calculation

     Number of k-points >= 100: set verbosity='high' to print the bands.

     the Fermi energy is    16.1540 ev

!    total energy              =   -3597.94800119 Ry
     estimated scf accuracy    <          3.4E-10 Ry
     smearing contrib. (-TS)   =      -0.00013319 Ry
     internal energy E=F+TS    =   -3597.94786800 Ry

     The total energy is F=E-TS. E is the sum of the following terms:
     one-electron contribution =   -1316.33967006 Ry
     hartree contribution      =     778.47526369 Ry
     xc contribution           =    -429.02964745 Ry
     ewald contribution        =   -2021.83720558 Ry
     one-center paw contrib.   =    -609.21660861 Ry

     convergence has been achieved in  16 iterations

     negative rho (up, down):  7.392E-03 0.000E+00

     Forces acting on atoms (cartesian axes, Ry/au):

     atom    1 type  2   force =     0.00000000    0.00000000    0.00000000
     atom    2 type  2   force =     0.00000000    0.00000000    0.00000000
     atom    3 type  2   force =     0.00000000    0.00000000    0.00000000
     atom    4 type  2   force =     0.00000000    0.00000000    0.00000000
     atom    5 type  2   force =     0.00000000   -0.00000000   -0.00000000
     atom    6 type  2   force =     0.00000000    0.00000000    0.00000000
     atom    7 type  2   force =     0.00000000   -0.00000000    0.00000000
     atom    8 type  2   force =     0.00000000    0.00000000    0.00000000
     atom    9 type  1   force =    -0.00456546    0.00000000   -0.00261198
     atom   10 type  1   force =     0.00190831    0.00000000   -0.00190831
     atom   11 type  1   force =     0.00171753    0.00000000   -0.00171753
     atom   12 type  1   force =    -0.00171753    0.00000000    0.00171753
     atom   13 type  1   force =    -0.00190831    0.00000000    0.00190831
     atom   14 type  1   force =     0.00456546    0.00000000    0.00261198
     atom   15 type  1   force =     0.00261198    0.00000000    0.00456546
     atom   16 type  1   force =    -0.00261198   -0.00000000   -0.00456546
     atom   17 type  3   force =    -0.00026021    0.00000000    0.00342751
     atom   18 type  3   force =    -0.00342751   -0.00000000    0.00026021
     atom   19 type  3   force =    -0.00077767    0.00002197    0.00077767
     atom   20 type  3   force =    -0.00077767   -0.00002197    0.00077767
     atom   21 type  3   force =     0.00342751   -0.00000000   -0.00026021
     atom   22 type  3   force =     0.00026021    0.00000000   -0.00342751
     atom   23 type  3   force =     0.00077767   -0.00002197   -0.00077767
     atom   24 type  3   force =     0.00077767    0.00002197   -0.00077767

     Total force =     0.013753     Total SCF correction =     0.000026


     Computing stress (Cartesian axis) and pressure


     negative rho (up, down):  7.392E-03 0.000E+00
          total   stress  (Ry/bohr**3)                   (kbar)     P=       -1.59
   0.00001118   0.00000000   0.00001350            1.64        0.00        1.99
   0.00000000  -0.00005472   0.00000000            0.00       -8.05        0.00
   0.00001350   0.00000000   0.00001118            1.99        0.00        1.64

     Energy error            =      6.8E-04 Ry
     Gradient error          =      4.6E-03 Ry/Bohr
     Cell gradient error     =      8.1E+00 kbar

     number of scf cycles    =  11
     number of bfgs steps    =  10

     enthalpy           old  =   -3597.9473238474 Ry
     enthalpy           new  =   -3597.9480011884 Ry

     CASE: enthalpy          _new < enthalpy          _old

     new trust radius        =       0.0420242072 bohr
     new conv_thr            =       0.0000000005 Ry

     new unit-cell volume =   1544.71545 a.u.^3 (   228.90321 Ang^3 )
     density =      6.07738 g/cm^3

CELL_PARAMETERS (alat=  5.58242261)
   2.037251476   0.000000000  -0.021650669
   0.000000000   2.139637143   0.000000000
  -0.021650669   0.000000000   2.037251476

ATOMIC_POSITIONS (crystal)
Ti               0.0000000000        0.0000000000        0.0000000000
Ti               0.5000000000        0.5000000000       -0.0000000000
Ti               0.5000000000        0.0000000000       -0.0000000000
Ti              -0.0000000000        0.5000000000        0.5000000000
Ti              -0.0000000000       -0.0000000000        0.5000000000
Ti               0.5000000000        0.5000000000        0.5000000000
Ti               0.5000000000       -0.0000000000        0.5000000000
Ti              -0.0000000000        0.5000000000        0.0000000000
Fe               0.2552122184        0.2500000000        0.2383783266
Fe               0.7880752324        0.7500000000        0.2119247676
Fe               0.7453870388        0.2500000000        0.2546129612
Fe               0.2546129612        0.7500000000        0.7453870388
Fe               0.2119247676        0.2500000000        0.7880752324
Fe               0.7447877816        0.7500000000        0.7616216734
Fe               0.7616216734        0.2500000000        0.7447877816
Fe               0.2383783266        0.7500000000        0.2552122184
H                0.4895262736        0.2500000000        0.7629395930
H                0.2370604070        0.2500000000        0.5104737264
H                0.2476672782        0.5001034145        0.7523327218
H                0.2476672782       -0.0001034145        0.7523327218
H                0.7629395930        0.7500000000        0.4895262736
H                0.5104737264        0.7500000000        0.2370604070
H                0.7523327218        0.4998965855        0.2476672782
H                0.7523327218        0.0001034145        0.2476672782



     Writing config-only to output data dir ./TiFeH_supercell.save/ :
     XML data file     NEW-OLD atomic charge density approx. for the potential
     New effective cutoffs (rho, wfc): 1708.12  122.03

     negative rho (up, down):  7.380E-03 0.000E+00

     total cpu time spent up to now is    16898.9 secs

     per-process dynamical memory:   708.5 Mb

     Self-consistent Calculation

     iteration #  1     ecut=   124.00 Ry     beta= 0.70
     Davidson diagonalization with overlap
     ethr =  1.00E-06,  avg # of iterations =  9.0

     negative rho (up, down):  7.389E-03 0.000E+00

     total cpu time spent up to now is    17080.4 secs

     total energy              =   -3597.94493392 Ry
     estimated scf accuracy    <       0.00501767 Ry

     iteration #  2     ecut=   124.00 Ry     beta= 0.70
     Davidson diagonalization with overlap
     c_bands:  2 eigenvalues not converged
     c_bands:  1 eigenvalues not converged
     c_bands:  1 eigenvalues not converged
     c_bands:  1 eigenvalues not converged
     c_bands:  1 eigenvalues not converged
     c_bands:  1 eigenvalues not converged
     c_bands:  1 eigenvalues not converged
     ethr =  2.16E-06,  avg # of iterations = 11.0

     negative rho (up, down):  7.392E-03 0.000E+00

     total cpu time spent up to now is    17209.6 secs

     total energy              =   -3597.89560471 Ry
     estimated scf accuracy    <       1.76012415 Ry

     iteration #  3     ecut=   124.00 Ry     beta= 0.70
     Davidson diagonalization with overlap
     ethr =  2.16E-06,  avg # of iterations =  8.2

     negative rho (up, down):  7.391E-03 0.000E+00

     total cpu time spent up to now is    17324.1 secs

     total energy              =   -3597.94718688 Ry
     estimated scf accuracy    <       0.01545659 Ry

     iteration #  4     ecut=   124.00 Ry     beta= 0.70
     Davidson diagonalization with overlap
     c_bands:  1 eigenvalues not converged
     ethr =  2.16E-06,  avg # of iterations =  8.2

     negative rho (up, down):  7.402E-03 0.000E+00

     total cpu time spent up to now is    17407.2 secs

     total energy              =   -3597.94800510 Ry
     estimated scf accuracy    <       0.00489421 Ry

     iteration #  5     ecut=   124.00 Ry     beta= 0.70
     Davidson diagonalization with overlap
     ethr =  2.11E-06,  avg # of iterations =  3.0

     negative rho (up, down):  7.404E-03 0.000E+00

     total cpu time spent up to now is    17465.6 secs

     total energy              =   -3597.94780102 Ry
     estimated scf accuracy    <       0.02051197 Ry

     iteration #  6     ecut=   124.00 Ry     beta= 0.70
     Davidson diagonalization with overlap
     ethr =  2.11E-06,  avg # of iterations =  2.1

     negative rho (up, down):  7.395E-03 0.000E+00

     total cpu time spent up to now is    17520.6 secs

     total energy              =   -3597.94837201 Ry
     estimated scf accuracy    <       0.00332752 Ry

     iteration #  7     ecut=   124.00 Ry     beta= 0.70
     Davidson diagonalization with overlap
     ethr =  1.43E-06,  avg # of iterations =  1.4

     negative rho (up, down):  7.398E-03 0.000E+00

     total cpu time spent up to now is    17571.4 secs

     total energy              =   -3597.94855178 Ry
     estimated scf accuracy    <       0.00050158 Ry

     iteration #  8     ecut=   124.00 Ry     beta= 0.70
     Davidson diagonalization with overlap
     ethr =  2.16E-07,  avg # of iterations =  2.8

     negative rho (up, down):  7.396E-03 0.000E+00

     total cpu time spent up to now is    17630.6 secs

     total energy              =   -3597.94860945 Ry
     estimated scf accuracy    <       0.00004694 Ry

     iteration #  9     ecut=   124.00 Ry     beta= 0.70
     Davidson diagonalization with overlap
     ethr =  2.02E-08,  avg # of iterations =  4.7

     negative rho (up, down):  7.398E-03 0.000E+00

     total cpu time spent up to now is    17698.0 secs

     total energy              =   -3597.94861688 Ry
     estimated scf accuracy    <       0.00000494 Ry

     iteration # 10     ecut=   124.00 Ry     beta= 0.70
     Davidson diagonalization with overlap
     ethr =  2.13E-09,  avg # of iterations =  4.9

     negative rho (up, down):  7.398E-03 0.000E+00

     total cpu time spent up to now is    17772.0 secs

     total energy              =   -3597.94861766 Ry
     estimated scf accuracy    <       0.00000195 Ry

     iteration # 11     ecut=   124.00 Ry     beta= 0.70
     Davidson diagonalization with overlap
     ethr =  8.39E-10,  avg # of iterations =  4.3

     negative rho (up, down):  7.398E-03 0.000E+00

     total cpu time spent up to now is    17835.7 secs

     total energy              =   -3597.94861790 Ry
     estimated scf accuracy    <       0.00000008 Ry

     iteration # 12     ecut=   124.00 Ry     beta= 0.70
     Davidson diagonalization with overlap
     ethr =  3.40E-11,  avg # of iterations =  5.2

     negative rho (up, down):  7.398E-03 0.000E+00

     total cpu time spent up to now is    17937.4 secs

     total energy              =   -3597.94861794 Ry
     estimated scf accuracy    <       0.00000049 Ry

     iteration # 13     ecut=   124.00 Ry     beta= 0.70
     Davidson diagonalization with overlap
     ethr =  3.40E-11,  avg # of iterations =  2.9

     negative rho (up, down):  7.398E-03 0.000E+00

     total cpu time spent up to now is    17996.2 secs

     total energy              =   -3597.94861795 Ry
     estimated scf accuracy    <       0.00000013 Ry

     iteration # 14     ecut=   124.00 Ry     beta= 0.70
     Davidson diagonalization with overlap
     ethr =  3.40E-11,  avg # of iterations =  1.8

     negative rho (up, down):  7.398E-03 0.000E+00

     total cpu time spent up to now is    18048.7 secs

     total energy              =   -3597.94861795 Ry
     estimated scf accuracy    <       0.00000002 Ry

     iteration # 15     ecut=   124.00 Ry     beta= 0.70
     Davidson diagonalization with overlap
     ethr =  7.23E-12,  avg # of iterations =  4.9

     negative rho (up, down):  7.398E-03 0.000E+00

     total cpu time spent up to now is    18120.0 secs

     total energy              =   -3597.94861795 Ry
     estimated scf accuracy    <       0.00000012 Ry

     iteration # 16     ecut=   124.00 Ry     beta= 0.70
     Davidson diagonalization with overlap
     ethr =  7.23E-12,  avg # of iterations =  2.0

     negative rho (up, down):  7.398E-03 0.000E+00

     total cpu time spent up to now is    18174.8 secs

     total energy              =   -3597.94861796 Ry
     estimated scf accuracy    <          6.7E-09 Ry

     iteration # 17     ecut=   124.00 Ry     beta= 0.70
     Davidson diagonalization with overlap
     ethr =  2.88E-12,  avg # of iterations =  2.7

     negative rho (up, down):  7.398E-03 0.000E+00

     total cpu time spent up to now is    18231.5 secs

     total energy              =   -3597.94861796 Ry
     estimated scf accuracy    <          1.8E-09 Ry

     iteration # 18     ecut=   124.00 Ry     beta= 0.70
     Davidson diagonalization with overlap
     ethr =  7.91E-13,  avg # of iterations =  3.9

     negative rho (up, down):  7.398E-03 0.000E+00

     total cpu time spent up to now is    18291.8 secs

     End of self-consistent calculation

     Number of k-points >= 100: set verbosity='high' to print the bands.

     the Fermi energy is    16.1902 ev

!    total energy              =   -3597.94861796 Ry
     estimated scf accuracy    <          3.2E-10 Ry
     smearing contrib. (-TS)   =      -0.00002239 Ry
     internal energy E=F+TS    =   -3597.94859556 Ry

     The total energy is F=E-TS. E is the sum of the following terms:
     one-electron contribution =   -1315.31294553 Ry
     hartree contribution      =     778.23185243 Ry
     xc contribution           =    -429.05910413 Ry
     ewald contribution        =   -2022.59131074 Ry
     one-center paw contrib.   =    -609.21708759 Ry

     convergence has been achieved in  18 iterations

     negative rho (up, down):  7.398E-03 0.000E+00

     Forces acting on atoms (cartesian axes, Ry/au):

     atom    1 type  2   force =     0.00000000    0.00000000    0.00000000
     atom    2 type  2   force =     0.00000000    0.00000000    0.00000000
     atom    3 type  2   force =     0.00000000   -0.00000000    0.00000000
     atom    4 type  2   force =     0.00000000    0.00000000    0.00000000
     atom    5 type  2   force =     0.00000000   -0.00000000    0.00000000
     atom    6 type  2   force =     0.00000000    0.00000000    0.00000000
     atom    7 type  2   force =     0.00000000    0.00000000    0.00000000
     atom    8 type  2   force =     0.00000000    0.00000000    0.00000000
     atom    9 type  1   force =    -0.00419293    0.00000000   -0.00081965
     atom   10 type  1   force =     0.00117645   -0.00000000   -0.00117645
     atom   11 type  1   force =     0.00108237    0.00000000   -0.00108237
     atom   12 type  1   force =    -0.00108237    0.00000000    0.00108237
     atom   13 type  1   force =    -0.00117645    0.00000000    0.00117645
     atom   14 type  1   force =     0.00419293    0.00000000    0.00081965
     atom   15 type  1   force =     0.00081965    0.00000000    0.00419293
     atom   16 type  1   force =    -0.00081965   -0.00000000   -0.00419293
     atom   17 type  3   force =     0.00252623    0.00000000    0.00287370
     atom   18 type  3   force =    -0.00287370    0.00000000   -0.00252623
     atom   19 type  3   force =    -0.00050439   -0.00090457    0.00050439
     atom   20 type  3   force =    -0.00050439    0.00090457    0.00050439
     atom   21 type  3   force =     0.00287370    0.00000000    0.00252623
     atom   22 type  3   force =    -0.00252623    0.00000000   -0.00287370
     atom   23 type  3   force =     0.00050439    0.00090457   -0.00050439
     atom   24 type  3   force =     0.00050439   -0.00090457   -0.00050439

     Total force =     0.012128     Total SCF correction =     0.000072


     Computing stress (Cartesian axis) and pressure


     negative rho (up, down):  7.398E-03 0.000E+00
          total   stress  (Ry/bohr**3)                   (kbar)     P=        2.09
   0.00001391   0.00000000   0.00001505            2.05        0.00        2.21
   0.00000000   0.00001482   0.00000000            0.00        2.18        0.00
   0.00001505   0.00000000   0.00001391            2.21        0.00        2.05

     Energy error            =      6.2E-04 Ry
     Gradient error          =      4.2E-03 Ry/Bohr
     Cell gradient error     =      2.2E+00 kbar

     number of scf cycles    =  12
     number of bfgs steps    =  11

     enthalpy           old  =   -3597.9480011884 Ry
     enthalpy           new  =   -3597.9486179562 Ry

     CASE: enthalpy          _new < enthalpy          _old

     new trust radius        =       0.0090075093 bohr
     new conv_thr            =       0.0000000004 Ry

     new unit-cell volume =   1544.56174 a.u.^3 (   228.88044 Ang^3 )
     density =      6.07798 g/cm^3

CELL_PARAMETERS (alat=  5.58242261)
   2.038202532   0.000000000  -0.020257055
   0.000000000   2.137397844   0.000000000
  -0.020257055   0.000000000   2.038202532

ATOMIC_POSITIONS (crystal)
Ti               0.0000000000        0.0000000000        0.0000000000
Ti               0.5000000000        0.5000000000       -0.0000000000
Ti               0.5000000000        0.0000000000       -0.0000000000
Ti              -0.0000000000        0.5000000000        0.5000000000
Ti              -0.0000000000       -0.0000000000        0.5000000000
Ti               0.5000000000        0.5000000000        0.5000000000
Ti               0.5000000000       -0.0000000000        0.5000000000
Ti              -0.0000000000        0.5000000000        0.0000000000
Fe               0.2544971093        0.2500000000        0.2380224263
Fe               0.7882342293        0.7500000000        0.2117657707
Fe               0.7456345548        0.2500000000        0.2543654452
Fe               0.2543654452        0.7500000000        0.7456345548
Fe               0.2117657707        0.2500000000        0.7882342293
Fe               0.7455028907        0.7500000000        0.7619775737
Fe               0.7619775737        0.2500000000        0.7455028907
Fe               0.2380224263        0.7500000000        0.2544971093
H                0.4896803028        0.2500000000        0.7633958686
H                0.2366041314        0.2500000000        0.5103196972
H                0.2475679852        0.5000478835        0.7524320148
H                0.2475679852       -0.0000478835        0.7524320148
H                0.7633958686        0.7500000000        0.4896803028
H                0.5103196972        0.7500000000        0.2366041314
H                0.7524320148        0.4999521165        0.2475679852
H                0.7524320148        0.0000478835        0.2475679852



     Writing config-only to output data dir ./TiFeH_supercell.save/ :
     XML data file     NEW-OLD atomic charge density approx. for the potential
     New effective cutoffs (rho, wfc): 1704.21  121.75

     negative rho (up, down):  7.397E-03 0.000E+00

     total cpu time spent up to now is    18336.4 secs

     per-process dynamical memory:   708.5 Mb

     Self-consistent Calculation

     iteration #  1     ecut=   124.00 Ry     beta= 0.70
     Davidson diagonalization with overlap
     ethr =  1.00E-06,  avg # of iterations =  6.9

     negative rho (up, down):  7.399E-03 0.000E+00

     total cpu time spent up to now is    18456.9 secs

     total energy              =   -3597.94835561 Ry
     estimated scf accuracy    <       0.00064328 Ry

     iteration #  2     ecut=   124.00 Ry     beta= 0.70
     Davidson diagonalization with overlap
     c_bands:  1 eigenvalues not converged
     c_bands:  1 eigenvalues not converged
     c_bands:  1 eigenvalues not converged
     c_bands:  2 eigenvalues not converged
     c_bands:  1 eigenvalues not converged
     ethr =  2.77E-07,  avg # of iterations =  7.7

     negative rho (up, down):  7.394E-03 0.000E+00

     total cpu time spent up to now is    18567.9 secs

     total energy              =   -3597.94511554 Ry
     estimated scf accuracy    <       0.07353626 Ry

     iteration #  3     ecut=   124.00 Ry     beta= 0.70
     Davidson diagonalization with overlap
     ethr =  2.77E-07,  avg # of iterations =  7.2

     negative rho (up, down):  7.395E-03 0.000E+00

     total cpu time spent up to now is    18671.3 secs

     total energy              =   -3597.94822028 Ry
     estimated scf accuracy    <       0.01443060 Ry

     iteration #  4     ecut=   124.00 Ry     beta= 0.70
     Davidson diagonalization with overlap
     ethr =  2.77E-07,  avg # of iterations =  6.0

     negative rho (up, down):  7.401E-03 0.000E+00

     total cpu time spent up to now is    18751.3 secs

     total energy              =   -3597.94876110 Ry
     estimated scf accuracy    <       0.00059817 Ry

     iteration #  5     ecut=   124.00 Ry     beta= 0.70
     Davidson diagonalization with overlap
     ethr =  2.58E-07,  avg # of iterations =  3.7

     negative rho (up, down):  7.401E-03 0.000E+00

     total cpu time spent up to now is    18812.2 secs

     total energy              =   -3597.94873382 Ry
     estimated scf accuracy    <       0.00251536 Ry

     iteration #  6     ecut=   124.00 Ry     beta= 0.70
     Davidson diagonalization with overlap
     ethr =  2.58E-07,  avg # of iterations =  2.4

     negative rho (up, down):  7.398E-03 0.000E+00

     total cpu time spent up to now is    18868.7 secs

     total energy              =   -3597.94877615 Ry
     estimated scf accuracy    <       0.00120259 Ry

     iteration #  7     ecut=   124.00 Ry     beta= 0.70
     Davidson diagonalization with overlap
     ethr =  2.58E-07,  avg # of iterations =  1.4

     negative rho (up, down):  7.398E-03 0.000E+00

     total cpu time spent up to now is    18920.1 secs

     total energy              =   -3597.94882653 Ry
     estimated scf accuracy    <       0.00006878 Ry

     iteration #  8     ecut=   124.00 Ry     beta= 0.70
     Davidson diagonalization with overlap
     ethr =  2.96E-08,  avg # of iterations =  3.7

     negative rho (up, down):  7.397E-03 0.000E+00

     total cpu time spent up to now is    18986.1 secs

     total energy              =   -3597.94883802 Ry
     estimated scf accuracy    <       0.00001604 Ry

     iteration #  9     ecut=   124.00 Ry     beta= 0.70
     Davidson diagonalization with overlap
     ethr =  6.92E-09,  avg # of iterations =  3.0

     negative rho (up, down):  7.397E-03 0.000E+00

     total cpu time spent up to now is    19044.5 secs

     total energy              =   -3597.94883973 Ry
     estimated scf accuracy    <       0.00000115 Ry

     iteration # 10     ecut=   124.00 Ry     beta= 0.70
     Davidson diagonalization with overlap
     ethr =  4.95E-10,  avg # of iterations =  4.8

     negative rho (up, down):  7.398E-03 0.000E+00

     total cpu time spent up to now is    19120.3 secs

     total energy              =   -3597.94883989 Ry
     estimated scf accuracy    <       0.00000071 Ry

     iteration # 11     ecut=   124.00 Ry     beta= 0.70
     Davidson diagonalization with overlap
     ethr =  3.08E-10,  avg # of iterations =  2.1

     negative rho (up, down):  7.397E-03 0.000E+00

     total cpu time spent up to now is    19176.6 secs

     total energy              =   -3597.94883996 Ry
     estimated scf accuracy    <       0.00000003 Ry

     iteration # 12     ecut=   124.00 Ry     beta= 0.70
     Davidson diagonalization with overlap
     ethr =  1.37E-11,  avg # of iterations =  5.3

     negative rho (up, down):  7.397E-03 0.000E+00

     total cpu time spent up to now is    19276.6 secs

     total energy              =   -3597.94883998 Ry
     estimated scf accuracy    <       0.00000001 Ry

     iteration # 13     ecut=   124.00 Ry     beta= 0.70
     Davidson diagonalization with overlap
     ethr =  5.67E-12,  avg # of iterations =  2.0

     negative rho (up, down):  7.397E-03 0.000E+00

     total cpu time spent up to now is    19332.0 secs

     total energy              =   -3597.94883998 Ry
     estimated scf accuracy    <       0.00000002 Ry

     iteration # 14     ecut=   124.00 Ry     beta= 0.70
     Davidson diagonalization with overlap
     ethr =  5.67E-12,  avg # of iterations =  1.0

     negative rho (up, down):  7.397E-03 0.000E+00

     total cpu time spent up to now is    19381.4 secs

     total energy              =   -3597.94883998 Ry
     estimated scf accuracy    <          3.9E-09 Ry

     iteration # 15     ecut=   124.00 Ry     beta= 0.70
     Davidson diagonalization with overlap
     ethr =  1.69E-12,  avg # of iterations =  4.5

     negative rho (up, down):  7.397E-03 0.000E+00

     total cpu time spent up to now is    19450.9 secs

     total energy              =   -3597.94883998 Ry
     estimated scf accuracy    <          6.3E-09 Ry

     iteration # 16     ecut=   124.00 Ry     beta= 0.70
     Davidson diagonalization with overlap
     ethr =  1.69E-12,  avg # of iterations =  1.0

     negative rho (up, down):  7.397E-03 0.000E+00

     total cpu time spent up to now is    19500.4 secs

     total energy              =   -3597.94883998 Ry
     estimated scf accuracy    <          1.6E-09 Ry

     iteration # 17     ecut=   124.00 Ry     beta= 0.70
     Davidson diagonalization with overlap
     ethr =  7.01E-13,  avg # of iterations =  2.5

     negative rho (up, down):  7.397E-03 0.000E+00

     total cpu time spent up to now is    19559.0 secs

     End of self-consistent calculation

     Number of k-points >= 100: set verbosity='high' to print the bands.

     the Fermi energy is    16.1927 ev

!    total energy              =   -3597.94883998 Ry
     estimated scf accuracy    <          8.9E-11 Ry
     smearing contrib. (-TS)   =      -0.00003134 Ry
     internal energy E=F+TS    =   -3597.94880864 Ry

     The total energy is F=E-TS. E is the sum of the following terms:
     one-electron contribution =   -1315.60110626 Ry
     hartree contribution      =     778.39141265 Ry
     xc contribution           =    -429.06094143 Ry
     ewald contribution        =   -2022.46105512 Ry
     one-center paw contrib.   =    -609.21711848 Ry

     convergence has been achieved in  17 iterations

     negative rho (up, down):  7.397E-03 0.000E+00

     Forces acting on atoms (cartesian axes, Ry/au):

     atom    1 type  2   force =     0.00000000    0.00000000    0.00000000
     atom    2 type  2   force =    -0.00000000    0.00000000   -0.00000000
     atom    3 type  2   force =     0.00000000   -0.00000000    0.00000000
     atom    4 type  2   force =     0.00000000    0.00000000    0.00000000
     atom    5 type  2   force =     0.00000000    0.00000000    0.00000000
     atom    6 type  2   force =     0.00000000    0.00000000    0.00000000
     atom    7 type  2   force =     0.00000000    0.00000000    0.00000000
     atom    8 type  2   force =     0.00000000    0.00000000    0.00000000
     atom    9 type  1   force =    -0.00299881    0.00000000    0.00043637
     atom   10 type  1   force =     0.00042498   -0.00000000   -0.00042498
     atom   11 type  1   force =     0.00035833   -0.00000000   -0.00035833
     atom   12 type  1   force =    -0.00035833   -0.00000000    0.00035833
     atom   13 type  1   force =    -0.00042498    0.00000000    0.00042498
     atom   14 type  1   force =     0.00299881   -0.00000000   -0.00043637
     atom   15 type  1   force =    -0.00043637    0.00000000    0.00299881
     atom   16 type  1   force =     0.00043637   -0.00000000   -0.00299881
     atom   17 type  3   force =     0.00238072    0.00000000    0.00263104
     atom   18 type  3   force =    -0.00263104   -0.00000000   -0.00238072
     atom   19 type  3   force =    -0.00033387   -0.00087626    0.00033387
     atom   20 type  3   force =    -0.00033387    0.00087626    0.00033387
     atom   21 type  3   force =     0.00263104   -0.00000000    0.00238072
     atom   22 type  3   force =    -0.00238072    0.00000000   -0.00263104
     atom   23 type  3   force =     0.00033387    0.00087626   -0.00033387
     atom   24 type  3   force =     0.00033387   -0.00087626   -0.00033387

     Total force =     0.009607     Total SCF correction =     0.000010


     Computing stress (Cartesian axis) and pressure


     negative rho (up, down):  7.397E-03 0.000E+00
          total   stress  (Ry/bohr**3)                   (kbar)     P=        2.23
   0.00000815   0.00000000   0.00001046            1.20        0.00        1.54
   0.00000000   0.00002911   0.00000000            0.00        4.28        0.00
   0.00001046   0.00000000   0.00000815            1.54        0.00        1.20

     Energy error            =      2.2E-04 Ry
     Gradient error          =      3.0E-03 Ry/Bohr
     Cell gradient error     =      4.3E+00 kbar

     number of scf cycles    =  13
     number of bfgs steps    =  12

     enthalpy           old  =   -3597.9486179562 Ry
     enthalpy           new  =   -3597.9488399828 Ry

     CASE: enthalpy          _new < enthalpy          _old

     new trust radius        =       0.0099183526 bohr
     new conv_thr            =       0.0000000002 Ry

     new unit-cell volume =   1545.16420 a.u.^3 (   228.96971 Ang^3 )
     density =      6.07561 g/cm^3

CELL_PARAMETERS (alat=  5.58242261)
   2.038809785   0.000000000  -0.018613042
   0.000000000   2.136925020   0.000000000
  -0.018613042   0.000000000   2.038809785

ATOMIC_POSITIONS (crystal)
Ti               0.0000000000        0.0000000000        0.0000000000
Ti               0.5000000000        0.5000000000       -0.0000000000
Ti               0.5000000000       -0.0000000000       -0.0000000000
Ti              -0.0000000000        0.5000000000        0.5000000000
Ti              -0.0000000000       -0.0000000000        0.5000000000
Ti               0.5000000000        0.5000000000        0.5000000000
Ti               0.5000000000       -0.0000000000        0.5000000000
Ti              -0.0000000000        0.5000000000        0.0000000000
Fe               0.2536685098        0.2500000000        0.2377348698
Fe               0.7883623487        0.7500000000        0.2116376513
Fe               0.7458591581        0.2500000000        0.2541408419
Fe               0.2541408419        0.7500000000        0.7458591581
Fe               0.2116376513        0.2500000000        0.7883623487
Fe               0.7463314902        0.7500000000        0.7622651302
Fe               0.7622651302        0.2500000000        0.7463314902
Fe               0.2377348698        0.7500000000        0.2536685098
H                0.4900261833        0.2500000000        0.7639655402
H                0.2360344598        0.2500000000        0.5099738167
H                0.2474644706        0.4999313443        0.7525355294
H                0.2474644706        0.0000686557        0.7525355294
H                0.7639655402        0.7500000000        0.4900261833
H                0.5099738167        0.7500000000        0.2360344598
H                0.7525355294        0.5000686557        0.2474644706
H                0.7525355294       -0.0000686557        0.2474644706



     Writing config-only to output data dir ./TiFeH_supercell.save/ :
     XML data file     NEW-OLD atomic charge density approx. for the potential
     New effective cutoffs (rho, wfc): 1700.49  121.48

     negative rho (up, down):  7.399E-03 0.000E+00

     total cpu time spent up to now is    19606.1 secs

     per-process dynamical memory:   708.5 Mb

     Self-consistent Calculation

     iteration #  1     ecut=   124.00 Ry     beta= 0.70
     Davidson diagonalization with overlap
     ethr =  1.00E-06,  avg # of iterations =  6.8

     negative rho (up, down):  7.397E-03 0.000E+00

     total cpu time spent up to now is    19729.2 secs

     total energy              =   -3597.94856008 Ry
     estimated scf accuracy    <       0.00066086 Ry

     iteration #  2     ecut=   124.00 Ry     beta= 0.70
     Davidson diagonalization with overlap
     c_bands:  1 eigenvalues not converged
     c_bands:  1 eigenvalues not converged
     c_bands:  1 eigenvalues not converged
     ethr =  2.85E-07,  avg # of iterations =  7.6

     negative rho (up, down):  7.390E-03 0.000E+00

     total cpu time spent up to now is    19841.5 secs

     total energy              =   -3597.94555792 Ry
     estimated scf accuracy    <       0.06399943 Ry

     iteration #  3     ecut=   124.00 Ry     beta= 0.70
     Davidson diagonalization with overlap
     ethr =  2.85E-07,  avg # of iterations =  7.6

     negative rho (up, down):  7.395E-03 0.000E+00

     total cpu time spent up to now is    19948.6 secs

     total energy              =   -3597.94844620 Ry
     estimated scf accuracy    <       0.01342879 Ry

     iteration #  4     ecut=   124.00 Ry     beta= 0.70
     Davidson diagonalization with overlap
     ethr =  2.85E-07,  avg # of iterations =  5.9

     negative rho (up, down):  7.399E-03 0.000E+00

     total cpu time spent up to now is    20028.3 secs

     total energy              =   -3597.94895744 Ry
     estimated scf accuracy    <       0.00052321 Ry

     iteration #  5     ecut=   124.00 Ry     beta= 0.70
     Davidson diagonalization with overlap
     ethr =  2.26E-07,  avg # of iterations =  4.1

     negative rho (up, down):  7.400E-03 0.000E+00

     total cpu time spent up to now is    20094.2 secs

     total energy              =   -3597.94888529 Ry
     estimated scf accuracy    <       0.00364235 Ry

     iteration #  6     ecut=   124.00 Ry     beta= 0.70
     Davidson diagonalization with overlap
     ethr =  2.26E-07,  avg # of iterations =  3.6

     negative rho (up, down):  7.396E-03 0.000E+00

     total cpu time spent up to now is    20156.6 secs

     total energy              =   -3597.94896774 Ry
     estimated scf accuracy    <       0.00126561 Ry

     iteration #  7     ecut=   124.00 Ry     beta= 0.70
     Davidson diagonalization with overlap
     ethr =  2.26E-07,  avg # of iterations =  1.8

     negative rho (up, down):  7.397E-03 0.000E+00

     total cpu time spent up to now is    20211.2 secs

     total energy              =   -3597.94901763 Ry
     estimated scf accuracy    <       0.00009617 Ry

     iteration #  8     ecut=   124.00 Ry     beta= 0.70
     Davidson diagonalization with overlap
     ethr =  4.15E-08,  avg # of iterations =  4.0

     negative rho (up, down):  7.395E-03 0.000E+00

     total cpu time spent up to now is    20276.8 secs

     total energy              =   -3597.94903226 Ry
     estimated scf accuracy    <       0.00001663 Ry

     iteration #  9     ecut=   124.00 Ry     beta= 0.70
     Davidson diagonalization with overlap
     ethr =  7.17E-09,  avg # of iterations =  3.2

     negative rho (up, down):  7.396E-03 0.000E+00

     total cpu time spent up to now is    20337.1 secs

     total energy              =   -3597.94903410 Ry
     estimated scf accuracy    <       0.00000152 Ry

     iteration # 10     ecut=   124.00 Ry     beta= 0.70
     Davidson diagonalization with overlap
     ethr =  6.56E-10,  avg # of iterations =  4.7

     negative rho (up, down):  7.396E-03 0.000E+00

     total cpu time spent up to now is    20410.1 secs

     total energy              =   -3597.94903427 Ry
     estimated scf accuracy    <       0.00000088 Ry

     iteration # 11     ecut=   124.00 Ry     beta= 0.70
     Davidson diagonalization with overlap
     ethr =  3.77E-10,  avg # of iterations =  2.4

     negative rho (up, down):  7.396E-03 0.000E+00

     total cpu time spent up to now is    20467.6 secs

     total energy              =   -3597.94903435 Ry
     estimated scf accuracy    <       0.00000003 Ry

     iteration # 12     ecut=   124.00 Ry     beta= 0.70
     Davidson diagonalization with overlap
     ethr =  1.17E-11,  avg # of iterations =  5.4

     negative rho (up, down):  7.396E-03 0.000E+00

     total cpu time spent up to now is    20578.1 secs

     total energy              =   -3597.94903438 Ry
     estimated scf accuracy    <       0.00000002 Ry

     iteration # 13     ecut=   124.00 Ry     beta= 0.70
     Davidson diagonalization with overlap
     ethr =  8.93E-12,  avg # of iterations =  1.0

     negative rho (up, down):  7.396E-03 0.000E+00

     total cpu time spent up to now is    20627.4 secs

     total energy              =   -3597.94903438 Ry
     estimated scf accuracy    <          6.6E-09 Ry

     iteration # 14     ecut=   124.00 Ry     beta= 0.70
     Davidson diagonalization with overlap
     ethr =  2.84E-12,  avg # of iterations =  3.0

     negative rho (up, down):  7.396E-03 0.000E+00

     total cpu time spent up to now is    20690.0 secs

     total energy              =   -3597.94903438 Ry
     estimated scf accuracy    <          1.2E-09 Ry

     iteration # 15     ecut=   124.00 Ry     beta= 0.70
     Davidson diagonalization with overlap
     ethr =  4.96E-13,  avg # of iterations =  4.6

     negative rho (up, down):  7.396E-03 0.000E+00

     total cpu time spent up to now is    20764.3 secs

     total energy              =   -3597.94903438 Ry
     estimated scf accuracy    <       0.00000003 Ry

     iteration # 16     ecut=   124.00 Ry     beta= 0.70
     Davidson diagonalization with overlap
     ethr =  4.96E-13,  avg # of iterations =  4.1

     negative rho (up, down):  7.396E-03 0.000E+00

     total cpu time spent up to now is    20831.5 secs

     total energy              =   -3597.94903438 Ry
     estimated scf accuracy    <          3.0E-10 Ry

     iteration # 17     ecut=   124.00 Ry     beta= 0.70
     Davidson diagonalization with overlap
     ethr =  1.28E-13,  avg # of iterations =  4.3

     negative rho (up, down):  7.396E-03 0.000E+00

     total cpu time spent up to now is    20899.3 secs

     End of self-consistent calculation

     Number of k-points >= 100: set verbosity='high' to print the bands.

     the Fermi energy is    16.1852 ev

!    total energy              =   -3597.94903438 Ry
     estimated scf accuracy    <          1.1E-10 Ry
     smearing contrib. (-TS)   =      -0.00004590 Ry
     internal energy E=F+TS    =   -3597.94898848 Ry

     The total energy is F=E-TS. E is the sum of the following terms:
     one-electron contribution =   -1316.38206924 Ry
     hartree contribution      =     778.71764190 Ry
     xc contribution           =    -429.05542242 Ry
     ewald contribution        =   -2022.01208947 Ry
     one-center paw contrib.   =    -609.21704924 Ry

     convergence has been achieved in  17 iterations

     negative rho (up, down):  7.396E-03 0.000E+00

     Forces acting on atoms (cartesian axes, Ry/au):

     atom    1 type  2   force =     0.00000000    0.00000000    0.00000000
     atom    2 type  2   force =     0.00000000    0.00000000    0.00000000
     atom    3 type  2   force =     0.00000000   -0.00000000    0.00000000
     atom    4 type  2   force =     0.00000000    0.00000000    0.00000000
     atom    5 type  2   force =     0.00000000    0.00000000    0.00000000
     atom    6 type  2   force =    -0.00000000    0.00000000   -0.00000000
     atom    7 type  2   force =     0.00000000    0.00000000    0.00000000
     atom    8 type  2   force =     0.00000000    0.00000000    0.00000000
     atom    9 type  1   force =    -0.00171227    0.00000000    0.00112280
     atom   10 type  1   force =    -0.00043796   -0.00000000    0.00043796
     atom   11 type  1   force =    -0.00038346    0.00000000    0.00038346
     atom   12 type  1   force =     0.00038346    0.00000000   -0.00038346
     atom   13 type  1   force =     0.00043796    0.00000000   -0.00043796
     atom   14 type  1   force =     0.00171227    0.00000000   -0.00112280
     atom   15 type  1   force =    -0.00112280   -0.00000000    0.00171227
     atom   16 type  1   force =     0.00112280   -0.00000000   -0.00171227
     atom   17 type  3   force =     0.00165064   -0.00000000    0.00237968
     atom   18 type  3   force =    -0.00237968    0.00000000   -0.00165064
     atom   19 type  3   force =    -0.00018305   -0.00052725    0.00018305
     atom   20 type  3   force =    -0.00018305    0.00052725    0.00018305
     atom   21 type  3   force =     0.00237968    0.00000000    0.00165064
     atom   22 type  3   force =    -0.00165064   -0.00000000   -0.00237968
     atom   23 type  3   force =     0.00018305    0.00052725   -0.00018305
     atom   24 type  3   force =     0.00018305   -0.00052725   -0.00018305

     Total force =     0.007284     Total SCF correction =     0.000039


     Computing stress (Cartesian axis) and pressure


     negative rho (up, down):  7.396E-03 0.000E+00
          total   stress  (Ry/bohr**3)                   (kbar)     P=        1.43
  -0.00000007   0.00000000   0.00000488           -0.01        0.00        0.72
   0.00000000   0.00002928   0.00000000            0.00        4.31        0.00
   0.00000488   0.00000000  -0.00000007            0.72        0.00       -0.01

     Energy error            =      1.9E-04 Ry
     Gradient error          =      2.4E-03 Ry/Bohr
     Cell gradient error     =      4.3E+00 kbar

     number of scf cycles    =  14
     number of bfgs steps    =  13

     enthalpy           old  =   -3597.9488399828 Ry
     enthalpy           new  =   -3597.9490343771 Ry

     CASE: enthalpy          _new < enthalpy          _old

     new trust radius        =       0.0148893967 bohr
     new conv_thr            =       0.0000000002 Ry

     new unit-cell volume =   1546.30450 a.u.^3 (   229.13869 Ang^3 )
     density =      6.07113 g/cm^3

CELL_PARAMETERS (alat=  5.58242261)
   2.039332644   0.000000000  -0.016909005
   0.000000000   2.137374401   0.000000000
  -0.016909005   0.000000000   2.039332644

ATOMIC_POSITIONS (crystal)
Ti               0.0000000000        0.0000000000        0.0000000000
Ti               0.5000000000        0.5000000000       -0.0000000000
Ti               0.5000000000       -0.0000000000       -0.0000000000
Ti              -0.0000000000        0.5000000000        0.5000000000
Ti              -0.0000000000       -0.0000000000        0.5000000000
Ti               0.5000000000        0.5000000000        0.5000000000
Ti               0.5000000000        0.0000000000        0.5000000000
Ti              -0.0000000000        0.5000000000        0.0000000000
Fe               0.2526240505        0.2500000000        0.2378109418
Fe               0.7887568759        0.7500000000        0.2112431241
Fe               0.7459339408        0.2500000000        0.2540660592
Fe               0.2540660592        0.7500000000        0.7459339408
Fe               0.2112431241        0.2500000000        0.7887568759
Fe               0.7473759495        0.7500000000        0.7621890582
Fe               0.7621890582        0.2500000000        0.7473759495
Fe               0.2378109418        0.7500000000        0.2526240505
H                0.4902661232        0.2500000000        0.7652558915
H                0.2347441085        0.2500000000        0.5097338768
H                0.2472771505        0.4997479544        0.7527228495
H                0.2472771505        0.0002520456        0.7527228495
H                0.7652558915        0.7500000000        0.4902661232
H                0.5097338768        0.7500000000        0.2347441085
H                0.7527228495        0.5002520456        0.2472771505
H                0.7527228495       -0.0002520456        0.2472771505



     Writing config-only to output data dir ./TiFeH_supercell.save/ :
     XML data file     NEW-OLD atomic charge density approx. for the potential
     New effective cutoffs (rho, wfc): 1696.82  121.22

     negative rho (up, down):  7.398E-03 0.000E+00

     total cpu time spent up to now is    20945.7 secs

     per-process dynamical memory:   708.5 Mb

     Self-consistent Calculation

     iteration #  1     ecut=   124.00 Ry     beta= 0.70
     Davidson diagonalization with overlap
     ethr =  1.00E-06,  avg # of iterations =  7.0

     negative rho (up, down):  7.392E-03 0.000E+00

     total cpu time spent up to now is    21078.6 secs

     total energy              =   -3597.94859987 Ry
     estimated scf accuracy    <       0.00090935 Ry

     iteration #  2     ecut=   124.00 Ry     beta= 0.70
     Davidson diagonalization with overlap
     c_bands:  2 eigenvalues not converged
     c_bands:  1 eigenvalues not converged
     c_bands:  1 eigenvalues not converged
     c_bands:  2 eigenvalues not converged
     c_bands:  1 eigenvalues not converged
     c_bands:  1 eigenvalues not converged
     ethr =  3.92E-07,  avg # of iterations =  8.4

     negative rho (up, down):  7.386E-03 0.000E+00

     total cpu time spent up to now is    21196.3 secs

     total energy              =   -3597.94434329 Ry
     estimated scf accuracy    <       0.09470204 Ry

     iteration #  3     ecut=   124.00 Ry     beta= 0.70
     Davidson diagonalization with overlap
     ethr =  3.92E-07,  avg # of iterations =  6.8

     negative rho (up, down):  7.392E-03 0.000E+00

     total cpu time spent up to now is    21302.5 secs

     total energy              =   -3597.94832284 Ry
     estimated scf accuracy    <       0.02006575 Ry

     iteration #  4     ecut=   124.00 Ry     beta= 0.70
     Davidson diagonalization with overlap
     ethr =  3.92E-07,  avg # of iterations =  6.4

     negative rho (up, down):  7.397E-03 0.000E+00

     total cpu time spent up to now is    21384.4 secs

     total energy              =   -3597.94909456 Ry
     estimated scf accuracy    <       0.00079900 Ry

     iteration #  5     ecut=   124.00 Ry     beta= 0.70
     Davidson diagonalization with overlap
     ethr =  3.44E-07,  avg # of iterations =  4.2

     negative rho (up, down):  7.398E-03 0.000E+00

     total cpu time spent up to now is    21450.4 secs

     total energy              =   -3597.94892087 Ry
     estimated scf accuracy    <       0.00814340 Ry

     iteration #  6     ecut=   124.00 Ry     beta= 0.70
     Davidson diagonalization with overlap
     ethr =  3.44E-07,  avg # of iterations =  4.0

     negative rho (up, down):  7.394E-03 0.000E+00

     total cpu time spent up to now is    21514.1 secs

     total energy              =   -3597.94913393 Ry
     estimated scf accuracy    <       0.00125516 Ry

     iteration #  7     ecut=   124.00 Ry     beta= 0.70
     Davidson diagonalization with overlap
     ethr =  3.44E-07,  avg # of iterations =  1.7

     negative rho (up, down):  7.395E-03 0.000E+00

     total cpu time spent up to now is    21567.0 secs

     total energy              =   -3597.94918917 Ry
     estimated scf accuracy    <       0.00018117 Ry

     iteration #  8     ecut=   124.00 Ry     beta= 0.70
     Davidson diagonalization with overlap
     ethr =  7.81E-08,  avg # of iterations =  3.9

     negative rho (up, down):  7.393E-03 0.000E+00

     total cpu time spent up to now is    21630.4 secs

     total energy              =   -3597.94921387 Ry
     estimated scf accuracy    <       0.00002245 Ry

     iteration #  9     ecut=   124.00 Ry     beta= 0.70
     Davidson diagonalization with overlap
     ethr =  9.68E-09,  avg # of iterations =  3.9

     negative rho (up, down):  7.394E-03 0.000E+00

     total cpu time spent up to now is    21692.6 secs

     total energy              =   -3597.94921665 Ry
     estimated scf accuracy    <       0.00000276 Ry

     iteration # 10     ecut=   124.00 Ry     beta= 0.70
     Davidson diagonalization with overlap
     ethr =  1.19E-09,  avg # of iterations =  4.5

     negative rho (up, down):  7.394E-03 0.000E+00

     total cpu time spent up to now is    21759.6 secs

     total energy              =   -3597.94921687 Ry
     estimated scf accuracy    <       0.00000113 Ry

     iteration # 11     ecut=   124.00 Ry     beta= 0.70
     Davidson diagonalization with overlap
     ethr =  4.88E-10,  avg # of iterations =  3.3

     negative rho (up, down):  7.394E-03 0.000E+00

     total cpu time spent up to now is    21819.3 secs

     total energy              =   -3597.94921699 Ry
     estimated scf accuracy    <       0.00000003 Ry

     iteration # 12     ecut=   124.00 Ry     beta= 0.70
     Davidson diagonalization with overlap
     ethr =  1.13E-11,  avg # of iterations =  6.3

     negative rho (up, down):  7.394E-03 0.000E+00

     total cpu time spent up to now is    21939.0 secs

     total energy              =   -3597.94921703 Ry
     estimated scf accuracy    <       0.00000004 Ry

     iteration # 13     ecut=   124.00 Ry     beta= 0.70
     Davidson diagonalization with overlap
     ethr =  1.13E-11,  avg # of iterations =  1.7

     negative rho (up, down):  7.394E-03 0.000E+00

     total cpu time spent up to now is    21993.1 secs

     total energy              =   -3597.94921703 Ry
     estimated scf accuracy    <       0.00000004 Ry

     iteration # 14     ecut=   124.00 Ry     beta= 0.70
     Davidson diagonalization with overlap
     ethr =  1.13E-11,  avg # of iterations =  1.1

     negative rho (up, down):  7.394E-03 0.000E+00

     total cpu time spent up to now is    22043.4 secs

     total energy              =   -3597.94921703 Ry
     estimated scf accuracy    <          7.1E-09 Ry

     iteration # 15     ecut=   124.00 Ry     beta= 0.70
     Davidson diagonalization with overlap
     ethr =  3.04E-12,  avg # of iterations =  4.6

     negative rho (up, down):  7.394E-03 0.000E+00

     total cpu time spent up to now is    22111.8 secs

     total energy              =   -3597.94921703 Ry
     estimated scf accuracy    <          5.8E-09 Ry

     iteration # 16     ecut=   124.00 Ry     beta= 0.70
     Davidson diagonalization with overlap
     ethr =  2.52E-12,  avg # of iterations =  1.8

     negative rho (up, down):  7.394E-03 0.000E+00

     total cpu time spent up to now is    22167.1 secs

     total energy              =   -3597.94921703 Ry
     estimated scf accuracy    <          2.0E-09 Ry

     iteration # 17     ecut=   124.00 Ry     beta= 0.70
     Davidson diagonalization with overlap
     ethr =  8.41E-13,  avg # of iterations =  2.0

     negative rho (up, down):  7.394E-03 0.000E+00

     total cpu time spent up to now is    22224.6 secs

     End of self-consistent calculation

     Number of k-points >= 100: set verbosity='high' to print the bands.

     the Fermi energy is    16.1710 ev

!    total energy              =   -3597.94921703 Ry
     estimated scf accuracy    <          1.2E-10 Ry
     smearing contrib. (-TS)   =      -0.00006353 Ry
     internal energy E=F+TS    =   -3597.94915350 Ry

     The total energy is F=E-TS. E is the sum of the following terms:
     one-electron contribution =   -1317.56385168 Ry
     hartree contribution      =     779.18653248 Ry
     xc contribution           =    -429.04548968 Ry
     ewald contribution        =   -2021.30941980 Ry
     one-center paw contrib.   =    -609.21692482 Ry

     convergence has been achieved in  17 iterations

     negative rho (up, down):  7.394E-03 0.000E+00

     Forces acting on atoms (cartesian axes, Ry/au):

     atom    1 type  2   force =     0.00000000   -0.00000000    0.00000000
     atom    2 type  2   force =     0.00000000    0.00000000    0.00000000
     atom    3 type  2   force =     0.00000000   -0.00000000    0.00000000
     atom    4 type  2   force =    -0.00000000    0.00000000   -0.00000000
     atom    5 type  2   force =     0.00000000   -0.00000000    0.00000000
     atom    6 type  2   force =    -0.00000000    0.00000000   -0.00000000
     atom    7 type  2   force =     0.00000000    0.00000000    0.00000000
     atom    8 type  2   force =     0.00000000    0.00000000    0.00000000
     atom    9 type  1   force =    -0.00024123    0.00000000    0.00105769
     atom   10 type  1   force =    -0.00148617    0.00000000    0.00148617
     atom   11 type  1   force =    -0.00118630    0.00000000    0.00118630
     atom   12 type  1   force =     0.00118630   -0.00000000   -0.00118630
     atom   13 type  1   force =     0.00148617    0.00000000   -0.00148617
     atom   14 type  1   force =     0.00024123    0.00000000   -0.00105769
     atom   15 type  1   force =    -0.00105769    0.00000000    0.00024123
     atom   16 type  1   force =     0.00105769   -0.00000000   -0.00024123
     atom   17 type  3   force =     0.00049375    0.00000000    0.00198905
     atom   18 type  3   force =    -0.00198905    0.00000000   -0.00049375
     atom   19 type  3   force =    -0.00002912    0.00009545    0.00002912
     atom   20 type  3   force =    -0.00002912   -0.00009545    0.00002912
     atom   21 type  3   force =     0.00198905    0.00000000    0.00049375
     atom   22 type  3   force =    -0.00049375    0.00000000   -0.00198905
     atom   23 type  3   force =     0.00002912   -0.00009545   -0.00002912
     atom   24 type  3   force =     0.00002912    0.00009545   -0.00002912

     Total force =     0.006001     Total SCF correction =     0.000051


     Computing stress (Cartesian axis) and pressure


     negative rho (up, down):  7.394E-03 0.000E+00
          total   stress  (Ry/bohr**3)                   (kbar)     P=        0.08
  -0.00000982   0.00000000  -0.00000183           -1.44        0.00       -0.27
   0.00000000   0.00002128   0.00000000            0.00        3.13        0.00
  -0.00000183   0.00000000  -0.00000982           -0.27        0.00       -1.44

     Energy error            =      1.8E-04 Ry
     Gradient error          =      2.0E-03 Ry/Bohr
     Cell gradient error     =      3.1E+00 kbar

     number of scf cycles    =  15
     number of bfgs steps    =  14

     enthalpy           old  =   -3597.9490343771 Ry
     enthalpy           new  =   -3597.9492170285 Ry

     CASE: enthalpy          _new < enthalpy          _old

     new trust radius        =       0.0159324868 bohr
     new conv_thr            =       0.0000000002 Ry

     new unit-cell volume =   1547.12454 a.u.^3 (   229.26020 Ang^3 )
     density =      6.06791 g/cm^3

CELL_PARAMETERS (alat=  5.58242261)
   2.039204571   0.000000000  -0.016205764
   0.000000000   2.138764559   0.000000000
  -0.016205764   0.000000000   2.039204571

ATOMIC_POSITIONS (crystal)
Ti               0.0000000000        0.0000000000        0.0000000000
Ti               0.5000000000        0.5000000000       -0.0000000000
Ti               0.5000000000       -0.0000000000       -0.0000000000
Ti              -0.0000000000        0.5000000000        0.5000000000
Ti              -0.0000000000       -0.0000000000        0.5000000000
Ti               0.5000000000        0.5000000000        0.5000000000
Ti               0.5000000000        0.0000000000        0.5000000000
Ti              -0.0000000000        0.5000000000        0.0000000000
Fe               0.2519441674        0.2500000000        0.2382039086
Fe               0.7891202616        0.7500000000        0.2108797384
Fe               0.7457489461        0.2500000000        0.2542510539
Fe               0.2542510539        0.7500000000        0.7457489461
Fe               0.2108797384        0.2500000000        0.7891202616
Fe               0.7480558326        0.7500000000        0.7617960914
Fe               0.7617960914        0.2500000000        0.7480558326
Fe               0.2382039086        0.7500000000        0.2519441674
H                0.4902494573        0.2500000000        0.7666549674
H                0.2333450326        0.2500000000        0.5097505427
H                0.2471064875        0.4996279255        0.7528935125
H                0.2471064875        0.0003720745        0.7528935125
H                0.7666549674        0.7500000000        0.4902494573
H                0.5097505427        0.7500000000        0.2333450326
H                0.7528935125        0.5003720745        0.2471064875
H                0.7528935125       -0.0003720745        0.2471064875



     Writing config-only to output data dir ./TiFeH_supercell.save/ :
     XML data file     NEW-OLD atomic charge density approx. for the potential
     New effective cutoffs (rho, wfc): 1695.88  121.15

     negative rho (up, down):  7.396E-03 0.000E+00

     total cpu time spent up to now is    22272.2 secs

     per-process dynamical memory:   708.5 Mb

     Self-consistent Calculation

     iteration #  1     ecut=   124.00 Ry     beta= 0.70
     Davidson diagonalization with overlap
     ethr =  1.00E-06,  avg # of iterations =  6.9

     negative rho (up, down):  7.389E-03 0.000E+00

     total cpu time spent up to now is    22400.7 secs

     total energy              =   -3597.94916225 Ry
     estimated scf accuracy    <       0.00029775 Ry

     iteration #  2     ecut=   124.00 Ry     beta= 0.70
     Davidson diagonalization with overlap
     c_bands:  1 eigenvalues not converged
     ethr =  1.28E-07,  avg # of iterations =  7.8

     negative rho (up, down):  7.389E-03 0.000E+00

     total cpu time spent up to now is    22505.7 secs

     total energy              =   -3597.94803900 Ry
     estimated scf accuracy    <       0.02556900 Ry

     iteration #  3     ecut=   124.00 Ry     beta= 0.70
     Davidson diagonalization with overlap
     ethr =  1.28E-07,  avg # of iterations =  6.3

     negative rho (up, down):  7.393E-03 0.000E+00

     total cpu time spent up to now is    22599.8 secs

     total energy              =   -3597.94903938 Ry
     estimated scf accuracy    <       0.00543590 Ry

     iteration #  4     ecut=   124.00 Ry     beta= 0.70
     Davidson diagonalization with overlap
     ethr =  1.28E-07,  avg # of iterations =  5.3

     negative rho (up, down):  7.393E-03 0.000E+00

     total cpu time spent up to now is    22679.2 secs

     total energy              =   -3597.94927364 Ry
     estimated scf accuracy    <       0.00054373 Ry

     iteration #  5     ecut=   124.00 Ry     beta= 0.70
     Davidson diagonalization with overlap
     ethr =  1.28E-07,  avg # of iterations =  4.4

     negative rho (up, down):  7.394E-03 0.000E+00

     total cpu time spent up to now is    22752.3 secs

     total energy              =   -3597.94907903 Ry
     estimated scf accuracy    <       0.00846046 Ry

     iteration #  6     ecut=   124.00 Ry     beta= 0.70
     Davidson diagonalization with overlap
     ethr =  1.28E-07,  avg # of iterations =  4.3

     negative rho (up, down):  7.393E-03 0.000E+00

     total cpu time spent up to now is    22823.5 secs

     total energy              =   -3597.94932936 Ry
     estimated scf accuracy    <       0.00001455 Ry

     iteration #  7     ecut=   124.00 Ry     beta= 0.70
     Davidson diagonalization with overlap
     ethr =  6.27E-09,  avg # of iterations =  5.1

     negative rho (up, down):  7.394E-03 0.000E+00

     total cpu time spent up to now is    22906.7 secs

     total energy              =   -3597.94933008 Ry
     estimated scf accuracy    <       0.00005620 Ry

     iteration #  8     ecut=   124.00 Ry     beta= 0.70
     Davidson diagonalization with overlap
     ethr =  6.27E-09,  avg # of iterations =  4.6

     negative rho (up, down):  7.393E-03 0.000E+00

     total cpu time spent up to now is    22980.5 secs

     total energy              =   -3597.94933264 Ry
     estimated scf accuracy    <       0.00004605 Ry

     iteration #  9     ecut=   124.00 Ry     beta= 0.70
     Davidson diagonalization with overlap
     ethr =  6.27E-09,  avg # of iterations =  2.3

     negative rho (up, down):  7.393E-03 0.000E+00

     total cpu time spent up to now is    23038.4 secs

     total energy              =   -3597.94933501 Ry
     estimated scf accuracy    <       0.00000052 Ry

     iteration # 10     ecut=   124.00 Ry     beta= 0.70
     Davidson diagonalization with overlap
     ethr =  2.25E-10,  avg # of iterations =  5.0

     negative rho (up, down):  7.393E-03 0.000E+00

     total cpu time spent up to now is    23123.1 secs

     total energy              =   -3597.94933522 Ry
     estimated scf accuracy    <       0.00000047 Ry

     iteration # 11     ecut=   124.00 Ry     beta= 0.70
     Davidson diagonalization with overlap
     ethr =  2.02E-10,  avg # of iterations =  1.2

     negative rho (up, down):  7.393E-03 0.000E+00

     total cpu time spent up to now is    23172.7 secs

     total energy              =   -3597.94933524 Ry
     estimated scf accuracy    <       0.00000001 Ry

     iteration # 12     ecut=   124.00 Ry     beta= 0.70
     Davidson diagonalization with overlap
     ethr =  4.81E-12,  avg # of iterations =  6.1

     negative rho (up, down):  7.393E-03 0.000E+00

     total cpu time spent up to now is    23269.7 secs

     total energy              =   -3597.94933525 Ry
     estimated scf accuracy    <       0.00000002 Ry

     iteration # 13     ecut=   124.00 Ry     beta= 0.70
     Davidson diagonalization with overlap
     ethr =  4.81E-12,  avg # of iterations =  1.3

     negative rho (up, down):  7.393E-03 0.000E+00

     total cpu time spent up to now is    23320.7 secs

     total energy              =   -3597.94933525 Ry
     estimated scf accuracy    <       0.00000002 Ry

     iteration # 14     ecut=   124.00 Ry     beta= 0.70
     Davidson diagonalization with overlap
     ethr =  4.81E-12,  avg # of iterations =  1.0

     negative rho (up, down):  7.393E-03 0.000E+00

     total cpu time spent up to now is    23369.9 secs

     total energy              =   -3597.94933525 Ry
     estimated scf accuracy    <          3.7E-09 Ry

     iteration # 15     ecut=   124.00 Ry     beta= 0.70
     Davidson diagonalization with overlap
     ethr =  1.60E-12,  avg # of iterations =  2.8

     negative rho (up, down):  7.393E-03 0.000E+00

     total cpu time spent up to now is    23427.7 secs

     total energy              =   -3597.94933525 Ry
     estimated scf accuracy    <          2.4E-09 Ry

     iteration # 16     ecut=   124.00 Ry     beta= 0.70
     Davidson diagonalization with overlap
     ethr =  1.01E-12,  avg # of iterations =  1.7

     negative rho (up, down):  7.393E-03 0.000E+00

     total cpu time spent up to now is    23480.8 secs

     End of self-consistent calculation

     Number of k-points >= 100: set verbosity='high' to print the bands.

     the Fermi energy is    16.1607 ev

!    total energy              =   -3597.94933525 Ry
     estimated scf accuracy    <          1.3E-10 Ry
     smearing contrib. (-TS)   =      -0.00007278 Ry
     internal energy E=F+TS    =   -3597.94926247 Ry

     The total energy is F=E-TS. E is the sum of the following terms:
     one-electron contribution =   -1318.26541000 Ry
     hartree contribution      =     779.44896089 Ry
     xc contribution           =    -429.03870078 Ry
     ewald contribution        =   -2020.87727460 Ry
     one-center paw contrib.   =    -609.21683797 Ry

     convergence has been achieved in  16 iterations

     negative rho (up, down):  7.393E-03 0.000E+00

     Forces acting on atoms (cartesian axes, Ry/au):

     atom    1 type  2   force =     0.00000000    0.00000000    0.00000000
     atom    2 type  2   force =     0.00000000    0.00000000    0.00000000
     atom    3 type  2   force =     0.00000000   -0.00000000    0.00000000
     atom    4 type  2   force =    -0.00000000    0.00000000   -0.00000000
     atom    5 type  2   force =     0.00000000   -0.00000000    0.00000000
     atom    6 type  2   force =     0.00000000    0.00000000   -0.00000000
     atom    7 type  2   force =    -0.00000000   -0.00000000   -0.00000000
     atom    8 type  2   force =     0.00000000    0.00000000    0.00000000
     atom    9 type  1   force =     0.00056078    0.00000000    0.00024348
     atom   10 type  1   force =    -0.00193355    0.00000000    0.00193355
     atom   11 type  1   force =    -0.00149469    0.00000000    0.00149469
     atom   12 type  1   force =     0.00149469    0.00000000   -0.00149469
     atom   13 type  1   force =     0.00193355    0.00000000   -0.00193355
     atom   14 type  1   force =    -0.00056078   -0.00000000   -0.00024348
     atom   15 type  1   force =    -0.00024348    0.00000000   -0.00056078
     atom   16 type  1   force =     0.00024348    0.00000000    0.00056078
     atom   17 type  3   force =    -0.00035946   -0.00000000    0.00165405
     atom   18 type  3   force =    -0.00165405    0.00000000    0.00035946
     atom   19 type  3   force =     0.00002261    0.00056534   -0.00002261
     atom   20 type  3   force =     0.00002261   -0.00056534   -0.00002261
     atom   21 type  3   force =     0.00165405    0.00000000   -0.00035946
     atom   22 type  3   force =     0.00035946   -0.00000000   -0.00165405
     atom   23 type  3   force =    -0.00002261   -0.00056534    0.00002261
     atom   24 type  3   force =    -0.00002261    0.00056534    0.00002261

     Total force =     0.006175     Total SCF correction =     0.000012


     Computing stress (Cartesian axis) and pressure


     negative rho (up, down):  7.393E-03 0.000E+00
          total   stress  (Ry/bohr**3)                   (kbar)     P=       -0.79
  -0.00001315   0.00000000  -0.00000545           -1.93        0.00       -0.80
   0.00000000   0.00001012   0.00000000            0.00        1.49        0.00
  -0.00000545   0.00000000  -0.00001315           -0.80        0.00       -1.93

     Energy error            =      1.2E-04 Ry
     Gradient error          =      1.9E-03 Ry/Bohr
     Cell gradient error     =      1.9E+00 kbar

     number of scf cycles    =  16
     number of bfgs steps    =  15

     enthalpy           old  =   -3597.9492170285 Ry
     enthalpy           new  =   -3597.9493352532 Ry

     CASE: enthalpy          _new < enthalpy          _old

     new trust radius        =       0.0210303102 bohr
     new conv_thr            =       0.0000000001 Ry

     new unit-cell volume =   1547.58741 a.u.^3 (   229.32879 Ang^3 )
     density =      6.06610 g/cm^3

CELL_PARAMETERS (alat=  5.58242261)
   2.038462927   0.000000000  -0.016222638
   0.000000000   2.140961848   0.000000000
  -0.016222638   0.000000000   2.038462927

ATOMIC_POSITIONS (crystal)
Ti               0.0000000000        0.0000000000        0.0000000000
Ti               0.5000000000        0.5000000000       -0.0000000000
Ti               0.5000000000       -0.0000000000       -0.0000000000
Ti              -0.0000000000        0.5000000000        0.5000000000
Ti              -0.0000000000       -0.0000000000        0.5000000000
Ti               0.5000000000        0.5000000000        0.5000000000
Ti               0.5000000000        0.0000000000        0.5000000000
Ti              -0.0000000000        0.5000000000        0.0000000000
Fe               0.2514098089        0.2500000000        0.2388132512
Fe               0.7894527745        0.7500000000        0.2105472255
Fe               0.7452862031        0.2500000000        0.2547137969
Fe               0.2547137969        0.7500000000        0.7452862031
Fe               0.2105472255        0.2500000000        0.7894527745
Fe               0.7485901911        0.7500000000        0.7611867488
Fe               0.7611867488        0.2500000000        0.7485901911
Fe               0.2388132512        0.7500000000        0.2514098089
H                0.4900028530        0.2500000000        0.7684818655
H                0.2315181345        0.2500000000        0.5099971470
H                0.2469100581        0.4995754917        0.7530899419
H                0.2469100581        0.0004245083        0.7530899419
H                0.7684818655        0.7500000000        0.4900028530
H                0.5099971470        0.7500000000        0.2315181345
H                0.7530899419        0.5004245083        0.2469100581
H                0.7530899419       -0.0004245083        0.2469100581



     Writing config-only to output data dir ./TiFeH_supercell.save/ :
     XML data file     NEW-OLD atomic charge density approx. for the potential
     New effective cutoffs (rho, wfc): 1697.15  121.24

     negative rho (up, down):  7.395E-03 0.000E+00

     total cpu time spent up to now is    23527.9 secs

     per-process dynamical memory:   708.5 Mb

     Self-consistent Calculation

     iteration #  1     ecut=   124.00 Ry     beta= 0.70
     Davidson diagonalization with overlap
     ethr =  1.00E-06,  avg # of iterations =  6.9

     Threshold (ethr) on eigenvalues was too large:
     Diagonalizing with lowered threshold

     Davidson diagonalization with overlap
     ethr =  8.88E-08,  avg # of iterations =  3.3

     negative rho (up, down):  7.386E-03 0.000E+00

     total cpu time spent up to now is    23719.7 secs

     total energy              =   -3597.94939984 Ry
     estimated scf accuracy    <       0.00020509 Ry

     iteration #  2     ecut=   124.00 Ry     beta= 0.70
     Davidson diagonalization with overlap
     ethr =  8.84E-08,  avg # of iterations =  5.0

     negative rho (up, down):  7.391E-03 0.000E+00

     total cpu time spent up to now is    23807.4 secs

     total energy              =   -3597.94896129 Ry
     estimated scf accuracy    <       0.00816477 Ry

     iteration #  3     ecut=   124.00 Ry     beta= 0.70
     Davidson diagonalization with overlap
     ethr =  8.84E-08,  avg # of iterations =  5.0

     negative rho (up, down):  7.397E-03 0.000E+00

     total cpu time spent up to now is    23894.3 secs

     total energy              =   -3597.94928490 Ry
     estimated scf accuracy    <       0.00218843 Ry

     iteration #  4     ecut=   124.00 Ry     beta= 0.70
     Davidson diagonalization with overlap
     ethr =  8.84E-08,  avg # of iterations =  5.0

     negative rho (up, down):  7.389E-03 0.000E+00

     total cpu time spent up to now is    23976.4 secs

     total energy              =   -3597.94932753 Ry
     estimated scf accuracy    <       0.00224437 Ry

     iteration #  5     ecut=   124.00 Ry     beta= 0.70
     Davidson diagonalization with overlap
     ethr =  8.84E-08,  avg # of iterations =  5.0

     negative rho (up, down):  7.392E-03 0.000E+00

     total cpu time spent up to now is    24053.8 secs

     total energy              =   -3597.94930576 Ry
     estimated scf accuracy    <       0.00340524 Ry

     iteration #  6     ecut=   124.00 Ry     beta= 0.70
     Davidson diagonalization with overlap
     ethr =  8.84E-08,  avg # of iterations =  4.5

     negative rho (up, down):  7.393E-03 0.000E+00

     total cpu time spent up to now is    24126.5 secs

     total energy              =   -3597.94941542 Ry
     estimated scf accuracy    <       0.00088241 Ry

     iteration #  7     ecut=   124.00 Ry     beta= 0.70
     Davidson diagonalization with overlap
     ethr =  8.84E-08,  avg # of iterations =  2.4

     negative rho (up, down):  7.393E-03 0.000E+00

     total cpu time spent up to now is    24183.8 secs

     total energy              =   -3597.94944609 Ry
     estimated scf accuracy    <       0.00003252 Ry

     iteration #  8     ecut=   124.00 Ry     beta= 0.70
     Davidson diagonalization with overlap
     ethr =  1.40E-08,  avg # of iterations =  4.9

     negative rho (up, down):  7.392E-03 0.000E+00

     total cpu time spent up to now is    24256.5 secs

     total energy              =   -3597.94945270 Ry
     estimated scf accuracy    <       0.00002146 Ry

     iteration #  9     ecut=   124.00 Ry     beta= 0.70
     Davidson diagonalization with overlap
     ethr =  9.25E-09,  avg # of iterations =  2.1

     negative rho (up, down):  7.393E-03 0.000E+00

     total cpu time spent up to now is    24312.1 secs

     total energy              =   -3597.94945397 Ry
     estimated scf accuracy    <       0.00000307 Ry

     iteration # 10     ecut=   124.00 Ry     beta= 0.70
     Davidson diagonalization with overlap
     ethr =  1.32E-09,  avg # of iterations =  4.7

     negative rho (up, down):  7.393E-03 0.000E+00

     total cpu time spent up to now is    24381.7 secs

     total energy              =   -3597.94945437 Ry
     estimated scf accuracy    <       0.00000059 Ry

     iteration # 11     ecut=   124.00 Ry     beta= 0.70
     Davidson diagonalization with overlap
     ethr =  2.55E-10,  avg # of iterations =  3.1

     negative rho (up, down):  7.392E-03 0.000E+00

     total cpu time spent up to now is    24441.7 secs

     total energy              =   -3597.94945441 Ry
     estimated scf accuracy    <       0.00000003 Ry

     iteration # 12     ecut=   124.00 Ry     beta= 0.70
     Davidson diagonalization with overlap
     ethr =  1.47E-11,  avg # of iterations =  5.0

     negative rho (up, down):  7.392E-03 0.000E+00

     total cpu time spent up to now is    24528.9 secs

     total energy              =   -3597.94945443 Ry
     estimated scf accuracy    <       0.00000001 Ry

     iteration # 13     ecut=   124.00 Ry     beta= 0.70
     Davidson diagonalization with overlap
     ethr =  4.35E-12,  avg # of iterations =  4.3

     negative rho (up, down):  7.392E-03 0.000E+00

     total cpu time spent up to now is    24598.7 secs

     total energy              =   -3597.94945442 Ry
     estimated scf accuracy    <       0.00000012 Ry

     iteration # 14     ecut=   124.00 Ry     beta= 0.70
     Davidson diagonalization with overlap
     ethr =  4.35E-12,  avg # of iterations =  4.0

     negative rho (up, down):  7.392E-03 0.000E+00

     total cpu time spent up to now is    24663.5 secs

     total energy              =   -3597.94945443 Ry
     estimated scf accuracy    <       0.00000001 Ry

     iteration # 15     ecut=   124.00 Ry     beta= 0.70
     Davidson diagonalization with overlap
     ethr =  4.35E-12,  avg # of iterations =  1.2

     negative rho (up, down):  7.392E-03 0.000E+00

     total cpu time spent up to now is    24713.4 secs

     total energy              =   -3597.94945443 Ry
     estimated scf accuracy    <          1.6E-09 Ry

     iteration # 16     ecut=   124.00 Ry     beta= 0.70
     Davidson diagonalization with overlap
     ethr =  7.00E-13,  avg # of iterations =  4.5

     negative rho (up, down):  7.392E-03 0.000E+00

     total cpu time spent up to now is    24783.4 secs

     total energy              =   -3597.94945443 Ry
     estimated scf accuracy    <       0.00000001 Ry

     iteration # 17     ecut=   124.00 Ry     beta= 0.70
     Davidson diagonalization with overlap
     ethr =  7.00E-13,  avg # of iterations =  2.6

     negative rho (up, down):  7.392E-03 0.000E+00

     total cpu time spent up to now is    24841.4 secs

     total energy              =   -3597.94945443 Ry
     estimated scf accuracy    <          2.2E-10 Ry

     iteration # 18     ecut=   124.00 Ry     beta= 0.70
     Davidson diagonalization with overlap
     ethr =  1.00E-13,  avg # of iterations =  4.7

     negative rho (up, down):  7.392E-03 0.000E+00

     total cpu time spent up to now is    24912.9 secs

     End of self-consistent calculation

     Number of k-points >= 100: set verbosity='high' to print the bands.

     the Fermi energy is    16.1548 ev

!    total energy              =   -3597.94945443 Ry
     estimated scf accuracy    <          3.6E-11 Ry
     smearing contrib. (-TS)   =      -0.00007744 Ry
     internal energy E=F+TS    =   -3597.94937698 Ry

     The total energy is F=E-TS. E is the sum of the following terms:
     one-electron contribution =   -1318.54158529 Ry
     hartree contribution      =     779.53621032 Ry
     xc contribution           =    -429.03550582 Ry
     ewald contribution        =   -2020.69170101 Ry
     one-center paw contrib.   =    -609.21679518 Ry

     convergence has been achieved in  18 iterations

     negative rho (up, down):  7.392E-03 0.000E+00

     Forces acting on atoms (cartesian axes, Ry/au):

     atom    1 type  2   force =     0.00000000    0.00000000    0.00000000
     atom    2 type  2   force =     0.00000000    0.00000000    0.00000000
     atom    3 type  2   force =     0.00000000   -0.00000000    0.00000000
     atom    4 type  2   force =     0.00000000    0.00000000    0.00000000
     atom    5 type  2   force =    -0.00000000   -0.00000000   -0.00000000
     atom    6 type  2   force =     0.00000000    0.00000000    0.00000000
     atom    7 type  2   force =    -0.00000000    0.00000000   -0.00000000
     atom    8 type  2   force =    -0.00000000    0.00000000   -0.00000000
     atom    9 type  1   force =     0.00100605    0.00000000   -0.00093026
     atom   10 type  1   force =    -0.00192319   -0.00000000    0.00192319
     atom   11 type  1   force =    -0.00141689    0.00000000    0.00141689
     atom   12 type  1   force =     0.00141689    0.00000000   -0.00141689
     atom   13 type  1   force =     0.00192319    0.00000000   -0.00192319
     atom   14 type  1   force =    -0.00100605   -0.00000000    0.00093026
     atom   15 type  1   force =     0.00093026    0.00000000   -0.00100605
     atom   16 type  1   force =    -0.00093026    0.00000000    0.00100605
     atom   17 type  3   force =    -0.00088121    0.00000000    0.00126577
     atom   18 type  3   force =    -0.00126577    0.00000000    0.00088121
     atom   19 type  3   force =     0.00000170    0.00085484   -0.00000170
     atom   20 type  3   force =     0.00000170   -0.00085484   -0.00000170
     atom   21 type  3   force =     0.00126577    0.00000000   -0.00088121
     atom   22 type  3   force =     0.00088121    0.00000000   -0.00126577
     atom   23 type  3   force =    -0.00000170   -0.00085484    0.00000170
     atom   24 type  3   force =    -0.00000170    0.00085484    0.00000170

     Total force =     0.006540     Total SCF correction =     0.000014


     Computing stress (Cartesian axis) and pressure


     negative rho (up, down):  7.392E-03 0.000E+00
          total   stress  (Ry/bohr**3)                   (kbar)     P=       -1.17
  -0.00001074   0.00000000  -0.00000673           -1.58        0.00       -0.99
   0.00000000  -0.00000228   0.00000000            0.00       -0.33        0.00
  -0.00000673   0.00000000  -0.00001074           -0.99        0.00       -1.58

     Energy error            =      1.2E-04 Ry
     Gradient error          =      1.9E-03 Ry/Bohr
     Cell gradient error     =      1.6E+00 kbar

     number of scf cycles    =  17
     number of bfgs steps    =  16

     enthalpy           old  =   -3597.9493352532 Ry
     enthalpy           new  =   -3597.9494544269 Ry

     CASE: enthalpy          _new < enthalpy          _old

     new trust radius        =       0.0192877282 bohr
     new conv_thr            =       0.0000000001 Ry

     new unit-cell volume =   1547.47612 a.u.^3 (   229.31230 Ang^3 )
     density =      6.06653 g/cm^3

CELL_PARAMETERS (alat=  5.58242261)
   2.037421463   0.000000000  -0.016841325
   0.000000000   2.143007759   0.000000000
  -0.016841325   0.000000000   2.037421463

ATOMIC_POSITIONS (crystal)
Ti               0.0000000000        0.0000000000        0.0000000000
Ti               0.5000000000        0.5000000000       -0.0000000000
Ti               0.5000000000       -0.0000000000       -0.0000000000
Ti              -0.0000000000        0.5000000000        0.5000000000
Ti              -0.0000000000       -0.0000000000        0.5000000000
Ti               0.5000000000        0.5000000000        0.5000000000
Ti               0.5000000000        0.0000000000        0.5000000000
Ti              -0.0000000000        0.5000000000       -0.0000000000
Fe               0.2511514088        0.2500000000        0.2392628274
Fe               0.7894997430        0.7500000000        0.2105002570
Fe               0.7447057334        0.2500000000        0.2552942666
Fe               0.2552942666        0.7500000000        0.7447057334
Fe               0.2105002570        0.2500000000        0.7894997430
Fe               0.7488485912        0.7500000000        0.7607371726
Fe               0.7607371726        0.2500000000        0.7488485912
Fe               0.2392628274        0.7500000000        0.2511514088
H                0.4896722362        0.2500000000        0.7701389440
H                0.2298610560        0.2500000000        0.5103277638
H                0.2467509527        0.4996383304        0.7532490473
H                0.2467509527        0.0003616696        0.7532490473
H                0.7701389440        0.7500000000        0.4896722362
H                0.5103277638        0.7500000000        0.2298610560
H                0.7532490473        0.5003616696        0.2467509527
H                0.7532490473       -0.0003616696        0.2467509527



     Writing config-only to output data dir ./TiFeH_supercell.save/ :
     XML data file     NEW-OLD atomic charge density approx. for the potential
     New effective cutoffs (rho, wfc): 1699.92  121.44

     negative rho (up, down):  7.393E-03 0.000E+00

     total cpu time spent up to now is    24959.8 secs

     per-process dynamical memory:   708.5 Mb

     Self-consistent Calculation

     iteration #  1     ecut=   124.00 Ry     beta= 0.70
     Davidson diagonalization with overlap
     ethr =  1.00E-06,  avg # of iterations =  6.6

     Threshold (ethr) on eigenvalues was too large:
     Diagonalizing with lowered threshold

     Davidson diagonalization with overlap
     ethr =  6.57E-08,  avg # of iterations =  4.3

     negative rho (up, down):  7.387E-03 0.000E+00

     total cpu time spent up to now is    25151.8 secs

     total energy              =   -3597.94949190 Ry
     estimated scf accuracy    <       0.00016155 Ry

     iteration #  2     ecut=   124.00 Ry     beta= 0.70
     Davidson diagonalization with overlap
     ethr =  6.96E-08,  avg # of iterations =  5.8

     negative rho (up, down):  7.395E-03 0.000E+00

     total cpu time spent up to now is    25244.5 secs

     total energy              =   -3597.94914560 Ry
     estimated scf accuracy    <       0.00589348 Ry

     iteration #  3     ecut=   124.00 Ry     beta= 0.70
     Davidson diagonalization with overlap
     ethr =  6.96E-08,  avg # of iterations =  5.1

     negative rho (up, down):  7.392E-03 0.000E+00

     total cpu time spent up to now is    25334.0 secs

     total energy              =   -3597.94942412 Ry
     estimated scf accuracy    <       0.00157694 Ry

     iteration #  4     ecut=   124.00 Ry     beta= 0.70
     Davidson diagonalization with overlap
     ethr =  6.96E-08,  avg # of iterations =  5.0

     negative rho (up, down):  7.389E-03 0.000E+00

     total cpu time spent up to now is    25412.0 secs

     total energy              =   -3597.94943987 Ry
     estimated scf accuracy    <       0.00211202 Ry

     iteration #  5     ecut=   124.00 Ry     beta= 0.70
     Davidson diagonalization with overlap
     ethr =  6.96E-08,  avg # of iterations =  4.9

     negative rho (up, down):  7.392E-03 0.000E+00

     total cpu time spent up to now is    25490.1 secs

     total energy              =   -3597.94946321 Ry
     estimated scf accuracy    <       0.00164097 Ry

     iteration #  6     ecut=   124.00 Ry     beta= 0.70
     Davidson diagonalization with overlap
     ethr =  6.96E-08,  avg # of iterations =  4.7

     negative rho (up, down):  7.393E-03 0.000E+00

     total cpu time spent up to now is    25566.6 secs

     total energy              =   -3597.94950138 Ry
     estimated scf accuracy    <       0.00114166 Ry

     iteration #  7     ecut=   124.00 Ry     beta= 0.70
     Davidson diagonalization with overlap
     ethr =  6.96E-08,  avg # of iterations =  3.3

     negative rho (up, down):  7.392E-03 0.000E+00

     total cpu time spent up to now is    25629.1 secs

     total energy              =   -3597.94953948 Ry
     estimated scf accuracy    <       0.00009939 Ry

     iteration #  8     ecut=   124.00 Ry     beta= 0.70
     Davidson diagonalization with overlap
     ethr =  4.28E-08,  avg # of iterations =  3.1

     negative rho (up, down):  7.392E-03 0.000E+00

     total cpu time spent up to now is    25688.0 secs

     total energy              =   -3597.94954822 Ry
     estimated scf accuracy    <       0.00000285 Ry

     iteration #  9     ecut=   124.00 Ry     beta= 0.70
     Davidson diagonalization with overlap
     ethr =  1.23E-09,  avg # of iterations =  5.1

     negative rho (up, down):  7.392E-03 0.000E+00

     total cpu time spent up to now is    25774.6 secs

     total energy              =   -3597.94954984 Ry
     estimated scf accuracy    <       0.00000357 Ry

     iteration # 10     ecut=   124.00 Ry     beta= 0.70
     Davidson diagonalization with overlap
     ethr =  1.23E-09,  avg # of iterations =  1.2

     negative rho (up, down):  7.392E-03 0.000E+00

     total cpu time spent up to now is    25825.0 secs

     total energy              =   -3597.94954982 Ry
     estimated scf accuracy    <       0.00000104 Ry

     iteration # 11     ecut=   124.00 Ry     beta= 0.70
     Davidson diagonalization with overlap
     ethr =  4.48E-10,  avg # of iterations =  3.3

     negative rho (up, down):  7.392E-03 0.000E+00

     total cpu time spent up to now is    25884.1 secs

     total energy              =   -3597.94954987 Ry
     estimated scf accuracy    <       0.00000004 Ry

     iteration # 12     ecut=   124.00 Ry     beta= 0.70
     Davidson diagonalization with overlap
     ethr =  1.87E-11,  avg # of iterations =  5.6

     negative rho (up, down):  7.392E-03 0.000E+00

     total cpu time spent up to now is    25973.3 secs

     total energy              =   -3597.94954990 Ry
     estimated scf accuracy    <       0.00000006 Ry

     iteration # 13     ecut=   124.00 Ry     beta= 0.70
     Davidson diagonalization with overlap
     ethr =  1.87E-11,  avg # of iterations =  1.0

     negative rho (up, down):  7.392E-03 0.000E+00

     total cpu time spent up to now is    26022.7 secs

     total energy              =   -3597.94954990 Ry
     estimated scf accuracy    <       0.00000002 Ry

     iteration # 14     ecut=   124.00 Ry     beta= 0.70
     Davidson diagonalization with overlap
     ethr =  1.00E-11,  avg # of iterations =  1.8

     negative rho (up, down):  7.392E-03 0.000E+00

     total cpu time spent up to now is    26075.8 secs

     total energy              =   -3597.94954990 Ry
     estimated scf accuracy    <          7.1E-09 Ry

     iteration # 15     ecut=   124.00 Ry     beta= 0.70
     Davidson diagonalization with overlap
     ethr =  3.08E-12,  avg # of iterations =  4.5

     negative rho (up, down):  7.392E-03 0.000E+00

     total cpu time spent up to now is    26140.1 secs

     total energy              =   -3597.94954990 Ry
     estimated scf accuracy    <          7.4E-09 Ry

     iteration # 16     ecut=   124.00 Ry     beta= 0.70
     Davidson diagonalization with overlap
     ethr =  3.08E-12,  avg # of iterations =  1.1

     negative rho (up, down):  7.392E-03 0.000E+00

     total cpu time spent up to now is    26189.7 secs

     total energy              =   -3597.94954990 Ry
     estimated scf accuracy    <          2.6E-10 Ry

     iteration # 17     ecut=   124.00 Ry     beta= 0.70
     Davidson diagonalization with overlap
     ethr =  1.10E-13,  avg # of iterations =  5.2

     negative rho (up, down):  7.392E-03 0.000E+00

     total cpu time spent up to now is    26284.6 secs

     total energy              =   -3597.94954990 Ry
     estimated scf accuracy    <          1.1E-09 Ry

     iteration # 18     ecut=   124.00 Ry     beta= 0.70
     Davidson diagonalization with overlap
     ethr =  1.10E-13,  avg # of iterations =  2.1

     negative rho (up, down):  7.392E-03 0.000E+00

     total cpu time spent up to now is    26341.3 secs

     total energy              =   -3597.94954990 Ry
     estimated scf accuracy    <          1.2E-10 Ry

     iteration # 19     ecut=   124.00 Ry     beta= 0.70
     Davidson diagonalization with overlap
     ethr =  1.00E-13,  avg # of iterations =  1.1

     negative rho (up, down):  7.392E-03 0.000E+00

     total cpu time spent up to now is    26390.8 secs

     End of self-consistent calculation

     Number of k-points >= 100: set verbosity='high' to print the bands.

     the Fermi energy is    16.1560 ev

!    total energy              =   -3597.94954990 Ry
     estimated scf accuracy    <          1.8E-11 Ry
     smearing contrib. (-TS)   =      -0.00007788 Ry
     internal energy E=F+TS    =   -3597.94947202 Ry

     The total energy is F=E-TS. E is the sum of the following terms:
     one-electron contribution =   -1318.27274347 Ry
     hartree contribution      =     779.41206946 Ry
     xc contribution           =    -429.03747243 Ry
     ewald contribution        =   -2020.83451137 Ry
     one-center paw contrib.   =    -609.21681421 Ry

     convergence has been achieved in  19 iterations

     negative rho (up, down):  7.392E-03 0.000E+00

     Forces acting on atoms (cartesian axes, Ry/au):

     atom    1 type  2   force =     0.00000000    0.00000000    0.00000000
     atom    2 type  2   force =     0.00000000    0.00000000    0.00000000
     atom    3 type  2   force =     0.00000000   -0.00000000    0.00000000
     atom    4 type  2   force =     0.00000000    0.00000000    0.00000000
     atom    5 type  2   force =    -0.00000000   -0.00000000   -0.00000000
     atom    6 type  2   force =     0.00000000    0.00000000    0.00000000
     atom    7 type  2   force =     0.00000000    0.00000000    0.00000000
     atom    8 type  2   force =     0.00000000    0.00000000    0.00000000
     atom    9 type  1   force =     0.00100858    0.00000000   -0.00166365
     atom   10 type  1   force =    -0.00132901   -0.00000000    0.00132901
     atom   11 type  1   force =    -0.00097675    0.00000000    0.00097675
     atom   12 type  1   force =     0.00097675   -0.00000000   -0.00097675
     atom   13 type  1   force =     0.00132901    0.00000000   -0.00132901
     atom   14 type  1   force =    -0.00100858    0.00000000    0.00166365
     atom   15 type  1   force =     0.00166365    0.00000000   -0.00100858
     atom   16 type  1   force =    -0.00166365   -0.00000000    0.00100858
     atom   17 type  3   force =    -0.00070306    0.00000000    0.00091305
     atom   18 type  3   force =    -0.00091305    0.00000000    0.00070306
     atom   19 type  3   force =    -0.00007848    0.00076825    0.00007848
     atom   20 type  3   force =    -0.00007848   -0.00076825    0.00007848
     atom   21 type  3   force =     0.00091305    0.00000000   -0.00070306
     atom   22 type  3   force =     0.00070306    0.00000000   -0.00091305
     atom   23 type  3   force =     0.00007848   -0.00076825   -0.00007848
     atom   24 type  3   force =     0.00007848    0.00076825   -0.00007848

     Total force =     0.005809     Total SCF correction =     0.000004


     Computing stress (Cartesian axis) and pressure


     negative rho (up, down):  7.392E-03 0.000E+00
          total   stress  (Ry/bohr**3)                   (kbar)     P=       -0.86
  -0.00000403   0.00000000  -0.00000506           -0.59        0.00       -0.74
   0.00000000  -0.00000956   0.00000000            0.00       -1.41        0.00
  -0.00000506   0.00000000  -0.00000403           -0.74        0.00       -0.59

     Energy error            =      9.5E-05 Ry
     Gradient error          =      1.7E-03 Ry/Bohr
     Cell gradient error     =      1.4E+00 kbar

     number of scf cycles    =  18
     number of bfgs steps    =  17

     enthalpy           old  =   -3597.9494544269 Ry
     enthalpy           new  =   -3597.9495498986 Ry

     CASE: enthalpy          _new < enthalpy          _old

     new trust radius        =       0.0140598771 bohr
     new conv_thr            =            1.0E-10 Ry

     new unit-cell volume =   1547.01965 a.u.^3 (   229.24466 Ang^3 )
     density =      6.06832 g/cm^3

CELL_PARAMETERS (alat=  5.58242261)
   2.036573597   0.000000000  -0.017566131
   0.000000000   2.144172839   0.000000000
  -0.017566131   0.000000000   2.036573597

ATOMIC_POSITIONS (crystal)
Ti               0.0000000000        0.0000000000        0.0000000000
Ti               0.5000000000        0.5000000000       -0.0000000000
Ti               0.5000000000       -0.0000000000       -0.0000000000
Ti               0.0000000000        0.5000000000        0.5000000000
Ti               0.0000000000       -0.0000000000        0.5000000000
Ti               0.5000000000        0.5000000000        0.5000000000
Ti               0.5000000000        0.0000000000        0.5000000000
Ti              -0.0000000000        0.5000000000       -0.0000000000
Fe               0.2510877014        0.2500000000        0.2393413395
Fe               0.7892610287        0.7500000000        0.2107389713
Fe               0.7441907624        0.2500000000        0.2558092376
Fe               0.2558092376        0.7500000000        0.7441907624
Fe               0.2107389713        0.2500000000        0.7892610287
Fe               0.7489122986        0.7500000000        0.7606586605
Fe               0.7606586605        0.2500000000        0.7489122986
Fe               0.2393413395        0.7500000000        0.2510877014
H                0.4894380902        0.2500000000        0.7713488282
H                0.2286511718        0.2500000000        0.5105619098
H                0.2466408863        0.4997810478        0.7533591137
H                0.2466408863        0.0002189522        0.7533591137
H                0.7713488282        0.7500000000        0.4894380902
H                0.5105619098        0.7500000000        0.2286511718
H                0.7533591137        0.5002189522        0.2466408863
H                0.7533591137       -0.0002189522        0.2466408863



     Writing config-only to output data dir ./TiFeH_supercell.save/ :
     XML data file     NEW-OLD atomic charge density approx. for the potential
     New effective cutoffs (rho, wfc): 1702.53  121.63

     negative rho (up, down):  7.392E-03 0.000E+00

     total cpu time spent up to now is    26436.7 secs

     per-process dynamical memory:   708.5 Mb

     Self-consistent Calculation

     iteration #  1     ecut=   124.00 Ry     beta= 0.70
     Davidson diagonalization with overlap
     ethr =  1.00E-06,  avg # of iterations =  6.0

     Threshold (ethr) on eigenvalues was too large:
     Diagonalizing with lowered threshold

     Davidson diagonalization with overlap
     ethr =  6.07E-08,  avg # of iterations =  3.9

     negative rho (up, down):  7.390E-03 0.000E+00

     total cpu time spent up to now is    26608.2 secs

     total energy              =   -3597.94952822 Ry
     estimated scf accuracy    <       0.00015079 Ry

     iteration #  2     ecut=   124.00 Ry     beta= 0.70
     Davidson diagonalization with overlap
     ethr =  6.50E-08,  avg # of iterations =  7.4

     negative rho (up, down):  7.395E-03 0.000E+00

     total cpu time spent up to now is    26707.4 secs

     total energy              =   -3597.94898067 Ry
     estimated scf accuracy    <       0.01187956 Ry

     iteration #  3     ecut=   124.00 Ry     beta= 0.70
     Davidson diagonalization with overlap
     ethr =  6.50E-08,  avg # of iterations =  5.6

     negative rho (up, down):  7.393E-03 0.000E+00

     total cpu time spent up to now is    26797.4 secs

     total energy              =   -3597.94944575 Ry
     estimated scf accuracy    <       0.00348750 Ry

     iteration #  4     ecut=   124.00 Ry     beta= 0.70
     Davidson diagonalization with overlap
     ethr =  6.50E-08,  avg # of iterations =  5.0

     negative rho (up, down):  7.391E-03 0.000E+00

     total cpu time spent up to now is    26875.7 secs

     total energy              =   -3597.94957139 Ry
     estimated scf accuracy    <       0.00044037 Ry

     iteration #  5     ecut=   124.00 Ry     beta= 0.70
     Davidson diagonalization with overlap
     ethr =  6.50E-08,  avg # of iterations =  4.6

     negative rho (up, down):  7.391E-03 0.000E+00

     total cpu time spent up to now is    26945.1 secs

     total energy              =   -3597.94956039 Ry
     estimated scf accuracy    <       0.00109386 Ry

     iteration #  6     ecut=   124.00 Ry     beta= 0.70
     Davidson diagonalization with overlap
     ethr =  6.50E-08,  avg # of iterations =  4.1

     negative rho (up, down):  7.393E-03 0.000E+00

     total cpu time spent up to now is    27014.2 secs

     total energy              =   -3597.94957211 Ry
     estimated scf accuracy    <       0.00088380 Ry

     iteration #  7     ecut=   124.00 Ry     beta= 0.70
     Davidson diagonalization with overlap
     ethr =  6.50E-08,  avg # of iterations =  3.8

     negative rho (up, down):  7.392E-03 0.000E+00

     total cpu time spent up to now is    27077.7 secs

     total energy              =   -3597.94960357 Ry
     estimated scf accuracy    <       0.00013284 Ry

     iteration #  8     ecut=   124.00 Ry     beta= 0.70
     Davidson diagonalization with overlap
     ethr =  5.73E-08,  avg # of iterations =  2.5

     negative rho (up, down):  7.393E-03 0.000E+00

     total cpu time spent up to now is    27133.6 secs

     total energy              =   -3597.94961293 Ry
     estimated scf accuracy    <       0.00000155 Ry

     iteration #  9     ecut=   124.00 Ry     beta= 0.70
     Davidson diagonalization with overlap
     ethr =  6.68E-10,  avg # of iterations =  6.6

     negative rho (up, down):  7.393E-03 0.000E+00

     total cpu time spent up to now is    27227.5 secs

     total energy              =   -3597.94961465 Ry
     estimated scf accuracy    <       0.00000166 Ry

     iteration # 10     ecut=   124.00 Ry     beta= 0.70
     Davidson diagonalization with overlap
     ethr =  6.68E-10,  avg # of iterations =  1.3

     negative rho (up, down):  7.392E-03 0.000E+00

     total cpu time spent up to now is    27278.3 secs

     total energy              =   -3597.94961465 Ry
     estimated scf accuracy    <       0.00000035 Ry

     iteration # 11     ecut=   124.00 Ry     beta= 0.70
     Davidson diagonalization with overlap
     ethr =  1.50E-10,  avg # of iterations =  4.8

     negative rho (up, down):  7.393E-03 0.000E+00

     total cpu time spent up to now is    27346.1 secs

     total energy              =   -3597.94961470 Ry
     estimated scf accuracy    <       0.00000001 Ry

     iteration # 12     ecut=   124.00 Ry     beta= 0.70
     Davidson diagonalization with overlap
     ethr =  5.23E-12,  avg # of iterations =  5.0

     negative rho (up, down):  7.392E-03 0.000E+00

     total cpu time spent up to now is    27433.1 secs

     total energy              =   -3597.94961470 Ry
     estimated scf accuracy    <       0.00000001 Ry

     iteration # 13     ecut=   124.00 Ry     beta= 0.70
     Davidson diagonalization with overlap
     ethr =  5.09E-12,  avg # of iterations =  1.0

     negative rho (up, down):  7.392E-03 0.000E+00

     total cpu time spent up to now is    27481.8 secs

     total energy              =   -3597.94961470 Ry
     estimated scf accuracy    <          9.9E-09 Ry

     iteration # 14     ecut=   124.00 Ry     beta= 0.70
     Davidson diagonalization with overlap
     ethr =  4.26E-12,  avg # of iterations =  1.2

     negative rho (up, down):  7.392E-03 0.000E+00

     total cpu time spent up to now is    27531.9 secs

     total energy              =   -3597.94961470 Ry
     estimated scf accuracy    <          3.5E-09 Ry

     iteration # 15     ecut=   124.00 Ry     beta= 0.70
     Davidson diagonalization with overlap
     ethr =  1.50E-12,  avg # of iterations =  3.3

     negative rho (up, down):  7.393E-03 0.000E+00

     total cpu time spent up to now is    27590.5 secs

     total energy              =   -3597.94961470 Ry
     estimated scf accuracy    <          2.1E-09 Ry

     iteration # 16     ecut=   124.00 Ry     beta= 0.70
     Davidson diagonalization with overlap
     ethr =  9.04E-13,  avg # of iterations =  3.9

     negative rho (up, down):  7.393E-03 0.000E+00

     total cpu time spent up to now is    27652.4 secs

     total energy              =   -3597.94961470 Ry
     estimated scf accuracy    <          5.7E-10 Ry

     iteration # 17     ecut=   124.00 Ry     beta= 0.70
     Davidson diagonalization with overlap
     ethr =  2.45E-13,  avg # of iterations =  2.3

     negative rho (up, down):  7.393E-03 0.000E+00

     total cpu time spent up to now is    27708.5 secs

     End of self-consistent calculation

     Number of k-points >= 100: set verbosity='high' to print the bands.

     the Fermi energy is    16.1617 ev

!    total energy              =   -3597.94961470 Ry
     estimated scf accuracy    <          8.6E-11 Ry
     smearing contrib. (-TS)   =      -0.00007746 Ry
     internal energy E=F+TS    =   -3597.94953724 Ry

     The total energy is F=E-TS. E is the sum of the following terms:
     one-electron contribution =   -1317.76026250 Ry
     hartree contribution      =     779.20325428 Ry
     xc contribution           =    -429.04226893 Ry
     ewald contribution        =   -2021.13339125 Ry
     one-center paw contrib.   =    -609.21686883 Ry

     convergence has been achieved in  17 iterations

     negative rho (up, down):  7.393E-03 0.000E+00

     Forces acting on atoms (cartesian axes, Ry/au):

     atom    1 type  2   force =     0.00000000    0.00000000    0.00000000
     atom    2 type  2   force =     0.00000000   -0.00000000    0.00000000
     atom    3 type  2   force =     0.00000000   -0.00000000    0.00000000
     atom    4 type  2   force =    -0.00000000    0.00000000   -0.00000000
     atom    5 type  2   force =     0.00000000    0.00000000    0.00000000
     atom    6 type  2   force =    -0.00000000    0.00000000   -0.00000000
     atom    7 type  2   force =     0.00000000    0.00000000    0.00000000
     atom    8 type  2   force =    -0.00000000    0.00000000   -0.00000000
     atom    9 type  1   force =     0.00078953    0.00000000   -0.00155325
     atom   10 type  1   force =    -0.00047073   -0.00000000    0.00047073
     atom   11 type  1   force =    -0.00041232    0.00000000    0.00041232
     atom   12 type  1   force =     0.00041232   -0.00000000   -0.00041232
     atom   13 type  1   force =     0.00047073   -0.00000000   -0.00047073
     atom   14 type  1   force =    -0.00078953   -0.00000000    0.00155325
     atom   15 type  1   force =     0.00155325    0.00000000   -0.00078953
     atom   16 type  1   force =    -0.00155325    0.00000000    0.00078953
     atom   17 type  3   force =     0.00000641   -0.00000000    0.00060542
     atom   18 type  3   force =    -0.00060542    0.00000000   -0.00000641
     atom   19 type  3   force =    -0.00016504    0.00038051    0.00016504
     atom   20 type  3   force =    -0.00016504   -0.00038051    0.00016504
     atom   21 type  3   force =     0.00060542    0.00000000    0.00000641
     atom   22 type  3   force =    -0.00000641   -0.00000000   -0.00060542
     atom   23 type  3   force =     0.00016504   -0.00038051   -0.00016504
     atom   24 type  3   force =     0.00016504    0.00038051   -0.00016504

     Total force =     0.003997     Total SCF correction =     0.000025


     Computing stress (Cartesian axis) and pressure


     negative rho (up, down):  7.393E-03 0.000E+00
          total   stress  (Ry/bohr**3)                   (kbar)     P=       -0.20
   0.00000286   0.00000000  -0.00000191            0.42        0.00       -0.28
   0.00000000  -0.00000983   0.00000000            0.00       -1.45        0.00
  -0.00000191   0.00000000   0.00000286           -0.28        0.00        0.42

     Energy error            =      6.5E-05 Ry
     Gradient error          =      1.6E-03 Ry/Bohr
     Cell gradient error     =      1.4E+00 kbar

     number of scf cycles    =  19
     number of bfgs steps    =  18

     enthalpy           old  =   -3597.9495498986 Ry
     enthalpy           new  =   -3597.9496147013 Ry

     CASE: enthalpy          _new < enthalpy          _old

     new trust radius        =       0.0061940166 bohr
     new conv_thr            =            1.0E-10 Ry

     new unit-cell volume =   1546.68347 a.u.^3 (   229.19484 Ang^3 )
     density =      6.06964 g/cm^3

CELL_PARAMETERS (alat=  5.58242261)
   2.036331776   0.000000000  -0.017880526
   0.000000000   2.144221866   0.000000000
  -0.017880526   0.000000000   2.036331776

ATOMIC_POSITIONS (crystal)
Ti               0.0000000000        0.0000000000        0.0000000000
Ti               0.5000000000        0.5000000000       -0.0000000000
Ti               0.5000000000       -0.0000000000       -0.0000000000
Ti               0.0000000000        0.5000000000        0.5000000000
Ti               0.0000000000       -0.0000000000        0.5000000000
Ti               0.5000000000        0.5000000000        0.5000000000
Ti               0.5000000000        0.0000000000        0.5000000000
Ti              -0.0000000000        0.5000000000       -0.0000000000
Fe               0.2511131975        0.2500000000        0.2390881592
Fe               0.7889291788        0.7500000000        0.2110708212
Fe               0.7439314410        0.2500000000        0.2560685590
Fe               0.2560685590        0.7500000000        0.7439314410
Fe               0.2110708212        0.2500000000        0.7889291788
Fe               0.7488868025        0.7500000000        0.7609118408
Fe               0.7609118408        0.2500000000        0.7488868025
Fe               0.2390881592        0.7500000000        0.2511131975
H                0.4894479315        0.2500000000        0.7718937044
H                0.2281062956        0.2500000000        0.5105520685
H                0.2465840346        0.4999048690        0.7534159654
H                0.2465840346        0.0000951310        0.7534159654
H                0.7718937044        0.7500000000        0.4894479315
H                0.5105520685        0.7500000000        0.2281062956
H                0.7534159654        0.5000951310        0.2465840346
H                0.7534159654       -0.0000951310        0.2465840346



     Writing config-only to output data dir ./TiFeH_supercell.save/ :
     XML data file     NEW-OLD atomic charge density approx. for the potential
     New effective cutoffs (rho, wfc): 1703.46  121.69

     negative rho (up, down):  7.392E-03 0.000E+00

     total cpu time spent up to now is    27754.0 secs

     per-process dynamical memory:   708.5 Mb

     Self-consistent Calculation

     iteration #  1     ecut=   124.00 Ry     beta= 0.70
     Davidson diagonalization with overlap
     ethr =  1.00E-06,  avg # of iterations =  6.0

     Threshold (ethr) on eigenvalues was too large:
     Diagonalizing with lowered threshold

     Davidson diagonalization with overlap
     ethr =  2.91E-08,  avg # of iterations =  4.2

     negative rho (up, down):  7.393E-03 0.000E+00

     total cpu time spent up to now is    27941.9 secs

     total energy              =   -3597.94961408 Ry
     estimated scf accuracy    <       0.00006743 Ry

     iteration #  2     ecut=   124.00 Ry     beta= 0.70
     Davidson diagonalization with overlap
     ethr =  2.91E-08,  avg # of iterations =  7.4

     negative rho (up, down):  7.394E-03 0.000E+00

     total cpu time spent up to now is    28043.2 secs

     total energy              =   -3597.94937491 Ry
     estimated scf accuracy    <       0.00520433 Ry

     iteration #  3     ecut=   124.00 Ry     beta= 0.70
     Davidson diagonalization with overlap
     ethr =  2.91E-08,  avg # of iterations =  5.8

     negative rho (up, down):  7.393E-03 0.000E+00

     total cpu time spent up to now is    28136.2 secs

     total energy              =   -3597.94957045 Ry
     estimated scf accuracy    <       0.00154044 Ry

     iteration #  4     ecut=   124.00 Ry     beta= 0.70
     Davidson diagonalization with overlap
     ethr =  2.91E-08,  avg # of iterations =  5.0

     negative rho (up, down):  7.393E-03 0.000E+00

     total cpu time spent up to now is    28218.1 secs

     total energy              =   -3597.94962875 Ry
     estimated scf accuracy    <       0.00016709 Ry

     iteration #  5     ecut=   124.00 Ry     beta= 0.70
     Davidson diagonalization with overlap
     ethr =  2.91E-08,  avg # of iterations =  4.6

     negative rho (up, down):  7.392E-03 0.000E+00

     total cpu time spent up to now is    28290.2 secs

     total energy              =   -3597.94961551 Ry
     estimated scf accuracy    <       0.00081482 Ry

     iteration #  6     ecut=   124.00 Ry     beta= 0.70
     Davidson diagonalization with overlap
     ethr =  2.91E-08,  avg # of iterations =  4.1

     negative rho (up, down):  7.393E-03 0.000E+00

     total cpu time spent up to now is    28361.8 secs

     total energy              =   -3597.94963412 Ry
     estimated scf accuracy    <       0.00023058 Ry

     iteration #  7     ecut=   124.00 Ry     beta= 0.70
     Davidson diagonalization with overlap
     ethr =  2.91E-08,  avg # of iterations =  3.8

     negative rho (up, down):  7.392E-03 0.000E+00

     total cpu time spent up to now is    28424.9 secs

     total energy              =   -3597.94964565 Ry
     estimated scf accuracy    <       0.00001289 Ry

     iteration #  8     ecut=   124.00 Ry     beta= 0.70
     Davidson diagonalization with overlap
     ethr =  5.56E-09,  avg # of iterations =  4.4

     negative rho (up, down):  7.393E-03 0.000E+00

     total cpu time spent up to now is    28494.2 secs

     total energy              =   -3597.94964750 Ry
     estimated scf accuracy    <       0.00000700 Ry

     iteration #  9     ecut=   124.00 Ry     beta= 0.70
     Davidson diagonalization with overlap
     ethr =  3.02E-09,  avg # of iterations =  1.8

     negative rho (up, down):  7.393E-03 0.000E+00

     total cpu time spent up to now is    28549.5 secs

     total energy              =   -3597.94964791 Ry
     estimated scf accuracy    <       0.00000030 Ry

     iteration # 10     ecut=   124.00 Ry     beta= 0.70
     Davidson diagonalization with overlap
     ethr =  1.27E-10,  avg # of iterations =  5.0

     negative rho (up, down):  7.393E-03 0.000E+00

     total cpu time spent up to now is    28632.2 secs

     total energy              =   -3597.94964800 Ry
     estimated scf accuracy    <       0.00000026 Ry

     iteration # 11     ecut=   124.00 Ry     beta= 0.70
     Davidson diagonalization with overlap
     ethr =  1.12E-10,  avg # of iterations =  1.4

     negative rho (up, down):  7.393E-03 0.000E+00

     total cpu time spent up to now is    28685.1 secs

     total energy              =   -3597.94964801 Ry
     estimated scf accuracy    <       0.00000002 Ry

     iteration # 12     ecut=   124.00 Ry     beta= 0.70
     Davidson diagonalization with overlap
     ethr =  1.01E-11,  avg # of iterations =  5.1

     negative rho (up, down):  7.393E-03 0.000E+00

     total cpu time spent up to now is    28765.3 secs

     total energy              =   -3597.94964801 Ry
     estimated scf accuracy    <       0.00000002 Ry

     iteration # 13     ecut=   124.00 Ry     beta= 0.70
     Davidson diagonalization with overlap
     ethr =  7.25E-12,  avg # of iterations =  2.0

     negative rho (up, down):  7.393E-03 0.000E+00

     total cpu time spent up to now is    28822.2 secs

     total energy              =   -3597.94964801 Ry
     estimated scf accuracy    <       0.00000003 Ry

     iteration # 14     ecut=   124.00 Ry     beta= 0.70
     Davidson diagonalization with overlap
     ethr =  7.25E-12,  avg # of iterations =  1.0

     negative rho (up, down):  7.393E-03 0.000E+00

     total cpu time spent up to now is    28872.5 secs

     total energy              =   -3597.94964801 Ry
     estimated scf accuracy    <          3.7E-09 Ry

     iteration # 15     ecut=   124.00 Ry     beta= 0.70
     Davidson diagonalization with overlap
     ethr =  1.61E-12,  avg # of iterations =  2.3

     negative rho (up, down):  7.393E-03 0.000E+00

     total cpu time spent up to now is    28928.9 secs

     total energy              =   -3597.94964801 Ry
     estimated scf accuracy    <          1.3E-09 Ry

     iteration # 16     ecut=   124.00 Ry     beta= 0.70
     Davidson diagonalization with overlap
     ethr =  5.41E-13,  avg # of iterations =  4.6

     negative rho (up, down):  7.393E-03 0.000E+00

     total cpu time spent up to now is    28997.8 secs

     total energy              =   -3597.94964801 Ry
     estimated scf accuracy    <          6.5E-10 Ry

     iteration # 17     ecut=   124.00 Ry     beta= 0.70
     Davidson diagonalization with overlap
     ethr =  2.78E-13,  avg # of iterations =  2.1

     negative rho (up, down):  7.393E-03 0.000E+00

     total cpu time spent up to now is    29055.1 secs

     End of self-consistent calculation

     Number of k-points >= 100: set verbosity='high' to print the bands.

     the Fermi energy is    16.1661 ev

!    total energy              =   -3597.94964801 Ry
     estimated scf accuracy    <          8.0E-11 Ry
     smearing contrib. (-TS)   =      -0.00007837 Ry
     internal energy E=F+TS    =   -3597.94956965 Ry

     The total energy is F=E-TS. E is the sum of the following terms:
     one-electron contribution =   -1317.44756388 Ry
     hartree contribution      =     779.08220749 Ry
     xc contribution           =    -429.04550456 Ry
     ewald contribution        =   -2021.32180086 Ry
     one-center paw contrib.   =    -609.21690784 Ry

     convergence has been achieved in  17 iterations

     negative rho (up, down):  7.393E-03 0.000E+00

     Forces acting on atoms (cartesian axes, Ry/au):

     atom    1 type  2   force =     0.00000000    0.00000000    0.00000000
     atom    2 type  2   force =     0.00000000    0.00000000    0.00000000
     atom    3 type  2   force =     0.00000000    0.00000000    0.00000000
     atom    4 type  2   force =    -0.00000000    0.00000000   -0.00000000
     atom    5 type  2   force =     0.00000000    0.00000000    0.00000000
     atom    6 type  2   force =    -0.00000000    0.00000000   -0.00000000
     atom    7 type  2   force =     0.00000000    0.00000000    0.00000000
     atom    8 type  2   force =     0.00000000    0.00000000    0.00000000
     atom    9 type  1   force =     0.00062260    0.00000000   -0.00085369
     atom   10 type  1   force =     0.00010145   -0.00000000   -0.00010145
     atom   11 type  1   force =    -0.00005394    0.00000000    0.00005394
     atom   12 type  1   force =     0.00005394   -0.00000000   -0.00005394
     atom   13 type  1   force =    -0.00010145   -0.00000000    0.00010145
     atom   14 type  1   force =    -0.00062260    0.00000000    0.00085369
     atom   15 type  1   force =     0.00085369   -0.00000000   -0.00062260
     atom   16 type  1   force =    -0.00085369   -0.00000000    0.00062260
     atom   17 type  3   force =     0.00062364    0.00000000    0.00039568
     atom   18 type  3   force =    -0.00039568   -0.00000000   -0.00062364
     atom   19 type  3   force =    -0.00020406   -0.00000877    0.00020406
     atom   20 type  3   force =    -0.00020406    0.00000877    0.00020406
     atom   21 type  3   force =     0.00039568   -0.00000000    0.00062364
     atom   22 type  3   force =    -0.00062364    0.00000000   -0.00039568
     atom   23 type  3   force =     0.00020406    0.00000877   -0.00020406
     atom   24 type  3   force =     0.00020406   -0.00000877   -0.00020406

     Total force =     0.002652     Total SCF correction =     0.000017


     Computing stress (Cartesian axis) and pressure


     negative rho (up, down):  7.393E-03 0.000E+00
          total   stress  (Ry/bohr**3)                   (kbar)     P=        0.24
   0.00000542   0.00000000   0.00000022            0.80        0.00        0.03
   0.00000000  -0.00000588   0.00000000            0.00       -0.86        0.00
   0.00000022   0.00000000   0.00000542            0.03        0.00        0.80

     Energy error            =      3.3E-05 Ry
     Gradient error          =      8.5E-04 Ry/Bohr
     Cell gradient error     =      8.6E-01 kbar

     number of scf cycles    =  20
     number of bfgs steps    =  19

     enthalpy           old  =   -3597.9496147013 Ry
     enthalpy           new  =   -3597.9496480141 Ry

     CASE: enthalpy          _new < enthalpy          _old

     new trust radius        =       0.0042958360 bohr
     new conv_thr            =            1.0E-10 Ry

     new unit-cell volume =   1546.61317 a.u.^3 (   229.18443 Ang^3 )
     density =      6.06992 g/cm^3

CELL_PARAMETERS (alat=  5.58242261)
   2.036515073   0.000000000  -0.017863920
   0.000000000   2.143738121   0.000000000
  -0.017863920   0.000000000   2.036515073

ATOMIC_POSITIONS (crystal)
Ti               0.0000000000        0.0000000000        0.0000000000
Ti               0.5000000000        0.5000000000       -0.0000000000
Ti               0.5000000000       -0.0000000000       -0.0000000000
Ti               0.0000000000        0.5000000000        0.5000000000
Ti               0.0000000000       -0.0000000000        0.5000000000
Ti               0.5000000000        0.5000000000        0.5000000000
Ti               0.5000000000        0.0000000000        0.5000000000
Ti              -0.0000000000        0.5000000000       -0.0000000000
Fe               0.2511725486        0.2500000000        0.2387499511
Fe               0.7886642894        0.7500000000        0.2113357106
Fe               0.7438434277        0.2500000000        0.2561565723
Fe               0.2561565723        0.7500000000        0.7438434277
Fe               0.2113357106        0.2500000000        0.7886642894
Fe               0.7488274514        0.7500000000        0.7612500489
Fe               0.7612500489        0.2500000000        0.7488274514
Fe               0.2387499511        0.7500000000        0.2511725486
H                0.4896240350        0.2500000000        0.7720944470
H                0.2279055530        0.2500000000        0.5103759650
H                0.2465441096        0.4999707643        0.7534558904
H                0.2465441096        0.0000292357        0.7534558904
H                0.7720944470        0.7500000000        0.4896240350
H                0.5103759650        0.7500000000        0.2279055530
H                0.7534558904        0.5000292357        0.2465441096
H                0.7534558904       -0.0000292357        0.2465441096



     Writing config-only to output data dir ./TiFeH_supercell.save/ :
     XML data file     NEW-OLD atomic charge density approx. for the potential
     New effective cutoffs (rho, wfc): 1703.12  121.67

     negative rho (up, down):  7.393E-03 0.000E+00

     total cpu time spent up to now is    29101.9 secs

     per-process dynamical memory:   708.5 Mb

     Self-consistent Calculation

     iteration #  1     ecut=   124.00 Ry     beta= 0.70
     Davidson diagonalization with overlap
     ethr =  1.00E-06,  avg # of iterations =  6.0

     Threshold (ethr) on eigenvalues was too large:
     Diagonalizing with lowered threshold

     Davidson diagonalization with overlap
     ethr =  1.48E-08,  avg # of iterations =  4.7

     negative rho (up, down):  7.395E-03 0.000E+00

     total cpu time spent up to now is    29296.6 secs

     total energy              =   -3597.94965797 Ry
     estimated scf accuracy    <       0.00002871 Ry

     iteration #  2     ecut=   124.00 Ry     beta= 0.70
     Davidson diagonalization with overlap
     ethr =  1.24E-08,  avg # of iterations =  6.5

     negative rho (up, down):  7.393E-03 0.000E+00

     total cpu time spent up to now is    29392.0 secs

     total energy              =   -3597.94959718 Ry
     estimated scf accuracy    <       0.00103281 Ry

     iteration #  3     ecut=   124.00 Ry     beta= 0.70
     Davidson diagonalization with overlap
     ethr =  1.24E-08,  avg # of iterations =  5.0

     negative rho (up, down):  7.392E-03 0.000E+00

     total cpu time spent up to now is    29481.2 secs

     total energy              =   -3597.94963662 Ry
     estimated scf accuracy    <       0.00054330 Ry

     iteration #  4     ecut=   124.00 Ry     beta= 0.70
     Davidson diagonalization with overlap
     ethr =  1.24E-08,  avg # of iterations =  5.0

     negative rho (up, down):  7.394E-03 0.000E+00

     total cpu time spent up to now is    29565.5 secs

     total energy              =   -3597.94965334 Ry
     estimated scf accuracy    <       0.00014044 Ry

     iteration #  5     ecut=   124.00 Ry     beta= 0.70
     Davidson diagonalization with overlap
     ethr =  1.24E-08,  avg # of iterations =  4.6

     negative rho (up, down):  7.394E-03 0.000E+00

     total cpu time spent up to now is    29644.9 secs

     total energy              =   -3597.94964492 Ry
     estimated scf accuracy    <       0.00050205 Ry

     iteration #  6     ecut=   124.00 Ry     beta= 0.70
     Davidson diagonalization with overlap
     ethr =  1.24E-08,  avg # of iterations =  4.6

     negative rho (up, down):  7.393E-03 0.000E+00

     total cpu time spent up to now is    29720.8 secs

     total energy              =   -3597.94965483 Ry
     estimated scf accuracy    <       0.00030180 Ry

     iteration #  7     ecut=   124.00 Ry     beta= 0.70
     Davidson diagonalization with overlap
     ethr =  1.24E-08,  avg # of iterations =  4.0

     negative rho (up, down):  7.393E-03 0.000E+00

     total cpu time spent up to now is    29788.1 secs

     total energy              =   -3597.94966521 Ry
     estimated scf accuracy    <       0.00000369 Ry

     iteration #  8     ecut=   124.00 Ry     beta= 0.70
     Davidson diagonalization with overlap
     ethr =  1.59E-09,  avg # of iterations =  5.0

     negative rho (up, down):  7.393E-03 0.000E+00

     total cpu time spent up to now is    29865.8 secs

     total energy              =   -3597.94966596 Ry
     estimated scf accuracy    <       0.00000628 Ry

     iteration #  9     ecut=   124.00 Ry     beta= 0.70
     Davidson diagonalization with overlap
     ethr =  1.59E-09,  avg # of iterations =  2.3

     negative rho (up, down):  7.393E-03 0.000E+00

     total cpu time spent up to now is    29923.1 secs

     total energy              =   -3597.94966628 Ry
     estimated scf accuracy    <       0.00000049 Ry

     iteration # 10     ecut=   124.00 Ry     beta= 0.70
     Davidson diagonalization with overlap
     ethr =  2.13E-10,  avg # of iterations =  4.8

     negative rho (up, down):  7.393E-03 0.000E+00

     total cpu time spent up to now is    29994.2 secs

     total energy              =   -3597.94966635 Ry
     estimated scf accuracy    <       0.00000007 Ry

     iteration # 11     ecut=   124.00 Ry     beta= 0.70
     Davidson diagonalization with overlap
     ethr =  3.05E-11,  avg # of iterations =  4.0

     negative rho (up, down):  7.393E-03 0.000E+00

     total cpu time spent up to now is    30060.5 secs

     total energy              =   -3597.94966635 Ry
     estimated scf accuracy    <       0.00000002 Ry

     iteration # 12     ecut=   124.00 Ry     beta= 0.70
     Davidson diagonalization with overlap
     ethr =  7.69E-12,  avg # of iterations =  3.8

     negative rho (up, down):  7.393E-03 0.000E+00

     total cpu time spent up to now is    30125.8 secs

     total energy              =   -3597.94966636 Ry
     estimated scf accuracy    <          1.6E-09 Ry

     iteration # 13     ecut=   124.00 Ry     beta= 0.70
     Davidson diagonalization with overlap
     ethr =  6.92E-13,  avg # of iterations =  4.9

     negative rho (up, down):  7.393E-03 0.000E+00

     total cpu time spent up to now is    30223.7 secs

     total energy              =   -3597.94966636 Ry
     estimated scf accuracy    <          8.6E-09 Ry

     iteration # 14     ecut=   124.00 Ry     beta= 0.70
     Davidson diagonalization with overlap
     ethr =  6.92E-13,  avg # of iterations =  2.0

     negative rho (up, down):  7.393E-03 0.000E+00

     total cpu time spent up to now is    30281.5 secs

     total energy              =   -3597.94966636 Ry
     estimated scf accuracy    <          4.9E-10 Ry

     iteration # 15     ecut=   124.00 Ry     beta= 0.70
     Davidson diagonalization with overlap
     ethr =  2.10E-13,  avg # of iterations =  2.6

     negative rho (up, down):  7.393E-03 0.000E+00

     total cpu time spent up to now is    30341.6 secs

     total energy              =   -3597.94966636 Ry
     estimated scf accuracy    <          1.8E-10 Ry

     iteration # 16     ecut=   124.00 Ry     beta= 0.70
     Davidson diagonalization with overlap
     ethr =  1.00E-13,  avg # of iterations =  2.7

     negative rho (up, down):  7.393E-03 0.000E+00

     total cpu time spent up to now is    30402.6 secs

     End of self-consistent calculation

     Number of k-points >= 100: set verbosity='high' to print the bands.

     the Fermi energy is    16.1671 ev

!    total energy              =   -3597.94966636 Ry
     estimated scf accuracy    <          6.4E-11 Ry
     smearing contrib. (-TS)   =      -0.00008070 Ry
     internal energy E=F+TS    =   -3597.94958566 Ry

     The total energy is F=E-TS. E is the sum of the following terms:
     one-electron contribution =   -1317.40584604 Ry
     hartree contribution      =     779.06877805 Ry
     xc contribution           =    -429.04610572 Ry
     ewald contribution        =   -2021.34949510 Ry
     one-center paw contrib.   =    -609.21691685 Ry

     convergence has been achieved in  16 iterations

     negative rho (up, down):  7.393E-03 0.000E+00

     Forces acting on atoms (cartesian axes, Ry/au):

     atom    1 type  2   force =     0.00000000    0.00000000    0.00000000
     atom    2 type  2   force =     0.00000000    0.00000000    0.00000000
     atom    3 type  2   force =     0.00000000   -0.00000000    0.00000000
     atom    4 type  2   force =    -0.00000000    0.00000000   -0.00000000
     atom    5 type  2   force =     0.00000000   -0.00000000    0.00000000
     atom    6 type  2   force =    -0.00000000    0.00000000   -0.00000000
     atom    7 type  2   force =     0.00000000   -0.00000000    0.00000000
     atom    8 type  2   force =     0.00000000    0.00000000    0.00000000
     atom    9 type  1   force =     0.00052270    0.00000000   -0.00010290
     atom   10 type  1   force =     0.00030243   -0.00000000   -0.00030243
     atom   11 type  1   force =     0.00011004   -0.00000000   -0.00011004
     atom   12 type  1   force =    -0.00011004   -0.00000000    0.00011004
     atom   13 type  1   force =    -0.00030243   -0.00000000    0.00030243
     atom   14 type  1   force =    -0.00052270    0.00000000    0.00010290
     atom   15 type  1   force =     0.00010290    0.00000000   -0.00052270
     atom   16 type  1   force =    -0.00010290    0.00000000    0.00052270
     atom   17 type  3   force =     0.00087011    0.00000000    0.00025322
     atom   18 type  3   force =    -0.00025322    0.00000000   -0.00087011
     atom   19 type  3   force =    -0.00020148   -0.00023733    0.00020148
     atom   20 type  3   force =    -0.00020148    0.00023733    0.00020148
     atom   21 type  3   force =     0.00025322    0.00000000    0.00087011
     atom   22 type  3   force =    -0.00087011    0.00000000   -0.00025322
     atom   23 type  3   force =     0.00020148    0.00023733   -0.00020148
     atom   24 type  3   force =     0.00020148   -0.00023733   -0.00020148

     Total force =     0.002320     Total SCF correction =     0.000023


     Computing stress (Cartesian axis) and pressure


     negative rho (up, down):  7.393E-03 0.000E+00
          total   stress  (Ry/bohr**3)                   (kbar)     P=        0.33
   0.00000427   0.00000000   0.00000092            0.63        0.00        0.14
   0.00000000  -0.00000173   0.00000000            0.00       -0.25        0.00
   0.00000092   0.00000000   0.00000427            0.14        0.00        0.63

     Energy error            =      1.8E-05 Ry
     Gradient error          =      8.7E-04 Ry/Bohr
     Cell gradient error     =      6.3E-01 kbar

     number of scf cycles    =  21
     number of bfgs steps    =  20

     enthalpy           old  =   -3597.9496480141 Ry
     enthalpy           new  =   -3597.9496663575 Ry

     CASE: enthalpy          _new < enthalpy          _old

     new trust radius        =       0.0028363435 bohr
     new conv_thr            =            1.0E-10 Ry

     new unit-cell volume =   1546.73770 a.u.^3 (   229.20288 Ang^3 )
     density =      6.06943 g/cm^3

CELL_PARAMETERS (alat=  5.58242261)
   2.036843369   0.000000000  -0.017736944
   0.000000000   2.143217291   0.000000000
  -0.017736944   0.000000000   2.036843369

ATOMIC_POSITIONS (crystal)
Ti               0.0000000000        0.0000000000        0.0000000000
Ti               0.5000000000        0.5000000000       -0.0000000000
Ti               0.5000000000       -0.0000000000       -0.0000000000
Ti               0.0000000000        0.5000000000        0.5000000000
Ti               0.0000000000       -0.0000000000        0.5000000000
Ti               0.5000000000        0.5000000000        0.5000000000
Ti               0.5000000000        0.0000000000        0.5000000000
Ti              -0.0000000000        0.5000000000       -0.0000000000
Fe               0.2512570143        0.2500000000        0.2385166843
Fe               0.7885386926        0.7500000000        0.2114613074
Fe               0.7438268520        0.2500000000        0.2561731480
Fe               0.2561731480        0.7500000000        0.7438268520
Fe               0.2114613074        0.2500000000        0.7885386926
Fe               0.7487429857        0.7500000000        0.7614833157
Fe               0.7614833157        0.2500000000        0.7487429857
Fe               0.2385166843        0.7500000000        0.2512570143
H                0.4898466223        0.2500000000        0.7722032874
H                0.2277967126        0.2500000000        0.5101533777
H                0.2464994358        0.4999772218        0.7535005642
H                0.2464994358        0.0000227782        0.7535005642
H                0.7722032874        0.7500000000        0.4898466223
H                0.5101533777        0.7500000000        0.2277967126
H                0.7535005642        0.5000227782        0.2464994358
H                0.7535005642       -0.0000227782        0.2464994358



     Writing config-only to output data dir ./TiFeH_supercell.save/ :
     XML data file     NEW-OLD atomic charge density approx. for the potential
     New effective cutoffs (rho, wfc): 1702.36  121.61

     negative rho (up, down):  7.393E-03 0.000E+00

     total cpu time spent up to now is    30449.2 secs

     per-process dynamical memory:   708.5 Mb

     Self-consistent Calculation

     iteration #  1     ecut=   124.00 Ry     beta= 0.70
     Davidson diagonalization with overlap
     ethr =  1.00E-06,  avg # of iterations =  4.8

     Threshold (ethr) on eigenvalues was too large:
     Diagonalizing with lowered threshold

     Davidson diagonalization with overlap
     ethr =  6.35E-09,  avg # of iterations =  5.9

     negative rho (up, down):  7.395E-03 0.000E+00

     total cpu time spent up to now is    30657.6 secs

     total energy              =   -3597.94967304 Ry
     estimated scf accuracy    <       0.00001245 Ry

     iteration #  2     ecut=   124.00 Ry     beta= 0.70
     Davidson diagonalization with overlap
     ethr =  5.37E-09,  avg # of iterations =  5.7

     negative rho (up, down):  7.393E-03 0.000E+00

     total cpu time spent up to now is    30750.7 secs

     total energy              =   -3597.94963341 Ry
     estimated scf accuracy    <       0.00100522 Ry

     iteration #  3     ecut=   124.00 Ry     beta= 0.70
     Davidson diagonalization with overlap
     ethr =  5.37E-09,  avg # of iterations =  5.0

     negative rho (up, down):  7.393E-03 0.000E+00

     total cpu time spent up to now is    30839.1 secs

     total energy              =   -3597.94966620 Ry
     estimated scf accuracy    <       0.00016780 Ry

     iteration #  4     ecut=   124.00 Ry     beta= 0.70
     Davidson diagonalization with overlap
     ethr =  5.37E-09,  avg # of iterations =  5.0

     negative rho (up, down):  7.394E-03 0.000E+00

     total cpu time spent up to now is    30922.3 secs

     total energy              =   -3597.94967099 Ry
     estimated scf accuracy    <       0.00007599 Ry

     iteration #  5     ecut=   124.00 Ry     beta= 0.70
     Davidson diagonalization with overlap
     ethr =  5.37E-09,  avg # of iterations =  4.9

     negative rho (up, down):  7.393E-03 0.000E+00

     total cpu time spent up to now is    31002.0 secs

     total energy              =   -3597.94967175 Ry
     estimated scf accuracy    <       0.00008874 Ry

     iteration #  6     ecut=   124.00 Ry     beta= 0.70
     Davidson diagonalization with overlap
     ethr =  5.37E-09,  avg # of iterations =  4.7

     negative rho (up, down):  7.394E-03 0.000E+00

     total cpu time spent up to now is    31075.8 secs

     total energy              =   -3597.94967639 Ry
     estimated scf accuracy    <       0.00000564 Ry

     iteration #  7     ecut=   124.00 Ry     beta= 0.70
     Davidson diagonalization with overlap
     ethr =  2.43E-09,  avg # of iterations =  2.6

     negative rho (up, down):  7.394E-03 0.000E+00

     total cpu time spent up to now is    31136.0 secs

     total energy              =   -3597.94967666 Ry
     estimated scf accuracy    <       0.00000528 Ry

     iteration #  8     ecut=   124.00 Ry     beta= 0.70
     Davidson diagonalization with overlap
     ethr =  2.27E-09,  avg # of iterations =  2.2

     negative rho (up, down):  7.394E-03 0.000E+00

     total cpu time spent up to now is    31193.8 secs

     total energy              =   -3597.94967682 Ry
     estimated scf accuracy    <       0.00000712 Ry

     iteration #  9     ecut=   124.00 Ry     beta= 0.70
     Davidson diagonalization with overlap
     ethr =  2.27E-09,  avg # of iterations =  1.1

     negative rho (up, down):  7.393E-03 0.000E+00

     total cpu time spent up to now is    31244.7 secs

     total energy              =   -3597.94967713 Ry
     estimated scf accuracy    <       0.00000008 Ry

     iteration # 10     ecut=   124.00 Ry     beta= 0.70
     Davidson diagonalization with overlap
     ethr =  3.56E-11,  avg # of iterations =  4.5

     negative rho (up, down):  7.394E-03 0.000E+00

     total cpu time spent up to now is    31317.8 secs

     total energy              =   -3597.94967714 Ry
     estimated scf accuracy    <       0.00000001 Ry

     iteration # 11     ecut=   124.00 Ry     beta= 0.70
     Davidson diagonalization with overlap
     ethr =  5.72E-12,  avg # of iterations =  3.6

     negative rho (up, down):  7.393E-03 0.000E+00

     total cpu time spent up to now is    31382.7 secs

     total energy              =   -3597.94967715 Ry
     estimated scf accuracy    <          1.0E-09 Ry

     iteration # 12     ecut=   124.00 Ry     beta= 0.70
     Davidson diagonalization with overlap
     ethr =  4.34E-13,  avg # of iterations =  5.1

     negative rho (up, down):  7.393E-03 0.000E+00

     total cpu time spent up to now is    31478.1 secs

     total energy              =   -3597.94967715 Ry
     estimated scf accuracy    <          5.0E-10 Ry

     iteration # 13     ecut=   124.00 Ry     beta= 0.70
     Davidson diagonalization with overlap
     ethr =  2.16E-13,  avg # of iterations =  2.3

     negative rho (up, down):  7.393E-03 0.000E+00

     total cpu time spent up to now is    31537.4 secs

     total energy              =   -3597.94967715 Ry
     estimated scf accuracy    <          1.9E-09 Ry

     iteration # 14     ecut=   124.00 Ry     beta= 0.70
     Davidson diagonalization with overlap
     ethr =  2.16E-13,  avg # of iterations =  1.2

     negative rho (up, down):  7.393E-03 0.000E+00

     total cpu time spent up to now is    31589.1 secs

     total energy              =   -3597.94967715 Ry
     estimated scf accuracy    <          1.5E-10 Ry

     iteration # 15     ecut=   124.00 Ry     beta= 0.70
     Davidson diagonalization with overlap
     ethr =  1.00E-13,  avg # of iterations =  1.1

     negative rho (up, down):  7.393E-03 0.000E+00

     total cpu time spent up to now is    31640.2 secs

     End of self-consistent calculation

     Number of k-points >= 100: set verbosity='high' to print the bands.

     the Fermi energy is    16.1657 ev

!    total energy              =   -3597.94967715 Ry
     estimated scf accuracy    <          2.3E-11 Ry
     smearing contrib. (-TS)   =      -0.00008344 Ry
     internal energy E=F+TS    =   -3597.94959371 Ry

     The total energy is F=E-TS. E is the sum of the following terms:
     one-electron contribution =   -1317.52734789 Ry
     hartree contribution      =     779.11631505 Ry
     xc contribution           =    -429.04495473 Ry
     ewald contribution        =   -2021.27669918 Ry
     one-center paw contrib.   =    -609.21690696 Ry

     convergence has been achieved in  15 iterations

     negative rho (up, down):  7.393E-03 0.000E+00

     Forces acting on atoms (cartesian axes, Ry/au):

     atom    1 type  2   force =     0.00000000   -0.00000000    0.00000000
     atom    2 type  2   force =     0.00000000    0.00000000    0.00000000
     atom    3 type  2   force =     0.00000000    0.00000000    0.00000000
     atom    4 type  2   force =     0.00000000    0.00000000    0.00000000
     atom    5 type  2   force =    -0.00000000   -0.00000000   -0.00000000
     atom    6 type  2   force =     0.00000000    0.00000000    0.00000000
     atom    7 type  2   force =    -0.00000000    0.00000000   -0.00000000
     atom    8 type  2   force =     0.00000000    0.00000000    0.00000000
     atom    9 type  1   force =     0.00043721    0.00000000    0.00033187
     atom   10 type  1   force =     0.00022375    0.00000000   -0.00022375
     atom   11 type  1   force =     0.00015851    0.00000000   -0.00015851
     atom   12 type  1   force =    -0.00015851    0.00000000    0.00015851
     atom   13 type  1   force =    -0.00022375    0.00000000    0.00022375
     atom   14 type  1   force =    -0.00043721   -0.00000000   -0.00033187
     atom   15 type  1   force =    -0.00033187    0.00000000   -0.00043721
     atom   16 type  1   force =     0.00033187    0.00000000    0.00043721
     atom   17 type  3   force =     0.00074612    0.00000000    0.00015716
     atom   18 type  3   force =    -0.00015716    0.00000000   -0.00074612
     atom   19 type  3   force =    -0.00017723   -0.00026640    0.00017723
     atom   20 type  3   force =    -0.00017723    0.00026640    0.00017723
     atom   21 type  3   force =     0.00015716    0.00000000    0.00074612
     atom   22 type  3   force =    -0.00074612    0.00000000   -0.00015716
     atom   23 type  3   force =     0.00017723    0.00026640   -0.00017723
     atom   24 type  3   force =     0.00017723   -0.00026640   -0.00017723

     Total force =     0.002090     Total SCF correction =     0.000012


     Computing stress (Cartesian axis) and pressure


     negative rho (up, down):  7.393E-03 0.000E+00
          total   stress  (Ry/bohr**3)                   (kbar)     P=        0.21
   0.00000178   0.00000000   0.00000062            0.26        0.00        0.09
   0.00000000   0.00000081   0.00000000            0.00        0.12        0.00
   0.00000062   0.00000000   0.00000178            0.09        0.00        0.26

     Energy error            =      1.1E-05 Ry
     Gradient error          =      7.5E-04 Ry/Bohr
     Cell gradient error     =      2.6E-01 kbar

     number of scf cycles    =  22
     number of bfgs steps    =  21

     enthalpy           old  =   -3597.9496663575 Ry
     enthalpy           new  =   -3597.9496771464 Ry

     CASE: enthalpy          _new < enthalpy          _old

     new trust radius        =       0.0030596886 bohr
     new conv_thr            =            1.0E-10 Ry

     new unit-cell volume =   1546.95374 a.u.^3 (   229.23489 Ang^3 )
     density =      6.06858 g/cm^3

CELL_PARAMETERS (alat=  5.58242261)
   2.037147235   0.000000000  -0.017648276
   0.000000000   2.142875561   0.000000000
  -0.017648276   0.000000000   2.037147235

ATOMIC_POSITIONS (crystal)
Ti               0.0000000000        0.0000000000        0.0000000000
Ti               0.5000000000        0.5000000000       -0.0000000000
Ti               0.5000000000       -0.0000000000       -0.0000000000
Ti               0.0000000000        0.5000000000        0.5000000000
Ti               0.0000000000       -0.0000000000        0.5000000000
Ti               0.5000000000        0.5000000000        0.5000000000
Ti               0.5000000000        0.0000000000        0.5000000000
Ti              -0.0000000000        0.5000000000       -0.0000000000
Fe               0.2513825834        0.2500000000        0.2384043991
Fe               0.7884933485        0.7500000000        0.2115066515
Fe               0.7438167055        0.2500000000        0.2561832945
Fe               0.2561832945        0.7500000000        0.7438167055
Fe               0.2115066515        0.2500000000        0.7884933485
Fe               0.7486174166        0.7500000000        0.7615956009
Fe               0.7615956009        0.2500000000        0.7486174166
Fe               0.2384043991        0.7500000000        0.2513825834
H                0.4900773401        0.2500000000        0.7723458303
H                0.2276541697        0.2500000000        0.5099226599
H                0.2464385834        0.4999496458        0.7535614166
H                0.2464385834        0.0000503542        0.7535614166
H                0.7723458303        0.7500000000        0.4900773401
H                0.5099226599        0.7500000000        0.2276541697
H                0.7535614166        0.5000503542        0.2464385834
H                0.7535614166       -0.0000503542        0.2464385834



     Writing config-only to output data dir ./TiFeH_supercell.save/ :
     XML data file     NEW-OLD atomic charge density approx. for the potential
     New effective cutoffs (rho, wfc): 1701.70  121.57

     negative rho (up, down):  7.394E-03 0.000E+00

     total cpu time spent up to now is    31686.9 secs

     per-process dynamical memory:   708.5 Mb

     Self-consistent Calculation

     iteration #  1     ecut=   124.00 Ry     beta= 0.70
     Davidson diagonalization with overlap
     ethr =  1.00E-06,  avg # of iterations =  3.2

     Threshold (ethr) on eigenvalues was too large:
     Diagonalizing with lowered threshold

     Davidson diagonalization with overlap
     ethr =  4.50E-09,  avg # of iterations =  6.0

     negative rho (up, down):  7.395E-03 0.000E+00

     total cpu time spent up to now is    31887.8 secs

     total energy              =   -3597.94967859 Ry
     estimated scf accuracy    <       0.00001130 Ry

     iteration #  2     ecut=   124.00 Ry     beta= 0.70
     Davidson diagonalization with overlap
     ethr =  4.87E-09,  avg # of iterations =  7.0

     negative rho (up, down):  7.394E-03 0.000E+00

     total cpu time spent up to now is    31988.5 secs

     total energy              =   -3597.94960058 Ry
     estimated scf accuracy    <       0.00270683 Ry

     iteration #  3     ecut=   124.00 Ry     beta= 0.70
     Davidson diagonalization with overlap
     ethr =  4.87E-09,  avg # of iterations =  5.5

     negative rho (up, down):  7.394E-03 0.000E+00

     total cpu time spent up to now is    32080.2 secs

     total energy              =   -3597.94968001 Ry
     estimated scf accuracy    <       0.00003560 Ry

     iteration #  4     ecut=   124.00 Ry     beta= 0.70
     Davidson diagonalization with overlap
     ethr =  4.87E-09,  avg # of iterations =  5.0

     negative rho (up, down):  7.394E-03 0.000E+00

     total cpu time spent up to now is    32158.0 secs

     total energy              =   -3597.94968291 Ry
     estimated scf accuracy    <       0.00001562 Ry

     iteration #  5     ecut=   124.00 Ry     beta= 0.70
     Davidson diagonalization with overlap
     ethr =  4.87E-09,  avg # of iterations =  4.3

     negative rho (up, down):  7.394E-03 0.000E+00

     total cpu time spent up to now is    32230.0 secs

     total energy              =   -3597.94968005 Ry
     estimated scf accuracy    <       0.00011529 Ry

     iteration #  6     ecut=   124.00 Ry     beta= 0.70
     Davidson diagonalization with overlap
     ethr =  4.87E-09,  avg # of iterations =  4.0

     negative rho (up, down):  7.394E-03 0.000E+00

     total cpu time spent up to now is    32296.7 secs

     total energy              =   -3597.94968380 Ry
     estimated scf accuracy    <       0.00001171 Ry

     iteration #  7     ecut=   124.00 Ry     beta= 0.70
     Davidson diagonalization with overlap
     ethr =  4.87E-09,  avg # of iterations =  1.9

     negative rho (up, down):  7.394E-03 0.000E+00

     total cpu time spent up to now is    32352.5 secs

     total energy              =   -3597.94968452 Ry
     estimated scf accuracy    <       0.00000057 Ry

     iteration #  8     ecut=   124.00 Ry     beta= 0.70
     Davidson diagonalization with overlap
     ethr =  2.44E-10,  avg # of iterations =  5.3

     negative rho (up, down):  7.394E-03 0.000E+00

     total cpu time spent up to now is    32435.9 secs

     total energy              =   -3597.94968448 Ry
     estimated scf accuracy    <       0.00000583 Ry

     iteration #  9     ecut=   124.00 Ry     beta= 0.70
     Davidson diagonalization with overlap
     ethr =  2.44E-10,  avg # of iterations =  4.6

     negative rho (up, down):  7.394E-03 0.000E+00

     total cpu time spent up to now is    32507.8 secs

     total energy              =   -3597.94968477 Ry
     estimated scf accuracy    <       0.00000017 Ry

     iteration # 10     ecut=   124.00 Ry     beta= 0.70
     Davidson diagonalization with overlap
     ethr =  7.13E-11,  avg # of iterations =  2.0

     negative rho (up, down):  7.394E-03 0.000E+00

     total cpu time spent up to now is    32563.6 secs

     total energy              =   -3597.94968477 Ry
     estimated scf accuracy    <       0.00000006 Ry

     iteration # 11     ecut=   124.00 Ry     beta= 0.70
     Davidson diagonalization with overlap
     ethr =  2.42E-11,  avg # of iterations =  4.3

     negative rho (up, down):  7.394E-03 0.000E+00

     total cpu time spent up to now is    32629.8 secs

     total energy              =   -3597.94968478 Ry
     estimated scf accuracy    <          1.9E-09 Ry

     iteration # 12     ecut=   124.00 Ry     beta= 0.70
     Davidson diagonalization with overlap
     ethr =  8.02E-13,  avg # of iterations =  5.0

     negative rho (up, down):  7.394E-03 0.000E+00

     total cpu time spent up to now is    32721.0 secs

     total energy              =   -3597.94968478 Ry
     estimated scf accuracy    <          4.4E-09 Ry

     iteration # 13     ecut=   124.00 Ry     beta= 0.70
     Davidson diagonalization with overlap
     ethr =  8.02E-13,  avg # of iterations =  1.9

     negative rho (up, down):  7.394E-03 0.000E+00

     total cpu time spent up to now is    32776.5 secs

     total energy              =   -3597.94968478 Ry
     estimated scf accuracy    <          1.2E-09 Ry

     iteration # 14     ecut=   124.00 Ry     beta= 0.70
     Davidson diagonalization with overlap
     ethr =  5.11E-13,  avg # of iterations =  1.6

     negative rho (up, down):  7.394E-03 0.000E+00

     total cpu time spent up to now is    32829.4 secs

     total energy              =   -3597.94968478 Ry
     estimated scf accuracy    <          1.3E-10 Ry

     iteration # 15     ecut=   124.00 Ry     beta= 0.70
     Davidson diagonalization with overlap
     ethr =  1.00E-13,  avg # of iterations =  4.3

     negative rho (up, down):  7.394E-03 0.000E+00

     total cpu time spent up to now is    32897.0 secs

     total energy              =   -3597.94968478 Ry
     estimated scf accuracy    <          3.8E-10 Ry

     iteration # 16     ecut=   124.00 Ry     beta= 0.70
     Davidson diagonalization with overlap
     ethr =  1.00E-13,  avg # of iterations =  2.5

     negative rho (up, down):  7.394E-03 0.000E+00

     total cpu time spent up to now is    32954.6 secs

     End of self-consistent calculation

     Number of k-points >= 100: set verbosity='high' to print the bands.

     the Fermi energy is    16.1631 ev

!    total energy              =   -3597.94968478 Ry
     estimated scf accuracy    <          1.8E-11 Ry
     smearing contrib. (-TS)   =      -0.00008583 Ry
     internal energy E=F+TS    =   -3597.94959895 Ry

     The total energy is F=E-TS. E is the sum of the following terms:
     one-electron contribution =   -1317.69165606 Ry
     hartree contribution      =     779.17523757 Ry
     xc contribution           =    -429.04301266 Ry
     ewald contribution        =   -2021.17328024 Ry
     one-center paw contrib.   =    -609.21688756 Ry

     convergence has been achieved in  16 iterations

     negative rho (up, down):  7.394E-03 0.000E+00

     Forces acting on atoms (cartesian axes, Ry/au):

     atom    1 type  2   force =     0.00000000    0.00000000    0.00000000
     atom    2 type  2   force =     0.00000000    0.00000000    0.00000000
     atom    3 type  2   force =     0.00000000    0.00000000    0.00000000
     atom    4 type  2   force =     0.00000000    0.00000000    0.00000000
     atom    5 type  2   force =    -0.00000000    0.00000000   -0.00000000
     atom    6 type  2   force =    -0.00000000    0.00000000   -0.00000000
     atom    7 type  2   force =     0.00000000   -0.00000000    0.00000000
     atom    8 type  2   force =     0.00000000    0.00000000    0.00000000
     atom    9 type  1   force =     0.00029079    0.00000000    0.00042763
     atom   10 type  1   force =     0.00007202    0.00000000   -0.00007202
     atom   11 type  1   force =     0.00019327    0.00000000   -0.00019327
     atom   12 type  1   force =    -0.00019327   -0.00000000    0.00019327
     atom   13 type  1   force =    -0.00007202    0.00000000    0.00007202
     atom   14 type  1   force =    -0.00029079   -0.00000000   -0.00042763
     atom   15 type  1   force =    -0.00042763    0.00000000   -0.00029079
     atom   16 type  1   force =     0.00042763   -0.00000000    0.00029079
     atom   17 type  3   force =     0.00038740   -0.00000000    0.00007983
     atom   18 type  3   force =    -0.00007983    0.00000000   -0.00038740
     atom   19 type  3   force =    -0.00014836   -0.00016105    0.00014836
     atom   20 type  3   force =    -0.00014836    0.00016105    0.00014836
     atom   21 type  3   force =     0.00007983    0.00000000    0.00038740
     atom   22 type  3   force =    -0.00038740   -0.00000000   -0.00007983
     atom   23 type  3   force =     0.00014836    0.00016105   -0.00014836
     atom   24 type  3   force =     0.00014836   -0.00016105   -0.00014836

     Total force =     0.001465     Total SCF correction =     0.000009


     Computing stress (Cartesian axis) and pressure


     negative rho (up, down):  7.394E-03 0.000E+00
          total   stress  (Ry/bohr**3)                   (kbar)     P=        0.00
  -0.00000073   0.00000000  -0.00000004           -0.11        0.00       -0.01
   0.00000000   0.00000151   0.00000000            0.00        0.22        0.00
  -0.00000004   0.00000000  -0.00000073           -0.01        0.00       -0.11

     Energy error            =      7.6E-06 Ry
     Gradient error          =      4.3E-04 Ry/Bohr
     Cell gradient error     =      2.2E-01 kbar

     number of scf cycles    =  23
     number of bfgs steps    =  22

     enthalpy           old  =   -3597.9496771464 Ry
     enthalpy           new  =   -3597.9496847821 Ry

     CASE: enthalpy          _new < enthalpy          _old

     new trust radius        =       0.0022764775 bohr
     new conv_thr            =            1.0E-10 Ry

     new unit-cell volume =   1547.07562 a.u.^3 (   229.25295 Ang^3 )
     density =      6.06811 g/cm^3

CELL_PARAMETERS (alat=  5.58242261)
   2.037255178   0.000000000  -0.017697033
   0.000000000   2.142818169   0.000000000
  -0.017697033   0.000000000   2.037255178

ATOMIC_POSITIONS (crystal)
Ti               0.0000000000        0.0000000000        0.0000000000
Ti               0.5000000000        0.5000000000       -0.0000000000
Ti               0.5000000000       -0.0000000000       -0.0000000000
Ti               0.0000000000        0.5000000000        0.5000000000
Ti               0.0000000000       -0.0000000000        0.5000000000
Ti               0.5000000000        0.5000000000        0.5000000000
Ti               0.5000000000        0.0000000000        0.5000000000
Ti              -0.0000000000        0.5000000000       -0.0000000000
Fe               0.2515004463        0.2500000000        0.2384413302
Fe               0.7885340357        0.7500000000        0.2114659643
Fe               0.7438037919        0.2500000000        0.2561962081
Fe               0.2561962081        0.7500000000        0.7438037919
Fe               0.2114659643        0.2500000000        0.7885340357
Fe               0.7484995537        0.7500000000        0.7615586698
Fe               0.7615586698        0.2500000000        0.7484995537
Fe               0.2384413302        0.7500000000        0.2515004463
H                0.4901939484        0.2500000000        0.7725105625
H                0.2274894375        0.2500000000        0.5098060516
H                0.2463782459        0.4999157697        0.7536217541
H                0.2463782459        0.0000842303        0.7536217541
H                0.7725105625        0.7500000000        0.4901939484
H                0.5098060516        0.7500000000        0.2274894375
H                0.7536217541        0.5000842303        0.2463782459
H                0.7536217541       -0.0000842303        0.2463782459



     Writing config-only to output data dir ./TiFeH_supercell.save/ :
     XML data file     NEW-OLD atomic charge density approx. for the potential
     New effective cutoffs (rho, wfc): 1701.60  121.56

     negative rho (up, down):  7.394E-03 0.000E+00

     total cpu time spent up to now is    33000.8 secs

     per-process dynamical memory:   708.5 Mb

     Self-consistent Calculation

     iteration #  1     ecut=   124.00 Ry     beta= 0.70
     Davidson diagonalization with overlap
     ethr =  1.00E-06,  avg # of iterations =  3.0

     Threshold (ethr) on eigenvalues was too large:
     Diagonalizing with lowered threshold

     Davidson diagonalization with overlap
     ethr =  2.81E-09,  avg # of iterations =  5.9

     negative rho (up, down):  7.394E-03 0.000E+00

     total cpu time spent up to now is    33190.3 secs

     total energy              =   -3597.94968481 Ry
     estimated scf accuracy    <       0.00000742 Ry

     iteration #  2     ecut=   124.00 Ry     beta= 0.70
     Davidson diagonalization with overlap
     ethr =  3.20E-09,  avg # of iterations =  6.7

     negative rho (up, down):  7.394E-03 0.000E+00

     total cpu time spent up to now is    33286.8 secs

     total energy              =   -3597.94964148 Ry
     estimated scf accuracy    <       0.00136195 Ry

     iteration #  3     ecut=   124.00 Ry     beta= 0.70
     Davidson diagonalization with overlap
     ethr =  3.20E-09,  avg # of iterations =  5.5

     negative rho (up, down):  7.394E-03 0.000E+00

     total cpu time spent up to now is    33378.4 secs

     total energy              =   -3597.94968297 Ry
     estimated scf accuracy    <       0.00007170 Ry

     iteration #  4     ecut=   124.00 Ry     beta= 0.70
     Davidson diagonalization with overlap
     ethr =  3.20E-09,  avg # of iterations =  5.0

     negative rho (up, down):  7.393E-03 0.000E+00

     total cpu time spent up to now is    33457.5 secs

     total energy              =   -3597.94968668 Ry
     estimated scf accuracy    <       0.00002010 Ry

     iteration #  5     ecut=   124.00 Ry     beta= 0.70
     Davidson diagonalization with overlap
     ethr =  3.20E-09,  avg # of iterations =  4.5

     negative rho (up, down):  7.394E-03 0.000E+00

     total cpu time spent up to now is    33531.0 secs

     total energy              =   -3597.94968594 Ry
     estimated scf accuracy    <       0.00004682 Ry

     iteration #  6     ecut=   124.00 Ry     beta= 0.70
     Davidson diagonalization with overlap
     ethr =  3.20E-09,  avg # of iterations =  4.0

     negative rho (up, down):  7.394E-03 0.000E+00

     total cpu time spent up to now is    33599.5 secs

     total energy              =   -3597.94968779 Ry
     estimated scf accuracy    <       0.00001315 Ry

     iteration #  7     ecut=   124.00 Ry     beta= 0.70
     Davidson diagonalization with overlap
     ethr =  3.20E-09,  avg # of iterations =  2.0

     negative rho (up, down):  7.394E-03 0.000E+00

     total cpu time spent up to now is    33655.8 secs

     total energy              =   -3597.94968825 Ry
     estimated scf accuracy    <       0.00000398 Ry

     iteration #  8     ecut=   124.00 Ry     beta= 0.70
     Davidson diagonalization with overlap
     ethr =  1.72E-09,  avg # of iterations =  2.9

     negative rho (up, down):  7.394E-03 0.000E+00

     total cpu time spent up to now is    33714.4 secs

     total energy              =   -3597.94968857 Ry
     estimated scf accuracy    <       0.00000025 Ry

     iteration #  9     ecut=   124.00 Ry     beta= 0.70
     Davidson diagonalization with overlap
     ethr =  1.09E-10,  avg # of iterations =  4.7

     negative rho (up, down):  7.394E-03 0.000E+00

     total cpu time spent up to now is    33784.5 secs

     total energy              =   -3597.94968861 Ry
     estimated scf accuracy    <       0.00000005 Ry

     iteration # 10     ecut=   124.00 Ry     beta= 0.70
     Davidson diagonalization with overlap
     ethr =  1.99E-11,  avg # of iterations =  3.8

     negative rho (up, down):  7.394E-03 0.000E+00

     total cpu time spent up to now is    33847.3 secs

     total energy              =   -3597.94968861 Ry
     estimated scf accuracy    <          9.5E-09 Ry

     iteration # 11     ecut=   124.00 Ry     beta= 0.70
     Davidson diagonalization with overlap
     ethr =  4.10E-12,  avg # of iterations =  4.8

     negative rho (up, down):  7.394E-03 0.000E+00

     total cpu time spent up to now is    33919.6 secs

     total energy              =   -3597.94968862 Ry
     estimated scf accuracy    <          2.7E-10 Ry

     iteration # 12     ecut=   124.00 Ry     beta= 0.70
     Davidson diagonalization with overlap
     ethr =  1.16E-13,  avg # of iterations =  5.3

     negative rho (up, down):  7.394E-03 0.000E+00

     total cpu time spent up to now is    34031.7 secs

     End of self-consistent calculation

     Number of k-points >= 100: set verbosity='high' to print the bands.

     the Fermi energy is    16.1616 ev

!    total energy              =   -3597.94968862 Ry
     estimated scf accuracy    <          3.4E-11 Ry
     smearing contrib. (-TS)   =      -0.00008660 Ry
     internal energy E=F+TS    =   -3597.94960202 Ry

     The total energy is F=E-TS. E is the sum of the following terms:
     one-electron contribution =   -1317.76725119 Ry
     hartree contribution      =     779.19984475 Ry
     xc contribution           =    -429.04204259 Ry
     ewald contribution        =   -2021.12327368 Ry
     one-center paw contrib.   =    -609.21687930 Ry

     convergence has been achieved in  12 iterations

     negative rho (up, down):  7.394E-03 0.000E+00

     Forces acting on atoms (cartesian axes, Ry/au):

     atom    1 type  2   force =     0.00000000   -0.00000000    0.00000000
     atom    2 type  2   force =     0.00000000    0.00000000    0.00000000
     atom    3 type  2   force =     0.00000000    0.00000000    0.00000000
     atom    4 type  2   force =     0.00000000    0.00000000    0.00000000
     atom    5 type  2   force =    -0.00000000    0.00000000   -0.00000000
     atom    6 type  2   force =     0.00000000    0.00000000    0.00000000
     atom    7 type  2   force =    -0.00000000    0.00000000   -0.00000000
     atom    8 type  2   force =    -0.00000000    0.00000000   -0.00000000
     atom    9 type  1   force =     0.00014376   -0.00000000    0.00024925
     atom   10 type  1   force =    -0.00006312   -0.00000000    0.00006312
     atom   11 type  1   force =     0.00021472    0.00000000   -0.00021472
     atom   12 type  1   force =    -0.00021472    0.00000000    0.00021472
     atom   13 type  1   force =     0.00006312   -0.00000000   -0.00006312
     atom   14 type  1   force =    -0.00014376    0.00000000   -0.00024925
     atom   15 type  1   force =    -0.00024925    0.00000000   -0.00014376
     atom   16 type  1   force =     0.00024925   -0.00000000    0.00014376
     atom   17 type  3   force =     0.00004744    0.00000000    0.00003441
     atom   18 type  3   force =    -0.00003441    0.00000000   -0.00004744
     atom   19 type  3   force =    -0.00012889   -0.00002264    0.00012889
     atom   20 type  3   force =    -0.00012889    0.00002264    0.00012889
     atom   21 type  3   force =     0.00003441    0.00000000    0.00004744
     atom   22 type  3   force =    -0.00004744    0.00000000   -0.00003441
     atom   23 type  3   force =     0.00012889    0.00002264   -0.00012889
     atom   24 type  3   force =     0.00012889   -0.00002264   -0.00012889

     Total force =     0.000825     Total SCF correction =     0.000022


     Computing stress (Cartesian axis) and pressure


     negative rho (up, down):  7.394E-03 0.000E+00
          total   stress  (Ry/bohr**3)                   (kbar)     P=       -0.09
  -0.00000148   0.00000000  -0.00000049           -0.22        0.00       -0.07
   0.00000000   0.00000103   0.00000000            0.00        0.15        0.00
  -0.00000049   0.00000000  -0.00000148           -0.07        0.00       -0.22

     Energy error            =      3.8E-06 Ry
     Gradient error          =      2.5E-04 Ry/Bohr
     Cell gradient error     =      2.2E-01 kbar

     number of scf cycles    =  24
     number of bfgs steps    =  23

     enthalpy           old  =   -3597.9496847821 Ry
     enthalpy           new  =   -3597.9496886152 Ry

     CASE: enthalpy          _new < enthalpy          _old

     new trust radius        =       0.0012323890 bohr
     new conv_thr            =            1.0E-10 Ry

     new unit-cell volume =   1547.08419 a.u.^3 (   229.25422 Ang^3 )
     density =      6.06807 g/cm^3

CELL_PARAMETERS (alat=  5.58242261)
   2.037216093   0.000000000  -0.017813408
   0.000000000   2.142914406   0.000000000
  -0.017813408   0.000000000   2.037216093

ATOMIC_POSITIONS (crystal)
Ti               0.0000000000        0.0000000000        0.0000000000
Ti               0.5000000000        0.5000000000       -0.0000000000
Ti               0.5000000000       -0.0000000000       -0.0000000000
Ti               0.0000000000        0.5000000000        0.5000000000
Ti               0.0000000000       -0.0000000000        0.5000000000
Ti               0.5000000000        0.5000000000        0.5000000000
Ti               0.5000000000        0.0000000000        0.5000000000
Ti              -0.0000000000        0.5000000000       -0.0000000000
Fe               0.2515778455        0.2500000000        0.2385185217
Fe               0.7885702963        0.7500000000        0.2114297037
Fe               0.7438063728        0.2500000000        0.2561936272
Fe               0.2561936272        0.7500000000        0.7438063728
Fe               0.2114297037        0.2500000000        0.7885702963
Fe               0.7484221545        0.7500000000        0.7614814783
Fe               0.7614814783        0.2500000000        0.7484221545
Fe               0.2385185217        0.7500000000        0.2515778455
H                0.4902130883        0.2500000000        0.7726137141
H                0.2273862859        0.2500000000        0.5097869117
H                0.2463357703        0.4999003934        0.7536642297
H                0.2463357703        0.0000996066        0.7536642297
H                0.7726137141        0.7500000000        0.4902130883
H                0.5097869117        0.7500000000        0.2273862859
H                0.7536642297        0.5000996066        0.2463357703
H                0.7536642297       -0.0000996066        0.2463357703



     Writing config-only to output data dir ./TiFeH_supercell.save/ :
     XML data file     NEW-OLD atomic charge density approx. for the potential
     New effective cutoffs (rho, wfc): 1701.86  121.58

     negative rho (up, down):  7.394E-03 0.000E+00

     total cpu time spent up to now is    34077.8 secs

     per-process dynamical memory:   708.5 Mb

     Self-consistent Calculation

     iteration #  1     ecut=   124.00 Ry     beta= 0.70
     Davidson diagonalization with overlap
     ethr =  1.00E-06,  avg # of iterations =  3.0

     Threshold (ethr) on eigenvalues was too large:
     Diagonalizing with lowered threshold

     Davidson diagonalization with overlap
     ethr =  1.19E-09,  avg # of iterations =  6.1

     negative rho (up, down):  7.394E-03 0.000E+00

     total cpu time spent up to now is    34272.8 secs

     total energy              =   -3597.94968842 Ry
     estimated scf accuracy    <       0.00000362 Ry

     iteration #  2     ecut=   124.00 Ry     beta= 0.70
     Davidson diagonalization with overlap
     ethr =  1.56E-09,  avg # of iterations =  6.8

     negative rho (up, down):  7.394E-03 0.000E+00

     total cpu time spent up to now is    34369.1 secs

     total energy              =   -3597.94967620 Ry
     estimated scf accuracy    <       0.00025881 Ry

     iteration #  3     ecut=   124.00 Ry     beta= 0.70
     Davidson diagonalization with overlap
     ethr =  1.56E-09,  avg # of iterations =  6.6

     negative rho (up, down):  7.394E-03 0.000E+00

     total cpu time spent up to now is    34463.0 secs

     total energy              =   -3597.94968639 Ry
     estimated scf accuracy    <       0.00006937 Ry

     iteration #  4     ecut=   124.00 Ry     beta= 0.70
     Davidson diagonalization with overlap
     ethr =  1.56E-09,  avg # of iterations =  4.9

     negative rho (up, down):  7.393E-03 0.000E+00

     total cpu time spent up to now is    34541.1 secs

     total energy              =   -3597.94968889 Ry
     estimated scf accuracy    <       0.00001404 Ry

     iteration #  5     ecut=   124.00 Ry     beta= 0.70
     Davidson diagonalization with overlap
     ethr =  1.56E-09,  avg # of iterations =  4.6

     negative rho (up, down):  7.394E-03 0.000E+00

     total cpu time spent up to now is    34616.3 secs

     total energy              =   -3597.94968810 Ry
     estimated scf accuracy    <       0.00004027 Ry

     iteration #  6     ecut=   124.00 Ry     beta= 0.70
     Davidson diagonalization with overlap
     ethr =  1.56E-09,  avg # of iterations =  4.2

     negative rho (up, down):  7.394E-03 0.000E+00

     total cpu time spent up to now is    34688.2 secs

     total energy              =   -3597.94968924 Ry
     estimated scf accuracy    <       0.00001786 Ry

     iteration #  7     ecut=   124.00 Ry     beta= 0.70
     Davidson diagonalization with overlap
     ethr =  1.56E-09,  avg # of iterations =  2.8

     negative rho (up, down):  7.394E-03 0.000E+00

     total cpu time spent up to now is    34747.8 secs

     total energy              =   -3597.94968988 Ry
     estimated scf accuracy    <       0.00000094 Ry

     iteration #  8     ecut=   124.00 Ry     beta= 0.70
     Davidson diagonalization with overlap
     ethr =  4.06E-10,  avg # of iterations =  4.5

     negative rho (up, down):  7.394E-03 0.000E+00

     total cpu time spent up to now is    34815.0 secs

     total energy              =   -3597.94969002 Ry
     estimated scf accuracy    <       0.00000011 Ry

     iteration #  9     ecut=   124.00 Ry     beta= 0.70
     Davidson diagonalization with overlap
     ethr =  4.74E-11,  avg # of iterations =  4.2

     negative rho (up, down):  7.394E-03 0.000E+00

     total cpu time spent up to now is    34881.7 secs

     total energy              =   -3597.94969004 Ry
     estimated scf accuracy    <       0.00000003 Ry

     iteration # 10     ecut=   124.00 Ry     beta= 0.70
     Davidson diagonalization with overlap
     ethr =  1.30E-11,  avg # of iterations =  3.7

     negative rho (up, down):  7.394E-03 0.000E+00

     total cpu time spent up to now is    34942.5 secs

     total energy              =   -3597.94969004 Ry
     estimated scf accuracy    <          4.9E-09 Ry

     iteration # 11     ecut=   124.00 Ry     beta= 0.70
     Davidson diagonalization with overlap
     ethr =  2.11E-12,  avg # of iterations =  4.6

     negative rho (up, down):  7.394E-03 0.000E+00

     total cpu time spent up to now is    35015.5 secs

     End of self-consistent calculation

     Number of k-points >= 100: set verbosity='high' to print the bands.

     the Fermi energy is    16.1614 ev

!    total energy              =   -3597.94969004 Ry
     estimated scf accuracy    <          9.1E-11 Ry
     smearing contrib. (-TS)   =      -0.00008589 Ry
     internal energy E=F+TS    =   -3597.94960414 Ry

     The total energy is F=E-TS. E is the sum of the following terms:
     one-electron contribution =   -1317.74868464 Ry
     hartree contribution      =     779.18936406 Ry
     xc contribution           =    -429.04208036 Ry
     ewald contribution        =   -2021.13132177 Ry
     one-center paw contrib.   =    -609.21688145 Ry

     convergence has been achieved in  11 iterations

     negative rho (up, down):  7.394E-03 0.000E+00

     Forces acting on atoms (cartesian axes, Ry/au):

     atom    1 type  2   force =     0.00000000    0.00000000   -0.00000000
     atom    2 type  2   force =     0.00000000    0.00000000    0.00000000
     atom    3 type  2   force =     0.00000000    0.00000000    0.00000000
     atom    4 type  2   force =    -0.00000000    0.00000000   -0.00000000
     atom    5 type  2   force =     0.00000000    0.00000000    0.00000000
     atom    6 type  2   force =     0.00000000    0.00000000    0.00000000
     atom    7 type  2   force =     0.00000000    0.00000000    0.00000000
     atom    8 type  2   force =     0.00000000    0.00000000    0.00000000
     atom    9 type  1   force =     0.00003366    0.00000000    0.00002617
     atom   10 type  1   force =    -0.00008323   -0.00000000    0.00008323
     atom   11 type  1   force =     0.00022742    0.00000000   -0.00022742
     atom   12 type  1   force =    -0.00022742   -0.00000000    0.00022742
     atom   13 type  1   force =     0.00008323    0.00000000   -0.00008323
     atom   14 type  1   force =    -0.00003366    0.00000000   -0.00002617
     atom   15 type  1   force =    -0.00002617    0.00000000   -0.00003366
     atom   16 type  1   force =     0.00002617   -0.00000000    0.00003366
     atom   17 type  3   force =    -0.00011223    0.00000000    0.00001983
     atom   18 type  3   force =    -0.00001983    0.00000000    0.00011223
     atom   19 type  3   force =    -0.00012189    0.00005201    0.00012189
     atom   20 type  3   force =    -0.00012189   -0.00005201    0.00012189
     atom   21 type  3   force =     0.00001983    0.00000000   -0.00011223
     atom   22 type  3   force =     0.00011223    0.00000000   -0.00001983
     atom   23 type  3   force =     0.00012189   -0.00005201   -0.00012189
     atom   24 type  3   force =     0.00012189    0.00005201   -0.00012189

     Total force =     0.000651     Total SCF correction =     0.000060


     Computing stress (Cartesian axis) and pressure


     negative rho (up, down):  7.394E-03 0.000E+00
          total   stress  (Ry/bohr**3)                   (kbar)     P=       -0.07
  -0.00000092   0.00000000  -0.00000053           -0.14        0.00       -0.08
   0.00000000   0.00000049   0.00000000            0.00        0.07        0.00
  -0.00000053   0.00000000  -0.00000092           -0.08        0.00       -0.14

     Energy error            =      1.4E-06 Ry
     Gradient error          =      2.3E-04 Ry/Bohr
     Cell gradient error     =      1.4E-01 kbar

     number of scf cycles    =  25
     number of bfgs steps    =  24

     enthalpy           old  =   -3597.9496886152 Ry
     enthalpy           new  =   -3597.9496900376 Ry

     CASE: enthalpy          _new < enthalpy          _old

     new trust radius        =       0.0006944631 bohr
     new conv_thr            =            1.0E-10 Ry

     new unit-cell volume =   1547.05150 a.u.^3 (   229.24938 Ang^3 )
     density =      6.06820 g/cm^3

CELL_PARAMETERS (alat=  5.58242261)
   2.037145974   0.000000000  -0.017914656
   0.000000000   2.143018524   0.000000000
  -0.017914656   0.000000000   2.037145974

ATOMIC_POSITIONS (crystal)
Ti               0.0000000000        0.0000000000        0.0000000000
Ti               0.5000000000        0.5000000000       -0.0000000000
Ti               0.5000000000       -0.0000000000       -0.0000000000
Ti               0.0000000000        0.5000000000        0.5000000000
Ti               0.0000000000       -0.0000000000        0.5000000000
Ti               0.5000000000        0.5000000000        0.5000000000
Ti               0.5000000000        0.0000000000        0.5000000000
Ti              -0.0000000000        0.5000000000       -0.0000000000
Fe               0.2516165235        0.2500000000        0.2385664534
Fe               0.7885856737        0.7500000000        0.2114143263
Fe               0.7438328572        0.2500000000        0.2561671428
Fe               0.2561671428        0.7500000000        0.7438328572
Fe               0.2114143263        0.2500000000        0.7885856737
Fe               0.7483834765        0.7500000000        0.7614335466
Fe               0.7614335466        0.2500000000        0.7483834765
Fe               0.2385664534        0.7500000000        0.2516165235
H                0.4901985249        0.2500000000        0.7726643662
H                0.2273356338        0.2500000000        0.5098014751
H                0.2463027079        0.4998995741        0.7536972921
H                0.2463027079        0.0001004259        0.7536972921
H                0.7726643662        0.7500000000        0.4901985249
H                0.5098014751        0.7500000000        0.2273356338
H                0.7536972921        0.5001004259        0.2463027079
H                0.7536972921       -0.0001004259        0.2463027079



     Writing config-only to output data dir ./TiFeH_supercell.save/ :
     XML data file     NEW-OLD atomic charge density approx. for the potential
     New effective cutoffs (rho, wfc): 1702.14  121.60

     negative rho (up, down):  7.394E-03 0.000E+00

     total cpu time spent up to now is    35061.6 secs

     per-process dynamical memory:   708.5 Mb

     Self-consistent Calculation

     iteration #  1     ecut=   124.00 Ry     beta= 0.70
     Davidson diagonalization with overlap
     ethr =  1.00E-06,  avg # of iterations =  2.0

     Threshold (ethr) on eigenvalues was too large:
     Diagonalizing with lowered threshold

     Davidson diagonalization with overlap
     ethr =  3.77E-10,  avg # of iterations =  7.0

     negative rho (up, down):  7.394E-03 0.000E+00

     total cpu time spent up to now is    35265.6 secs

     total energy              =   -3597.94969047 Ry
     estimated scf accuracy    <       0.00000094 Ry

     iteration #  2     ecut=   124.00 Ry     beta= 0.70
     Davidson diagonalization with overlap
     ethr =  4.03E-10,  avg # of iterations =  5.8

     negative rho (up, down):  7.394E-03 0.000E+00

     total cpu time spent up to now is    35357.5 secs

     total energy              =   -3597.94968803 Ry
     estimated scf accuracy    <       0.00004893 Ry

     iteration #  3     ecut=   124.00 Ry     beta= 0.70
     Davidson diagonalization with overlap
     ethr =  4.03E-10,  avg # of iterations =  5.2

     negative rho (up, down):  7.394E-03 0.000E+00

     total cpu time spent up to now is    35446.8 secs

     total energy              =   -3597.94968999 Ry
     estimated scf accuracy    <       0.00001157 Ry

     iteration #  4     ecut=   124.00 Ry     beta= 0.70
     Davidson diagonalization with overlap
     ethr =  4.03E-10,  avg # of iterations =  5.0

     negative rho (up, down):  7.394E-03 0.000E+00

     total cpu time spent up to now is    35527.4 secs

     total energy              =   -3597.94969045 Ry
     estimated scf accuracy    <       0.00000499 Ry

     iteration #  5     ecut=   124.00 Ry     beta= 0.70
     Davidson diagonalization with overlap
     ethr =  4.03E-10,  avg # of iterations =  4.8

     negative rho (up, down):  7.394E-03 0.000E+00

     total cpu time spent up to now is    35606.3 secs

     total energy              =   -3597.94969008 Ry
     estimated scf accuracy    <       0.00001692 Ry

     iteration #  6     ecut=   124.00 Ry     beta= 0.70
     Davidson diagonalization with overlap
     ethr =  4.03E-10,  avg # of iterations =  4.4

     negative rho (up, down):  7.394E-03 0.000E+00

     total cpu time spent up to now is    35680.0 secs

     total energy              =   -3597.94969061 Ry
     estimated scf accuracy    <       0.00000435 Ry

     iteration #  7     ecut=   124.00 Ry     beta= 0.70
     Davidson diagonalization with overlap
     ethr =  4.03E-10,  avg # of iterations =  2.4

     negative rho (up, down):  7.394E-03 0.000E+00

     total cpu time spent up to now is    35738.5 secs

     total energy              =   -3597.94969076 Ry
     estimated scf accuracy    <       0.00000022 Ry

     iteration #  8     ecut=   124.00 Ry     beta= 0.70
     Davidson diagonalization with overlap
     ethr =  9.31E-11,  avg # of iterations =  4.7

     negative rho (up, down):  7.394E-03 0.000E+00

     total cpu time spent up to now is    35808.1 secs

     total energy              =   -3597.94969079 Ry
     estimated scf accuracy    <       0.00000005 Ry

     iteration #  9     ecut=   124.00 Ry     beta= 0.70
     Davidson diagonalization with overlap
     ethr =  2.15E-11,  avg # of iterations =  3.2

     negative rho (up, down):  7.394E-03 0.000E+00

     total cpu time spent up to now is    35868.2 secs

     total energy              =   -3597.94969080 Ry
     estimated scf accuracy    <          8.0E-09 Ry

     iteration # 10     ecut=   124.00 Ry     beta= 0.70
     Davidson diagonalization with overlap
     ethr =  3.46E-12,  avg # of iterations =  4.6

     negative rho (up, down):  7.394E-03 0.000E+00

     total cpu time spent up to now is    35936.6 secs

     total energy              =   -3597.94969080 Ry
     estimated scf accuracy    <          2.9E-09 Ry

     iteration # 11     ecut=   124.00 Ry     beta= 0.70
     Davidson diagonalization with overlap
     ethr =  1.25E-12,  avg # of iterations =  3.2

     negative rho (up, down):  7.394E-03 0.000E+00

     total cpu time spent up to now is    35996.3 secs

     End of self-consistent calculation

     Number of k-points >= 100: set verbosity='high' to print the bands.

     the Fermi energy is    16.1618 ev

!    total energy              =   -3597.94969080 Ry
     estimated scf accuracy    <          8.0E-11 Ry
     smearing contrib. (-TS)   =      -0.00008481 Ry
     internal energy E=F+TS    =   -3597.94960599 Ry

     The total energy is F=E-TS. E is the sum of the following terms:
     one-electron contribution =   -1317.71205897 Ry
     hartree contribution      =     779.17437219 Ry
     xc contribution           =    -429.04243767 Ry
     ewald contribution        =   -2021.15259674 Ry
     one-center paw contrib.   =    -609.21688480 Ry

     convergence has been achieved in  11 iterations

     negative rho (up, down):  7.394E-03 0.000E+00

     Forces acting on atoms (cartesian axes, Ry/au):

     atom    1 type  2   force =     0.00000000    0.00000000    0.00000000
     atom    2 type  2   force =     0.00000000    0.00000000    0.00000000
     atom    3 type  2   force =     0.00000000   -0.00000000    0.00000000
     atom    4 type  2   force =     0.00000000    0.00000000    0.00000000
     atom    5 type  2   force =    -0.00000000    0.00000000   -0.00000000
     atom    6 type  2   force =    -0.00000000    0.00000000   -0.00000000
     atom    7 type  2   force =     0.00000000    0.00000000    0.00000000
     atom    8 type  2   force =     0.00000000    0.00000000    0.00000000
     atom    9 type  1   force =    -0.00001035    0.00000000   -0.00008696
     atom   10 type  1   force =    -0.00007136    0.00000000    0.00007136
     atom   11 type  1   force =     0.00020179    0.00000000   -0.00020179
     atom   12 type  1   force =    -0.00020179   -0.00000000    0.00020179
     atom   13 type  1   force =     0.00007136    0.00000000   -0.00007136
     atom   14 type  1   force =     0.00001035    0.00000000    0.00008696
     atom   15 type  1   force =     0.00008696    0.00000000    0.00001035
     atom   16 type  1   force =    -0.00008696    0.00000000   -0.00001035
     atom   17 type  3   force =    -0.00014481    0.00000000    0.00001416
     atom   18 type  3   force =    -0.00001416    0.00000000    0.00014481
     atom   19 type  3   force =    -0.00011685    0.00006956    0.00011685
     atom   20 type  3   force =    -0.00011685   -0.00006956    0.00011685
     atom   21 type  3   force =     0.00001416    0.00000000   -0.00014481
     atom   22 type  3   force =     0.00014481    0.00000000   -0.00001416
     atom   23 type  3   force =     0.00011685   -0.00006956   -0.00011685
     atom   24 type  3   force =     0.00011685    0.00006956   -0.00011685

     Total force =     0.000654     Total SCF correction =     0.000030


     Computing stress (Cartesian axis) and pressure


     negative rho (up, down):  7.394E-03 0.000E+00
          total   stress  (Ry/bohr**3)                   (kbar)     P=       -0.02
  -0.00000029   0.00000000  -0.00000040           -0.04        0.00       -0.06
   0.00000000   0.00000013   0.00000000            0.00        0.02        0.00
  -0.00000040   0.00000000  -0.00000029           -0.06        0.00       -0.04

     Energy error            =      7.6E-07 Ry
     Gradient error          =      2.0E-04 Ry/Bohr
     Cell gradient error     =      5.9E-02 kbar

     bfgs converged in  26 scf cycles and  25 bfgs steps
     (criteria: energy <  1.0E-04 Ry, force <  1.0E-03 Ry/Bohr, cell <  1.0E-01 kbar)

     End of BFGS Geometry Optimization

     Final enthalpy           =   -3597.9496907980 Ry

     File ./TiFeH_supercell.bfgs deleted, as requested
Begin final coordinates
     new unit-cell volume =   1547.05150 a.u.^3 (   229.24938 Ang^3 )
     density =      6.06820 g/cm^3

CELL_PARAMETERS (alat=  5.58242261)
   2.037145974   0.000000000  -0.017914656
   0.000000000   2.143018524   0.000000000
  -0.017914656   0.000000000   2.037145974

ATOMIC_POSITIONS (crystal)
Ti               0.0000000000        0.0000000000        0.0000000000
Ti               0.5000000000        0.5000000000       -0.0000000000
Ti               0.5000000000       -0.0000000000       -0.0000000000
Ti               0.0000000000        0.5000000000        0.5000000000
Ti               0.0000000000       -0.0000000000        0.5000000000
Ti               0.5000000000        0.5000000000        0.5000000000
Ti               0.5000000000        0.0000000000        0.5000000000
Ti              -0.0000000000        0.5000000000       -0.0000000000
Fe               0.2516165235        0.2500000000        0.2385664534
Fe               0.7885856737        0.7500000000        0.2114143263
Fe               0.7438328572        0.2500000000        0.2561671428
Fe               0.2561671428        0.7500000000        0.7438328572
Fe               0.2114143263        0.2500000000        0.7885856737
Fe               0.7483834765        0.7500000000        0.7614335466
Fe               0.7614335466        0.2500000000        0.7483834765
Fe               0.2385664534        0.7500000000        0.2516165235
H                0.4901985249        0.2500000000        0.7726643662
H                0.2273356338        0.2500000000        0.5098014751
H                0.2463027079        0.4998995741        0.7536972921
H                0.2463027079        0.0001004259        0.7536972921
H                0.7726643662        0.7500000000        0.4901985249
H                0.5098014751        0.7500000000        0.2273356338
H                0.7536972921        0.5001004259        0.2463027079
H                0.7536972921       -0.0001004259        0.2463027079
End final coordinates



     Writing config-only to output data dir ./TiFeH_supercell.save/ :
     XML data file
     Final scf calculation at the relaxed structure.
     The G-vectors are recalculated for the final unit cell
     Results may differ from those at the preceding step.

     Parallelization info
     --------------------
     sticks:   dense  smooth     PW     G-vecs:    dense   smooth      PW
     Min        1175     336     90               118129    18048    2553
     Max        1176     337     91               118133    18051    2557
     Sum       18809    5381   1455              1890093   288789   40885

     Using Slab Decomposition



     bravais-lattice index     =            0
     lattice parameter (alat)  =       5.5824  a.u.
     unit-cell volume          =    1547.0515 (a.u.)^3
     number of atoms/cell      =           24
     number of atomic types    =            3
     number of electrons       =       232.00
     number of Kohn-Sham states=          139
     kinetic-energy cutoff     =     124.0000  Ry
     charge density cutoff     =    1736.0000  Ry
     scf convergence threshold =      1.0E-10
     mixing beta               =       0.7000
     number of iterations used =            8  plain     mixing
     press convergence thresh. =      1.0E-01
     Exchange-correlation= PBE
                           (   1   4   3   4   0   0   0)

     celldm(1)=   5.582423  celldm(2)=   0.000000  celldm(3)=   0.000000
     celldm(4)=   0.000000  celldm(5)=   0.000000  celldm(6)=   0.000000

     crystal axes: (cart. coord. in units of alat)
               a(1) = (   2.037146   0.000000  -0.017915 )  
               a(2) = (   0.000000   2.143019   0.000000 )  
               a(3) = (  -0.017915   0.000000   2.037146 )  

     reciprocal axes: (cart. coord. in units 2 pi/alat)
               b(1) = (  0.490921 -0.000000  0.004317 )  
               b(2) = ( -0.000000  0.466632 -0.000000 )  
               b(3) = (  0.004317 -0.000000  0.490921 )  


     PseudoPot. # 1 for Fe read from file:
     ../../../../pseudos/Fe.pbe-spn-kjpaw_psl.0.2.1.UPF
     MD5 check sum: e86618425769142926afa95317d90200
     Pseudo is Projector augmented-wave + core cor, Zval = 16.0
     Generated using "atomic" code by A. Dal Corso  v.5.0.99 svn rev. 10869
     Shape of augmentation charge: PSQ
     Using radial grid of 1191 points,  6 beta functions with: 
                l(1) =   0
                l(2) =   0
                l(3) =   1
                l(4) =   1
                l(5) =   2
                l(6) =   2
     Q(r) pseudized with 0 coefficients 


     PseudoPot. # 2 for Ti read from file:
     ../../../../pseudos/ti_pbe_v1.4.uspp.F.UPF
     MD5 check sum: 88a00a6731bd790ddea75d31a80cb452
     Pseudo is Ultrasoft + core correction, Zval = 12.0
     Generated by new atomic code, or converted to UPF format
     Using radial grid of  851 points,  6 beta functions with: 
                l(1) =   0
                l(2) =   0
                l(3) =   1
                l(4) =   1
                l(5) =   2
                l(6) =   2
     Q(r) pseudized with  6 coefficients,  rinner =    1.000   1.000   1.000
                                                       1.000   1.000

     PseudoPot. # 3 for H  read from file:
     ../../../../pseudos/H.pbe-rrkjus_psl.1.0.0.UPF
     MD5 check sum: f52b6d4d1c606e5624b1dc7b2218f220
     Pseudo is Ultrasoft, Zval =  1.0
     Generated using "atomic" code by A. Dal Corso  v.5.1
     Using radial grid of  929 points,  2 beta functions with: 
                l(1) =   0
                l(2) =   0
     Q(r) pseudized with 0 coefficients 


     atomic species   valence    mass     pseudopotential
     Fe               16.00    55.84500     Fe( 1.00)
     Ti               12.00    47.86700     Ti( 1.00)
     H                 1.00     1.00784     H ( 1.00)

      8 Sym. Ops., with inversion, found ( 4 have fractional translation)



   Cartesian axes

     site n.     atom                  positions (alat units)
         1        Ti     tau(   1) = (   0.0000000   0.0000000   0.0000000  )
         2        Ti     tau(   2) = (   1.0185730   1.0715093  -0.0089573  )
         3        Ti     tau(   3) = (   1.0185730  -0.0000000  -0.0089573  )
         4        Ti     tau(   4) = (  -0.0089573   1.0715093   1.0185730  )
         5        Ti     tau(   5) = (  -0.0089573  -0.0000000   1.0185730  )
         6        Ti     tau(   6) = (   1.0096157   1.0715093   1.0096157  )
         7        Ti     tau(   7) = (   1.0096157   0.0000000   1.0096157  )
         8        Ti     tau(   8) = (  -0.0000000   1.0715093  -0.0000000  )
         9        Fe     tau(   9) = (   0.5083058   0.5357546   0.4814871  )
        10        Fe     tau(  10) = (   1.6026767   1.6072639   0.4165546  )
        11        Fe     tau(  11) = (   1.5107070   0.5357546   0.5085244  )
        12        Fe     tau(  12) = (   0.5085244   1.6072639   1.5107070  )
        13        Fe     tau(  13) = (   0.4165546   0.5357546   1.6026767  )
        14        Fe     tau(  14) = (   1.5109256   1.6072639   1.5377443  )
        15        Fe     tau(  15) = (   1.5377443   0.5357546   1.5109256  )
        16        Fe     tau(  16) = (   0.4814871   1.6072639   0.5083058  )
        17        H      tau(  17) = (   0.9847639   0.5357546   1.5652484  )
        18        H      tau(  18) = (   0.4539830   0.5357546   1.0344674  )
        19        H      tau(  19) = (   0.4882523   1.0712940   1.5309790  )
        20        H      tau(  20) = (   0.4882523   0.0002152   1.5309790  )
        21        H      tau(  21) = (   1.5652484   1.6072639   0.9847639  )
        22        H      tau(  22) = (   1.0344674   1.6072639   0.4539830  )
        23        H      tau(  23) = (   1.5309790   1.0717245   0.4882523  )
        24        H      tau(  24) = (   1.5309790  -0.0002152   0.4882523  )

     number of k points=   105  Marzari-Vanderbilt smearing, width (Ry)=  0.0050

     Number of k-points >= 100: set verbosity='high' to print them.

     Dense  grid:  1890093 G-vectors     FFT dimensions: ( 160, 160, 160)

     Smooth grid:   288789 G-vectors     FFT dimensions: (  81,  90,  81)

     Estimated max dynamical RAM per process >     988.70 MB

     Estimated total dynamical RAM >      15.45 GB

     Check: negative core charge=   -0.000001

     Initial potential from superposition of free atoms

     starting charge     223.9961, renormalised to     232.0000

     negative rho (up, down):  1.066E-02 0.000E+00
     Starting wfcs are  192 randomized atomic wfcs
     Checking if some PAW data can be deallocated... 

     total cpu time spent up to now is    36079.7 secs

     per-process dynamical memory:   733.6 Mb

     Self-consistent Calculation

     iteration #  1     ecut=   124.00 Ry     beta= 0.70
     Davidson diagonalization with overlap
     c_bands:  2 eigenvalues not converged
     c_bands:  5 eigenvalues not converged
     c_bands:  4 eigenvalues not converged
     c_bands:  4 eigenvalues not converged
     c_bands:  3 eigenvalues not converged
     c_bands:  5 eigenvalues not converged
     c_bands:  3 eigenvalues not converged
     c_bands:  3 eigenvalues not converged
     c_bands:  3 eigenvalues not converged
     c_bands:  2 eigenvalues not converged
     c_bands:  4 eigenvalues not converged
     c_bands:  5 eigenvalues not converged
     c_bands:  5 eigenvalues not converged
     c_bands:  4 eigenvalues not converged
     c_bands:  4 eigenvalues not converged
     c_bands:  5 eigenvalues not converged
     c_bands:  5 eigenvalues not converged
     c_bands:  1 eigenvalues not converged
     c_bands:  1 eigenvalues not converged
     c_bands:  1 eigenvalues not converged
     c_bands:  3 eigenvalues not converged
     c_bands:  3 eigenvalues not converged
     c_bands:  5 eigenvalues not converged
     c_bands:  5 eigenvalues not converged
     c_bands:  4 eigenvalues not converged
     c_bands:  3 eigenvalues not converged
     c_bands:  5 eigenvalues not converged
     c_bands:  3 eigenvalues not converged
     c_bands:  1 eigenvalues not converged
     c_bands:  1 eigenvalues not converged
     c_bands:  5 eigenvalues not converged
     c_bands:  4 eigenvalues not converged
     c_bands:  4 eigenvalues not converged
     c_bands:  5 eigenvalues not converged
     c_bands:  4 eigenvalues not converged
     c_bands:  2 eigenvalues not converged
     c_bands:  3 eigenvalues not converged
     c_bands:  5 eigenvalues not converged
     c_bands:  5 eigenvalues not converged
     c_bands:  2 eigenvalues not converged
     c_bands:  5 eigenvalues not converged
     c_bands:  1 eigenvalues not converged
     c_bands:  1 eigenvalues not converged
     c_bands:  4 eigenvalues not converged
     c_bands:  5 eigenvalues not converged
     c_bands:  5 eigenvalues not converged
     c_bands:  5 eigenvalues not converged
     c_bands:  5 eigenvalues not converged
     c_bands:  5 eigenvalues not converged
     c_bands:  4 eigenvalues not converged
     c_bands:  4 eigenvalues not converged
     ethr =  1.00E-06,  avg # of iterations = 28.4

     negative rho (up, down):  7.173E-04 0.000E+00

     total cpu time spent up to now is    36682.9 secs

     total energy              =   -3485.05391975 Ry
     estimated scf accuracy    <     142.83434234 Ry

     iteration #  2     ecut=   124.00 Ry     beta= 0.70
     Davidson diagonalization with overlap
     ethr =  1.00E-02,  avg # of iterations =  6.8

     negative rho (up, down):  3.538E-04 0.000E+00

     total cpu time spent up to now is    36870.9 secs

     total energy              =   -3579.89961726 Ry
     estimated scf accuracy    <     619.79842192 Ry

     iteration #  3     ecut=   124.00 Ry     beta= 0.70
     Davidson diagonalization with overlap
     ethr =  1.00E-02,  avg # of iterations =  5.6

     negative rho (up, down):  9.374E-04 0.000E+00

     total cpu time spent up to now is    36991.6 secs

     total energy              =   -3609.98098462 Ry
     estimated scf accuracy    <     145.57886305 Ry

     iteration #  4     ecut=   124.00 Ry     beta= 0.70
     Davidson diagonalization with overlap
     ethr =  1.00E-02,  avg # of iterations =  2.0

     negative rho (up, down):  2.307E-03 0.000E+00

     total cpu time spent up to now is    37074.1 secs

     total energy              =   -3602.18196601 Ry
     estimated scf accuracy    <      88.90184017 Ry

     iteration #  5     ecut=   124.00 Ry     beta= 0.70
     Davidson diagonalization with overlap
     ethr =  1.00E-02,  avg # of iterations =  1.3

     negative rho (up, down):  2.482E-03 0.000E+00

     total cpu time spent up to now is    37143.9 secs

     total energy              =   -3602.93222148 Ry
     estimated scf accuracy    <      46.76980164 Ry

     iteration #  6     ecut=   124.00 Ry     beta= 0.70
     Davidson diagonalization with overlap
     ethr =  1.00E-02,  avg # of iterations =  1.0

     negative rho (up, down):  2.840E-03 0.000E+00

     total cpu time spent up to now is    37211.6 secs

     total energy              =   -3602.14555948 Ry
     estimated scf accuracy    <      44.95932137 Ry

     iteration #  7     ecut=   124.00 Ry     beta= 0.70
     Davidson diagonalization with overlap
     ethr =  1.00E-02,  avg # of iterations =  1.0

     negative rho (up, down):  6.319E-03 0.000E+00

     total cpu time spent up to now is    37279.1 secs

     total energy              =   -3596.53464841 Ry
     estimated scf accuracy    <      38.27834645 Ry

     iteration #  8     ecut=   124.00 Ry     beta= 0.70
     Davidson diagonalization with overlap
     ethr =  1.00E-02,  avg # of iterations =  2.3

     negative rho (up, down):  6.982E-03 0.000E+00

     total cpu time spent up to now is    37353.6 secs

     total energy              =   -3597.64215841 Ry
     estimated scf accuracy    <       5.99772318 Ry

     iteration #  9     ecut=   124.00 Ry     beta= 0.70
     Davidson diagonalization with overlap
     ethr =  2.59E-03,  avg # of iterations =  3.0

     negative rho (up, down):  8.032E-03 0.000E+00

     total cpu time spent up to now is    37432.8 secs

     total energy              =   -3597.71220894 Ry
     estimated scf accuracy    <       3.57544240 Ry

     iteration # 10     ecut=   124.00 Ry     beta= 0.70
     Davidson diagonalization with overlap
     ethr =  1.54E-03,  avg # of iterations =  3.5

     negative rho (up, down):  1.012E-02 0.000E+00

     total cpu time spent up to now is    37513.6 secs

     total energy              =   -3597.77364274 Ry
     estimated scf accuracy    <       1.82916555 Ry

     iteration # 11     ecut=   124.00 Ry     beta= 0.70
     Davidson diagonalization with overlap
     ethr =  7.88E-04,  avg # of iterations =  8.5

     negative rho (up, down):  9.144E-03 0.000E+00

     total cpu time spent up to now is    37651.0 secs

     total energy              =   -3599.05180213 Ry
     estimated scf accuracy    <      55.43748488 Ry

     iteration # 12     ecut=   124.00 Ry     beta= 0.70
     Davidson diagonalization with overlap
     ethr =  7.88E-04,  avg # of iterations =  1.8

     negative rho (up, down):  7.240E-03 0.000E+00

     total cpu time spent up to now is    37723.9 secs

     total energy              =   -3597.51762445 Ry
     estimated scf accuracy    <      36.38928594 Ry

     iteration # 13     ecut=   124.00 Ry     beta= 0.70
     Davidson diagonalization with overlap
     ethr =  7.88E-04,  avg # of iterations =  4.2

     negative rho (up, down):  5.592E-03 0.000E+00

     total cpu time spent up to now is    37813.8 secs

     total energy              =   -3597.13099462 Ry
     estimated scf accuracy    <       6.46371778 Ry

     iteration # 14     ecut=   124.00 Ry     beta= 0.70
     Davidson diagonalization with overlap
     ethr =  7.88E-04,  avg # of iterations =  5.6

     negative rho (up, down):  6.273E-03 0.000E+00

     total cpu time spent up to now is    37923.5 secs

     total energy              =   -3597.96698047 Ry
     estimated scf accuracy    <       4.72560126 Ry

     iteration # 15     ecut=   124.00 Ry     beta= 0.70
     Davidson diagonalization with overlap
     ethr =  7.88E-04,  avg # of iterations =  1.1

     negative rho (up, down):  6.631E-03 0.000E+00

     total cpu time spent up to now is    37991.4 secs

     total energy              =   -3597.93824797 Ry
     estimated scf accuracy    <       1.54656014 Ry

     iteration # 16     ecut=   124.00 Ry     beta= 0.70
     Davidson diagonalization with overlap
     ethr =  6.67E-04,  avg # of iterations =  1.0

     negative rho (up, down):  6.982E-03 0.000E+00

     total cpu time spent up to now is    38059.2 secs

     total energy              =   -3597.90732064 Ry
     estimated scf accuracy    <       0.60495822 Ry

     iteration # 17     ecut=   124.00 Ry     beta= 0.70
     Davidson diagonalization with overlap
     ethr =  2.61E-04,  avg # of iterations =  2.5

     negative rho (up, down):  6.900E-03 0.000E+00

     total cpu time spent up to now is    38135.4 secs

     total energy              =   -3597.93975625 Ry
     estimated scf accuracy    <       0.05315376 Ry

     iteration # 18     ecut=   124.00 Ry     beta= 0.70
     Davidson diagonalization with overlap
     ethr =  2.29E-05,  avg # of iterations =  6.7

     negative rho (up, down):  6.947E-03 0.000E+00

     total cpu time spent up to now is    38243.5 secs

     total energy              =   -3597.95246037 Ry
     estimated scf accuracy    <       0.01343711 Ry

     iteration # 19     ecut=   124.00 Ry     beta= 0.70
     Davidson diagonalization with overlap
     ethr =  5.79E-06,  avg # of iterations =  2.0

     negative rho (up, down):  7.052E-03 0.000E+00

     total cpu time spent up to now is    38316.8 secs

     total energy              =   -3597.95125700 Ry
     estimated scf accuracy    <       0.01312196 Ry

     iteration # 20     ecut=   124.00 Ry     beta= 0.70
     Davidson diagonalization with overlap
     ethr =  5.66E-06,  avg # of iterations =  1.2

     negative rho (up, down):  7.153E-03 0.000E+00

     total cpu time spent up to now is    38385.3 secs

     total energy              =   -3597.95070788 Ry
     estimated scf accuracy    <       0.00664513 Ry

     iteration # 21     ecut=   124.00 Ry     beta= 0.70
     Davidson diagonalization with overlap
     ethr =  2.86E-06,  avg # of iterations =  2.2

     negative rho (up, down):  7.134E-03 0.000E+00

     total cpu time spent up to now is    38469.0 secs

     total energy              =   -3597.95113595 Ry
     estimated scf accuracy    <       0.00953866 Ry

     iteration # 22     ecut=   124.00 Ry     beta= 0.70
     Davidson diagonalization with overlap
     ethr =  2.86E-06,  avg # of iterations =  1.1

     negative rho (up, down):  7.169E-03 0.000E+00

     total cpu time spent up to now is    38537.6 secs

     total energy              =   -3597.95126897 Ry
     estimated scf accuracy    <       0.00335563 Ry

     iteration # 23     ecut=   124.00 Ry     beta= 0.70
     Davidson diagonalization with overlap
     ethr =  1.45E-06,  avg # of iterations =  1.6

     negative rho (up, down):  7.168E-03 0.000E+00

     total cpu time spent up to now is    38612.6 secs

     total energy              =   -3597.95142852 Ry
     estimated scf accuracy    <       0.00012535 Ry

     iteration # 24     ecut=   124.00 Ry     beta= 0.70
     Davidson diagonalization with overlap
     ethr =  5.40E-08,  avg # of iterations =  5.2

     negative rho (up, down):  7.166E-03 0.000E+00

     total cpu time spent up to now is    38724.2 secs

     total energy              =   -3597.95146338 Ry
     estimated scf accuracy    <       0.00014780 Ry

     iteration # 25     ecut=   124.00 Ry     beta= 0.70
     Davidson diagonalization with overlap
     ethr =  5.40E-08,  avg # of iterations =  1.9

     negative rho (up, down):  7.167E-03 0.000E+00

     total cpu time spent up to now is    38797.4 secs

     total energy              =   -3597.95147175 Ry
     estimated scf accuracy    <       0.00001230 Ry

     iteration # 26     ecut=   124.00 Ry     beta= 0.70
     Davidson diagonalization with overlap
     ethr =  5.30E-09,  avg # of iterations =  4.9

     negative rho (up, down):  7.167E-03 0.000E+00

     total cpu time spent up to now is    38894.7 secs

     total energy              =   -3597.95147452 Ry
     estimated scf accuracy    <       0.00000421 Ry

     iteration # 27     ecut=   124.00 Ry     beta= 0.70
     Davidson diagonalization with overlap
     ethr =  1.81E-09,  avg # of iterations =  3.0

     negative rho (up, down):  7.167E-03 0.000E+00

     total cpu time spent up to now is    38973.0 secs

     total energy              =   -3597.95147486 Ry
     estimated scf accuracy    <       0.00000067 Ry

     iteration # 28     ecut=   124.00 Ry     beta= 0.70
     Davidson diagonalization with overlap
     ethr =  2.91E-10,  avg # of iterations =  4.9

     negative rho (up, down):  7.167E-03 0.000E+00

     total cpu time spent up to now is    39078.3 secs

     total energy              =   -3597.95147504 Ry
     estimated scf accuracy    <       0.00000015 Ry

     iteration # 29     ecut=   124.00 Ry     beta= 0.70
     Davidson diagonalization with overlap
     ethr =  6.53E-11,  avg # of iterations =  3.6

     negative rho (up, down):  7.167E-03 0.000E+00

     total cpu time spent up to now is    39164.9 secs

     total energy              =   -3597.95147506 Ry
     estimated scf accuracy    <       0.00000010 Ry

     iteration # 30     ecut=   124.00 Ry     beta= 0.70
     Davidson diagonalization with overlap
     ethr =  4.22E-11,  avg # of iterations =  2.0

     negative rho (up, down):  7.167E-03 0.000E+00

     total cpu time spent up to now is    39239.4 secs

     total energy              =   -3597.95147507 Ry
     estimated scf accuracy    <          8.7E-09 Ry

     iteration # 31     ecut=   124.00 Ry     beta= 0.70
     Davidson diagonalization with overlap
     ethr =  3.76E-12,  avg # of iterations =  4.8

     negative rho (up, down):  7.167E-03 0.000E+00

     total cpu time spent up to now is    39349.9 secs

     total energy              =   -3597.95147507 Ry
     estimated scf accuracy    <       0.00000001 Ry

     iteration # 32     ecut=   124.00 Ry     beta= 0.70
     Davidson diagonalization with overlap
     ethr =  3.76E-12,  avg # of iterations =  1.3

     negative rho (up, down):  7.167E-03 0.000E+00

     total cpu time spent up to now is    39419.4 secs

     total energy              =   -3597.95147507 Ry
     estimated scf accuracy    <          1.8E-09 Ry

     iteration # 33     ecut=   124.00 Ry     beta= 0.70
     Davidson diagonalization with overlap
     ethr =  7.77E-13,  avg # of iterations =  2.1

     negative rho (up, down):  7.167E-03 0.000E+00

     total cpu time spent up to now is    39495.2 secs

     total energy              =   -3597.95147507 Ry
     estimated scf accuracy    <          2.3E-10 Ry

     iteration # 34     ecut=   124.00 Ry     beta= 0.70
     Davidson diagonalization with overlap
     ethr =  1.00E-13,  avg # of iterations =  4.9

     negative rho (up, down):  7.167E-03 0.000E+00

     total cpu time spent up to now is    39606.4 secs

     total energy              =   -3597.95147507 Ry
     estimated scf accuracy    <          5.3E-10 Ry

     iteration # 35     ecut=   124.00 Ry     beta= 0.70
     Davidson diagonalization with overlap
     ethr =  1.00E-13,  avg # of iterations =  1.9

     negative rho (up, down):  7.167E-03 0.000E+00

     total cpu time spent up to now is    39680.3 secs

     End of self-consistent calculation

     Number of k-points >= 100: set verbosity='high' to print the bands.

     the Fermi energy is    16.1617 ev

!    total energy              =   -3597.95147507 Ry
     estimated scf accuracy    <          7.3E-11 Ry
     smearing contrib. (-TS)   =      -0.00008479 Ry
     internal energy E=F+TS    =   -3597.95139028 Ry

     The total energy is F=E-TS. E is the sum of the following terms:
     one-electron contribution =   -1317.71005887 Ry
     hartree contribution      =     779.17247052 Ry
     xc contribution           =    -429.04401383 Ry
     ewald contribution        =   -2021.15259674 Ry
     one-center paw contrib.   =    -609.21719137 Ry

     convergence has been achieved in  35 iterations

     negative rho (up, down):  7.167E-03 0.000E+00

     Forces acting on atoms (cartesian axes, Ry/au):

     atom    1 type  2   force =     0.00000000   -0.00000000    0.00000000
     atom    2 type  2   force =     0.00000000    0.00000000    0.00000000
     atom    3 type  2   force =     0.00000000   -0.00000000    0.00000000
     atom    4 type  2   force =     0.00000000    0.00000000    0.00000000
     atom    5 type  2   force =     0.00000000   -0.00000000    0.00000000
     atom    6 type  2   force =     0.00000000    0.00000000    0.00000000
     atom    7 type  2   force =    -0.00000000    0.00000000   -0.00000000
     atom    8 type  2   force =     0.00000000    0.00000000    0.00000000
     atom    9 type  1   force =    -0.00000473    0.00000000   -0.00008673
     atom   10 type  1   force =    -0.00007742   -0.00000000    0.00007742
     atom   11 type  1   force =     0.00019353    0.00000000   -0.00019353
     atom   12 type  1   force =    -0.00019353    0.00000000    0.00019353
     atom   13 type  1   force =     0.00007742    0.00000000   -0.00007742
     atom   14 type  1   force =     0.00000473   -0.00000000    0.00008673
     atom   15 type  1   force =     0.00008673   -0.00000000    0.00000473
     atom   16 type  1   force =    -0.00008673   -0.00000000   -0.00000473
     atom   17 type  3   force =    -0.00014450   -0.00000000    0.00001468
     atom   18 type  3   force =    -0.00001468    0.00000000    0.00014450
     atom   19 type  3   force =    -0.00011721    0.00007112    0.00011721
     atom   20 type  3   force =    -0.00011721   -0.00007112    0.00011721
     atom   21 type  3   force =     0.00001468    0.00000000   -0.00014450
     atom   22 type  3   force =     0.00014450   -0.00000000   -0.00001468
     atom   23 type  3   force =     0.00011721   -0.00007112   -0.00011721
     atom   24 type  3   force =     0.00011721    0.00007112   -0.00011721

     Total force =     0.000647     Total SCF correction =     0.000001


     Computing stress (Cartesian axis) and pressure


     negative rho (up, down):  7.167E-03 0.000E+00
          total   stress  (Ry/bohr**3)                   (kbar)     P=        0.16
   0.00000102   0.00000000  -0.00000062            0.15        0.00       -0.09
   0.00000000   0.00000129   0.00000000            0.00        0.19        0.00
  -0.00000062   0.00000000   0.00000102           -0.09        0.00        0.15


     Writing all to output data dir ./TiFeH_supercell.save/ :
     XML data file
     init_run     :     67.37s CPU     71.91s WALL (       2 calls)
     electrons    :  37433.25s CPU  38413.97s WALL (      27 calls)
     update_pot   :      9.94s CPU     10.52s WALL (      25 calls)
     forces       :    241.64s CPU    251.07s WALL (      27 calls)
     stress       :    878.65s CPU    906.27s WALL (      27 calls)

     Called by init_run:
     wfcinit      :     62.17s CPU     66.30s WALL (       2 calls)
     potinit      :      1.64s CPU      1.70s WALL (       2 calls)
     hinit0       :      1.32s CPU      1.40s WALL (       2 calls)

     Called by electrons:
     c_bands      :  33943.93s CPU  34701.36s WALL (     490 calls)
     sum_band     :   3132.86s CPU   3294.93s WALL (     490 calls)
     v_of_rho     :     44.21s CPU     49.05s WALL (     506 calls)
     newd         :    177.63s CPU    234.90s WALL (     506 calls)
     PAW_pot      :    150.90s CPU    152.01s WALL (     531 calls)
     mix_rho      :      6.11s CPU      6.83s WALL (     490 calls)

     Called by c_bands:
     init_us_2    :    285.77s CPU    290.32s WALL (  111405 calls)
     cegterg      :  33201.61s CPU  33948.14s WALL (   51513 calls)

     Called by *egterg:
     cdiaghg      :   4906.02s CPU   4949.67s WALL (  266005 calls)
     h_psi        :  16933.59s CPU  17498.99s WALL (  270058 calls)
     s_psi        :   2312.92s CPU   2336.57s WALL (  270058 calls)
     g_psi        :     61.66s CPU     63.08s WALL (  218335 calls)

     Called by h_psi:
     h_psi:calbec :   2546.13s CPU   2604.41s WALL (  270058 calls)
     vloc_psi     :  12016.69s CPU  12499.50s WALL (  270058 calls)
     add_vuspsi   :   2290.05s CPU   2313.51s WALL (  270058 calls)

     General routines
     calbec       :   4268.05s CPU   4370.38s WALL (  372328 calls)
     fft          :     30.68s CPU     37.22s WALL (    7235 calls)
     ffts         :      1.34s CPU      1.48s WALL (     996 calls)
     fftw         :  10809.22s CPU  11238.51s WALL (46011624 calls)
     interpolate  :      3.14s CPU      3.67s WALL (     506 calls)

     Parallel routines

     PWSCF        :  38700.23s CPU  39728.33s WALL


   This run was terminated on:  13:44:53   4Dec2025            

=------------------------------------------------------------------------------=
   JOB DONE.
=------------------------------------------------------------------------------=
