
     Program PWSCF v.7.4 starts on 13Nov2025 at 15:48:59 

     This program is part of the open-source Quantum ESPRESSO suite
     for quantum simulation of materials; please cite
         "P. Giannozzi et al., J. Phys.:Condens. Matter 21 395502 (2009);
         "P. Giannozzi et al., J. Phys.:Condens. Matter 29 465901 (2017);
         "P. Giannozzi et al., J. Chem. Phys. 152 154105 (2020);
          URL http://www.quantum-espresso.org", 
     in publications or presentations arising from this work. More details at
     http://www.quantum-espresso.org/quote

     Parallel version (MPI & OpenMP), running on      16 processor cores
     Number of MPI processes:                16
     Threads/MPI process:                     1

     MPI processes distributed on     1 nodes
     227134 MiB available memory on the printing compute node when the environment starts

     Reading input from TiFe_H_faces_xy_fixed_V.in

     Current dimensions of program PWSCF are:
     Max number of different atomic species (ntypx) = 10
     Max number of k-points (npk) =  40000
     Max angular momentum in pseudopotentials (lmaxx) =  4
     file Fe.pbe-spn-kjpaw_psl.0.2.1.UPF: wavefunction(s)  3D renormalized

     IMPORTANT: XC functional enforced from input :
     Exchange-correlation= PBE
                           (   1   4   3   4   0   0   0)
     Any further DFT definition will be discarded
     Please, verify this is what you really want

     Message from routine setup:
     using ibrav=0 with symmetry is DISCOURAGED, use correct ibrav instead

     R & G space division:  proc/nbgrp/npool/nimage =      16
     Subspace diagonalization in iterative solution of the eigenvalue problem:
     a serial algorithm will be used


     Parallelization info
     --------------------
     sticks:   dense  smooth     PW     G-vecs:    dense   smooth      PW
     Min         269      76     22                13288     2024     320
     Max         271      77     23                13289     2027     323
     Sum        4309    1225    357               212623    32423    5137

     Using Slab Decomposition



     bravais-lattice index     =            0
     lattice parameter (alat)  =       5.5824  a.u.
     unit-cell volume          =     173.9675 (a.u.)^3
     number of atoms/cell      =            4
     number of atomic types    =            3
     number of electrons       =        30.00
     number of Kohn-Sham states=           19
     kinetic-energy cutoff     =     124.0000  Ry
     charge density cutoff     =    1736.0000  Ry
     scf convergence threshold =      1.0E-08
     mixing beta               =       0.7000
     number of iterations used =            8  plain     mixing
     energy convergence thresh.=      1.0E-04
     force convergence thresh. =      1.0E-03
     Exchange-correlation= PBE
                           (   1   4   3   4   0   0   0)
     nstep                     =           50


     celldm(1)=   5.582423  celldm(2)=   0.000000  celldm(3)=   0.000000
     celldm(4)=   0.000000  celldm(5)=   0.000000  celldm(6)=   0.000000

     crystal axes: (cart. coord. in units of alat)
               a(1) = (   1.000000   0.000000   0.000000 )  
               a(2) = (   0.000000   1.000000   0.000000 )  
               a(3) = (   0.000000   0.000000   1.000000 )  

     reciprocal axes: (cart. coord. in units 2 pi/alat)
               b(1) = (  1.000000  0.000000  0.000000 )  
               b(2) = (  0.000000  1.000000  0.000000 )  
               b(3) = (  0.000000  0.000000  1.000000 )  


     PseudoPot. # 1 for Fe read from file:
     ../../pseudos/Fe.pbe-spn-kjpaw_psl.0.2.1.UPF
     MD5 check sum: e86618425769142926afa95317d90200
     Pseudo is Projector augmented-wave + core cor, Zval = 16.0
     Generated using "atomic" code by A. Dal Corso  v.5.0.99 svn rev. 10869
     Shape of augmentation charge: PSQ
     Using radial grid of 1191 points,  6 beta functions with: 
                l(1) =   0
                l(2) =   0
                l(3) =   1
                l(4) =   1
                l(5) =   2
                l(6) =   2
     Q(r) pseudized with 0 coefficients 


     PseudoPot. # 2 for Ti read from file:
     ../../pseudos/ti_pbe_v1.4.uspp.F.UPF
     MD5 check sum: 88a00a6731bd790ddea75d31a80cb452
     Pseudo is Ultrasoft + core correction, Zval = 12.0
     Generated by new atomic code, or converted to UPF format
     Using radial grid of  851 points,  6 beta functions with: 
                l(1) =   0
                l(2) =   0
                l(3) =   1
                l(4) =   1
                l(5) =   2
                l(6) =   2
     Q(r) pseudized with  6 coefficients,  rinner =    1.000   1.000   1.000
                                                       1.000   1.000

     PseudoPot. # 3 for H  read from file:
     ../../pseudos/H.pbe-rrkjus_psl.1.0.0.UPF
     MD5 check sum: f52b6d4d1c606e5624b1dc7b2218f220
     Pseudo is Ultrasoft, Zval =  1.0
     Generated using "atomic" code by A. Dal Corso  v.5.1
     Using radial grid of  929 points,  2 beta functions with: 
                l(1) =   0
                l(2) =   0
     Q(r) pseudized with 0 coefficients 


     atomic species   valence    mass     pseudopotential
     Fe               16.00    55.84500     Fe( 1.00)
     Ti               12.00    47.86700     Ti( 1.00)
     H                 1.00     1.00750     H ( 1.00)

     16 Sym. Ops., with inversion, found



   Cartesian axes

     site n.     atom                  positions (alat units)
         1        Fe     tau(   1) = (   0.5000000   0.5000000   0.5000000  )
         2        Ti     tau(   2) = (   0.0000000   0.0000000   0.0000000  )
         3        H      tau(   3) = (   0.5000000   0.0000000   0.5000000  )
         4        H      tau(   4) = (   0.0000000   0.5000000   0.5000000  )

     number of k points=   288  Marzari-Vanderbilt smearing, width (Ry)=  0.0050

     Number of k-points >= 100: set verbosity='high' to print them.

     Dense  grid:   212623 G-vectors     FFT dimensions: (  75,  75,  75)

     Smooth grid:    32423 G-vectors     FFT dimensions: (  40,  40,  40)

     Estimated max dynamical RAM per process >      80.31 MB

     Estimated total dynamical RAM >       1.25 GB

     Check: negative core charge=   -0.000001

     Initial potential from superposition of free atoms

     starting charge      28.9995, renormalised to      30.0000

     negative rho (up, down):  1.329E-03 0.000E+00
     Starting wfcs are   25 randomized atomic wfcs
     Checking if some PAW data can be deallocated... 

     total cpu time spent up to now is        2.2 secs

     per-process dynamical memory:   149.2 Mb

     Self-consistent Calculation

     iteration #  1     ecut=   124.00 Ry     beta= 0.70
     Davidson diagonalization with overlap
     ethr =  1.00E-02,  avg # of iterations =  2.1

     negative rho (up, down):  1.040E-05 0.000E+00

     total cpu time spent up to now is        5.2 secs

     total energy              =    -441.39381510 Ry
     estimated scf accuracy    <      12.05158591 Ry

     iteration #  2     ecut=   124.00 Ry     beta= 0.70
     Davidson diagonalization with overlap
     ethr =  1.00E-02,  avg # of iterations =  5.8

     negative rho (up, down):  1.170E-04 0.000E+00

     total cpu time spent up to now is       10.1 secs

     total energy              =    -450.68303633 Ry
     estimated scf accuracy    <      50.27589345 Ry

     iteration #  3     ecut=   124.00 Ry     beta= 0.70
     Davidson diagonalization with overlap
     ethr =  1.00E-02,  avg # of iterations =  2.6

     negative rho (up, down):  3.613E-04 0.000E+00

     total cpu time spent up to now is       13.5 secs

     total energy              =    -450.89234533 Ry
     estimated scf accuracy    <      12.34894348 Ry

     iteration #  4     ecut=   124.00 Ry     beta= 0.70
     Davidson diagonalization with overlap
     ethr =  1.00E-02,  avg # of iterations =  2.3

     negative rho (up, down):  3.497E-04 0.000E+00

     total cpu time spent up to now is       16.2 secs

     total energy              =    -451.28270638 Ry
     estimated scf accuracy    <       3.92054560 Ry

     iteration #  5     ecut=   124.00 Ry     beta= 0.70
     Davidson diagonalization with overlap
     ethr =  1.00E-02,  avg # of iterations =  1.1

     negative rho (up, down):  5.166E-04 0.000E+00

     total cpu time spent up to now is       18.6 secs

     total energy              =    -450.68480690 Ry
     estimated scf accuracy    <       3.73572638 Ry

     iteration #  6     ecut=   124.00 Ry     beta= 0.70
     Davidson diagonalization with overlap
     ethr =  1.00E-02,  avg # of iterations =  1.7

     negative rho (up, down):  6.548E-04 0.000E+00

     total cpu time spent up to now is       21.1 secs

     total energy              =    -450.82898989 Ry
     estimated scf accuracy    <       0.42925552 Ry

     iteration #  7     ecut=   124.00 Ry     beta= 0.70
     Davidson diagonalization with overlap
     ethr =  1.43E-03,  avg # of iterations =  3.9

     negative rho (up, down):  7.423E-04 0.000E+00

     total cpu time spent up to now is       24.2 secs

     total energy              =    -450.82633729 Ry
     estimated scf accuracy    <       0.25628737 Ry

     iteration #  8     ecut=   124.00 Ry     beta= 0.70
     Davidson diagonalization with overlap
     ethr =  8.54E-04,  avg # of iterations =  2.1

     negative rho (up, down):  9.591E-04 0.000E+00

     total cpu time spent up to now is       26.9 secs

     total energy              =    -450.79815830 Ry
     estimated scf accuracy    <       0.27748323 Ry

     iteration #  9     ecut=   124.00 Ry     beta= 0.70
     Davidson diagonalization with overlap
     ethr =  8.54E-04,  avg # of iterations =  2.2

     negative rho (up, down):  9.744E-04 0.000E+00

     total cpu time spent up to now is       29.5 secs

     total energy              =    -450.88656904 Ry
     estimated scf accuracy    <       0.61381205 Ry

     iteration # 10     ecut=   124.00 Ry     beta= 0.70
     Davidson diagonalization with overlap
     ethr =  8.54E-04,  avg # of iterations =  1.1

     negative rho (up, down):  9.411E-04 0.000E+00

     total cpu time spent up to now is       31.9 secs

     total energy              =    -450.87549676 Ry
     estimated scf accuracy    <       0.82952867 Ry

     iteration # 11     ecut=   124.00 Ry     beta= 0.70
     Davidson diagonalization with overlap
     ethr =  8.54E-04,  avg # of iterations =  1.0

     negative rho (up, down):  9.044E-04 0.000E+00

     total cpu time spent up to now is       34.2 secs

     total energy              =    -450.87774390 Ry
     estimated scf accuracy    <       0.80164340 Ry

     iteration # 12     ecut=   124.00 Ry     beta= 0.70
     Davidson diagonalization with overlap
     ethr =  8.54E-04,  avg # of iterations =  1.0

     negative rho (up, down):  7.054E-04 0.000E+00

     total cpu time spent up to now is       36.6 secs

     total energy              =    -450.70679812 Ry
     estimated scf accuracy    <       0.87678675 Ry

     iteration # 13     ecut=   124.00 Ry     beta= 0.70
     Davidson diagonalization with overlap
     ethr =  8.54E-04,  avg # of iterations =  2.7

     negative rho (up, down):  7.939E-04 0.000E+00

     total cpu time spent up to now is       39.3 secs

     total energy              =    -450.82591124 Ry
     estimated scf accuracy    <       0.43586120 Ry

     iteration # 14     ecut=   124.00 Ry     beta= 0.70
     Davidson diagonalization with overlap
     ethr =  8.54E-04,  avg # of iterations =  1.0

     negative rho (up, down):  8.605E-04 0.000E+00

     total cpu time spent up to now is       41.6 secs

     total energy              =    -450.82456257 Ry
     estimated scf accuracy    <       0.08569117 Ry

     iteration # 15     ecut=   124.00 Ry     beta= 0.70
     Davidson diagonalization with overlap
     ethr =  2.86E-04,  avg # of iterations =  1.4

     negative rho (up, down):  8.586E-04 0.000E+00

     total cpu time spent up to now is       44.0 secs

     total energy              =    -450.83036119 Ry
     estimated scf accuracy    <       0.00104217 Ry

     iteration # 16     ecut=   124.00 Ry     beta= 0.70
     Davidson diagonalization with overlap
     ethr =  3.47E-06,  avg # of iterations =  4.9

     negative rho (up, down):  8.549E-04 0.000E+00

     total cpu time spent up to now is       47.5 secs

     total energy              =    -450.83069739 Ry
     estimated scf accuracy    <       0.00018856 Ry

     iteration # 17     ecut=   124.00 Ry     beta= 0.70
     Davidson diagonalization with overlap
     ethr =  6.29E-07,  avg # of iterations =  2.6

     negative rho (up, down):  8.600E-04 0.000E+00

     total cpu time spent up to now is       50.2 secs

     total energy              =    -450.83069412 Ry
     estimated scf accuracy    <       0.00146439 Ry

     iteration # 18     ecut=   124.00 Ry     beta= 0.70
     Davidson diagonalization with overlap
     ethr =  6.29E-07,  avg # of iterations =  1.0

     negative rho (up, down):  8.619E-04 0.000E+00

     total cpu time spent up to now is       52.5 secs

     total energy              =    -450.83068755 Ry
     estimated scf accuracy    <       0.00082231 Ry

     iteration # 19     ecut=   124.00 Ry     beta= 0.70
     Davidson diagonalization with overlap
     ethr =  6.29E-07,  avg # of iterations =  1.0

     negative rho (up, down):  8.679E-04 0.000E+00

     total cpu time spent up to now is       54.8 secs

     total energy              =    -450.83062059 Ry
     estimated scf accuracy    <       0.00065419 Ry

     iteration # 20     ecut=   124.00 Ry     beta= 0.70
     Davidson diagonalization with overlap
     ethr =  6.29E-07,  avg # of iterations =  1.8

     negative rho (up, down):  8.693E-04 0.000E+00

     total cpu time spent up to now is       57.3 secs

     total energy              =    -450.83064124 Ry
     estimated scf accuracy    <       0.00003908 Ry

     iteration # 21     ecut=   124.00 Ry     beta= 0.70
     Davidson diagonalization with overlap
     ethr =  1.30E-07,  avg # of iterations =  2.5

     negative rho (up, down):  8.691E-04 0.000E+00

     total cpu time spent up to now is       60.0 secs

     total energy              =    -450.83064568 Ry
     estimated scf accuracy    <       0.00000281 Ry

     iteration # 22     ecut=   124.00 Ry     beta= 0.70
     Davidson diagonalization with overlap
     ethr =  9.38E-09,  avg # of iterations =  4.2

     negative rho (up, down):  8.689E-04 0.000E+00

     total cpu time spent up to now is       63.2 secs

     total energy              =    -450.83064640 Ry
     estimated scf accuracy    <       0.00000028 Ry

     iteration # 23     ecut=   124.00 Ry     beta= 0.70
     Davidson diagonalization with overlap
     ethr =  9.33E-10,  avg # of iterations =  3.3

     negative rho (up, down):  8.689E-04 0.000E+00

     total cpu time spent up to now is       66.4 secs

     total energy              =    -450.83064646 Ry
     estimated scf accuracy    <       0.00000002 Ry

     iteration # 24     ecut=   124.00 Ry     beta= 0.70
     Davidson diagonalization with overlap
     ethr =  7.30E-11,  avg # of iterations =  3.8

     negative rho (up, down):  8.689E-04 0.000E+00

     total cpu time spent up to now is       69.6 secs

     End of self-consistent calculation

     Number of k-points >= 100: set verbosity='high' to print the bands.

     the Fermi energy is    19.2581 ev

!    total energy              =    -450.83064646 Ry
     estimated scf accuracy    <          4.3E-09 Ry
     smearing contrib. (-TS)   =      -0.00007960 Ry
     internal energy E=F+TS    =    -450.83056686 Ry

     The total energy is F=E-TS. E is the sum of the following terms:
     one-electron contribution =    -146.10388049 Ry
     hartree contribution      =      92.11447414 Ry
     xc contribution           =     -54.88683409 Ry
     ewald contribution        =    -265.79907102 Ry
     one-center paw contrib.   =     -76.15525539 Ry

     convergence has been achieved in  24 iterations

     negative rho (up, down):  8.689E-04 0.000E+00

     Forces acting on atoms (cartesian axes, Ry/au):

     atom    1 type  1   force =     0.00000000    0.00000000    0.00000000
     atom    2 type  2   force =     0.00000000    0.00000000    0.00000000
     atom    3 type  3   force =     0.00000000    0.00000000    0.00000000
     atom    4 type  3   force =     0.00000000    0.00000000    0.00000000

     Total force =     0.000000     Total SCF correction =     0.000000


     Computing stress (Cartesian axis) and pressure


     negative rho (up, down):  8.689E-04 0.000E+00
          total   stress  (Ry/bohr**3)                   (kbar)     P=      568.69
   0.00510016   0.00000000   0.00000000          750.26        0.00        0.00
   0.00000000   0.00510016   0.00000000            0.00      750.26        0.00
   0.00000000   0.00000000   0.00139741            0.00        0.00      205.57


     BFGS Geometry Optimization
     Energy error            =      0.0E+00 Ry
     Gradient error          =      0.0E+00 Ry/Bohr

     bfgs converged in   1 scf cycles and   0 bfgs steps
     (criteria: energy <  1.0E-04 Ry, force <  1.0E-03 Ry/Bohr)

     End of BFGS Geometry Optimization

     Final energy             =    -450.8306464639 Ry
Begin final coordinates

ATOMIC_POSITIONS (crystal)
Fe               0.5000000000        0.5000000000        0.5000000000
Ti               0.0000000000        0.0000000000        0.0000000000
H                0.5000000000        0.0000000000        0.5000000000
H                0.0000000000        0.5000000000        0.5000000000
End final coordinates



     Writing all to output data dir ./TiFe_H_faces_xy.save/ :
     XML data file
     init_run     :      1.89s CPU      1.97s WALL (       1 calls)
     electrons    :     64.79s CPU     67.40s WALL (       1 calls)
     forces       :      0.27s CPU      0.29s WALL (       1 calls)
     stress       :      1.25s CPU      1.29s WALL (       1 calls)

     Called by init_run:
     wfcinit      :      1.11s CPU      1.16s WALL (       1 calls)
     potinit      :      0.34s CPU      0.36s WALL (       1 calls)
     hinit0       :      0.22s CPU      0.22s WALL (       1 calls)

     Called by electrons:
     c_bands      :     51.64s CPU     53.25s WALL (      24 calls)
     sum_band     :      9.83s CPU     10.36s WALL (      24 calls)
     v_of_rho     :      0.31s CPU      0.35s WALL (      25 calls)
     newd         :      1.79s CPU      2.08s WALL (      25 calls)
     PAW_pot      :      1.28s CPU      1.42s WALL (      25 calls)
     mix_rho      :      0.04s CPU      0.05s WALL (      24 calls)

     Called by c_bands:
     init_us_2    :      1.25s CPU      1.29s WALL (   14688 calls)
     cegterg      :     49.42s CPU     50.94s WALL (    6912 calls)

     Called by *egterg:
     cdiaghg      :      7.70s CPU      7.89s WALL (   23365 calls)
     h_psi        :     35.80s CPU     37.02s WALL (   23653 calls)
     s_psi        :      0.96s CPU      1.00s WALL (   23653 calls)
     g_psi        :      0.17s CPU      0.17s WALL (   16453 calls)

     Called by h_psi:
     h_psi:calbec :      1.69s CPU      1.74s WALL (   23653 calls)
     vloc_psi     :     32.96s CPU     34.08s WALL (   23653 calls)
     add_vuspsi   :      0.99s CPU      1.02s WALL (   23653 calls)

     General routines
     calbec       :      2.61s CPU      2.70s WALL (   35461 calls)
     fft          :      0.34s CPU      0.39s WALL (     348 calls)
     ffts         :      0.28s CPU      0.28s WALL (      49 calls)
     fftw         :     31.40s CPU     32.42s WALL (  762430 calls)
     interpolate  :      0.29s CPU      0.30s WALL (      25 calls)

     Parallel routines

     PWSCF        :     68.44s CPU     71.35s WALL


   This run was terminated on:  15:50:10  13Nov2025            

=------------------------------------------------------------------------------=
   JOB DONE.
=------------------------------------------------------------------------------=
