
     Program PWSCF v.7.4 starts on 13Nov2025 at 15:50:11 

     This program is part of the open-source Quantum ESPRESSO suite
     for quantum simulation of materials; please cite
         "P. Giannozzi et al., J. Phys.:Condens. Matter 21 395502 (2009);
         "P. Giannozzi et al., J. Phys.:Condens. Matter 29 465901 (2017);
         "P. Giannozzi et al., J. Chem. Phys. 152 154105 (2020);
          URL http://www.quantum-espresso.org", 
     in publications or presentations arising from this work. More details at
     http://www.quantum-espresso.org/quote

     Parallel version (MPI & OpenMP), running on      16 processor cores
     Number of MPI processes:                16
     Threads/MPI process:                     1

     MPI processes distributed on     1 nodes
     228365 MiB available memory on the printing compute node when the environment starts

     Reading input from TiFe_H_faces_xyz_fixed_V.in

     Current dimensions of program PWSCF are:
     Max number of different atomic species (ntypx) = 10
     Max number of k-points (npk) =  40000
     Max angular momentum in pseudopotentials (lmaxx) =  4
     file Fe.pbe-spn-kjpaw_psl.0.2.1.UPF: wavefunction(s)  3D renormalized

     IMPORTANT: XC functional enforced from input :
     Exchange-correlation= PBE
                           (   1   4   3   4   0   0   0)
     Any further DFT definition will be discarded
     Please, verify this is what you really want

     Message from routine setup:
     using ibrav=0 with symmetry is DISCOURAGED, use correct ibrav instead

     R & G space division:  proc/nbgrp/npool/nimage =      16
     Subspace diagonalization in iterative solution of the eigenvalue problem:
     a serial algorithm will be used


     Parallelization info
     --------------------
     sticks:   dense  smooth     PW     G-vecs:    dense   smooth      PW
     Min         269      76     22                13288     2024     320
     Max         271      77     23                13289     2027     323
     Sum        4309    1225    357               212623    32423    5137

     Using Slab Decomposition



     bravais-lattice index     =            0
     lattice parameter (alat)  =       5.5824  a.u.
     unit-cell volume          =     173.9675 (a.u.)^3
     number of atoms/cell      =            5
     number of atomic types    =            3
     number of electrons       =        31.00
     number of Kohn-Sham states=           20
     kinetic-energy cutoff     =     124.0000  Ry
     charge density cutoff     =    1736.0000  Ry
     scf convergence threshold =      1.0E-08
     mixing beta               =       0.7000
     number of iterations used =            8  plain     mixing
     energy convergence thresh.=      1.0E-04
     force convergence thresh. =      1.0E-03
     Exchange-correlation= PBE
                           (   1   4   3   4   0   0   0)
     nstep                     =           50


     celldm(1)=   5.582423  celldm(2)=   0.000000  celldm(3)=   0.000000
     celldm(4)=   0.000000  celldm(5)=   0.000000  celldm(6)=   0.000000

     crystal axes: (cart. coord. in units of alat)
               a(1) = (   1.000000   0.000000   0.000000 )  
               a(2) = (   0.000000   1.000000   0.000000 )  
               a(3) = (   0.000000   0.000000   1.000000 )  

     reciprocal axes: (cart. coord. in units 2 pi/alat)
               b(1) = (  1.000000  0.000000  0.000000 )  
               b(2) = (  0.000000  1.000000  0.000000 )  
               b(3) = (  0.000000  0.000000  1.000000 )  


     PseudoPot. # 1 for Fe read from file:
     ../../pseudos/Fe.pbe-spn-kjpaw_psl.0.2.1.UPF
     MD5 check sum: e86618425769142926afa95317d90200
     Pseudo is Projector augmented-wave + core cor, Zval = 16.0
     Generated using "atomic" code by A. Dal Corso  v.5.0.99 svn rev. 10869
     Shape of augmentation charge: PSQ
     Using radial grid of 1191 points,  6 beta functions with: 
                l(1) =   0
                l(2) =   0
                l(3) =   1
                l(4) =   1
                l(5) =   2
                l(6) =   2
     Q(r) pseudized with 0 coefficients 


     PseudoPot. # 2 for Ti read from file:
     ../../pseudos/ti_pbe_v1.4.uspp.F.UPF
     MD5 check sum: 88a00a6731bd790ddea75d31a80cb452
     Pseudo is Ultrasoft + core correction, Zval = 12.0
     Generated by new atomic code, or converted to UPF format
     Using radial grid of  851 points,  6 beta functions with: 
                l(1) =   0
                l(2) =   0
                l(3) =   1
                l(4) =   1
                l(5) =   2
                l(6) =   2
     Q(r) pseudized with  6 coefficients,  rinner =    1.000   1.000   1.000
                                                       1.000   1.000

     PseudoPot. # 3 for H  read from file:
     ../../pseudos/H.pbe-rrkjus_psl.1.0.0.UPF
     MD5 check sum: f52b6d4d1c606e5624b1dc7b2218f220
     Pseudo is Ultrasoft, Zval =  1.0
     Generated using "atomic" code by A. Dal Corso  v.5.1
     Using radial grid of  929 points,  2 beta functions with: 
                l(1) =   0
                l(2) =   0
     Q(r) pseudized with 0 coefficients 


     atomic species   valence    mass     pseudopotential
     Fe               16.00    55.84500     Fe( 1.00)
     Ti               12.00    47.86700     Ti( 1.00)
     H                 1.00     1.00750     H ( 1.00)

     48 Sym. Ops., with inversion, found



   Cartesian axes

     site n.     atom                  positions (alat units)
         1        Fe     tau(   1) = (   0.5000000   0.5000000   0.5000000  )
         2        Ti     tau(   2) = (   0.0000000   0.0000000   0.0000000  )
         3        H      tau(   3) = (   0.5000000   0.0000000   0.5000000  )
         4        H      tau(   4) = (   0.0000000   0.5000000   0.5000000  )
         5        H      tau(   5) = (   0.5000000   0.5000000   0.0000000  )

     number of k points=   120  Marzari-Vanderbilt smearing, width (Ry)=  0.0050

     Number of k-points >= 100: set verbosity='high' to print them.

     Dense  grid:   212623 G-vectors     FFT dimensions: (  75,  75,  75)

     Smooth grid:    32423 G-vectors     FFT dimensions: (  40,  40,  40)

     Estimated max dynamical RAM per process >      68.47 MB

     Estimated total dynamical RAM >       1.07 GB

     Check: negative core charge=   -0.000001

     Initial potential from superposition of free atoms

     starting charge      29.9995, renormalised to      31.0000

     negative rho (up, down):  1.317E-03 0.000E+00
     Starting wfcs are   26 randomized atomic wfcs
     Checking if some PAW data can be deallocated... 

     total cpu time spent up to now is        1.6 secs

     per-process dynamical memory:   136.3 Mb

     Self-consistent Calculation

     iteration #  1     ecut=   124.00 Ry     beta= 0.70
     Davidson diagonalization with overlap
     ethr =  1.00E-02,  avg # of iterations =  2.5

     negative rho (up, down):  1.737E-05 0.000E+00

     total cpu time spent up to now is        3.1 secs

     total energy              =    -444.31592661 Ry
     estimated scf accuracy    <       9.75736035 Ry

     iteration #  2     ecut=   124.00 Ry     beta= 0.70
     Davidson diagonalization with overlap
     ethr =  1.00E-02,  avg # of iterations =  5.2

     negative rho (up, down):  1.541E-04 0.000E+00

     total cpu time spent up to now is        5.3 secs

     total energy              =    -451.36864865 Ry
     estimated scf accuracy    <      44.18421850 Ry

     iteration #  3     ecut=   124.00 Ry     beta= 0.70
     Davidson diagonalization with overlap
     ethr =  1.00E-02,  avg # of iterations =  2.5

     negative rho (up, down):  3.622E-04 0.000E+00

     total cpu time spent up to now is        7.0 secs

     WARNING: integrated charge=    31.00000628, expected=    31.00000000

     total energy              =    -452.35797417 Ry
     estimated scf accuracy    <       9.84665070 Ry

     iteration #  4     ecut=   124.00 Ry     beta= 0.70
     Davidson diagonalization with overlap
     ethr =  1.00E-02,  avg # of iterations =  1.7

     negative rho (up, down):  8.085E-04 0.000E+00

     total cpu time spent up to now is        8.3 secs

     WARNING: integrated charge=    30.99997518, expected=    31.00000000

     total energy              =    -451.93920103 Ry
     estimated scf accuracy    <       4.77853576 Ry

     iteration #  5     ecut=   124.00 Ry     beta= 0.70
     Davidson diagonalization with overlap
     ethr =  1.00E-02,  avg # of iterations =  2.6

     negative rho (up, down):  1.035E-03 0.000E+00

     total cpu time spent up to now is        9.6 secs

     WARNING: integrated charge=    30.99998037, expected=    31.00000000

     total energy              =    -451.62871923 Ry
     estimated scf accuracy    <       1.78588096 Ry

     iteration #  6     ecut=   124.00 Ry     beta= 0.70
     Davidson diagonalization with overlap
     ethr =  5.76E-03,  avg # of iterations =  2.9

     negative rho (up, down):  1.049E-03 0.000E+00

     total cpu time spent up to now is       11.0 secs

     WARNING: integrated charge=    30.99998004, expected=    31.00000000

     total energy              =    -452.05365077 Ry
     estimated scf accuracy    <       2.18981834 Ry

     iteration #  7     ecut=   124.00 Ry     beta= 0.70
     Davidson diagonalization with overlap
     ethr =  5.76E-03,  avg # of iterations =  1.1

     negative rho (up, down):  1.042E-03 0.000E+00

     total cpu time spent up to now is       12.2 secs

     WARNING: integrated charge=    30.99997952, expected=    31.00000000

     total energy              =    -452.05906311 Ry
     estimated scf accuracy    <       2.68684110 Ry

     iteration #  8     ecut=   124.00 Ry     beta= 0.70
     Davidson diagonalization with overlap
     ethr =  5.76E-03,  avg # of iterations =  1.0

     negative rho (up, down):  1.014E-03 0.000E+00

     total cpu time spent up to now is       13.4 secs

     WARNING: integrated charge=    30.99998013, expected=    31.00000000

     total energy              =    -452.03019408 Ry
     estimated scf accuracy    <       2.56882682 Ry

     iteration #  9     ecut=   124.00 Ry     beta= 0.70
     Davidson diagonalization with overlap
     ethr =  5.76E-03,  avg # of iterations =  1.1

     negative rho (up, down):  1.025E-03 0.000E+00

     total cpu time spent up to now is       14.6 secs

     WARNING: integrated charge=    30.99998400, expected=    31.00000000

     total energy              =    -452.04297923 Ry
     estimated scf accuracy    <       1.90281301 Ry

     iteration # 10     ecut=   124.00 Ry     beta= 0.70
     Davidson diagonalization with overlap
     ethr =  5.76E-03,  avg # of iterations =  1.0

     negative rho (up, down):  9.336E-04 0.000E+00

     total cpu time spent up to now is       15.8 secs

     total energy              =    -451.88546554 Ry
     estimated scf accuracy    <       2.10749498 Ry

     iteration # 11     ecut=   124.00 Ry     beta= 0.70
     Davidson diagonalization with overlap
     ethr =  5.76E-03,  avg # of iterations =  1.3

     negative rho (up, down):  9.423E-04 0.000E+00

     total cpu time spent up to now is       17.0 secs

     total energy              =    -451.95409152 Ry
     estimated scf accuracy    <       0.10040306 Ry

     iteration # 12     ecut=   124.00 Ry     beta= 0.70
     Davidson diagonalization with overlap
     ethr =  3.24E-04,  avg # of iterations =  2.2

     negative rho (up, down):  9.571E-04 0.000E+00

     total cpu time spent up to now is       18.3 secs

     total energy              =    -451.96082335 Ry
     estimated scf accuracy    <       0.20778283 Ry

     iteration # 13     ecut=   124.00 Ry     beta= 0.70
     Davidson diagonalization with overlap
     ethr =  3.24E-04,  avg # of iterations =  1.0

     negative rho (up, down):  8.568E-04 0.000E+00

     total cpu time spent up to now is       19.5 secs

     total energy              =    -451.94482418 Ry
     estimated scf accuracy    <       0.29311015 Ry

     iteration # 14     ecut=   124.00 Ry     beta= 0.70
     Davidson diagonalization with overlap
     ethr =  3.24E-04,  avg # of iterations =  1.2

     negative rho (up, down):  8.563E-04 0.000E+00

     total cpu time spent up to now is       20.7 secs

     total energy              =    -451.94878971 Ry
     estimated scf accuracy    <       0.07574298 Ry

     iteration # 15     ecut=   124.00 Ry     beta= 0.70
     Davidson diagonalization with overlap
     ethr =  2.44E-04,  avg # of iterations =  1.0

     negative rho (up, down):  8.103E-04 0.000E+00

     total cpu time spent up to now is       21.9 secs

     WARNING: integrated charge=    30.99999468, expected=    31.00000000

     total energy              =    -451.93650451 Ry
     estimated scf accuracy    <       0.07332437 Ry

     iteration # 16     ecut=   124.00 Ry     beta= 0.70
     Davidson diagonalization with overlap
     ethr =  2.37E-04,  avg # of iterations =  1.9

     negative rho (up, down):  6.642E-04 0.000E+00

     total cpu time spent up to now is       23.2 secs

     total energy              =    -451.94744724 Ry
     estimated scf accuracy    <       0.01692391 Ry

     iteration # 17     ecut=   124.00 Ry     beta= 0.70
     Davidson diagonalization with overlap
     ethr =  5.46E-05,  avg # of iterations =  2.5

     negative rho (up, down):  7.173E-04 0.000E+00

     total cpu time spent up to now is       24.5 secs

     WARNING: integrated charge=    30.99999501, expected=    31.00000000

     total energy              =    -451.95001531 Ry
     estimated scf accuracy    <       0.03873939 Ry

     iteration # 18     ecut=   124.00 Ry     beta= 0.70
     Davidson diagonalization with overlap
     ethr =  5.46E-05,  avg # of iterations =  1.2

     negative rho (up, down):  7.651E-04 0.000E+00

     total cpu time spent up to now is       25.7 secs

     total energy              =    -451.94427297 Ry
     estimated scf accuracy    <       0.07221875 Ry

     iteration # 19     ecut=   124.00 Ry     beta= 0.70
     Davidson diagonalization with overlap
     ethr =  5.46E-05,  avg # of iterations =  1.4

     negative rho (up, down):  7.831E-04 0.000E+00

     total cpu time spent up to now is       27.0 secs

     total energy              =    -451.94431513 Ry
     estimated scf accuracy    <       0.01363679 Ry

     iteration # 20     ecut=   124.00 Ry     beta= 0.70
     Davidson diagonalization with overlap
     ethr =  4.40E-05,  avg # of iterations =  1.5

     negative rho (up, down):  7.886E-04 0.000E+00

     total cpu time spent up to now is       28.2 secs

     total energy              =    -451.94495552 Ry
     estimated scf accuracy    <       0.00036323 Ry

     iteration # 21     ecut=   124.00 Ry     beta= 0.70
     Davidson diagonalization with overlap
     ethr =  1.17E-06,  avg # of iterations =  3.7

     negative rho (up, down):  7.890E-04 0.000E+00

     total cpu time spent up to now is       29.6 secs

     total energy              =    -451.94500356 Ry
     estimated scf accuracy    <       0.00008977 Ry

     iteration # 22     ecut=   124.00 Ry     beta= 0.70
     Davidson diagonalization with overlap
     ethr =  2.90E-07,  avg # of iterations =  1.4

     negative rho (up, down):  7.910E-04 0.000E+00

     total cpu time spent up to now is       30.9 secs

     total energy              =    -451.94500129 Ry
     estimated scf accuracy    <       0.00003803 Ry

     iteration # 23     ecut=   124.00 Ry     beta= 0.70
     Davidson diagonalization with overlap
     ethr =  1.23E-07,  avg # of iterations =  1.1

     negative rho (up, down):  7.987E-04 0.000E+00

     total cpu time spent up to now is       32.1 secs

     total energy              =    -451.94498862 Ry
     estimated scf accuracy    <       0.00002202 Ry

     iteration # 24     ecut=   124.00 Ry     beta= 0.70
     Davidson diagonalization with overlap
     ethr =  7.10E-08,  avg # of iterations =  2.1

     negative rho (up, down):  7.996E-04 0.000E+00

     total cpu time spent up to now is       33.5 secs

     total energy              =    -451.94499309 Ry
     estimated scf accuracy    <       0.00000849 Ry

     iteration # 25     ecut=   124.00 Ry     beta= 0.70
     Davidson diagonalization with overlap
     ethr =  2.74E-08,  avg # of iterations =  1.1

     negative rho (up, down):  7.997E-04 0.000E+00

     total cpu time spent up to now is       34.7 secs

     total energy              =    -451.94499362 Ry
     estimated scf accuracy    <       0.00000014 Ry

     iteration # 26     ecut=   124.00 Ry     beta= 0.70
     Davidson diagonalization with overlap
     ethr =  4.68E-10,  avg # of iterations =  4.7

     negative rho (up, down):  7.998E-04 0.000E+00

     total cpu time spent up to now is       36.5 secs

     total energy              =    -451.94499370 Ry
     estimated scf accuracy    <       0.00000003 Ry

     iteration # 27     ecut=   124.00 Ry     beta= 0.70
     Davidson diagonalization with overlap
     ethr =  1.09E-10,  avg # of iterations =  2.0

     negative rho (up, down):  7.999E-04 0.000E+00

     total cpu time spent up to now is       37.9 secs

     End of self-consistent calculation

     Number of k-points >= 100: set verbosity='high' to print the bands.

     the Fermi energy is    20.0834 ev

!    total energy              =    -451.94499369 Ry
     estimated scf accuracy    <          8.5E-09 Ry
     smearing contrib. (-TS)   =      -0.00008481 Ry
     internal energy E=F+TS    =    -451.94490888 Ry

     The total energy is F=E-TS. E is the sum of the following terms:
     one-electron contribution =    -142.04551452 Ry
     hartree contribution      =      91.95690400 Ry
     xc contribution           =     -55.92149180 Ry
     ewald contribution        =    -269.77901587 Ry
     one-center paw contrib.   =     -76.15579069 Ry

     convergence has been achieved in  27 iterations

     negative rho (up, down):  7.999E-04 0.000E+00

     Forces acting on atoms (cartesian axes, Ry/au):

     atom    1 type  1   force =     0.00000000    0.00000000    0.00000000
     atom    2 type  2   force =     0.00000000    0.00000000    0.00000000
     atom    3 type  3   force =     0.00000000    0.00000000    0.00000000
     atom    4 type  3   force =     0.00000000    0.00000000    0.00000000
     atom    5 type  3   force =     0.00000000    0.00000000    0.00000000

     Total force =     0.000000     Total SCF correction =     0.000000


     Computing stress (Cartesian axis) and pressure


     negative rho (up, down):  7.999E-04 0.000E+00
          total   stress  (Ry/bohr**3)                   (kbar)     P=      857.32
   0.00582797   0.00000000   0.00000000          857.32        0.00        0.00
   0.00000000   0.00582797   0.00000000            0.00      857.32        0.00
   0.00000000   0.00000000   0.00582797            0.00        0.00      857.32


     BFGS Geometry Optimization
     Energy error            =      0.0E+00 Ry
     Gradient error          =      0.0E+00 Ry/Bohr

     bfgs converged in   1 scf cycles and   0 bfgs steps
     (criteria: energy <  1.0E-04 Ry, force <  1.0E-03 Ry/Bohr)

     End of BFGS Geometry Optimization

     Final energy             =    -451.9449936947 Ry
Begin final coordinates

ATOMIC_POSITIONS (crystal)
Fe               0.5000000000        0.5000000000        0.5000000000
Ti               0.0000000000        0.0000000000        0.0000000000
H                0.5000000000        0.0000000000        0.5000000000
H                0.0000000000        0.5000000000        0.5000000000
H                0.5000000000        0.5000000000        0.0000000000
End final coordinates



     Writing all to output data dir ./TiFe_H_faces_xyz.save/ :
     XML data file
     init_run     :      1.28s CPU      1.34s WALL (       1 calls)
     electrons    :     34.65s CPU     36.31s WALL (       1 calls)
     forces       :      0.19s CPU      0.21s WALL (       1 calls)
     stress       :      0.90s CPU      0.93s WALL (       1 calls)

     Called by init_run:
     wfcinit      :      0.51s CPU      0.53s WALL (       1 calls)
     potinit      :      0.35s CPU      0.36s WALL (       1 calls)
     hinit0       :      0.22s CPU      0.22s WALL (       1 calls)

     Called by electrons:
     c_bands      :     24.38s CPU     25.18s WALL (      27 calls)
     sum_band     :      6.47s CPU      6.90s WALL (      27 calls)
     v_of_rho     :      0.36s CPU      0.39s WALL (      28 calls)
     newd         :      2.03s CPU      2.29s WALL (      28 calls)
     PAW_pot      :      1.45s CPU      1.59s WALL (      28 calls)
     mix_rho      :      0.05s CPU      0.05s WALL (      27 calls)

     Called by c_bands:
     init_us_2    :      0.60s CPU      0.62s WALL (    6840 calls)
     cegterg      :     23.29s CPU     24.06s WALL (    3240 calls)

     Called by *egterg:
     cdiaghg      :      3.43s CPU      3.51s WALL (    9609 calls)
     h_psi        :     17.11s CPU     17.73s WALL (    9729 calls)
     s_psi        :      0.46s CPU      0.48s WALL (    9729 calls)
     g_psi        :      0.08s CPU      0.08s WALL (    6369 calls)

     Called by h_psi:
     h_psi:calbec :      0.80s CPU      0.83s WALL (    9729 calls)
     vloc_psi     :     15.76s CPU     16.33s WALL (    9729 calls)
     add_vuspsi   :      0.47s CPU      0.49s WALL (    9729 calls)

     General routines
     calbec       :      1.23s CPU      1.28s WALL (   15009 calls)
     fft          :      0.37s CPU      0.42s WALL (     387 calls)
     ffts         :      0.28s CPU      0.28s WALL (      55 calls)
     fftw         :     15.26s CPU     15.77s WALL (  361496 calls)
     interpolate  :      0.29s CPU      0.30s WALL (      28 calls)

     Parallel routines

     PWSCF        :     37.24s CPU     39.18s WALL


   This run was terminated on:  15:50:50  13Nov2025            

=------------------------------------------------------------------------------=
   JOB DONE.
=------------------------------------------------------------------------------=
