
     Program PWSCF v.7.4 starts on 13Nov2025 at 15:47:34 

     This program is part of the open-source Quantum ESPRESSO suite
     for quantum simulation of materials; please cite
         "P. Giannozzi et al., J. Phys.:Condens. Matter 21 395502 (2009);
         "P. Giannozzi et al., J. Phys.:Condens. Matter 29 465901 (2017);
         "P. Giannozzi et al., J. Chem. Phys. 152 154105 (2020);
          URL http://www.quantum-espresso.org", 
     in publications or presentations arising from this work. More details at
     http://www.quantum-espresso.org/quote

     Parallel version (MPI & OpenMP), running on      16 processor cores
     Number of MPI processes:                16
     Threads/MPI process:                     1

     MPI processes distributed on     1 nodes
     232163 MiB available memory on the printing compute node when the environment starts

     Reading input from TiFe_H_faces_x_fixed_V.in

     Current dimensions of program PWSCF are:
     Max number of different atomic species (ntypx) = 10
     Max number of k-points (npk) =  40000
     Max angular momentum in pseudopotentials (lmaxx) =  4
     file Fe.pbe-spn-kjpaw_psl.0.2.1.UPF: wavefunction(s)  3D renormalized

     IMPORTANT: XC functional enforced from input :
     Exchange-correlation= PBE
                           (   1   4   3   4   0   0   0)
     Any further DFT definition will be discarded
     Please, verify this is what you really want

     Message from routine setup:
     using ibrav=0 with symmetry is DISCOURAGED, use correct ibrav instead

     R & G space division:  proc/nbgrp/npool/nimage =      16
     Subspace diagonalization in iterative solution of the eigenvalue problem:
     a serial algorithm will be used


     Parallelization info
     --------------------
     sticks:   dense  smooth     PW     G-vecs:    dense   smooth      PW
     Min         269      76     22                13288     2024     320
     Max         271      77     23                13289     2027     323
     Sum        4309    1225    357               212623    32423    5137

     Using Slab Decomposition



     bravais-lattice index     =            0
     lattice parameter (alat)  =       5.5824  a.u.
     unit-cell volume          =     173.9675 (a.u.)^3
     number of atoms/cell      =            3
     number of atomic types    =            3
     number of electrons       =        29.00
     number of Kohn-Sham states=           19
     kinetic-energy cutoff     =     124.0000  Ry
     charge density cutoff     =    1736.0000  Ry
     scf convergence threshold =      1.0E-08
     mixing beta               =       0.7000
     number of iterations used =            8  plain     mixing
     energy convergence thresh.=      1.0E-04
     force convergence thresh. =      1.0E-03
     Exchange-correlation= PBE
                           (   1   4   3   4   0   0   0)
     nstep                     =           50


     celldm(1)=   5.582423  celldm(2)=   0.000000  celldm(3)=   0.000000
     celldm(4)=   0.000000  celldm(5)=   0.000000  celldm(6)=   0.000000

     crystal axes: (cart. coord. in units of alat)
               a(1) = (   1.000000   0.000000   0.000000 )  
               a(2) = (   0.000000   1.000000   0.000000 )  
               a(3) = (   0.000000   0.000000   1.000000 )  

     reciprocal axes: (cart. coord. in units 2 pi/alat)
               b(1) = (  1.000000  0.000000  0.000000 )  
               b(2) = (  0.000000  1.000000  0.000000 )  
               b(3) = (  0.000000  0.000000  1.000000 )  


     PseudoPot. # 1 for Fe read from file:
     ../../pseudos/Fe.pbe-spn-kjpaw_psl.0.2.1.UPF
     MD5 check sum: e86618425769142926afa95317d90200
     Pseudo is Projector augmented-wave + core cor, Zval = 16.0
     Generated using "atomic" code by A. Dal Corso  v.5.0.99 svn rev. 10869
     Shape of augmentation charge: PSQ
     Using radial grid of 1191 points,  6 beta functions with: 
                l(1) =   0
                l(2) =   0
                l(3) =   1
                l(4) =   1
                l(5) =   2
                l(6) =   2
     Q(r) pseudized with 0 coefficients 


     PseudoPot. # 2 for Ti read from file:
     ../../pseudos/ti_pbe_v1.4.uspp.F.UPF
     MD5 check sum: 88a00a6731bd790ddea75d31a80cb452
     Pseudo is Ultrasoft + core correction, Zval = 12.0
     Generated by new atomic code, or converted to UPF format
     Using radial grid of  851 points,  6 beta functions with: 
                l(1) =   0
                l(2) =   0
                l(3) =   1
                l(4) =   1
                l(5) =   2
                l(6) =   2
     Q(r) pseudized with  6 coefficients,  rinner =    1.000   1.000   1.000
                                                       1.000   1.000

     PseudoPot. # 3 for H  read from file:
     ../../pseudos/H.pbe-rrkjus_psl.1.0.0.UPF
     MD5 check sum: f52b6d4d1c606e5624b1dc7b2218f220
     Pseudo is Ultrasoft, Zval =  1.0
     Generated using "atomic" code by A. Dal Corso  v.5.1
     Using radial grid of  929 points,  2 beta functions with: 
                l(1) =   0
                l(2) =   0
     Q(r) pseudized with 0 coefficients 


     atomic species   valence    mass     pseudopotential
     Fe               16.00    55.84500     Fe( 1.00)
     Ti               12.00    47.86700     Ti( 1.00)
     H                 1.00     1.00750     H ( 1.00)

     16 Sym. Ops., with inversion, found



   Cartesian axes

     site n.     atom                  positions (alat units)
         1        Fe     tau(   1) = (   0.5000000   0.5000000   0.5000000  )
         2        Ti     tau(   2) = (   0.0000000   0.0000000   0.0000000  )
         3        H      tau(   3) = (   0.0000000   0.5000000   0.5000000  )

     number of k points=   288  Marzari-Vanderbilt smearing, width (Ry)=  0.0050

     Number of k-points >= 100: set verbosity='high' to print them.

     Dense  grid:   212623 G-vectors     FFT dimensions: (  75,  75,  75)

     Smooth grid:    32423 G-vectors     FFT dimensions: (  40,  40,  40)

     Estimated max dynamical RAM per process >      80.31 MB

     Estimated total dynamical RAM >       1.25 GB

     Check: negative core charge=   -0.000001

     Initial potential from superposition of free atoms

     starting charge      27.9995, renormalised to      29.0000

     negative rho (up, down):  1.342E-03 0.000E+00
     Starting wfcs are   24 randomized atomic wfcs
     Checking if some PAW data can be deallocated... 

     total cpu time spent up to now is        2.6 secs

     per-process dynamical memory:   149.0 Mb

     Self-consistent Calculation

     iteration #  1     ecut=   124.00 Ry     beta= 0.70
     Davidson diagonalization with overlap
     ethr =  1.00E-02,  avg # of iterations =  2.1

     negative rho (up, down):  1.685E-05 0.000E+00

     total cpu time spent up to now is        5.5 secs

     total energy              =    -438.28468488 Ry
     estimated scf accuracy    <      14.59074531 Ry

     iteration #  2     ecut=   124.00 Ry     beta= 0.70
     Davidson diagonalization with overlap
     ethr =  1.00E-02,  avg # of iterations =  5.9

     negative rho (up, down):  7.771E-05 0.000E+00

     total cpu time spent up to now is       10.5 secs

     total energy              =    -449.74094341 Ry
     estimated scf accuracy    <      57.30427904 Ry

     iteration #  3     ecut=   124.00 Ry     beta= 0.70
     Davidson diagonalization with overlap
     ethr =  1.00E-02,  avg # of iterations =  2.9

     negative rho (up, down):  3.164E-04 0.000E+00

     total cpu time spent up to now is       14.0 secs

     total energy              =    -449.69257308 Ry
     estimated scf accuracy    <      14.57226877 Ry

     iteration #  4     ecut=   124.00 Ry     beta= 0.70
     Davidson diagonalization with overlap
     ethr =  1.00E-02,  avg # of iterations =  2.5

     negative rho (up, down):  3.055E-04 0.000E+00

     total cpu time spent up to now is       16.8 secs

     total energy              =    -450.20752270 Ry
     estimated scf accuracy    <       3.98536067 Ry

     iteration #  5     ecut=   124.00 Ry     beta= 0.70
     Davidson diagonalization with overlap
     ethr =  1.00E-02,  avg # of iterations =  1.0

     negative rho (up, down):  4.819E-04 0.000E+00

     total cpu time spent up to now is       19.1 secs

     total energy              =    -449.65915808 Ry
     estimated scf accuracy    <       3.76711051 Ry

     iteration #  6     ecut=   124.00 Ry     beta= 0.70
     Davidson diagonalization with overlap
     ethr =  1.00E-02,  avg # of iterations =  1.6

     negative rho (up, down):  5.688E-04 0.000E+00

     total cpu time spent up to now is       21.5 secs

     total energy              =    -449.77469669 Ry
     estimated scf accuracy    <       0.63678838 Ry

     iteration #  7     ecut=   124.00 Ry     beta= 0.70
     Davidson diagonalization with overlap
     ethr =  2.20E-03,  avg # of iterations =  2.3

     negative rho (up, down):  8.741E-04 0.000E+00

     total cpu time spent up to now is       24.1 secs

     total energy              =    -449.72372456 Ry
     estimated scf accuracy    <       0.31146796 Ry

     iteration #  8     ecut=   124.00 Ry     beta= 0.70
     Davidson diagonalization with overlap
     ethr =  1.07E-03,  avg # of iterations =  2.5

     negative rho (up, down):  1.117E-03 0.000E+00

     total cpu time spent up to now is       26.9 secs

     total energy              =    -449.66699849 Ry
     estimated scf accuracy    <       0.24163520 Ry

     iteration #  9     ecut=   124.00 Ry     beta= 0.70
     Davidson diagonalization with overlap
     ethr =  8.33E-04,  avg # of iterations =  3.7

     negative rho (up, down):  1.108E-03 0.000E+00

     total cpu time spent up to now is       30.0 secs

     total energy              =    -449.77967861 Ry
     estimated scf accuracy    <       1.16046235 Ry

     iteration # 10     ecut=   124.00 Ry     beta= 0.70
     Davidson diagonalization with overlap
     ethr =  8.33E-04,  avg # of iterations =  1.1

     negative rho (up, down):  1.379E-03 0.000E+00

     total cpu time spent up to now is       32.3 secs

     total energy              =    -449.91243827 Ry
     estimated scf accuracy    <       1.11484605 Ry

     iteration # 11     ecut=   124.00 Ry     beta= 0.70
     Davidson diagonalization with overlap
     ethr =  8.33E-04,  avg # of iterations =  2.5

     negative rho (up, down):  1.323E-03 0.000E+00

     total cpu time spent up to now is       35.0 secs

     total energy              =    -449.86765206 Ry
     estimated scf accuracy    <       6.20984622 Ry

     iteration # 12     ecut=   124.00 Ry     beta= 0.70
     Davidson diagonalization with overlap
     ethr =  8.33E-04,  avg # of iterations =  1.0

     negative rho (up, down):  1.273E-03 0.000E+00

     total cpu time spent up to now is       37.3 secs

     total energy              =    -449.90576707 Ry
     estimated scf accuracy    <       3.30347196 Ry

     iteration # 13     ecut=   124.00 Ry     beta= 0.70
     Davidson diagonalization with overlap
     ethr =  8.33E-04,  avg # of iterations =  1.0

     negative rho (up, down):  6.319E-04 0.000E+00

     total cpu time spent up to now is       39.6 secs

     total energy              =    -449.39564611 Ry
     estimated scf accuracy    <       4.08638964 Ry

     iteration # 14     ecut=   124.00 Ry     beta= 0.70
     Davidson diagonalization with overlap
     ethr =  8.33E-04,  avg # of iterations =  3.6

     negative rho (up, down):  6.697E-04 0.000E+00

     total cpu time spent up to now is       42.9 secs

     total energy              =    -449.72114938 Ry
     estimated scf accuracy    <       0.18545317 Ry

     iteration # 15     ecut=   124.00 Ry     beta= 0.70
     Davidson diagonalization with overlap
     ethr =  6.39E-04,  avg # of iterations =  1.0

     negative rho (up, down):  7.309E-04 0.000E+00

     total cpu time spent up to now is       45.2 secs

     total energy              =    -449.72016106 Ry
     estimated scf accuracy    <       0.11796464 Ry

     iteration # 16     ecut=   124.00 Ry     beta= 0.70
     Davidson diagonalization with overlap
     ethr =  4.07E-04,  avg # of iterations =  1.0

     negative rho (up, down):  7.498E-04 0.000E+00

     total cpu time spent up to now is       47.6 secs

     total energy              =    -449.71869818 Ry
     estimated scf accuracy    <       0.09659021 Ry

     iteration # 17     ecut=   124.00 Ry     beta= 0.70
     Davidson diagonalization with overlap
     ethr =  3.33E-04,  avg # of iterations =  1.0

     negative rho (up, down):  8.040E-04 0.000E+00

     total cpu time spent up to now is       49.9 secs

     total energy              =    -449.71414026 Ry
     estimated scf accuracy    <       0.07550964 Ry

     iteration # 18     ecut=   124.00 Ry     beta= 0.70
     Davidson diagonalization with overlap
     ethr =  2.60E-04,  avg # of iterations =  1.0

     negative rho (up, down):  8.781E-04 0.000E+00

     total cpu time spent up to now is       52.2 secs

     total energy              =    -449.71091092 Ry
     estimated scf accuracy    <       0.03406872 Ry

     iteration # 19     ecut=   124.00 Ry     beta= 0.70
     Davidson diagonalization with overlap
     ethr =  1.17E-04,  avg # of iterations =  1.2

     negative rho (up, down):  9.228E-04 0.000E+00

     total cpu time spent up to now is       54.6 secs

     total energy              =    -449.71120646 Ry
     estimated scf accuracy    <       0.00426434 Ry

     iteration # 20     ecut=   124.00 Ry     beta= 0.70
     Davidson diagonalization with overlap
     ethr =  1.47E-05,  avg # of iterations =  2.3

     negative rho (up, down):  9.619E-04 0.000E+00

     total cpu time spent up to now is       57.3 secs

     total energy              =    -449.71218234 Ry
     estimated scf accuracy    <       0.00078899 Ry

     iteration # 21     ecut=   124.00 Ry     beta= 0.70
     Davidson diagonalization with overlap
     ethr =  2.72E-06,  avg # of iterations =  4.4

     negative rho (up, down):  9.677E-04 0.000E+00

     total cpu time spent up to now is       61.0 secs

     total energy              =    -449.71278011 Ry
     estimated scf accuracy    <       0.01167119 Ry

     iteration # 22     ecut=   124.00 Ry     beta= 0.70
     Davidson diagonalization with overlap
     ethr =  2.72E-06,  avg # of iterations =  1.0

     negative rho (up, down):  9.261E-04 0.000E+00

     total cpu time spent up to now is       63.4 secs

     total energy              =    -449.71134010 Ry
     estimated scf accuracy    <       0.01223427 Ry

     iteration # 23     ecut=   124.00 Ry     beta= 0.70
     Davidson diagonalization with overlap
     ethr =  2.72E-06,  avg # of iterations =  2.9

     negative rho (up, down):  9.271E-04 0.000E+00

     total cpu time spent up to now is       66.6 secs

     total energy              =    -449.71190821 Ry
     estimated scf accuracy    <       0.00028396 Ry

     iteration # 24     ecut=   124.00 Ry     beta= 0.70
     Davidson diagonalization with overlap
     ethr =  9.79E-07,  avg # of iterations =  1.1

     negative rho (up, down):  9.284E-04 0.000E+00

     total cpu time spent up to now is       69.0 secs

     total energy              =    -449.71189037 Ry
     estimated scf accuracy    <       0.00045334 Ry

     iteration # 25     ecut=   124.00 Ry     beta= 0.70
     Davidson diagonalization with overlap
     ethr =  9.79E-07,  avg # of iterations =  1.0

     negative rho (up, down):  9.284E-04 0.000E+00

     total cpu time spent up to now is       71.3 secs

     total energy              =    -449.71188566 Ry
     estimated scf accuracy    <       0.00012100 Ry

     iteration # 26     ecut=   124.00 Ry     beta= 0.70
     Davidson diagonalization with overlap
     ethr =  4.17E-07,  avg # of iterations =  1.2

     negative rho (up, down):  9.289E-04 0.000E+00

     total cpu time spent up to now is       73.7 secs

     total energy              =    -449.71189120 Ry
     estimated scf accuracy    <       0.00000248 Ry

     iteration # 27     ecut=   124.00 Ry     beta= 0.70
     Davidson diagonalization with overlap
     ethr =  8.54E-09,  avg # of iterations =  4.9

     negative rho (up, down):  9.294E-04 0.000E+00

     total cpu time spent up to now is       77.5 secs

     total energy              =    -449.71189316 Ry
     estimated scf accuracy    <       0.00000286 Ry

     iteration # 28     ecut=   124.00 Ry     beta= 0.70
     Davidson diagonalization with overlap
     ethr =  8.54E-09,  avg # of iterations =  1.0

     negative rho (up, down):  9.295E-04 0.000E+00

     total cpu time spent up to now is       79.8 secs

     total energy              =    -449.71189325 Ry
     estimated scf accuracy    <       0.00000020 Ry

     iteration # 29     ecut=   124.00 Ry     beta= 0.70
     Davidson diagonalization with overlap
     ethr =  6.83E-10,  avg # of iterations =  2.4

     negative rho (up, down):  9.295E-04 0.000E+00

     total cpu time spent up to now is       82.4 secs

     End of self-consistent calculation

     Number of k-points >= 100: set verbosity='high' to print the bands.

     the Fermi energy is    18.4340 ev

!    total energy              =    -449.71189327 Ry
     estimated scf accuracy    <          4.7E-10 Ry
     smearing contrib. (-TS)   =      -0.00012957 Ry
     internal energy E=F+TS    =    -449.71176370 Ry

     The total energy is F=E-TS. E is the sum of the following terms:
     one-electron contribution =    -149.89015394 Ry
     hartree contribution      =      92.22502685 Ry
     xc contribution           =     -53.86436839 Ry
     ewald contribution        =    -262.02782464 Ry
     one-center paw contrib.   =     -76.15444358 Ry

     convergence has been achieved in  29 iterations

     negative rho (up, down):  9.295E-04 0.000E+00

     Forces acting on atoms (cartesian axes, Ry/au):

     atom    1 type  1   force =     0.00000000    0.00000000    0.00000000
     atom    2 type  2   force =     0.00000000    0.00000000    0.00000000
     atom    3 type  3   force =     0.00000000    0.00000000    0.00000000

     Total force =     0.000000     Total SCF correction =     0.000000


     Computing stress (Cartesian axis) and pressure


     negative rho (up, down):  9.295E-04 0.000E+00
          total   stress  (Ry/bohr**3)                   (kbar)     P=      282.24
   0.00415688   0.00000000   0.00000000          611.50        0.00        0.00
   0.00000000   0.00079951   0.00000000            0.00      117.61        0.00
   0.00000000   0.00000000   0.00079951            0.00        0.00      117.61


     BFGS Geometry Optimization
     Energy error            =      0.0E+00 Ry
     Gradient error          =      0.0E+00 Ry/Bohr

     bfgs converged in   1 scf cycles and   0 bfgs steps
     (criteria: energy <  1.0E-04 Ry, force <  1.0E-03 Ry/Bohr)

     End of BFGS Geometry Optimization

     Final energy             =    -449.7118932676 Ry
Begin final coordinates

ATOMIC_POSITIONS (crystal)
Fe               0.5000000000        0.5000000000        0.5000000000
Ti               0.0000000000        0.0000000000        0.0000000000
H                0.0000000000        0.5000000000        0.5000000000
End final coordinates



     Writing all to output data dir ./TiFe_H_faces_x_fixed_v.save/ :
     XML data file
     init_run     :      1.83s CPU      2.05s WALL (       1 calls)
     electrons    :     76.79s CPU     79.86s WALL (       1 calls)
     forces       :      0.26s CPU      0.28s WALL (       1 calls)
     stress       :      1.21s CPU      1.25s WALL (       1 calls)

     Called by init_run:
     wfcinit      :      1.06s CPU      1.20s WALL (       1 calls)
     potinit      :      0.33s CPU      0.39s WALL (       1 calls)
     hinit0       :      0.21s CPU      0.22s WALL (       1 calls)

     Called by electrons:
     c_bands      :     61.28s CPU     63.20s WALL (      29 calls)
     sum_band     :     11.81s CPU     12.48s WALL (      29 calls)
     v_of_rho     :      0.37s CPU      0.42s WALL (      30 calls)
     newd         :      2.16s CPU      2.45s WALL (      30 calls)
     PAW_pot      :      1.19s CPU      1.38s WALL (      30 calls)
     mix_rho      :      0.05s CPU      0.06s WALL (      29 calls)

     Called by c_bands:
     init_us_2    :      1.47s CPU      1.53s WALL (   17568 calls)
     cegterg      :     58.60s CPU     60.41s WALL (    8352 calls)

     Called by *egterg:
     cdiaghg      :      8.76s CPU      9.06s WALL (   26003 calls)
     h_psi        :     42.89s CPU     44.32s WALL (   26291 calls)
     s_psi        :      1.07s CPU      1.10s WALL (   26291 calls)
     g_psi        :      0.20s CPU      0.20s WALL (   17651 calls)

     Called by h_psi:
     h_psi:calbec :      1.86s CPU      1.92s WALL (   26291 calls)
     vloc_psi     :     39.73s CPU     41.07s WALL (   26291 calls)
     add_vuspsi   :      1.09s CPU      1.13s WALL (   26291 calls)

     General routines
     calbec       :      2.81s CPU      2.91s WALL (   39539 calls)
     fft          :      0.38s CPU      0.44s WALL (     413 calls)
     ffts         :      0.28s CPU      0.28s WALL (      59 calls)
     fftw         :     37.81s CPU     39.05s WALL (  912922 calls)
     interpolate  :      0.30s CPU      0.31s WALL (      30 calls)

     Parallel routines

     PWSCF        :     80.31s CPU     84.12s WALL


   This run was terminated on:  15:48:58  13Nov2025            

=------------------------------------------------------------------------------=
   JOB DONE.
=------------------------------------------------------------------------------=
