
     Program PWSCF v.7.4 starts on  2Nov2025 at 15:11:56 

     This program is part of the open-source Quantum ESPRESSO suite
     for quantum simulation of materials; please cite
         "P. Giannozzi et al., J. Phys.:Condens. Matter 21 395502 (2009);
         "P. Giannozzi et al., J. Phys.:Condens. Matter 29 465901 (2017);
         "P. Giannozzi et al., J. Chem. Phys. 152 154105 (2020);
          URL http://www.quantum-espresso.org", 
     in publications or presentations arising from this work. More details at
     http://www.quantum-espresso.org/quote

     Parallel version (MPI & OpenMP), running on      16 processor cores
     Number of MPI processes:                16
     Threads/MPI process:                     1

     MPI processes distributed on     1 nodes
     202947 MiB available memory on the printing compute node when the environment starts

     Reading input from TiFe2_mag_tight.in
Warning: card / ignored

     Current dimensions of program PWSCF are:
     Max number of different atomic species (ntypx) = 10
     Max number of k-points (npk) =  40000
     Max angular momentum in pseudopotentials (lmaxx) =  4
     file Fe.pbe-spn-kjpaw_psl.0.2.1.UPF: wavefunction(s)  3D renormalized

     IMPORTANT: XC functional enforced from input :
     Exchange-correlation= PBE
                           (   1   4   3   4   0   0   0)
     Any further DFT definition will be discarded
     Please, verify this is what you really want

     Found identity + (  0.0000 -0.5000  0.5000) symmetry
     This is a supercell, fractional translations are disabled
     Message from routine setup:
     using ibrav=0 with symmetry is DISCOURAGED, use correct ibrav instead

     R & G space division:  proc/nbgrp/npool/nimage =      16
     Subspace diagonalization in iterative solution of the eigenvalue problem:
     one sub-group per band group will be used
     ELPA distributed-memory algorithm (size of sub-group:  2*  2 procs)


     Parallelization info
     --------------------
     sticks:   dense  smooth     PW     G-vecs:    dense   smooth      PW
     Min        1363     388    104               151521    23108    3214
     Max        1364     389    105               151528    23115    3217
     Sum       21821    6221   1669              2424403   369813   51435

     Using Slab Decomposition



     bravais-lattice index     =            0
     lattice parameter (alat)  =      12.5674  a.u.
     unit-cell volume          =    1984.8881 (a.u.)^3
     number of atoms/cell      =           24
     number of atomic types    =            2
     number of electrons       =       352.00
     number of Kohn-Sham states=          211
     kinetic-energy cutoff     =     124.0000  Ry
     charge density cutoff     =    1736.0000  Ry
     scf convergence threshold =      1.0E-08
     mixing beta               =       0.2000
     number of iterations used =            8  local-TF  mixing
     Exchange-correlation= PBE
                           (   1   4   3   4   0   0   0)

     celldm(1)=  12.567397  celldm(2)=   0.000000  celldm(3)=   0.000000
     celldm(4)=   0.000000  celldm(5)=   0.000000  celldm(6)=   0.000000

     crystal axes: (cart. coord. in units of alat)
               a(1) = (   1.000000   0.000000   0.000000 )  
               a(2) = (   0.000000   1.000000   0.000000 )  
               a(3) = (   0.000000   0.000000   1.000000 )  

     reciprocal axes: (cart. coord. in units 2 pi/alat)
               b(1) = (  1.000000  0.000000  0.000000 )  
               b(2) = (  0.000000  1.000000  0.000000 )  
               b(3) = (  0.000000  0.000000  1.000000 )  


     PseudoPot. # 1 for Fe read from file:
     ../../pseudos/Fe.pbe-spn-kjpaw_psl.0.2.1.UPF
     MD5 check sum: e86618425769142926afa95317d90200
     Pseudo is Projector augmented-wave + core cor, Zval = 16.0
     Generated using "atomic" code by A. Dal Corso  v.5.0.99 svn rev. 10869
     Shape of augmentation charge: PSQ
     Using radial grid of 1191 points,  6 beta functions with: 
                l(1) =   0
                l(2) =   0
                l(3) =   1
                l(4) =   1
                l(5) =   2
                l(6) =   2
     Q(r) pseudized with 0 coefficients 


     PseudoPot. # 2 for Ti read from file:
     ../../pseudos/ti_pbe_v1.4.uspp.F.UPF
     MD5 check sum: 88a00a6731bd790ddea75d31a80cb452
     Pseudo is Ultrasoft + core correction, Zval = 12.0
     Generated by new atomic code, or converted to UPF format
     Using radial grid of  851 points,  6 beta functions with: 
                l(1) =   0
                l(2) =   0
                l(3) =   1
                l(4) =   1
                l(5) =   2
                l(6) =   2
     Q(r) pseudized with  6 coefficients,  rinner =    1.000   1.000   1.000
                                                       1.000   1.000

     atomic species   valence    mass     pseudopotential
     Fe               16.00    55.84500     Fe( 1.00)
     Ti               12.00    47.86700     Ti( 1.00)

     Starting magnetic structure 
     atomic species   magnetization
     Fe              0.062
     Ti             -0.026

     24 Sym. Ops. (no inversion) found



   Cartesian axes

     site n.     atom                  positions (alat units)
         1        Ti     tau(   1) = (   0.5000000   0.0000000   0.5000000  )
         2        Ti     tau(   2) = (   0.7500000   0.2500000   0.7500000  )
         3        Ti     tau(   3) = (   0.5000000   0.5000000   0.0000000  )
         4        Ti     tau(   4) = (   0.7500000   0.7500000   0.2500000  )
         5        Ti     tau(   5) = (   0.0000000   0.0000000   0.0000000  )
         6        Ti     tau(   6) = (   0.2500000   0.2500000   0.2500000  )
         7        Ti     tau(   7) = (   0.0000000   0.5000000   0.5000000  )
         8        Ti     tau(   8) = (   0.2500000   0.7500000   0.7500000  )
         9        Fe     tau(   9) = (   0.1250000   0.1250000   0.6250000  )
        10        Fe     tau(  10) = (   0.1250000   0.8750000   0.3750000  )
        11        Fe     tau(  11) = (   0.8750000   0.6250000   0.8750000  )
        12        Fe     tau(  12) = (   0.8750000   0.8750000   0.6250000  )
        13        Fe     tau(  13) = (   0.1250000   0.6250000   0.1250000  )
        14        Fe     tau(  14) = (   0.1250000   0.3750000   0.8750000  )
        15        Fe     tau(  15) = (   0.8750000   0.1250000   0.3750000  )
        16        Fe     tau(  16) = (   0.8750000   0.3750000   0.1250000  )
        17        Fe     tau(  17) = (   0.6250000   0.1250000   0.1250000  )
        18        Fe     tau(  18) = (   0.6250000   0.8750000   0.8750000  )
        19        Fe     tau(  19) = (   0.3750000   0.6250000   0.3750000  )
        20        Fe     tau(  20) = (   0.3750000   0.8750000   0.1250000  )
        21        Fe     tau(  21) = (   0.6250000   0.6250000   0.6250000  )
        22        Fe     tau(  22) = (   0.6250000   0.3750000   0.3750000  )
        23        Fe     tau(  23) = (   0.3750000   0.1250000   0.8750000  )
        24        Fe     tau(  24) = (   0.3750000   0.3750000   0.6250000  )

     number of k points=    56  Marzari-Vanderbilt smearing, width (Ry)=  0.0050
                       cart. coord. in units 2pi/alat
        k(    1) = (   0.0000000   0.0000000   0.0000000), wk =   0.0007513
        k(    2) = (   0.0000000   0.0000000   0.0909091), wk =   0.0045079
        k(    3) = (   0.0000000   0.0000000   0.1818182), wk =   0.0045079
        k(    4) = (   0.0000000   0.0000000   0.2727273), wk =   0.0045079
        k(    5) = (   0.0000000   0.0000000   0.3636364), wk =   0.0045079
        k(    6) = (   0.0000000   0.0000000   0.4545455), wk =   0.0045079
        k(    7) = (   0.0000000   0.0909091   0.0909091), wk =   0.0090158
        k(    8) = (   0.0000000   0.0909091   0.1818182), wk =   0.0180316
        k(    9) = (   0.0000000   0.0909091   0.2727273), wk =   0.0180316
        k(   10) = (   0.0000000   0.0909091   0.3636364), wk =   0.0180316
        k(   11) = (   0.0000000   0.0909091   0.4545455), wk =   0.0180316
        k(   12) = (   0.0000000   0.1818182   0.1818182), wk =   0.0090158
        k(   13) = (   0.0000000   0.1818182   0.2727273), wk =   0.0180316
        k(   14) = (   0.0000000   0.1818182   0.3636364), wk =   0.0180316
        k(   15) = (   0.0000000   0.1818182   0.4545455), wk =   0.0180316
        k(   16) = (   0.0000000   0.2727273   0.2727273), wk =   0.0090158
        k(   17) = (   0.0000000   0.2727273   0.3636364), wk =   0.0180316
        k(   18) = (   0.0000000   0.2727273   0.4545455), wk =   0.0180316
        k(   19) = (   0.0000000   0.3636364   0.3636364), wk =   0.0090158
        k(   20) = (   0.0000000   0.3636364   0.4545455), wk =   0.0180316
        k(   21) = (   0.0000000   0.4545455   0.4545455), wk =   0.0090158
        k(   22) = (   0.0909091   0.0909091   0.0909091), wk =   0.0060105
        k(   23) = (   0.0909091   0.0909091   0.1818182), wk =   0.0180316
        k(   24) = (   0.0909091   0.0909091   0.2727273), wk =   0.0180316
        k(   25) = (   0.0909091   0.0909091   0.3636364), wk =   0.0180316
        k(   26) = (   0.0909091   0.0909091   0.4545455), wk =   0.0180316
        k(   27) = (   0.0909091   0.1818182   0.1818182), wk =   0.0180316
        k(   28) = (   0.0909091   0.1818182   0.2727273), wk =   0.0360631
        k(   29) = (   0.0909091   0.1818182   0.3636364), wk =   0.0360631
        k(   30) = (   0.0909091   0.1818182   0.4545455), wk =   0.0360631
        k(   31) = (   0.0909091   0.2727273   0.2727273), wk =   0.0180316
        k(   32) = (   0.0909091   0.2727273   0.3636364), wk =   0.0360631
        k(   33) = (   0.0909091   0.2727273   0.4545455), wk =   0.0360631
        k(   34) = (   0.0909091   0.3636364   0.3636364), wk =   0.0180316
        k(   35) = (   0.0909091   0.3636364   0.4545455), wk =   0.0360631
        k(   36) = (   0.0909091   0.4545455   0.4545455), wk =   0.0180316
        k(   37) = (   0.1818182   0.1818182   0.1818182), wk =   0.0060105
        k(   38) = (   0.1818182   0.1818182   0.2727273), wk =   0.0180316
        k(   39) = (   0.1818182   0.1818182   0.3636364), wk =   0.0180316
        k(   40) = (   0.1818182   0.1818182   0.4545455), wk =   0.0180316
        k(   41) = (   0.1818182   0.2727273   0.2727273), wk =   0.0180316
        k(   42) = (   0.1818182   0.2727273   0.3636364), wk =   0.0360631
        k(   43) = (   0.1818182   0.2727273   0.4545455), wk =   0.0360631
        k(   44) = (   0.1818182   0.3636364   0.3636364), wk =   0.0180316
        k(   45) = (   0.1818182   0.3636364   0.4545455), wk =   0.0360631
        k(   46) = (   0.1818182   0.4545455   0.4545455), wk =   0.0180316
        k(   47) = (   0.2727273   0.2727273   0.2727273), wk =   0.0060105
        k(   48) = (   0.2727273   0.2727273   0.3636364), wk =   0.0180316
        k(   49) = (   0.2727273   0.2727273   0.4545455), wk =   0.0180316
        k(   50) = (   0.2727273   0.3636364   0.3636364), wk =   0.0180316
        k(   51) = (   0.2727273   0.3636364   0.4545455), wk =   0.0360631
        k(   52) = (   0.2727273   0.4545455   0.4545455), wk =   0.0180316
        k(   53) = (   0.3636364   0.3636364   0.3636364), wk =   0.0060105
        k(   54) = (   0.3636364   0.3636364   0.4545455), wk =   0.0180316
        k(   55) = (   0.3636364   0.4545455   0.4545455), wk =   0.0180316
        k(   56) = (   0.4545455   0.4545455   0.4545455), wk =   0.0060105

     Dense  grid:  2424403 G-vectors     FFT dimensions: ( 180, 180, 180)

     Smooth grid:   369813 G-vectors     FFT dimensions: (  90,  90,  90)

     Estimated max dynamical RAM per process >       1.73 GB

     Estimated total dynamical RAM >      27.67 GB

     Check: negative core charge=   -0.000002
     Generating pointlists ...
     new r_m :   0.1458 (alat units)  1.8328 (a.u.) for type    1
     new r_m :   0.1710 (alat units)  2.1492 (a.u.) for type    2

     Initial potential from superposition of free atoms

     starting charge     343.9926, renormalised to     352.0000

     negative rho (up, down):  4.956E-03 5.259E-03
     Starting wfcs are  288 randomized atomic wfcs
     Checking if some PAW data can be deallocated... 

     total cpu time spent up to now is      167.5 secs

     per-process dynamical memory:  1334.4 Mb

     Self-consistent Calculation

     iteration #  1     ecut=   124.00 Ry     beta= 0.20
     CG style diagonalization
     ethr =  1.00E-02,  avg # of iterations =  2.6

     negative rho (up, down):  2.070E-03 2.030E-03

     total cpu time spent up to now is     2182.5 secs

     total energy              =   -6212.55414255 Ry
     estimated scf accuracy    <     223.00099210 Ry

     total magnetization       =     5.27 Bohr mag/cell
     absolute magnetization    =     8.10 Bohr mag/cell

     iteration #  2     ecut=   124.00 Ry     beta= 0.20
     CG style diagonalization
     ethr =  1.00E-02,  avg # of iterations =  3.3

     negative rho (up, down):  2.533E-03 2.387E-03

     total cpu time spent up to now is     4065.1 secs

     total energy              =   -6222.18500026 Ry
     estimated scf accuracy    <       4.96630653 Ry

     total magnetization       =     5.94 Bohr mag/cell
     absolute magnetization    =     8.62 Bohr mag/cell

     iteration #  3     ecut=   124.00 Ry     beta= 0.20
     CG style diagonalization
     ethr =  1.41E-03,  avg # of iterations =  3.4

     negative rho (up, down):  3.622E-03 3.277E-03

     total cpu time spent up to now is     6063.2 secs

     total energy              =   -6222.43887158 Ry
     estimated scf accuracy    <       1.45797612 Ry

     total magnetization       =     6.45 Bohr mag/cell
     absolute magnetization    =     9.22 Bohr mag/cell

     iteration #  4     ecut=   124.00 Ry     beta= 0.20
     CG style diagonalization
     c_bands:  1 eigenvalues not converged
     c_bands:  1 eigenvalues not converged
     c_bands:  1 eigenvalues not converged
     c_bands:  1 eigenvalues not converged
     c_bands:  1 eigenvalues not converged
     c_bands:  1 eigenvalues not converged
     c_bands:  1 eigenvalues not converged
     c_bands:  1 eigenvalues not converged
     c_bands:  1 eigenvalues not converged
     c_bands:  1 eigenvalues not converged
     c_bands:  2 eigenvalues not converged
     c_bands:  4 eigenvalues not converged
     c_bands:  1 eigenvalues not converged
     c_bands:  1 eigenvalues not converged
     c_bands:  1 eigenvalues not converged
     c_bands:  1 eigenvalues not converged
     c_bands:  1 eigenvalues not converged
     c_bands:  1 eigenvalues not converged
     ethr =  4.14E-04,  avg # of iterations =  4.2

     negative rho (up, down):  4.138E-03 3.611E-03

     total cpu time spent up to now is     8708.5 secs

     total energy              =   -6222.66204875 Ry
     estimated scf accuracy    <       0.29210984 Ry

     total magnetization       =     8.78 Bohr mag/cell
     absolute magnetization    =    12.32 Bohr mag/cell

     iteration #  5     ecut=   124.00 Ry     beta= 0.20
     CG style diagonalization
     c_bands:  2 eigenvalues not converged
     c_bands:  1 eigenvalues not converged
     c_bands:  3 eigenvalues not converged
     c_bands:  1 eigenvalues not converged
     c_bands:  4 eigenvalues not converged
     c_bands:  3 eigenvalues not converged
     c_bands:  1 eigenvalues not converged
     c_bands:  1 eigenvalues not converged
     c_bands:  4 eigenvalues not converged
     c_bands:  2 eigenvalues not converged
     c_bands:  1 eigenvalues not converged
     c_bands:  2 eigenvalues not converged
     c_bands:  2 eigenvalues not converged
     c_bands:  1 eigenvalues not converged
     c_bands:  2 eigenvalues not converged
     c_bands:  1 eigenvalues not converged
     c_bands:  1 eigenvalues not converged
     c_bands:  2 eigenvalues not converged
     c_bands:  2 eigenvalues not converged
     c_bands:  3 eigenvalues not converged
     c_bands:  4 eigenvalues not converged
     c_bands:  2 eigenvalues not converged
     c_bands:  3 eigenvalues not converged
     c_bands:  4 eigenvalues not converged
     c_bands:  3 eigenvalues not converged
     c_bands:  2 eigenvalues not converged
     c_bands:  3 eigenvalues not converged
     c_bands:  2 eigenvalues not converged
     c_bands:  1 eigenvalues not converged
     c_bands:  4 eigenvalues not converged
     c_bands:  4 eigenvalues not converged
     c_bands:  1 eigenvalues not converged
     c_bands:  2 eigenvalues not converged
     c_bands:  1 eigenvalues not converged
     c_bands:  1 eigenvalues not converged
     c_bands:  3 eigenvalues not converged
     c_bands:  2 eigenvalues not converged
     c_bands:  1 eigenvalues not converged
     c_bands:  2 eigenvalues not converged
     c_bands:  1 eigenvalues not converged
     c_bands:  2 eigenvalues not converged
     c_bands:  2 eigenvalues not converged
     c_bands:  2 eigenvalues not converged
     c_bands:  1 eigenvalues not converged
     c_bands:  1 eigenvalues not converged
     c_bands:  2 eigenvalues not converged
     c_bands:  1 eigenvalues not converged
     c_bands:  1 eigenvalues not converged
     c_bands:  2 eigenvalues not converged
     c_bands:  1 eigenvalues not converged
     c_bands:  2 eigenvalues not converged
     c_bands:  1 eigenvalues not converged
     c_bands:  3 eigenvalues not converged
     c_bands:  1 eigenvalues not converged
     c_bands:  2 eigenvalues not converged
     c_bands:  1 eigenvalues not converged
     c_bands:  1 eigenvalues not converged
     c_bands:  1 eigenvalues not converged
     c_bands:  5 eigenvalues not converged
     c_bands:  1 eigenvalues not converged
     c_bands:  4 eigenvalues not converged
     c_bands:  2 eigenvalues not converged
     c_bands:  2 eigenvalues not converged
     c_bands:  3 eigenvalues not converged
     c_bands:  1 eigenvalues not converged
     c_bands:  1 eigenvalues not converged
     c_bands:  2 eigenvalues not converged
     c_bands:  1 eigenvalues not converged
     c_bands:  2 eigenvalues not converged
     c_bands:  2 eigenvalues not converged
     c_bands:  1 eigenvalues not converged
     c_bands:  1 eigenvalues not converged
     c_bands:  5 eigenvalues not converged
     c_bands:  4 eigenvalues not converged
     c_bands:  4 eigenvalues not converged
     c_bands:  1 eigenvalues not converged
     c_bands:  3 eigenvalues not converged
     c_bands:  1 eigenvalues not converged
     c_bands:  1 eigenvalues not converged
     c_bands:  1 eigenvalues not converged
     c_bands:  2 eigenvalues not converged
     c_bands:  2 eigenvalues not converged
     c_bands:  2 eigenvalues not converged
     c_bands:  3 eigenvalues not converged
     c_bands:  3 eigenvalues not converged
     c_bands:  2 eigenvalues not converged
     c_bands:  3 eigenvalues not converged
     ethr =  8.30E-05,  avg # of iterations =  4.1

     negative rho (up, down):  4.104E-03 3.279E-03

     total cpu time spent up to now is    11275.9 secs

     total energy              =   -6222.77167324 Ry
     estimated scf accuracy    <       0.07110078 Ry

     total magnetization       =     9.45 Bohr mag/cell
     absolute magnetization    =    13.80 Bohr mag/cell

     iteration #  6     ecut=   124.00 Ry     beta= 0.20
     CG style diagonalization
     c_bands:  2 eigenvalues not converged
     c_bands:  5 eigenvalues not converged
     c_bands:  1 eigenvalues not converged
     c_bands:  3 eigenvalues not converged
     c_bands:  3 eigenvalues not converged
     c_bands:  2 eigenvalues not converged
     c_bands:  4 eigenvalues not converged
     c_bands:  4 eigenvalues not converged
     c_bands:  3 eigenvalues not converged
     c_bands:  3 eigenvalues not converged
     c_bands:  2 eigenvalues not converged
     c_bands:  2 eigenvalues not converged
     c_bands:  1 eigenvalues not converged
     c_bands:  2 eigenvalues not converged
     c_bands:  2 eigenvalues not converged
     c_bands:  2 eigenvalues not converged
     c_bands:  2 eigenvalues not converged
     c_bands:  1 eigenvalues not converged
     c_bands:  3 eigenvalues not converged
     c_bands:  1 eigenvalues not converged
     c_bands:  1 eigenvalues not converged
     c_bands:  5 eigenvalues not converged
     c_bands:  4 eigenvalues not converged
     c_bands:  4 eigenvalues not converged
     c_bands:  1 eigenvalues not converged
     c_bands:  2 eigenvalues not converged
     c_bands:  5 eigenvalues not converged
     c_bands:  5 eigenvalues not converged
     c_bands:  3 eigenvalues not converged
     c_bands:  2 eigenvalues not converged
     c_bands:  3 eigenvalues not converged
     c_bands:  2 eigenvalues not converged
     c_bands:  3 eigenvalues not converged
     c_bands:  2 eigenvalues not converged
     c_bands:  4 eigenvalues not converged
     c_bands:  5 eigenvalues not converged
     c_bands:  2 eigenvalues not converged
     c_bands:  1 eigenvalues not converged
     c_bands:  2 eigenvalues not converged
     c_bands:  2 eigenvalues not converged
     c_bands:  4 eigenvalues not converged
     c_bands:  4 eigenvalues not converged
     c_bands:  4 eigenvalues not converged
     c_bands:  5 eigenvalues not converged
     c_bands:  3 eigenvalues not converged
     c_bands:  1 eigenvalues not converged
     c_bands:  2 eigenvalues not converged
     c_bands:  3 eigenvalues not converged
     c_bands:  1 eigenvalues not converged
     c_bands:  2 eigenvalues not converged
     c_bands:  2 eigenvalues not converged
     c_bands:  1 eigenvalues not converged
     c_bands:  2 eigenvalues not converged
     c_bands:  3 eigenvalues not converged
     c_bands:  4 eigenvalues not converged
     c_bands:  4 eigenvalues not converged
     c_bands:  3 eigenvalues not converged
     c_bands:  2 eigenvalues not converged
     c_bands:  3 eigenvalues not converged
     c_bands:  3 eigenvalues not converged
     c_bands:  3 eigenvalues not converged
     c_bands:  2 eigenvalues not converged
     c_bands:  2 eigenvalues not converged
     c_bands:  3 eigenvalues not converged
     c_bands:  4 eigenvalues not converged
     c_bands:  3 eigenvalues not converged
     c_bands:  2 eigenvalues not converged
     c_bands:  2 eigenvalues not converged
     c_bands:  2 eigenvalues not converged
     c_bands:  3 eigenvalues not converged
     c_bands:  3 eigenvalues not converged
     c_bands:  3 eigenvalues not converged
     c_bands:  3 eigenvalues not converged
     c_bands:  2 eigenvalues not converged
     c_bands:  4 eigenvalues not converged
     c_bands:  1 eigenvalues not converged
     c_bands:  3 eigenvalues not converged
     c_bands:  2 eigenvalues not converged
     c_bands:  3 eigenvalues not converged
     c_bands:  1 eigenvalues not converged
     c_bands:  2 eigenvalues not converged
     c_bands:  3 eigenvalues not converged
     c_bands:  3 eigenvalues not converged
     c_bands:  1 eigenvalues not converged
     c_bands:  4 eigenvalues not converged
     c_bands:  1 eigenvalues not converged
     c_bands:  2 eigenvalues not converged
     c_bands:  2 eigenvalues not converged
     c_bands:  4 eigenvalues not converged
     c_bands:  5 eigenvalues not converged
     c_bands:  4 eigenvalues not converged
     c_bands:  3 eigenvalues not converged
     c_bands:  5 eigenvalues not converged
     ethr =  2.02E-05,  avg # of iterations =  4.6

     negative rho (up, down):  4.106E-03 2.849E-03

     total cpu time spent up to now is    14200.2 secs

     total energy              =   -6222.81041878 Ry
     estimated scf accuracy    <       0.05388341 Ry

     total magnetization       =     9.90 Bohr mag/cell
     absolute magnetization    =    14.89 Bohr mag/cell

     iteration #  7     ecut=   124.00 Ry     beta= 0.20
     CG style diagonalization
     c_bands:  1 eigenvalues not converged
     c_bands:  1 eigenvalues not converged
     c_bands:  1 eigenvalues not converged
     c_bands:  4 eigenvalues not converged
     c_bands:  3 eigenvalues not converged
     c_bands:  2 eigenvalues not converged
     c_bands:  1 eigenvalues not converged
     c_bands:  1 eigenvalues not converged
     c_bands:  1 eigenvalues not converged
     c_bands:  1 eigenvalues not converged
     c_bands:  1 eigenvalues not converged
     c_bands:  1 eigenvalues not converged
     c_bands:  1 eigenvalues not converged
     c_bands:  1 eigenvalues not converged
     c_bands:  2 eigenvalues not converged
     c_bands:  1 eigenvalues not converged
     c_bands:  1 eigenvalues not converged
     c_bands:  2 eigenvalues not converged
     c_bands:  1 eigenvalues not converged
     c_bands:  1 eigenvalues not converged
     c_bands:  1 eigenvalues not converged
     c_bands:  2 eigenvalues not converged
     c_bands:  1 eigenvalues not converged
     c_bands:  1 eigenvalues not converged
     c_bands:  2 eigenvalues not converged
     c_bands:  1 eigenvalues not converged
     c_bands:  2 eigenvalues not converged
     c_bands:  1 eigenvalues not converged
     c_bands:  1 eigenvalues not converged
     c_bands:  2 eigenvalues not converged
     c_bands:  2 eigenvalues not converged
     c_bands:  1 eigenvalues not converged
     c_bands:  1 eigenvalues not converged
     c_bands:  1 eigenvalues not converged
     c_bands:  1 eigenvalues not converged
     c_bands:  1 eigenvalues not converged
     c_bands:  1 eigenvalues not converged
     c_bands:  1 eigenvalues not converged
     c_bands:  1 eigenvalues not converged
     c_bands:  2 eigenvalues not converged
     c_bands:  1 eigenvalues not converged
     c_bands:  1 eigenvalues not converged
     c_bands:  1 eigenvalues not converged
     c_bands:  1 eigenvalues not converged
     c_bands:  1 eigenvalues not converged
     c_bands:  1 eigenvalues not converged
     c_bands:  1 eigenvalues not converged
     c_bands:  3 eigenvalues not converged
     c_bands:  1 eigenvalues not converged
     c_bands:  1 eigenvalues not converged
     c_bands:  1 eigenvalues not converged
     c_bands:  1 eigenvalues not converged
     c_bands:  1 eigenvalues not converged
     ethr =  1.53E-05,  avg # of iterations =  3.9

     negative rho (up, down):  4.162E-03 2.726E-03

     total cpu time spent up to now is    16604.2 secs

     total energy              =   -6222.83021727 Ry
     estimated scf accuracy    <       0.03362118 Ry

     total magnetization       =    10.82 Bohr mag/cell
     absolute magnetization    =    16.93 Bohr mag/cell

     iteration #  8     ecut=   124.00 Ry     beta= 0.20
     CG style diagonalization
     c_bands:  1 eigenvalues not converged
     c_bands:  1 eigenvalues not converged
     c_bands:  3 eigenvalues not converged
     c_bands:  3 eigenvalues not converged
     c_bands:  1 eigenvalues not converged
     c_bands:  1 eigenvalues not converged
     c_bands:  1 eigenvalues not converged
     c_bands:  1 eigenvalues not converged
     c_bands:  1 eigenvalues not converged
     c_bands:  1 eigenvalues not converged
     c_bands:  2 eigenvalues not converged
     c_bands:  1 eigenvalues not converged
     c_bands:  1 eigenvalues not converged
     c_bands:  1 eigenvalues not converged
     c_bands:  1 eigenvalues not converged
     c_bands:  1 eigenvalues not converged
     c_bands:  1 eigenvalues not converged
     c_bands:  1 eigenvalues not converged
     c_bands:  2 eigenvalues not converged
     c_bands:  1 eigenvalues not converged
     c_bands:  1 eigenvalues not converged
     c_bands:  1 eigenvalues not converged
     c_bands:  1 eigenvalues not converged
     c_bands:  1 eigenvalues not converged
     c_bands:  1 eigenvalues not converged
     c_bands:  1 eigenvalues not converged
     c_bands:  1 eigenvalues not converged
     c_bands:  1 eigenvalues not converged
     c_bands:  1 eigenvalues not converged
     c_bands:  1 eigenvalues not converged
     c_bands:  1 eigenvalues not converged
     c_bands:  1 eigenvalues not converged
     c_bands:  2 eigenvalues not converged
     c_bands:  1 eigenvalues not converged
     c_bands:  1 eigenvalues not converged
     c_bands:  1 eigenvalues not converged
     c_bands:  1 eigenvalues not converged
     c_bands:  1 eigenvalues not converged
     c_bands:  1 eigenvalues not converged
     c_bands:  1 eigenvalues not converged
     c_bands:  2 eigenvalues not converged
     c_bands:  1 eigenvalues not converged
     c_bands:  1 eigenvalues not converged
     c_bands:  1 eigenvalues not converged
     c_bands:  1 eigenvalues not converged
     ethr =  9.55E-06,  avg # of iterations =  3.3

     negative rho (up, down):  4.352E-03 2.601E-03

     total cpu time spent up to now is    18525.0 secs

     total energy              =   -6222.83379099 Ry
     estimated scf accuracy    <       0.02307773 Ry

     total magnetization       =    11.21 Bohr mag/cell
     absolute magnetization    =    17.71 Bohr mag/cell

     iteration #  9     ecut=   124.00 Ry     beta= 0.20
     CG style diagonalization
     c_bands:  1 eigenvalues not converged
     c_bands:  1 eigenvalues not converged
     c_bands:  1 eigenvalues not converged
     c_bands:  1 eigenvalues not converged
     c_bands:  1 eigenvalues not converged
     c_bands:  2 eigenvalues not converged
     c_bands:  1 eigenvalues not converged
     c_bands:  2 eigenvalues not converged
     c_bands:  1 eigenvalues not converged
     c_bands:  1 eigenvalues not converged
     c_bands:  1 eigenvalues not converged
     c_bands:  1 eigenvalues not converged
     c_bands:  1 eigenvalues not converged
     c_bands:  1 eigenvalues not converged
     c_bands:  1 eigenvalues not converged
     c_bands:  1 eigenvalues not converged
     c_bands:  1 eigenvalues not converged
     c_bands:  1 eigenvalues not converged
     c_bands:  1 eigenvalues not converged
     c_bands:  1 eigenvalues not converged
     c_bands:  1 eigenvalues not converged
     c_bands:  1 eigenvalues not converged
     c_bands:  1 eigenvalues not converged
     c_bands:  1 eigenvalues not converged
     c_bands:  1 eigenvalues not converged
     c_bands:  1 eigenvalues not converged
     c_bands:  1 eigenvalues not converged
     c_bands:  2 eigenvalues not converged
     c_bands:  1 eigenvalues not converged
     c_bands:  1 eigenvalues not converged
     c_bands:  1 eigenvalues not converged
     c_bands:  1 eigenvalues not converged
     ethr =  6.56E-06,  avg # of iterations =  3.6

     negative rho (up, down):  4.483E-03 2.526E-03

     total cpu time spent up to now is    20697.7 secs

     total energy              =   -6222.84243850 Ry
     estimated scf accuracy    <       0.01505707 Ry

     total magnetization       =    11.90 Bohr mag/cell
     absolute magnetization    =    19.45 Bohr mag/cell

     iteration # 10     ecut=   124.00 Ry     beta= 0.20
     CG style diagonalization
     c_bands:  1 eigenvalues not converged
     c_bands:  1 eigenvalues not converged
     c_bands:  1 eigenvalues not converged
     c_bands:  3 eigenvalues not converged
     c_bands:  3 eigenvalues not converged
     c_bands:  1 eigenvalues not converged
     c_bands:  1 eigenvalues not converged
     c_bands:  1 eigenvalues not converged
     c_bands:  1 eigenvalues not converged
     c_bands:  1 eigenvalues not converged
     c_bands:  3 eigenvalues not converged
     c_bands:  1 eigenvalues not converged
     c_bands:  1 eigenvalues not converged
     c_bands:  1 eigenvalues not converged
     c_bands:  1 eigenvalues not converged
     c_bands:  2 eigenvalues not converged
     c_bands:  1 eigenvalues not converged
     c_bands:  2 eigenvalues not converged
     c_bands:  1 eigenvalues not converged
     c_bands:  1 eigenvalues not converged
     c_bands:  1 eigenvalues not converged
     c_bands:  1 eigenvalues not converged
     c_bands:  1 eigenvalues not converged
     c_bands:  3 eigenvalues not converged
     c_bands:  1 eigenvalues not converged
     c_bands:  1 eigenvalues not converged
     c_bands:  2 eigenvalues not converged
     c_bands:  1 eigenvalues not converged
     c_bands:  2 eigenvalues not converged
     c_bands:  1 eigenvalues not converged
     c_bands:  1 eigenvalues not converged
     c_bands:  1 eigenvalues not converged
     c_bands:  1 eigenvalues not converged
     c_bands:  1 eigenvalues not converged
     c_bands:  2 eigenvalues not converged
     c_bands:  1 eigenvalues not converged
     c_bands:  1 eigenvalues not converged
     c_bands:  2 eigenvalues not converged
     c_bands:  1 eigenvalues not converged
     ethr =  4.28E-06,  avg # of iterations =  3.6

     negative rho (up, down):  4.412E-03 2.619E-03

     total cpu time spent up to now is    22806.6 secs

     total energy              =   -6222.84236141 Ry
     estimated scf accuracy    <       0.01538560 Ry

     total magnetization       =    12.56 Bohr mag/cell
     absolute magnetization    =    20.79 Bohr mag/cell

     iteration # 11     ecut=   124.00 Ry     beta= 0.20
     CG style diagonalization
     c_bands:  1 eigenvalues not converged
     c_bands:  1 eigenvalues not converged
     c_bands:  1 eigenvalues not converged
     c_bands:  1 eigenvalues not converged
     c_bands:  1 eigenvalues not converged
     c_bands:  2 eigenvalues not converged
     c_bands:  1 eigenvalues not converged
     c_bands:  1 eigenvalues not converged
     c_bands:  1 eigenvalues not converged
     c_bands:  1 eigenvalues not converged
     c_bands:  1 eigenvalues not converged
     c_bands:  1 eigenvalues not converged
     c_bands:  1 eigenvalues not converged
     c_bands:  1 eigenvalues not converged
     c_bands:  1 eigenvalues not converged
     c_bands:  1 eigenvalues not converged
     c_bands:  1 eigenvalues not converged
     ethr =  4.28E-06,  avg # of iterations =  3.1

     negative rho (up, down):  4.455E-03 2.607E-03

     total cpu time spent up to now is    24584.5 secs

     total energy              =   -6222.84539198 Ry
     estimated scf accuracy    <       0.02327446 Ry

     total magnetization       =    12.05 Bohr mag/cell
     absolute magnetization    =    19.90 Bohr mag/cell

     iteration # 12     ecut=   124.00 Ry     beta= 0.20
     CG style diagonalization
     c_bands:  1 eigenvalues not converged
     c_bands:  1 eigenvalues not converged
     c_bands:  1 eigenvalues not converged
     c_bands:  1 eigenvalues not converged
     c_bands:  1 eigenvalues not converged
     ethr =  4.28E-06,  avg # of iterations =  3.0

     negative rho (up, down):  5.547E-03 2.345E-03

     total cpu time spent up to now is    26270.8 secs

     total energy              =   -6222.78152080 Ry
     estimated scf accuracy    <       0.02205187 Ry

     total magnetization       =    12.28 Bohr mag/cell
     absolute magnetization    =    20.30 Bohr mag/cell

     iteration # 13     ecut=   124.00 Ry     beta= 0.20
     CG style diagonalization
     c_bands:  4 eigenvalues not converged
     c_bands:  3 eigenvalues not converged
     c_bands:  1 eigenvalues not converged
     c_bands:  1 eigenvalues not converged
     c_bands:  1 eigenvalues not converged
     c_bands:  1 eigenvalues not converged
     c_bands:  1 eigenvalues not converged
     c_bands:  1 eigenvalues not converged
     c_bands:  1 eigenvalues not converged
     c_bands:  1 eigenvalues not converged
     c_bands:  2 eigenvalues not converged
     c_bands:  1 eigenvalues not converged
     c_bands:  1 eigenvalues not converged
     c_bands:  2 eigenvalues not converged
     c_bands:  1 eigenvalues not converged
     c_bands:  1 eigenvalues not converged
     c_bands:  2 eigenvalues not converged
     c_bands:  1 eigenvalues not converged
     c_bands:  2 eigenvalues not converged
     c_bands:  1 eigenvalues not converged
     c_bands:  1 eigenvalues not converged
     c_bands:  1 eigenvalues not converged
     c_bands:  1 eigenvalues not converged
     c_bands:  1 eigenvalues not converged
     c_bands:  1 eigenvalues not converged
     c_bands:  1 eigenvalues not converged
     c_bands:  1 eigenvalues not converged
     c_bands:  1 eigenvalues not converged
     c_bands:  2 eigenvalues not converged
     c_bands:  1 eigenvalues not converged
     c_bands:  1 eigenvalues not converged
     c_bands:  1 eigenvalues not converged
     c_bands:  1 eigenvalues not converged
     c_bands:  1 eigenvalues not converged
     c_bands:  1 eigenvalues not converged
     c_bands:  1 eigenvalues not converged
     c_bands:  1 eigenvalues not converged
     c_bands:  1 eigenvalues not converged
     c_bands:  1 eigenvalues not converged
     c_bands:  1 eigenvalues not converged
     c_bands:  1 eigenvalues not converged
     c_bands:  1 eigenvalues not converged
     c_bands:  2 eigenvalues not converged
     c_bands:  1 eigenvalues not converged
     ethr =  4.28E-06,  avg # of iterations =  4.7

     negative rho (up, down):  5.601E-03 2.285E-03

     total cpu time spent up to now is    29499.1 secs

     total energy              =   -6222.86581298 Ry
     estimated scf accuracy    <       0.00380688 Ry

     total magnetization       =    17.51 Bohr mag/cell
     absolute magnetization    =    29.17 Bohr mag/cell

     iteration # 14     ecut=   124.00 Ry     beta= 0.20
     CG style diagonalization
     c_bands:  1 eigenvalues not converged
     c_bands:  5 eigenvalues not converged
     c_bands:  3 eigenvalues not converged
     c_bands:  3 eigenvalues not converged
     c_bands:  1 eigenvalues not converged
     c_bands:  1 eigenvalues not converged
     c_bands:  1 eigenvalues not converged
     c_bands:  1 eigenvalues not converged
     c_bands:  2 eigenvalues not converged
     c_bands:  1 eigenvalues not converged
     c_bands:  1 eigenvalues not converged
     c_bands:  1 eigenvalues not converged
     c_bands:  2 eigenvalues not converged
     c_bands:  3 eigenvalues not converged
     c_bands:  1 eigenvalues not converged
     c_bands:  1 eigenvalues not converged
     c_bands:  1 eigenvalues not converged
     c_bands:  1 eigenvalues not converged
     c_bands:  2 eigenvalues not converged
     c_bands:  1 eigenvalues not converged
     c_bands:  1 eigenvalues not converged
     c_bands:  3 eigenvalues not converged
     c_bands:  3 eigenvalues not converged
     c_bands:  1 eigenvalues not converged
     c_bands:  1 eigenvalues not converged
     c_bands:  1 eigenvalues not converged
     c_bands:  1 eigenvalues not converged
     c_bands:  1 eigenvalues not converged
     c_bands:  1 eigenvalues not converged
     c_bands:  1 eigenvalues not converged
     c_bands:  1 eigenvalues not converged
     c_bands:  1 eigenvalues not converged
     c_bands:  1 eigenvalues not converged
     c_bands:  1 eigenvalues not converged
     c_bands:  1 eigenvalues not converged
     c_bands:  2 eigenvalues not converged
     c_bands:  1 eigenvalues not converged
     c_bands:  1 eigenvalues not converged
     c_bands:  1 eigenvalues not converged
     c_bands:  1 eigenvalues not converged
     c_bands:  2 eigenvalues not converged
     c_bands:  2 eigenvalues not converged
     c_bands:  1 eigenvalues not converged
     c_bands:  1 eigenvalues not converged
     c_bands:  1 eigenvalues not converged
     ethr =  1.08E-06,  avg # of iterations =  4.1

     negative rho (up, down):  5.457E-03 2.440E-03

     total cpu time spent up to now is    32214.9 secs

     total energy              =   -6222.85991465 Ry
     estimated scf accuracy    <       0.00230953 Ry

     total magnetization       =    18.16 Bohr mag/cell
     absolute magnetization    =    30.00 Bohr mag/cell

     iteration # 15     ecut=   124.00 Ry     beta= 0.20
     CG style diagonalization
     c_bands:  1 eigenvalues not converged
     c_bands:  4 eigenvalues not converged
     c_bands:  2 eigenvalues not converged
     c_bands:  1 eigenvalues not converged
     c_bands:  2 eigenvalues not converged
     c_bands:  1 eigenvalues not converged
     c_bands:  1 eigenvalues not converged
     c_bands:  2 eigenvalues not converged
     c_bands:  1 eigenvalues not converged
     c_bands:  1 eigenvalues not converged
     c_bands:  1 eigenvalues not converged
     c_bands:  1 eigenvalues not converged
     c_bands:  1 eigenvalues not converged
     c_bands:  1 eigenvalues not converged
     c_bands:  1 eigenvalues not converged
     c_bands:  1 eigenvalues not converged
     c_bands:  1 eigenvalues not converged
     ethr =  6.56E-07,  avg # of iterations =  4.1

     negative rho (up, down):  5.345E-03 2.241E-03

     total cpu time spent up to now is    34902.9 secs

     total energy              =   -6222.86258720 Ry
     estimated scf accuracy    <       0.01044624 Ry

     total magnetization       =    16.51 Bohr mag/cell
     absolute magnetization    =    28.02 Bohr mag/cell

     iteration # 16     ecut=   124.00 Ry     beta= 0.20
     CG style diagonalization
     c_bands:  2 eigenvalues not converged
     c_bands:  1 eigenvalues not converged
     c_bands:  1 eigenvalues not converged
     c_bands:  1 eigenvalues not converged
     c_bands:  1 eigenvalues not converged
     c_bands:  1 eigenvalues not converged
     c_bands:  1 eigenvalues not converged
     c_bands:  1 eigenvalues not converged
     c_bands:  1 eigenvalues not converged
     c_bands:  1 eigenvalues not converged
     c_bands:  1 eigenvalues not converged
     ethr =  6.56E-07,  avg # of iterations =  3.7

     negative rho (up, down):  5.469E-03 2.011E-03

     total cpu time spent up to now is    37326.8 secs

     total energy              =   -6222.85938908 Ry
     estimated scf accuracy    <       0.00534330 Ry

     total magnetization       =    18.66 Bohr mag/cell
     absolute magnetization    =    29.99 Bohr mag/cell

     iteration # 17     ecut=   124.00 Ry     beta= 0.20
     CG style diagonalization
     c_bands:  2 eigenvalues not converged
     c_bands:  1 eigenvalues not converged
     c_bands:  1 eigenvalues not converged
     c_bands:  1 eigenvalues not converged
     c_bands:  1 eigenvalues not converged
     c_bands:  1 eigenvalues not converged
     c_bands:  1 eigenvalues not converged
     c_bands:  1 eigenvalues not converged
     c_bands:  1 eigenvalues not converged
     c_bands:  1 eigenvalues not converged
     c_bands:  1 eigenvalues not converged
     c_bands:  1 eigenvalues not converged
     c_bands:  2 eigenvalues not converged
     c_bands:  1 eigenvalues not converged
     ethr =  6.56E-07,  avg # of iterations =  4.4

     negative rho (up, down):  5.335E-03 2.094E-03

     total cpu time spent up to now is    40357.3 secs

     total energy              =   -6222.86950701 Ry
     estimated scf accuracy    <       0.00138022 Ry

     total magnetization       =    20.83 Bohr mag/cell
     absolute magnetization    =    32.68 Bohr mag/cell

     iteration # 18     ecut=   124.00 Ry     beta= 0.20
     CG style diagonalization
     c_bands:  1 eigenvalues not converged
     c_bands:  1 eigenvalues not converged
     c_bands:  1 eigenvalues not converged
     c_bands:  1 eigenvalues not converged
     c_bands:  1 eigenvalues not converged
     c_bands:  1 eigenvalues not converged
     ethr =  3.92E-07,  avg # of iterations =  3.7

     negative rho (up, down):  5.434E-03 2.061E-03

     total cpu time spent up to now is    42927.0 secs

     total energy              =   -6222.87040543 Ry
     estimated scf accuracy    <       0.00044083 Ry

     total magnetization       =    20.18 Bohr mag/cell
     absolute magnetization    =    31.64 Bohr mag/cell

     iteration # 19     ecut=   124.00 Ry     beta= 0.20
     CG style diagonalization
     c_bands:  1 eigenvalues not converged
     ethr =  1.25E-07,  avg # of iterations =  3.9

     negative rho (up, down):  5.352E-03 2.123E-03

     total cpu time spent up to now is    45861.6 secs

     total energy              =   -6222.87117836 Ry
     estimated scf accuracy    <       0.00009380 Ry

     total magnetization       =    20.72 Bohr mag/cell
     absolute magnetization    =    32.42 Bohr mag/cell

     iteration # 20     ecut=   124.00 Ry     beta= 0.20
     CG style diagonalization
     ethr =  2.66E-08,  avg # of iterations =  4.9

     negative rho (up, down):  5.374E-03 2.174E-03

     total cpu time spent up to now is    49191.2 secs

     total energy              =   -6222.87154854 Ry
     estimated scf accuracy    <       0.00015795 Ry

     total magnetization       =    20.49 Bohr mag/cell
     absolute magnetization    =    31.96 Bohr mag/cell

     iteration # 21     ecut=   124.00 Ry     beta= 0.20
     CG style diagonalization
     ethr =  2.66E-08,  avg # of iterations =  3.7

     negative rho (up, down):  5.354E-03 2.186E-03

     total cpu time spent up to now is    51539.4 secs

     total energy              =   -6222.87159762 Ry
     estimated scf accuracy    <       0.00012892 Ry

     total magnetization       =    20.58 Bohr mag/cell
     absolute magnetization    =    32.07 Bohr mag/cell

     iteration # 22     ecut=   124.00 Ry     beta= 0.20
     CG style diagonalization
     ethr =  2.66E-08,  avg # of iterations =  3.3

     negative rho (up, down):  5.317E-03 2.206E-03

     total cpu time spent up to now is    53589.6 secs

     total energy              =   -6222.87160194 Ry
     estimated scf accuracy    <       0.00003135 Ry

     total magnetization       =    20.74 Bohr mag/cell
     absolute magnetization    =    32.19 Bohr mag/cell

     iteration # 23     ecut=   124.00 Ry     beta= 0.20
     CG style diagonalization
     ethr =  8.91E-09,  avg # of iterations =  3.9

     negative rho (up, down):  5.309E-03 2.203E-03

     total cpu time spent up to now is    56126.3 secs

     total energy              =   -6222.87164941 Ry
     estimated scf accuracy    <       0.00002079 Ry

     total magnetization       =    20.66 Bohr mag/cell
     absolute magnetization    =    32.02 Bohr mag/cell

     iteration # 24     ecut=   124.00 Ry     beta= 0.20
     CG style diagonalization
     c_bands:  1 eigenvalues not converged
     ethr =  5.90E-09,  avg # of iterations =  3.6

     negative rho (up, down):  5.301E-03 2.202E-03

     total cpu time spent up to now is    58378.6 secs

     total energy              =   -6222.87165984 Ry
     estimated scf accuracy    <       0.00001267 Ry

     total magnetization       =    20.67 Bohr mag/cell
     absolute magnetization    =    32.03 Bohr mag/cell

     iteration # 25     ecut=   124.00 Ry     beta= 0.20
     CG style diagonalization
     ethr =  3.60E-09,  avg # of iterations =  3.8

     negative rho (up, down):  5.298E-03 2.201E-03

     total cpu time spent up to now is    60790.2 secs

     total energy              =   -6222.87166878 Ry
     estimated scf accuracy    <       0.00000380 Ry

     total magnetization       =    20.74 Bohr mag/cell
     absolute magnetization    =    32.09 Bohr mag/cell

     iteration # 26     ecut=   124.00 Ry     beta= 0.20
     CG style diagonalization
     ethr =  1.08E-09,  avg # of iterations =  5.0

     negative rho (up, down):  5.297E-03 2.203E-03

     total cpu time spent up to now is    64197.2 secs

     total energy              =   -6222.87167873 Ry
     estimated scf accuracy    <       0.00000027 Ry

     total magnetization       =    20.80 Bohr mag/cell
     absolute magnetization    =    32.15 Bohr mag/cell

     iteration # 27     ecut=   124.00 Ry     beta= 0.20
     CG style diagonalization
     ethr =  7.66E-11,  avg # of iterations =  6.8

     negative rho (up, down):  5.293E-03 2.207E-03

     total cpu time spent up to now is    69039.2 secs

     total energy              =   -6222.87168007 Ry
     estimated scf accuracy    <       0.00000018 Ry

     total magnetization       =    20.79 Bohr mag/cell
     absolute magnetization    =    32.14 Bohr mag/cell

     iteration # 28     ecut=   124.00 Ry     beta= 0.20
     CG style diagonalization
     ethr =  5.13E-11,  avg # of iterations =  4.0

     negative rho (up, down):  5.290E-03 2.209E-03

     total cpu time spent up to now is    71613.1 secs

     total energy              =   -6222.87168039 Ry
     estimated scf accuracy    <       0.00000004 Ry

     total magnetization       =    20.80 Bohr mag/cell
     absolute magnetization    =    32.14 Bohr mag/cell

     iteration # 29     ecut=   124.00 Ry     beta= 0.20
     CG style diagonalization
     ethr =  1.27E-11,  avg # of iterations =  5.1

     negative rho (up, down):  5.289E-03 2.210E-03

     total cpu time spent up to now is    75158.3 secs

     total energy              =   -6222.87168054 Ry
     estimated scf accuracy    <       0.00000001 Ry

     total magnetization       =    20.80 Bohr mag/cell
     absolute magnetization    =    32.13 Bohr mag/cell

     iteration # 30     ecut=   124.00 Ry     beta= 0.20
     CG style diagonalization
     ethr =  3.02E-12,  avg # of iterations =  5.3

     negative rho (up, down):  5.289E-03 2.210E-03

     Magnetic moment per site  (integrated on atomic sphere of radius R)
     atom   1 (R=0.171)  charge= 10.3192  magn= -0.4839
     atom   2 (R=0.171)  charge= 10.3192  magn= -0.4839
     atom   3 (R=0.171)  charge= 10.3192  magn= -0.4839
     atom   4 (R=0.171)  charge= 10.3192  magn= -0.4839
     atom   5 (R=0.171)  charge= 10.3192  magn= -0.4839
     atom   6 (R=0.171)  charge= 10.3192  magn= -0.4839
     atom   7 (R=0.171)  charge= 10.3192  magn= -0.4839
     atom   8 (R=0.171)  charge= 10.3192  magn= -0.4839
     atom   9 (R=0.146)  charge= 14.2513  magn=  1.6296
     atom  10 (R=0.146)  charge= 14.2513  magn=  1.6296
     atom  11 (R=0.146)  charge= 14.2513  magn=  1.6296
     atom  12 (R=0.146)  charge= 14.2513  magn=  1.6296
     atom  13 (R=0.146)  charge= 14.2513  magn=  1.6296
     atom  14 (R=0.146)  charge= 14.2513  magn=  1.6296
     atom  15 (R=0.146)  charge= 14.2513  magn=  1.6296
     atom  16 (R=0.146)  charge= 14.2513  magn=  1.6296
     atom  17 (R=0.146)  charge= 14.2513  magn=  1.6296
     atom  18 (R=0.146)  charge= 14.2513  magn=  1.6296
     atom  19 (R=0.146)  charge= 14.2513  magn=  1.6296
     atom  20 (R=0.146)  charge= 14.2513  magn=  1.6296
     atom  21 (R=0.146)  charge= 14.2513  magn=  1.6296
     atom  22 (R=0.146)  charge= 14.2513  magn=  1.6296
     atom  23 (R=0.146)  charge= 14.2513  magn=  1.6296
     atom  24 (R=0.146)  charge= 14.2513  magn=  1.6296

     total cpu time spent up to now is    78603.2 secs

     End of self-consistent calculation

     Number of k-points >= 100: set verbosity='high' to print the bands.

     the Fermi energy is    17.9704 ev

!    total energy              =   -6222.87168061 Ry
     estimated scf accuracy    <          5.9E-09 Ry
     smearing contrib. (-TS)   =       0.00015771 Ry
     internal energy E=F+TS    =   -6222.87183833 Ry

     The total energy is F=E-TS. E is the sum of the following terms:
     one-electron contribution =   -2280.37301832 Ry
     hartree contribution      =    1350.71065738 Ry
     xc contribution           =    -701.66651472 Ry
     ewald contribution        =   -3373.00123492 Ry
     one-center paw contrib.   =   -1218.54172775 Ry

     total magnetization       =    20.80 Bohr mag/cell
     absolute magnetization    =    32.13 Bohr mag/cell

     convergence has been achieved in  30 iterations

     negative rho (up, down):  5.289E-03 2.210E-03

     Forces acting on atoms (cartesian axes, Ry/au):

     atom    1 type  2   force =     0.00000000    0.00000000    0.00000000
     atom    2 type  2   force =    -0.00000014    0.00000014   -0.00000014
     atom    3 type  2   force =     0.00000000    0.00000000    0.00000000
     atom    4 type  2   force =    -0.00000014   -0.00000014    0.00000014
     atom    5 type  2   force =     0.00000000    0.00000000    0.00000000
     atom    6 type  2   force =     0.00000014    0.00000014    0.00000014
     atom    7 type  2   force =     0.00000000    0.00000000    0.00000000
     atom    8 type  2   force =     0.00000014   -0.00000014   -0.00000014
     atom    9 type  1   force =    -0.00000363   -0.00000363    0.00000160
     atom   10 type  1   force =    -0.00000363    0.00000363   -0.00000160
     atom   11 type  1   force =     0.00000363    0.00000160    0.00000363
     atom   12 type  1   force =     0.00000363    0.00000363    0.00000160
     atom   13 type  1   force =    -0.00000363    0.00000160   -0.00000363
     atom   14 type  1   force =    -0.00000363   -0.00000160    0.00000363
     atom   15 type  1   force =     0.00000363   -0.00000363   -0.00000160
     atom   16 type  1   force =     0.00000363   -0.00000160   -0.00000363
     atom   17 type  1   force =     0.00000160   -0.00000363   -0.00000363
     atom   18 type  1   force =     0.00000160    0.00000363    0.00000363
     atom   19 type  1   force =     0.00000102   -0.00000102    0.00000102
     atom   20 type  1   force =    -0.00000160    0.00000363   -0.00000363
     atom   21 type  1   force =    -0.00000102   -0.00000102   -0.00000102
     atom   22 type  1   force =    -0.00000102    0.00000102    0.00000102
     atom   23 type  1   force =    -0.00000160   -0.00000363    0.00000363
     atom   24 type  1   force =     0.00000102    0.00000102   -0.00000102

     Total force =     0.000019     Total SCF correction =     0.000041
     SCF correction compared to forces is large: reduce conv_thr to get better values


     Computing stress (Cartesian axis) and pressure


     negative rho (up, down):  5.289E-03 2.210E-03
          total   stress  (Ry/bohr**3)                   (kbar)     P=       86.71
   0.00058943   0.00000000   0.00000000           86.71        0.00        0.00
   0.00000000   0.00058943   0.00000000            0.00       86.71        0.00
   0.00000000   0.00000000   0.00058943            0.00        0.00       86.71


     Writing all to output data dir /vscmnt/antwerpen_storage_data/_data_antwerpen/211/vsc21136/save_outputs/TiFe2_mag.save/ :
     XML data file, charge density, pseudopotentials, collected wavefunctions

     init_run     :    153.82s CPU    167.16s WALL (       1 calls)
     electrons    :  76513.86s CPU  78437.15s WALL (       1 calls)
     forces       :     33.93s CPU     34.45s WALL (       1 calls)
     stress       :    119.31s CPU    121.32s WALL (       1 calls)

     Called by init_run:
     wfcinit      :    148.13s CPU    161.16s WALL (       1 calls)
     potinit      :      1.90s CPU      1.98s WALL (       1 calls)
     hinit0       :      1.26s CPU      1.28s WALL (       1 calls)

     Called by electrons:
     c_bands      :  75724.38s CPU  77589.32s WALL (      30 calls)
     sum_band     :    692.17s CPU    743.33s WALL (      30 calls)
     v_of_rho     :     20.30s CPU     21.54s WALL (      31 calls)
     newd         :     48.77s CPU     52.81s WALL (      31 calls)
     PAW_pot      :     24.13s CPU     24.25s WALL (      31 calls)
     mix_rho      :      4.57s CPU      4.95s WALL (      30 calls)

     Called by c_bands:
     init_us_2    :     64.67s CPU     65.91s WALL (    7056 calls)
     ccgdiagg     :  72537.29s CPU  74161.21s WALL (    3365 calls)
     wfcrot       :   3232.32s CPU   3475.76s WALL (    3365 calls)

     Called by *cgdiagg:
     h_psi        :  31339.11s CPU  32658.91s WALL ( 2169194 calls)
     s_psi        :  11346.76s CPU  11573.49s WALL ( 4335023 calls)

     Called by h_psi:
     h_psi:calbec :  13240.96s CPU  13553.62s WALL ( 2169194 calls)
     vloc_psi     :   9696.73s CPU  10591.11s WALL ( 2169194 calls)
     add_vuspsi   :   8342.19s CPU   8460.33s WALL ( 2169194 calls)
     hs_1psi      :  33428.62s CPU  34603.23s WALL ( 2165829 calls)
     s_1psi       :  18259.36s CPU  18526.80s WALL ( 2165829 calls)

     General routines
     calbec       :  25316.48s CPU  25786.73s WALL ( 4340287 calls)
     fft          :     16.30s CPU     17.83s WALL (     813 calls)
     ffts         :      1.38s CPU      1.59s WALL (     755 calls)
     fftw         :   7199.95s CPU   8022.75s WALL ( 6477896 calls)
     interpolate  :      1.73s CPU      1.86s WALL (      62 calls)

     Parallel routines

     PWSCF        :  76830.72s CPU  78940.59s WALL


   This run was terminated on:  13: 7:37   3Nov2025            

=------------------------------------------------------------------------------=
   JOB DONE.
=------------------------------------------------------------------------------=
